c Factorization SAT instance #17: N = 15553 = 103 x 151
c p = 103 (7 bits), q = 151 (8 bits)
c N = 15553 (14 bits)
c Generator: generate_instances.py  d=3, k=50, seed=None
p cnf 1762 6264
-1 -2 8 0
1 -8 0
2 -8 0
-1 -3 9 0
1 -9 0
3 -9 0
-1 -4 10 0
1 -10 0
4 -10 0
-1 -5 11 0
1 -11 0
5 -11 0
-1 -6 12 0
1 -12 0
6 -12 0
-1 -7 13 0
1 -13 0
7 -13 0
-1 -14 15 0
14 -15 0
1 -15 0
-2 -14 16 0
14 -16 0
2 -16 0
-3 -14 17 0
14 -17 0
3 -17 0
-4 -14 18 0
14 -18 0
4 -18 0
-5 -14 19 0
14 -19 0
5 -19 0
-6 -14 20 0
14 -20 0
6 -20 0
-7 -14 21 0
14 -21 0
7 -21 0
-1 -22 23 0
22 -23 0
1 -23 0
-2 -22 24 0
22 -24 0
2 -24 0
-3 -22 25 0
22 -25 0
3 -25 0
-4 -22 26 0
22 -26 0
4 -26 0
-5 -22 27 0
22 -27 0
5 -27 0
-6 -22 28 0
22 -28 0
6 -28 0
-7 -22 29 0
22 -29 0
7 -29 0
-1 -30 31 0
30 -31 0
1 -31 0
-2 -30 32 0
30 -32 0
2 -32 0
-3 -30 33 0
30 -33 0
3 -33 0
-4 -30 34 0
30 -34 0
4 -34 0
-5 -30 35 0
30 -35 0
5 -35 0
-6 -30 36 0
30 -36 0
6 -36 0
-7 -30 37 0
30 -37 0
7 -37 0
-1 -38 39 0
38 -39 0
1 -39 0
-2 -38 40 0
38 -40 0
2 -40 0
-3 -38 41 0
38 -41 0
3 -41 0
-4 -38 42 0
38 -42 0
4 -42 0
-5 -38 43 0
38 -43 0
5 -43 0
-6 -38 44 0
38 -44 0
6 -44 0
-7 -38 45 0
38 -45 0
7 -45 0
-1 -46 47 0
46 -47 0
1 -47 0
-2 -46 48 0
46 -48 0
2 -48 0
-3 -46 49 0
46 -49 0
3 -49 0
-4 -46 50 0
46 -50 0
4 -50 0
-5 -46 51 0
46 -51 0
5 -51 0
-6 -46 52 0
46 -52 0
6 -52 0
-7 -46 53 0
46 -53 0
7 -53 0
-1 -2 55 0
2 -55 0
1 -55 0
-1 -14 56 0
14 -56 0
1 -56 0
-3 -8 58 0
3 -58 0
8 -58 0
-15 -22 60 0
15 -60 0
22 -60 0
-55 -56 62 0
55 -62 0
56 -62 0
-54 -57 64 0
54 -64 0
57 -64 0
-59 -61 65 0
59 -65 0
61 -65 0
-4 -9 67 0
4 -67 0
9 -67 0
-16 -23 69 0
16 -69 0
23 -69 0
-30 -58 71 0
30 -71 0
58 -71 0
-60 -62 73 0
60 -73 0
62 -73 0
-64 -65 75 0
64 -75 0
65 -75 0
-63 -66 77 0
63 -77 0
66 -77 0
-68 -70 79 0
68 -79 0
70 -79 0
-72 -74 81 0
72 -81 0
74 -81 0
-76 -78 82 0
76 -82 0
78 -82 0
-5 -10 84 0
5 -84 0
10 -84 0
-17 -24 86 0
17 -86 0
24 -86 0
-31 -38 88 0
31 -88 0
38 -88 0
-67 -69 90 0
67 -90 0
69 -90 0
-71 -73 92 0
71 -92 0
73 -92 0
-75 -77 94 0
75 -94 0
77 -94 0
-79 -81 96 0
79 -96 0
81 -96 0
-80 -82 98 0
82 -98 0
80 -98 0
-83 -85 100 0
83 -100 0
85 -100 0
-87 -89 102 0
87 -102 0
89 -102 0
-91 -93 104 0
91 -104 0
93 -104 0
-95 -97 106 0
95 -106 0
97 -106 0
-99 -101 108 0
99 -108 0
101 -108 0
-103 -105 109 0
103 -109 0
105 -109 0
-6 -11 111 0
6 -111 0
11 -111 0
-18 -25 113 0
18 -113 0
25 -113 0
-32 -39 115 0
32 -115 0
39 -115 0
-46 -84 117 0
46 -117 0
84 -117 0
-86 -88 119 0
86 -119 0
88 -119 0
-90 -92 121 0
90 -121 0
92 -121 0
-94 -96 123 0
94 -123 0
96 -123 0
-98 -100 125 0
98 -125 0
100 -125 0
-102 -104 127 0
102 -127 0
104 -127 0
-106 -108 129 0
106 -129 0
108 -129 0
-107 -109 131 0
109 -131 0
107 -131 0
-110 -112 133 0
110 -133 0
112 -133 0
-114 -116 135 0
114 -135 0
116 -135 0
-118 -120 137 0
118 -137 0
120 -137 0
-122 -124 139 0
122 -139 0
124 -139 0
-126 -128 141 0
126 -141 0
128 -141 0
-130 -132 143 0
130 -143 0
132 -143 0
-134 -136 145 0
134 -145 0
136 -145 0
-138 -140 147 0
138 -147 0
140 -147 0
-142 -144 173 0
142 -173 0
144 -173 0
-7 -12 149 0
7 -149 0
12 -149 0
-19 -26 151 0
19 -151 0
26 -151 0
-33 -40 153 0
33 -153 0
40 -153 0
-47 -111 155 0
47 -155 0
111 -155 0
-113 -115 157 0
113 -157 0
115 -157 0
-117 -119 159 0
117 -159 0
119 -159 0
-121 -123 161 0
121 -161 0
123 -161 0
-125 -127 163 0
125 -163 0
127 -163 0
-129 -131 165 0
129 -165 0
131 -165 0
-133 -135 167 0
133 -167 0
135 -167 0
-137 -139 169 0
137 -169 0
139 -169 0
-141 -143 171 0
141 -171 0
143 -171 0
-145 -147 214 0
145 -214 0
147 -214 0
-148 -150 175 0
148 -175 0
150 -175 0
-152 -154 177 0
152 -177 0
154 -177 0
-156 -158 179 0
156 -179 0
158 -179 0
-160 -162 181 0
160 -181 0
162 -181 0
-164 -166 183 0
164 -183 0
166 -183 0
-168 -170 185 0
168 -185 0
170 -185 0
-172 -173 187 0
172 -187 0
173 -187 0
-174 -176 189 0
174 -189 0
176 -189 0
-178 -180 191 0
178 -191 0
180 -191 0
-182 -184 193 0
182 -193 0
184 -193 0
-186 -188 195 0
186 -195 0
188 -195 0
-190 -192 196 0
190 -196 0
192 -196 0
-13 -20 197 0
13 -197 0
20 -197 0
-27 -34 199 0
27 -199 0
34 -199 0
-41 -48 201 0
41 -201 0
48 -201 0
-149 -151 203 0
149 -203 0
151 -203 0
-153 -155 205 0
153 -205 0
155 -205 0
-157 -159 207 0
157 -207 0
159 -207 0
-161 -163 209 0
161 -209 0
163 -209 0
-165 -167 211 0
165 -211 0
167 -211 0
-169 -171 213 0
169 -213 0
171 -213 0
-175 -177 266 0
175 -266 0
177 -266 0
-179 -181 217 0
179 -217 0
181 -217 0
-183 -185 219 0
183 -219 0
185 -219 0
-187 -189 221 0
187 -221 0
189 -221 0
-191 -193 223 0
191 -223 0
193 -223 0
-195 -196 271 0
195 -271 0
196 -271 0
-198 -200 227 0
198 -227 0
200 -227 0
-202 -204 229 0
202 -229 0
204 -229 0
-206 -208 231 0
206 -231 0
208 -231 0
-210 -212 233 0
210 -233 0
212 -233 0
-214 -215 235 0
214 -235 0
215 -235 0
-216 -218 237 0
216 -237 0
218 -237 0
-220 -222 239 0
220 -239 0
222 -239 0
-224 -225 241 0
224 -241 0
225 -241 0
-226 -228 243 0
226 -243 0
228 -243 0
-230 -232 245 0
230 -245 0
232 -245 0
-234 -236 247 0
234 -247 0
236 -247 0
-238 -240 249 0
238 -249 0
240 -249 0
-242 -244 251 0
242 -251 0
244 -251 0
-246 -248 252 0
246 -252 0
248 -252 0
-21 -28 254 0
21 -254 0
28 -254 0
-35 -42 256 0
35 -256 0
42 -256 0
-49 -197 258 0
49 -258 0
197 -258 0
-199 -201 260 0
199 -260 0
201 -260 0
-203 -205 262 0
203 -262 0
205 -262 0
-207 -209 264 0
207 -264 0
209 -264 0
-211 -213 328 0
211 -328 0
213 -328 0
-217 -219 268 0
217 -268 0
219 -268 0
-221 -223 270 0
221 -270 0
223 -270 0
-227 -229 330 0
227 -330 0
229 -330 0
-231 -233 274 0
231 -274 0
233 -274 0
-235 -237 276 0
235 -276 0
237 -276 0
-239 -241 278 0
239 -278 0
241 -278 0
-243 -245 280 0
243 -280 0
245 -280 0
-247 -249 282 0
247 -282 0
249 -282 0
-251 -252 284 0
251 -284 0
252 -284 0
-250 -253 286 0
250 -286 0
253 -286 0
-255 -257 288 0
255 -288 0
257 -288 0
-259 -261 290 0
259 -290 0
261 -290 0
-263 -265 292 0
263 -292 0
265 -292 0
-266 -267 294 0
266 -294 0
267 -294 0
-269 -271 296 0
269 -296 0
271 -296 0
-272 -273 298 0
272 -298 0
273 -298 0
-275 -277 300 0
275 -300 0
277 -300 0
-279 -281 302 0
279 -302 0
281 -302 0
-283 -285 304 0
283 -304 0
285 -304 0
-287 -289 306 0
287 -306 0
289 -306 0
-291 -293 308 0
291 -308 0
293 -308 0
-295 -297 310 0
295 -310 0
297 -310 0
-299 -301 312 0
299 -312 0
301 -312 0
-303 -305 314 0
303 -314 0
305 -314 0
-307 -309 316 0
307 -316 0
309 -316 0
-311 -313 317 0
311 -317 0
313 -317 0
-29 -36 319 0
29 -319 0
36 -319 0
-43 -50 321 0
43 -321 0
50 -321 0
-254 -256 323 0
254 -323 0
256 -323 0
-258 -260 325 0
258 -325 0
260 -325 0
-262 -264 327 0
262 -327 0
264 -327 0
-268 -270 396 0
268 -396 0
270 -396 0
-274 -276 397 0
274 -397 0
276 -397 0
-278 -280 333 0
278 -333 0
280 -333 0
-282 -284 335 0
282 -335 0
284 -335 0
-286 -288 337 0
286 -337 0
288 -337 0
-290 -292 339 0
290 -339 0
292 -339 0
-294 -296 341 0
294 -341 0
296 -341 0
-298 -300 343 0
298 -343 0
300 -343 0
-302 -304 345 0
302 -345 0
304 -345 0
-306 -308 347 0
306 -347 0
308 -347 0
-310 -312 349 0
310 -349 0
312 -349 0
-314 -316 351 0
314 -351 0
316 -351 0
-315 -317 353 0
317 -353 0
315 -353 0
-318 -320 355 0
318 -355 0
320 -355 0
-322 -324 357 0
322 -357 0
324 -357 0
-326 -328 359 0
326 -359 0
328 -359 0
-329 -330 361 0
329 -361 0
330 -361 0
-331 -332 363 0
331 -363 0
332 -363 0
-334 -336 365 0
334 -365 0
336 -365 0
-338 -340 367 0
338 -367 0
340 -367 0
-342 -344 369 0
342 -369 0
344 -369 0
-346 -348 371 0
346 -371 0
348 -371 0
-350 -352 373 0
350 -373 0
352 -373 0
-354 -356 375 0
354 -375 0
356 -375 0
-358 -360 377 0
358 -377 0
360 -377 0
-362 -364 379 0
362 -379 0
364 -379 0
-366 -368 381 0
366 -381 0
368 -381 0
-370 -372 383 0
370 -383 0
372 -383 0
-374 -376 385 0
374 -385 0
376 -385 0
-378 -380 387 0
378 -387 0
380 -387 0
-382 -384 426 0
382 -426 0
384 -426 0
-37 -44 389 0
37 -389 0
44 -389 0
-51 -319 391 0
51 -391 0
319 -391 0
-321 -323 393 0
321 -393 0
323 -393 0
-325 -327 395 0
325 -395 0
327 -395 0
-333 -335 399 0
333 -399 0
335 -399 0
-337 -339 401 0
337 -401 0
339 -401 0
-341 -343 403 0
341 -403 0
343 -403 0
-345 -347 405 0
345 -405 0
347 -405 0
-349 -351 407 0
349 -407 0
351 -407 0
-353 -355 409 0
353 -409 0
355 -409 0
-357 -359 411 0
357 -411 0
359 -411 0
-361 -363 413 0
361 -413 0
363 -413 0
-365 -367 415 0
365 -415 0
367 -415 0
-369 -371 417 0
369 -417 0
371 -417 0
-373 -375 419 0
373 -419 0
375 -419 0
-377 -379 421 0
377 -421 0
379 -421 0
-381 -383 423 0
381 -423 0
383 -423 0
-385 -387 425 0
385 -425 0
387 -425 0
-388 -390 480 0
388 -480 0
390 -480 0
-392 -394 429 0
392 -429 0
394 -429 0
-396 -397 431 0
396 -431 0
397 -431 0
-398 -400 433 0
398 -433 0
400 -433 0
-402 -404 435 0
402 -435 0
404 -435 0
-406 -408 437 0
406 -437 0
408 -437 0
-410 -412 439 0
410 -439 0
412 -439 0
-414 -416 441 0
414 -441 0
416 -441 0
-418 -420 443 0
418 -443 0
420 -443 0
-422 -424 445 0
422 -445 0
424 -445 0
-426 -427 447 0
426 -447 0
427 -447 0
-428 -430 449 0
428 -449 0
430 -449 0
-432 -434 451 0
432 -451 0
434 -451 0
-436 -438 453 0
436 -453 0
438 -453 0
-440 -442 455 0
440 -455 0
442 -455 0
-444 -446 457 0
444 -457 0
446 -457 0
-448 -450 459 0
448 -459 0
450 -459 0
-452 -454 461 0
452 -461 0
454 -461 0
-456 -458 462 0
456 -462 0
458 -462 0
-45 -52 463 0
45 -463 0
52 -463 0
-389 -391 465 0
389 -465 0
391 -465 0
-393 -395 467 0
393 -467 0
395 -467 0
-399 -401 536 0
399 -536 0
401 -536 0
-403 -405 469 0
403 -469 0
405 -469 0
-407 -409 471 0
407 -471 0
409 -471 0
-411 -413 473 0
411 -473 0
413 -473 0
-415 -417 475 0
415 -475 0
417 -475 0
-419 -421 477 0
419 -477 0
421 -477 0
-423 -425 479 0
423 -479 0
425 -479 0
-429 -431 542 0
429 -542 0
431 -542 0
-433 -435 483 0
433 -483 0
435 -483 0
-437 -439 485 0
437 -485 0
439 -485 0
-441 -443 487 0
441 -487 0
443 -487 0
-445 -447 489 0
445 -489 0
447 -489 0
-449 -451 491 0
449 -491 0
451 -491 0
-453 -455 493 0
453 -493 0
455 -493 0
-457 -459 495 0
457 -495 0
459 -495 0
-461 -462 497 0
461 -497 0
462 -497 0
-464 -466 549 0
464 -549 0
466 -549 0
-468 -470 550 0
468 -550 0
470 -550 0
-472 -474 503 0
472 -503 0
474 -503 0
-476 -478 505 0
476 -505 0
478 -505 0
-480 -481 507 0
480 -507 0
481 -507 0
-482 -484 509 0
482 -509 0
484 -509 0
-486 -488 511 0
486 -511 0
488 -511 0
-490 -492 513 0
490 -513 0
492 -513 0
-494 -496 515 0
494 -515 0
496 -515 0
-498 -499 517 0
498 -517 0
499 -517 0
-500 -501 519 0
500 -519 0
501 -519 0
-502 -504 521 0
502 -521 0
504 -521 0
-506 -508 523 0
506 -523 0
508 -523 0
-510 -512 525 0
510 -525 0
512 -525 0
-514 -516 527 0
514 -527 0
516 -527 0
-518 -520 529 0
518 -529 0
520 -529 0
-522 -524 531 0
522 -531 0
524 -531 0
-526 -528 532 0
526 -532 0
528 -532 0
-53 -463 533 0
53 -533 0
463 -533 0
-465 -467 535 0
465 -535 0
467 -535 0
-469 -471 603 0
469 -603 0
471 -603 0
-473 -475 539 0
473 -539 0
475 -539 0
-477 -479 541 0
477 -541 0
479 -541 0
-483 -485 605 0
483 -605 0
485 -605 0
-487 -489 545 0
487 -545 0
489 -545 0
-491 -493 547 0
491 -547 0
493 -547 0
-495 -497 607 0
495 -607 0
497 -607 0
-503 -505 608 0
503 -608 0
505 -608 0
-507 -509 553 0
507 -553 0
509 -553 0
-511 -513 555 0
511 -555 0
513 -555 0
-515 -517 557 0
515 -557 0
517 -557 0
-519 -521 559 0
519 -559 0
521 -559 0
-523 -525 561 0
523 -561 0
525 -561 0
-527 -529 563 0
527 -563 0
529 -563 0
-531 -532 614 0
531 -614 0
532 -614 0
-534 -536 567 0
534 -567 0
536 -567 0
-537 -538 569 0
537 -569 0
538 -569 0
-540 -542 571 0
540 -571 0
542 -571 0
-543 -544 573 0
543 -573 0
544 -573 0
-546 -548 575 0
546 -575 0
548 -575 0
-549 -550 577 0
549 -577 0
550 -577 0
-551 -552 579 0
551 -579 0
552 -579 0
-554 -556 581 0
554 -581 0
556 -581 0
-558 -560 583 0
558 -583 0
560 -583 0
-562 -564 585 0
562 -585 0
564 -585 0
-565 -566 587 0
565 -587 0
566 -587 0
-568 -570 589 0
568 -589 0
570 -589 0
-572 -574 591 0
572 -591 0
574 -591 0
-576 -578 593 0
576 -593 0
578 -593 0
-580 -582 595 0
580 -595 0
582 -595 0
-584 -586 597 0
584 -597 0
586 -597 0
-588 -590 599 0
588 -599 0
590 -599 0
-592 -594 601 0
592 -601 0
594 -601 0
-596 -598 632 0
596 -632 0
598 -632 0
-533 -535 669 0
533 -669 0
535 -669 0
-539 -541 670 0
539 -670 0
541 -670 0
-545 -547 671 0
545 -671 0
547 -671 0
-553 -555 672 0
553 -672 0
555 -672 0
-557 -559 611 0
557 -611 0
559 -611 0
-561 -563 613 0
561 -613 0
563 -613 0
-567 -569 674 0
567 -674 0
569 -674 0
-571 -573 617 0
571 -617 0
573 -617 0
-575 -577 619 0
575 -619 0
577 -619 0
-579 -581 621 0
579 -621 0
581 -621 0
-583 -585 623 0
583 -623 0
585 -623 0
-587 -589 625 0
587 -625 0
589 -625 0
-591 -593 627 0
591 -627 0
593 -627 0
-595 -597 629 0
595 -629 0
597 -629 0
-599 -601 631 0
599 -631 0
601 -631 0
-602 -603 683 0
602 -683 0
603 -683 0
-604 -605 635 0
604 -635 0
605 -635 0
-606 -607 637 0
606 -637 0
607 -637 0
-608 -609 639 0
608 -639 0
609 -639 0
-610 -612 641 0
610 -641 0
612 -641 0
-614 -615 643 0
614 -643 0
615 -643 0
-616 -618 645 0
616 -645 0
618 -645 0
-620 -622 647 0
620 -647 0
622 -647 0
-624 -626 649 0
624 -649 0
626 -649 0
-628 -630 651 0
628 -651 0
630 -651 0
-632 -633 653 0
632 -653 0
633 -653 0
-634 -636 655 0
634 -655 0
636 -655 0
-638 -640 657 0
638 -657 0
640 -657 0
-642 -644 659 0
642 -659 0
644 -659 0
-646 -648 661 0
646 -661 0
648 -661 0
-650 -652 663 0
650 -663 0
652 -663 0
-654 -656 665 0
654 -665 0
656 -665 0
-658 -660 667 0
658 -667 0
660 -667 0
-662 -664 668 0
662 -668 0
664 -668 0
-611 -613 738 0
611 -738 0
613 -738 0
-617 -619 676 0
617 -676 0
619 -676 0
-621 -623 678 0
621 -678 0
623 -678 0
-625 -627 680 0
625 -680 0
627 -680 0
-629 -631 682 0
629 -682 0
631 -682 0
-635 -637 741 0
635 -741 0
637 -741 0
-639 -641 686 0
639 -686 0
641 -686 0
-643 -645 688 0
643 -688 0
645 -688 0
-647 -649 690 0
647 -690 0
649 -690 0
-651 -653 692 0
651 -692 0
653 -692 0
-655 -657 694 0
655 -694 0
657 -694 0
-659 -661 696 0
659 -696 0
661 -696 0
-663 -665 698 0
663 -698 0
665 -698 0
-667 -668 700 0
667 -700 0
668 -700 0
-666 -669 702 0
666 -702 0
669 -702 0
-670 -671 704 0
670 -704 0
671 -704 0
-672 -673 706 0
672 -706 0
673 -706 0
-674 -675 708 0
674 -708 0
675 -708 0
-677 -679 710 0
677 -710 0
679 -710 0
-681 -683 712 0
681 -712 0
683 -712 0
-684 -685 714 0
684 -714 0
685 -714 0
-687 -689 716 0
687 -716 0
689 -716 0
-691 -693 718 0
691 -718 0
693 -718 0
-695 -697 720 0
695 -720 0
697 -720 0
-699 -701 722 0
699 -722 0
701 -722 0
-703 -705 724 0
703 -724 0
705 -724 0
-707 -709 726 0
707 -726 0
709 -726 0
-711 -713 728 0
711 -728 0
713 -728 0
-715 -717 730 0
715 -730 0
717 -730 0
-719 -721 732 0
719 -732 0
721 -732 0
-723 -725 734 0
723 -734 0
725 -734 0
-727 -729 736 0
727 -736 0
729 -736 0
-731 -733 737 0
731 -737 0
733 -737 0
-676 -678 799 0
676 -799 0
678 -799 0
-680 -682 800 0
680 -800 0
682 -800 0
-686 -688 743 0
686 -743 0
688 -743 0
-690 -692 745 0
690 -745 0
692 -745 0
-694 -696 747 0
694 -747 0
696 -747 0
-698 -700 749 0
698 -749 0
700 -749 0
-702 -704 751 0
702 -751 0
704 -751 0
-706 -708 753 0
706 -753 0
708 -753 0
-710 -712 755 0
710 -755 0
712 -755 0
-714 -716 757 0
714 -757 0
716 -757 0
-718 -720 759 0
718 -759 0
720 -759 0
-722 -724 761 0
722 -761 0
724 -761 0
-726 -728 763 0
726 -763 0
728 -763 0
-730 -732 765 0
730 -765 0
732 -765 0
-734 -736 767 0
734 -767 0
736 -767 0
-735 -737 769 0
737 -769 0
735 -769 0
-738 -739 814 0
738 -814 0
739 -814 0
-740 -741 771 0
740 -771 0
741 -771 0
-742 -744 773 0
742 -773 0
744 -773 0
-746 -748 775 0
746 -775 0
748 -775 0
-750 -752 777 0
750 -777 0
752 -777 0
-754 -756 779 0
754 -779 0
756 -779 0
-758 -760 781 0
758 -781 0
760 -781 0
-762 -764 783 0
762 -783 0
764 -783 0
-766 -768 785 0
766 -785 0
768 -785 0
-770 -772 821 0
770 -821 0
772 -821 0
-774 -776 789 0
774 -789 0
776 -789 0
-778 -780 791 0
778 -791 0
780 -791 0
-782 -784 793 0
782 -793 0
784 -793 0
-786 -787 795 0
786 -795 0
787 -795 0
-788 -790 797 0
788 -797 0
790 -797 0
-792 -794 798 0
792 -798 0
794 -798 0
-743 -745 860 0
743 -860 0
745 -860 0
-747 -749 803 0
747 -803 0
749 -803 0
-751 -753 805 0
751 -805 0
753 -805 0
-755 -757 807 0
755 -807 0
757 -807 0
-759 -761 809 0
759 -809 0
761 -809 0
-763 -765 811 0
763 -811 0
765 -811 0
-767 -769 813 0
767 -813 0
769 -813 0
-771 -773 866 0
771 -866 0
773 -866 0
-775 -777 817 0
775 -817 0
777 -817 0
-779 -781 819 0
779 -819 0
781 -819 0
-783 -785 868 0
783 -868 0
785 -868 0
-789 -791 823 0
789 -823 0
791 -823 0
-793 -795 825 0
793 -825 0
795 -825 0
-797 -798 870 0
797 -870 0
798 -870 0
-799 -800 828 0
799 -828 0
800 -828 0
-801 -802 830 0
801 -830 0
802 -830 0
-804 -806 832 0
804 -832 0
806 -832 0
-808 -810 834 0
808 -834 0
810 -834 0
-812 -814 836 0
812 -836 0
814 -836 0
-815 -816 838 0
815 -838 0
816 -838 0
-818 -820 840 0
818 -840 0
820 -840 0
-821 -822 842 0
821 -842 0
822 -842 0
-824 -826 844 0
824 -844 0
826 -844 0
-796 -827 846 0
796 -846 0
827 -846 0
-829 -831 848 0
829 -848 0
831 -848 0
-833 -835 850 0
833 -850 0
835 -850 0
-837 -839 852 0
837 -852 0
839 -852 0
-841 -843 854 0
841 -854 0
843 -854 0
-845 -847 856 0
845 -856 0
847 -856 0
-849 -851 858 0
849 -858 0
851 -858 0
-853 -855 859 0
853 -859 0
855 -859 0
-803 -805 862 0
803 -862 0
805 -862 0
-807 -809 864 0
807 -864 0
809 -864 0
-811 -813 920 0
811 -920 0
813 -920 0
-817 -819 921 0
817 -921 0
819 -921 0
-823 -825 922 0
823 -922 0
825 -922 0
-828 -830 872 0
828 -872 0
830 -872 0
-832 -834 874 0
832 -874 0
834 -874 0
-836 -838 876 0
836 -876 0
838 -876 0
-840 -842 878 0
840 -878 0
842 -878 0
-844 -846 880 0
844 -880 0
846 -880 0
-848 -850 882 0
848 -882 0
850 -882 0
-852 -854 884 0
852 -884 0
854 -884 0
-856 -858 886 0
856 -886 0
858 -886 0
-857 -859 929 0
859 -929 0
857 -929 0
-861 -863 889 0
861 -889 0
863 -889 0
-865 -866 891 0
865 -891 0
866 -891 0
-867 -868 893 0
867 -893 0
868 -893 0
-869 -870 895 0
869 -895 0
870 -895 0
-871 -873 897 0
871 -897 0
873 -897 0
-875 -877 899 0
875 -899 0
877 -899 0
-879 -881 901 0
879 -901 0
881 -901 0
-883 -885 903 0
883 -903 0
885 -903 0
-860 -887 905 0
887 -905 0
860 -905 0
-888 -890 907 0
888 -907 0
890 -907 0
-892 -894 909 0
892 -909 0
894 -909 0
-896 -898 911 0
896 -911 0
898 -911 0
-900 -902 913 0
900 -913 0
902 -913 0
-904 -906 915 0
904 -915 0
906 -915 0
-908 -910 917 0
908 -917 0
910 -917 0
-912 -914 918 0
912 -918 0
914 -918 0
-862 -864 976 0
862 -976 0
864 -976 0
-872 -874 977 0
872 -977 0
874 -977 0
-876 -878 925 0
876 -925 0
878 -925 0
-880 -882 927 0
880 -927 0
882 -927 0
-884 -886 979 0
884 -979 0
886 -979 0
-889 -891 931 0
889 -931 0
891 -931 0
-893 -895 933 0
893 -933 0
895 -933 0
-897 -899 935 0
897 -935 0
899 -935 0
-901 -903 937 0
901 -937 0
903 -937 0
-905 -907 939 0
905 -939 0
907 -939 0
-909 -911 941 0
909 -941 0
911 -941 0
-913 -915 943 0
913 -943 0
915 -943 0
-917 -918 945 0
917 -945 0
918 -945 0
-919 -920 986 0
919 -986 0
920 -986 0
-921 -922 948 0
921 -948 0
922 -948 0
-923 -924 950 0
923 -950 0
924 -950 0
-926 -928 952 0
926 -952 0
928 -952 0
-929 -930 954 0
929 -954 0
930 -954 0
-932 -934 956 0
932 -956 0
934 -956 0
-936 -938 958 0
936 -958 0
938 -958 0
-940 -942 960 0
940 -960 0
942 -960 0
-916 -944 962 0
944 -962 0
916 -962 0
-946 -947 964 0
946 -964 0
947 -964 0
-949 -951 966 0
949 -966 0
951 -966 0
-953 -955 968 0
953 -968 0
955 -968 0
-957 -959 970 0
957 -970 0
959 -970 0
-961 -963 972 0
961 -972 0
963 -972 0
-965 -967 974 0
965 -974 0
967 -974 0
-969 -971 975 0
969 -975 0
971 -975 0
-925 -927 1031 0
925 -1031 0
927 -1031 0
-931 -933 1032 0
931 -1032 0
933 -1032 0
-935 -937 982 0
935 -982 0
937 -982 0
-939 -941 984 0
939 -984 0
941 -984 0
-943 -945 1034 0
943 -1034 0
945 -1034 0
-948 -950 988 0
948 -988 0
950 -988 0
-952 -954 990 0
952 -990 0
954 -990 0
-956 -958 992 0
956 -992 0
958 -992 0
-960 -962 994 0
960 -994 0
962 -994 0
-964 -966 996 0
964 -996 0
966 -996 0
-968 -970 998 0
968 -998 0
970 -998 0
-972 -974 1000 0
972 -1000 0
974 -1000 0
-973 -975 1002 0
975 -1002 0
973 -1002 0
-977 -978 1041 0
977 -1041 0
978 -1041 0
-979 -980 1005 0
979 -1005 0
980 -1005 0
-981 -983 1007 0
981 -1007 0
983 -1007 0
-985 -986 1009 0
985 -1009 0
986 -1009 0
-987 -989 1011 0
987 -1011 0
989 -1011 0
-991 -993 1013 0
991 -1013 0
993 -1013 0
-995 -997 1015 0
995 -1015 0
997 -1015 0
-999 -1001 1017 0
999 -1017 0
1001 -1017 0
-976 -1003 1019 0
976 -1019 0
1003 -1019 0
-1004 -1006 1021 0
1004 -1021 0
1006 -1021 0
-1008 -1010 1023 0
1008 -1023 0
1010 -1023 0
-1012 -1014 1025 0
1012 -1025 0
1014 -1025 0
-1016 -1018 1027 0
1016 -1027 0
1018 -1027 0
-1020 -1022 1029 0
1020 -1029 0
1022 -1029 0
-1024 -1026 1030 0
1024 -1030 0
1026 -1030 0
-982 -984 1084 0
982 -1084 0
984 -1084 0
-988 -990 1085 0
988 -1085 0
990 -1085 0
-992 -994 1037 0
992 -1037 0
994 -1037 0
-996 -998 1039 0
996 -1039 0
998 -1039 0
-1000 -1002 1087 0
1000 -1087 0
1002 -1087 0
-1005 -1007 1043 0
1005 -1043 0
1007 -1043 0
-1009 -1011 1045 0
1009 -1045 0
1011 -1045 0
-1013 -1015 1047 0
1013 -1047 0
1015 -1047 0
-1017 -1019 1049 0
1017 -1049 0
1019 -1049 0
-1021 -1023 1051 0
1021 -1051 0
1023 -1051 0
-1025 -1027 1053 0
1025 -1053 0
1027 -1053 0
-1029 -1030 1093 0
1029 -1093 0
1030 -1093 0
-1031 -1032 1056 0
1031 -1056 0
1032 -1056 0
-1033 -1034 1058 0
1033 -1058 0
1034 -1058 0
-1035 -1036 1060 0
1035 -1060 0
1036 -1060 0
-1038 -1040 1062 0
1038 -1062 0
1040 -1062 0
-1041 -1042 1064 0
1041 -1064 0
1042 -1064 0
-1044 -1046 1066 0
1044 -1066 0
1046 -1066 0
-1048 -1050 1068 0
1048 -1068 0
1050 -1068 0
-1052 -1054 1070 0
1052 -1070 0
1054 -1070 0
-1028 -1055 1072 0
1028 -1072 0
1055 -1072 0
-1057 -1059 1074 0
1057 -1074 0
1059 -1074 0
-1061 -1063 1076 0
1061 -1076 0
1063 -1076 0
-1065 -1067 1078 0
1065 -1078 0
1067 -1078 0
-1069 -1071 1080 0
1069 -1080 0
1071 -1080 0
-1073 -1075 1082 0
1073 -1082 0
1075 -1082 0
-1077 -1079 1083 0
1077 -1083 0
1079 -1083 0
-1037 -1039 1135 0
1037 -1135 0
1039 -1135 0
-1043 -1045 1136 0
1043 -1136 0
1045 -1136 0
-1047 -1049 1090 0
1047 -1090 0
1049 -1090 0
-1051 -1053 1092 0
1051 -1092 0
1053 -1092 0
-1056 -1058 1138 0
1056 -1138 0
1058 -1138 0
-1060 -1062 1096 0
1060 -1096 0
1062 -1096 0
-1064 -1066 1098 0
1064 -1098 0
1066 -1098 0
-1068 -1070 1100 0
1068 -1100 0
1070 -1100 0
-1072 -1074 1102 0
1072 -1102 0
1074 -1102 0
-1076 -1078 1104 0
1076 -1104 0
1078 -1104 0
-1080 -1082 1106 0
1080 -1106 0
1082 -1106 0
-1081 -1083 1144 0
1083 -1144 0
1081 -1144 0
-1085 -1086 1109 0
1085 -1109 0
1086 -1109 0
-1087 -1088 1111 0
1087 -1111 0
1088 -1111 0
-1089 -1091 1113 0
1089 -1113 0
1091 -1113 0
-1093 -1094 1115 0
1093 -1115 0
1094 -1115 0
-1095 -1097 1117 0
1095 -1117 0
1097 -1117 0
-1099 -1101 1119 0
1099 -1119 0
1101 -1119 0
-1103 -1105 1121 0
1103 -1121 0
1105 -1121 0
-1084 -1107 1123 0
1107 -1123 0
1084 -1123 0
-1108 -1110 1125 0
1108 -1125 0
1110 -1125 0
-1112 -1114 1127 0
1112 -1127 0
1114 -1127 0
-1116 -1118 1129 0
1116 -1129 0
1118 -1129 0
-1120 -1122 1131 0
1120 -1131 0
1122 -1131 0
-1124 -1126 1133 0
1124 -1133 0
1126 -1133 0
-1128 -1130 1134 0
1128 -1134 0
1130 -1134 0
-1090 -1092 1206 0
1090 -1206 0
1092 -1206 0
-1096 -1098 1184 0
1096 -1184 0
1098 -1184 0
-1100 -1102 1141 0
1100 -1141 0
1102 -1141 0
-1104 -1106 1143 0
1104 -1143 0
1106 -1143 0
-1109 -1111 1186 0
1109 -1186 0
1111 -1186 0
-1113 -1115 1147 0
1113 -1147 0
1115 -1147 0
-1117 -1119 1149 0
1117 -1149 0
1119 -1149 0
-1121 -1123 1151 0
1121 -1151 0
1123 -1151 0
-1125 -1127 1153 0
1125 -1153 0
1127 -1153 0
-1129 -1131 1155 0
1129 -1155 0
1131 -1155 0
-1133 -1134 1157 0
1133 -1157 0
1134 -1157 0
-1135 -1136 1192 0
1135 -1192 0
1136 -1192 0
-1137 -1138 1160 0
1137 -1160 0
1138 -1160 0
-1139 -1140 1162 0
1139 -1162 0
1140 -1162 0
-1142 -1144 1164 0
1142 -1164 0
1144 -1164 0
-1145 -1146 1166 0
1145 -1166 0
1146 -1166 0
-1148 -1150 1168 0
1148 -1168 0
1150 -1168 0
-1152 -1154 1170 0
1152 -1170 0
1154 -1170 0
-1132 -1156 1172 0
1156 -1172 0
1132 -1172 0
-1158 -1159 1174 0
1158 -1174 0
1159 -1174 0
-1161 -1163 1176 0
1161 -1176 0
1163 -1176 0
-1165 -1167 1178 0
1165 -1178 0
1167 -1178 0
-1169 -1171 1180 0
1169 -1180 0
1171 -1180 0
-1173 -1175 1182 0
1173 -1182 0
1175 -1182 0
-1177 -1179 1183 0
1177 -1183 0
1179 -1183 0
-1141 -1143 1231 0
1141 -1231 0
1143 -1231 0
-1147 -1149 1232 0
1147 -1232 0
1149 -1232 0
-1151 -1153 1189 0
1151 -1189 0
1153 -1189 0
-1155 -1157 1191 0
1155 -1191 0
1157 -1191 0
-1160 -1162 1234 0
1160 -1234 0
1162 -1234 0
-1164 -1166 1195 0
1164 -1195 0
1166 -1195 0
-1168 -1170 1197 0
1168 -1197 0
1170 -1197 0
-1172 -1174 1199 0
1172 -1199 0
1174 -1199 0
-1176 -1178 1201 0
1176 -1201 0
1178 -1201 0
-1180 -1182 1203 0
1180 -1203 0
1182 -1203 0
-1181 -1183 1205 0
1183 -1205 0
1181 -1205 0
-1184 -1185 1240 0
1184 -1240 0
1185 -1240 0
-1186 -1187 1209 0
1186 -1209 0
1187 -1209 0
-1188 -1190 1211 0
1188 -1211 0
1190 -1211 0
-1192 -1193 1213 0
1192 -1213 0
1193 -1213 0
-1194 -1196 1215 0
1194 -1215 0
1196 -1215 0
-1198 -1200 1217 0
1198 -1217 0
1200 -1217 0
-1202 -1204 1219 0
1202 -1219 0
1204 -1219 0
-1206 -1207 1221 0
1206 -1221 0
1207 -1221 0
-1208 -1210 1223 0
1208 -1223 0
1210 -1223 0
-1212 -1214 1225 0
1212 -1225 0
1214 -1225 0
-1216 -1218 1227 0
1216 -1227 0
1218 -1227 0
-1220 -1222 1229 0
1220 -1229 0
1222 -1229 0
-1224 -1226 1230 0
1224 -1230 0
1226 -1230 0
-1189 -1191 1276 0
1189 -1276 0
1191 -1276 0
-1195 -1197 1277 0
1195 -1277 0
1197 -1277 0
-1199 -1201 1237 0
1199 -1237 0
1201 -1237 0
-1203 -1205 1239 0
1203 -1239 0
1205 -1239 0
-1209 -1211 1279 0
1209 -1279 0
1211 -1279 0
-1213 -1215 1243 0
1213 -1243 0
1215 -1243 0
-1217 -1219 1245 0
1217 -1245 0
1219 -1245 0
-1221 -1223 1247 0
1221 -1247 0
1223 -1247 0
-1225 -1227 1249 0
1225 -1249 0
1227 -1249 0
-1229 -1230 1282 0
1229 -1282 0
1230 -1282 0
-1231 -1232 1252 0
1231 -1252 0
1232 -1252 0
-1233 -1234 1254 0
1233 -1254 0
1234 -1254 0
-1235 -1236 1256 0
1235 -1256 0
1236 -1256 0
-1238 -1240 1258 0
1238 -1258 0
1240 -1258 0
-1241 -1242 1260 0
1241 -1260 0
1242 -1260 0
-1244 -1246 1262 0
1244 -1262 0
1246 -1262 0
-1248 -1250 1264 0
1248 -1264 0
1250 -1264 0
-1228 -1251 1266 0
1228 -1266 0
1251 -1266 0
-1253 -1255 1268 0
1253 -1268 0
1255 -1268 0
-1257 -1259 1270 0
1257 -1270 0
1259 -1270 0
-1261 -1263 1272 0
1261 -1272 0
1263 -1272 0
-1265 -1267 1274 0
1265 -1274 0
1267 -1274 0
-1269 -1271 1275 0
1269 -1275 0
1271 -1275 0
-1237 -1239 1319 0
1237 -1319 0
1239 -1319 0
-1243 -1245 1320 0
1243 -1320 0
1245 -1320 0
-1247 -1249 1321 0
1247 -1321 0
1249 -1321 0
-1252 -1254 1284 0
1252 -1284 0
1254 -1284 0
-1256 -1258 1286 0
1256 -1286 0
1258 -1286 0
-1260 -1262 1288 0
1260 -1288 0
1262 -1288 0
-1264 -1266 1290 0
1264 -1290 0
1266 -1290 0
-1268 -1270 1292 0
1268 -1292 0
1270 -1292 0
-1272 -1274 1294 0
1272 -1294 0
1274 -1294 0
-1273 -1275 1327 0
1275 -1327 0
1273 -1327 0
-1277 -1278 1297 0
1277 -1297 0
1278 -1297 0
-1279 -1280 1299 0
1279 -1299 0
1280 -1299 0
-1281 -1282 1301 0
1281 -1301 0
1282 -1301 0
-1283 -1285 1303 0
1283 -1303 0
1285 -1303 0
-1287 -1289 1305 0
1287 -1305 0
1289 -1305 0
-1291 -1293 1307 0
1291 -1307 0
1293 -1307 0
-1276 -1295 1309 0
1295 -1309 0
1276 -1309 0
-1296 -1298 1311 0
1296 -1311 0
1298 -1311 0
-1300 -1302 1313 0
1300 -1313 0
1302 -1313 0
-1304 -1306 1315 0
1304 -1315 0
1306 -1315 0
-1308 -1310 1317 0
1308 -1317 0
1310 -1317 0
-1312 -1314 1318 0
1312 -1318 0
1314 -1318 0
-1284 -1286 1323 0
1284 -1323 0
1286 -1323 0
-1288 -1290 1325 0
1288 -1325 0
1290 -1325 0
-1292 -1294 1363 0
1292 -1363 0
1294 -1363 0
-1297 -1299 1329 0
1297 -1329 0
1299 -1329 0
-1301 -1303 1331 0
1301 -1331 0
1303 -1331 0
-1305 -1307 1333 0
1305 -1333 0
1307 -1333 0
-1309 -1311 1335 0
1309 -1335 0
1311 -1335 0
-1313 -1315 1337 0
1313 -1337 0
1315 -1337 0
-1317 -1318 1339 0
1317 -1339 0
1318 -1339 0
-1319 -1320 1369 0
1319 -1369 0
1320 -1369 0
-1321 -1322 1342 0
1321 -1342 0
1322 -1342 0
-1324 -1326 1344 0
1324 -1344 0
1326 -1344 0
-1327 -1328 1346 0
1327 -1346 0
1328 -1346 0
-1330 -1332 1348 0
1330 -1348 0
1332 -1348 0
-1334 -1336 1350 0
1334 -1350 0
1336 -1350 0
-1316 -1338 1352 0
1338 -1352 0
1316 -1352 0
-1340 -1341 1354 0
1340 -1354 0
1341 -1354 0
-1343 -1345 1356 0
1343 -1356 0
1345 -1356 0
-1347 -1349 1358 0
1347 -1358 0
1349 -1358 0
-1351 -1353 1360 0
1351 -1360 0
1353 -1360 0
-1355 -1357 1361 0
1355 -1361 0
1357 -1361 0
-1323 -1325 1399 0
1323 -1399 0
1325 -1399 0
-1329 -1331 1365 0
1329 -1365 0
1331 -1365 0
-1333 -1335 1367 0
1333 -1367 0
1335 -1367 0
-1337 -1339 1401 0
1337 -1401 0
1339 -1401 0
-1342 -1344 1371 0
1342 -1371 0
1344 -1371 0
-1346 -1348 1373 0
1346 -1373 0
1348 -1373 0
-1350 -1352 1375 0
1350 -1375 0
1352 -1375 0
-1354 -1356 1377 0
1354 -1377 0
1356 -1377 0
-1358 -1360 1379 0
1358 -1379 0
1360 -1379 0
-1359 -1361 1381 0
1361 -1381 0
1359 -1381 0
-1362 -1363 1407 0
1362 -1407 0
1363 -1407 0
-1364 -1366 1383 0
1364 -1383 0
1366 -1383 0
-1368 -1369 1385 0
1368 -1385 0
1369 -1385 0
-1370 -1372 1387 0
1370 -1387 0
1372 -1387 0
-1374 -1376 1389 0
1374 -1389 0
1376 -1389 0
-1378 -1380 1412 0
1378 -1412 0
1380 -1412 0
-1382 -1384 1393 0
1382 -1393 0
1384 -1393 0
-1386 -1388 1395 0
1386 -1395 0
1388 -1395 0
-1390 -1391 1397 0
1390 -1397 0
1391 -1397 0
-1392 -1394 1398 0
1392 -1398 0
1394 -1398 0
-1365 -1367 1436 0
1365 -1436 0
1367 -1436 0
-1371 -1373 1403 0
1371 -1403 0
1373 -1403 0
-1375 -1377 1405 0
1375 -1405 0
1377 -1405 0
-1379 -1381 1438 0
1379 -1438 0
1381 -1438 0
-1383 -1385 1409 0
1383 -1409 0
1385 -1409 0
-1387 -1389 1411 0
1387 -1411 0
1389 -1411 0
-1393 -1395 1440 0
1393 -1440 0
1395 -1440 0
-1397 -1398 1441 0
1397 -1441 0
1398 -1441 0
-1399 -1400 1416 0
1399 -1416 0
1400 -1416 0
-1401 -1402 1418 0
1401 -1418 0
1402 -1418 0
-1404 -1406 1420 0
1404 -1420 0
1406 -1420 0
-1407 -1408 1422 0
1407 -1422 0
1408 -1422 0
-1410 -1412 1424 0
1410 -1424 0
1412 -1424 0
-1413 -1414 1426 0
1413 -1426 0
1414 -1426 0
-1396 -1415 1428 0
1396 -1428 0
1415 -1428 0
-1417 -1419 1430 0
1417 -1430 0
1419 -1430 0
-1421 -1423 1432 0
1421 -1432 0
1423 -1432 0
-1425 -1427 1434 0
1425 -1434 0
1427 -1434 0
-1429 -1431 1435 0
1429 -1435 0
1431 -1435 0
-1403 -1405 1471 0
1403 -1471 0
1405 -1471 0
-1409 -1411 1472 0
1409 -1472 0
1411 -1472 0
-1416 -1418 1473 0
1416 -1473 0
1418 -1473 0
-1420 -1422 1444 0
1420 -1444 0
1422 -1444 0
-1424 -1426 1446 0
1424 -1446 0
1426 -1446 0
-1428 -1430 1448 0
1428 -1448 0
1430 -1448 0
-1432 -1434 1450 0
1432 -1450 0
1434 -1450 0
-1433 -1435 1478 0
1435 -1478 0
1433 -1478 0
-1437 -1438 1453 0
1437 -1453 0
1438 -1453 0
-1439 -1440 1455 0
1439 -1455 0
1440 -1455 0
-1441 -1442 1457 0
1441 -1457 0
1442 -1457 0
-1443 -1445 1459 0
1443 -1459 0
1445 -1459 0
-1447 -1449 1461 0
1447 -1461 0
1449 -1461 0
-1436 -1451 1463 0
1451 -1463 0
1436 -1463 0
-1452 -1454 1465 0
1452 -1465 0
1454 -1465 0
-1456 -1458 1467 0
1456 -1467 0
1458 -1467 0
-1460 -1462 1469 0
1460 -1469 0
1462 -1469 0
-1464 -1466 1470 0
1464 -1470 0
1466 -1470 0
-1444 -1446 1475 0
1444 -1475 0
1446 -1475 0
-1448 -1450 1477 0
1448 -1477 0
1450 -1477 0
-1453 -1455 1507 0
1453 -1507 0
1455 -1507 0
-1457 -1459 1481 0
1457 -1481 0
1459 -1481 0
-1461 -1463 1483 0
1461 -1483 0
1463 -1483 0
-1465 -1467 1485 0
1465 -1485 0
1467 -1485 0
-1469 -1470 1487 0
1469 -1487 0
1470 -1487 0
-1471 -1472 1512 0
1471 -1512 0
1472 -1512 0
-1473 -1474 1490 0
1473 -1490 0
1474 -1490 0
-1476 -1478 1492 0
1476 -1492 0
1478 -1492 0
-1479 -1480 1494 0
1479 -1494 0
1480 -1494 0
-1482 -1484 1496 0
1482 -1496 0
1484 -1496 0
-1468 -1486 1498 0
1486 -1498 0
1468 -1498 0
-1488 -1489 1500 0
1488 -1500 0
1489 -1500 0
-1491 -1493 1502 0
1491 -1502 0
1493 -1502 0
-1495 -1497 1504 0
1495 -1504 0
1497 -1504 0
-1499 -1501 1505 0
1499 -1505 0
1501 -1505 0
-1475 -1477 1535 0
1475 -1535 0
1477 -1535 0
-1481 -1483 1509 0
1481 -1509 0
1483 -1509 0
-1485 -1487 1511 0
1485 -1511 0
1487 -1511 0
-1490 -1492 1537 0
1490 -1537 0
1492 -1537 0
-1494 -1496 1515 0
1494 -1515 0
1496 -1515 0
-1498 -1500 1517 0
1498 -1517 0
1500 -1517 0
-1502 -1504 1519 0
1502 -1519 0
1504 -1519 0
-1503 -1505 1521 0
1505 -1521 0
1503 -1521 0
-1506 -1507 1542 0
1506 -1542 0
1507 -1542 0
-1508 -1510 1523 0
1508 -1523 0
1510 -1523 0
-1512 -1513 1525 0
1512 -1525 0
1513 -1525 0
-1514 -1516 1527 0
1514 -1527 0
1516 -1527 0
-1518 -1520 1529 0
1518 -1529 0
1520 -1529 0
-1522 -1524 1545 0
1522 -1545 0
1524 -1545 0
-1526 -1528 1533 0
1526 -1533 0
1528 -1533 0
-1530 -1531 1534 0
1530 -1534 0
1531 -1534 0
-1509 -1511 1564 0
1509 -1564 0
1511 -1564 0
-1515 -1517 1539 0
1515 -1539 0
1517 -1539 0
-1519 -1521 1541 0
1519 -1541 0
1521 -1541 0
-1523 -1525 1566 0
1523 -1566 0
1525 -1566 0
-1527 -1529 1567 0
1527 -1567 0
1529 -1567 0
-1533 -1534 1568 0
1533 -1568 0
1534 -1568 0
-1535 -1536 1548 0
1535 -1548 0
1536 -1548 0
-1537 -1538 1550 0
1537 -1550 0
1538 -1550 0
-1540 -1542 1552 0
1540 -1552 0
1542 -1552 0
-1543 -1544 1554 0
1543 -1554 0
1544 -1554 0
-1545 -1546 1556 0
1545 -1556 0
1546 -1556 0
-1532 -1547 1558 0
1532 -1558 0
1547 -1558 0
-1549 -1551 1560 0
1549 -1560 0
1551 -1560 0
-1553 -1555 1562 0
1553 -1562 0
1555 -1562 0
-1557 -1559 1563 0
1557 -1563 0
1559 -1563 0
-1539 -1541 1593 0
1539 -1593 0
1541 -1593 0
-1548 -1550 1570 0
1548 -1570 0
1550 -1570 0
-1552 -1554 1572 0
1552 -1572 0
1554 -1572 0
-1556 -1558 1574 0
1556 -1574 0
1558 -1574 0
-1560 -1562 1576 0
1560 -1576 0
1562 -1576 0
-1561 -1563 1596 0
1563 -1596 0
1561 -1596 0
-1565 -1566 1579 0
1565 -1579 0
1566 -1579 0
-1567 -1568 1581 0
1567 -1581 0
1568 -1581 0
-1569 -1571 1583 0
1569 -1583 0
1571 -1583 0
-1573 -1575 1585 0
1573 -1585 0
1575 -1585 0
-1564 -1577 1587 0
1577 -1587 0
1564 -1587 0
-1578 -1580 1589 0
1578 -1589 0
1580 -1589 0
-1582 -1584 1591 0
1582 -1591 0
1584 -1591 0
-1586 -1588 1592 0
1586 -1592 0
1588 -1592 0
-1570 -1572 1618 0
1570 -1618 0
1572 -1618 0
-1574 -1576 1619 0
1574 -1619 0
1576 -1619 0
-1579 -1581 1598 0
1579 -1598 0
1581 -1598 0
-1583 -1585 1600 0
1583 -1600 0
1585 -1600 0
-1587 -1589 1602 0
1587 -1602 0
1589 -1602 0
-1591 -1592 1604 0
1591 -1604 0
1592 -1604 0
-1594 -1595 1606 0
1594 -1606 0
1595 -1606 0
-1596 -1597 1608 0
1596 -1608 0
1597 -1608 0
-1599 -1601 1610 0
1599 -1610 0
1601 -1610 0
-1590 -1603 1612 0
1603 -1612 0
1590 -1612 0
-1593 -1605 1614 0
1593 -1614 0
1605 -1614 0
-1607 -1609 1616 0
1607 -1616 0
1609 -1616 0
-1611 -1613 1617 0
1611 -1617 0
1613 -1617 0
-1598 -1600 1639 0
1598 -1639 0
1600 -1639 0
-1602 -1604 1640 0
1602 -1640 0
1604 -1640 0
-1606 -1608 1622 0
1606 -1622 0
1608 -1622 0
-1610 -1612 1624 0
1610 -1624 0
1612 -1624 0
-1614 -1616 1626 0
1614 -1626 0
1616 -1626 0
-1615 -1617 1628 0
1617 -1628 0
1615 -1628 0
-1619 -1620 1643 0
1619 -1643 0
1620 -1643 0
-1621 -1623 1644 0
1621 -1644 0
1623 -1644 0
-1625 -1627 1633 0
1625 -1633 0
1627 -1633 0
-1618 -1629 1635 0
1618 -1635 0
1629 -1635 0
-1630 -1631 1637 0
1630 -1637 0
1631 -1637 0
-1632 -1634 1638 0
1632 -1638 0
1634 -1638 0
-1622 -1624 1660 0
1622 -1660 0
1624 -1660 0
-1626 -1628 1661 0
1626 -1661 0
1628 -1661 0
-1633 -1635 1662 0
1633 -1662 0
1635 -1662 0
-1637 -1638 1663 0
1637 -1663 0
1638 -1663 0
-1639 -1640 1648 0
1639 -1648 0
1640 -1648 0
-1641 -1642 1650 0
1641 -1650 0
1642 -1650 0
-1643 -1644 1652 0
1643 -1652 0
1644 -1652 0
-1645 -1646 1654 0
1645 -1654 0
1646 -1654 0
-1636 -1647 1656 0
1636 -1656 0
1647 -1656 0
-1649 -1651 1658 0
1649 -1658 0
1651 -1658 0
-1653 -1655 1659 0
1653 -1659 0
1655 -1659 0
-1648 -1650 1681 0
1648 -1681 0
1650 -1681 0
-1652 -1654 1666 0
1652 -1666 0
1654 -1666 0
-1656 -1658 1668 0
1656 -1668 0
1658 -1668 0
-1657 -1659 1683 0
1659 -1683 0
1657 -1683 0
-1661 -1662 1671 0
1661 -1671 0
1662 -1671 0
-1663 -1664 1673 0
1663 -1673 0
1664 -1673 0
-1665 -1667 1675 0
1665 -1675 0
1667 -1675 0
-1660 -1669 1677 0
1669 -1677 0
1660 -1677 0
-1670 -1672 1679 0
1670 -1679 0
1672 -1679 0
-1674 -1676 1680 0
1674 -1680 0
1676 -1680 0
-1666 -1668 1698 0
1666 -1698 0
1668 -1698 0
-1671 -1673 1699 0
1671 -1699 0
1673 -1699 0
-1675 -1677 1686 0
1675 -1686 0
1677 -1686 0
-1679 -1680 1688 0
1679 -1688 0
1680 -1688 0
-1682 -1683 1690 0
1682 -1690 0
1683 -1690 0
-1684 -1685 1692 0
1684 -1692 0
1685 -1692 0
-1678 -1687 1694 0
1687 -1694 0
1678 -1694 0
-1681 -1689 1696 0
1681 -1696 0
1689 -1696 0
-1691 -1693 1697 0
1691 -1697 0
1693 -1697 0
-1686 -1688 1711 0
1686 -1711 0
1688 -1711 0
-1690 -1692 1712 0
1690 -1712 0
1692 -1712 0
-1694 -1696 1702 0
1694 -1702 0
1696 -1702 0
-1695 -1697 1704 0
1697 -1704 0
1695 -1704 0
-1699 -1700 1714 0
1699 -1714 0
1700 -1714 0
-1701 -1703 1715 0
1701 -1715 0
1703 -1715 0
-1698 -1705 1709 0
1698 -1709 0
1705 -1709 0
-1706 -1707 1710 0
1706 -1710 0
1707 -1710 0
-1702 -1704 1726 0
1702 -1726 0
1704 -1726 0
-1709 -1710 1727 0
1709 -1727 0
1710 -1727 0
-1711 -1712 1718 0
1711 -1718 0
1712 -1718 0
-1713 -1714 1720 0
1713 -1720 0
1714 -1720 0
-1715 -1716 1722 0
1715 -1722 0
1716 -1722 0
-1708 -1717 1724 0
1708 -1724 0
1717 -1724 0
-1719 -1721 1725 0
1719 -1725 0
1721 -1725 0
-1718 -1720 1729 0
1718 -1729 0
1720 -1729 0
-1722 -1724 1731 0
1722 -1731 0
1724 -1731 0
-1723 -1725 1737 0
1725 -1737 0
1723 -1737 0
-1728 -1730 1738 0
1728 -1738 0
1730 -1738 0
-1726 -1732 1735 0
1732 -1735 0
1726 -1735 0
-1727 -1733 1736 0
1727 -1736 0
1733 -1736 0
-1729 -1731 1746 0
1729 -1746 0
1731 -1746 0
-1735 -1736 1747 0
1735 -1747 0
1736 -1747 0
-1737 -1738 1742 0
1737 -1742 0
1738 -1742 0
-1734 -1739 1744 0
1739 -1744 0
1734 -1744 0
-1740 -1741 1745 0
1740 -1745 0
1741 -1745 0
-1742 -1744 1749 0
1742 -1749 0
1744 -1749 0
-1743 -1745 1751 0
1745 -1751 0
1743 -1751 0
-1748 -1750 1753 0
1748 -1753 0
1750 -1753 0
-1746 -1747 1754 0
1746 -1754 0
1747 -1754 0
-1749 -1751 1758 0
1749 -1758 0
1751 -1758 0
-1753 -1754 1760 0
1753 -1760 0
1754 -1760 0
-1752 -1755 1757 0
1752 -1757 0
1755 -1757 0
-1756 -1757 1762 0
-1758 -1759 1761 0
1759 -1761 0
1758 -1761 0
-1760 -1761 1762 0
-1762 0
-1 -2 -54 0
1 2 -54 0
1 -2 54 0
-1 2 54 0
-1 -14 -54 0
1 14 -54 0
1 -14 54 0
-1 14 54 0
-3 -8 -57 0
3 8 -57 0
-3 8 57 0
3 -8 57 0
-15 -22 -59 0
15 22 -59 0
-15 22 59 0
15 -22 59 0
-55 -56 -61 0
55 56 -61 0
-55 56 61 0
55 -56 61 0
-54 -57 -63 0
54 57 -63 0
-54 57 63 0
54 -57 63 0
-59 -61 -63 0
59 61 -63 0
-59 61 63 0
59 -61 63 0
-4 -9 -66 0
4 9 -66 0
-4 9 66 0
4 -9 66 0
-16 -23 -68 0
16 23 -68 0
-16 23 68 0
16 -23 68 0
-30 -58 -70 0
30 58 -70 0
-30 58 70 0
30 -58 70 0
-60 -62 -72 0
60 62 -72 0
-60 62 72 0
60 -62 72 0
-64 -65 -74 0
64 65 -74 0
-64 65 74 0
64 -65 74 0
-63 -66 -76 0
63 66 -76 0
-63 66 76 0
63 -66 76 0
-68 -70 -78 0
68 70 -78 0
-68 70 78 0
68 -70 78 0
-72 -74 -80 0
72 74 -80 0
-72 74 80 0
72 -74 80 0
-76 -78 -80 0
76 78 -80 0
-76 78 80 0
76 -78 80 0
-5 -10 -83 0
5 10 -83 0
-5 10 83 0
5 -10 83 0
-17 -24 -85 0
17 24 -85 0
-17 24 85 0
17 -24 85 0
-31 -38 -87 0
31 38 -87 0
-31 38 87 0
31 -38 87 0
-67 -69 -89 0
67 69 -89 0
-67 69 89 0
67 -69 89 0
-71 -73 -91 0
71 73 -91 0
-71 73 91 0
71 -73 91 0
-75 -77 -93 0
75 77 -93 0
-75 77 93 0
75 -77 93 0
-79 -81 -95 0
79 81 -95 0
-79 81 95 0
79 -81 95 0
-80 -82 -97 0
80 82 -97 0
80 -82 97 0
-80 82 97 0
-83 -85 -99 0
83 85 -99 0
-83 85 99 0
83 -85 99 0
-87 -89 -101 0
87 89 -101 0
-87 89 101 0
87 -89 101 0
-91 -93 -103 0
91 93 -103 0
-91 93 103 0
91 -93 103 0
-95 -97 -105 0
95 97 -105 0
-95 97 105 0
95 -97 105 0
-99 -101 -107 0
99 101 -107 0
-99 101 107 0
99 -101 107 0
-103 -105 -107 0
103 105 -107 0
-103 105 107 0
103 -105 107 0
-6 -11 -110 0
6 11 -110 0
-6 11 110 0
6 -11 110 0
-18 -25 -112 0
18 25 -112 0
-18 25 112 0
18 -25 112 0
-32 -39 -114 0
32 39 -114 0
-32 39 114 0
32 -39 114 0
-46 -84 -116 0
46 84 -116 0
-46 84 116 0
46 -84 116 0
-86 -88 -118 0
86 88 -118 0
-86 88 118 0
86 -88 118 0
-90 -92 -120 0
90 92 -120 0
-90 92 120 0
90 -92 120 0
-94 -96 -122 0
94 96 -122 0
-94 96 122 0
94 -96 122 0
-98 -100 -124 0
98 100 -124 0
-98 100 124 0
98 -100 124 0
-102 -104 -126 0
102 104 -126 0
-102 104 126 0
102 -104 126 0
-106 -108 -128 0
106 108 -128 0
-106 108 128 0
106 -108 128 0
-107 -109 -130 0
107 109 -130 0
107 -109 130 0
-107 109 130 0
-110 -112 -132 0
110 112 -132 0
-110 112 132 0
110 -112 132 0
-114 -116 -134 0
114 116 -134 0
-114 116 134 0
114 -116 134 0
-118 -120 -136 0
118 120 -136 0
-118 120 136 0
118 -120 136 0
-122 -124 -138 0
122 124 -138 0
-122 124 138 0
122 -124 138 0
-126 -128 -140 0
126 128 -140 0
-126 128 140 0
126 -128 140 0
-130 -132 -142 0
130 132 -142 0
-130 132 142 0
130 -132 142 0
-134 -136 -144 0
134 136 -144 0
-134 136 144 0
134 -136 144 0
-138 -140 -146 0
138 140 -146 0
-138 140 146 0
138 -140 146 0
-142 -144 146 0
142 144 146 0
-142 144 -146 0
142 -144 -146 0
-7 -12 -148 0
7 12 -148 0
-7 12 148 0
7 -12 148 0
-19 -26 -150 0
19 26 -150 0
-19 26 150 0
19 -26 150 0
-33 -40 -152 0
33 40 -152 0
-33 40 152 0
33 -40 152 0
-47 -111 -154 0
47 111 -154 0
-47 111 154 0
47 -111 154 0
-113 -115 -156 0
113 115 -156 0
-113 115 156 0
113 -115 156 0
-117 -119 -158 0
117 119 -158 0
-117 119 158 0
117 -119 158 0
-121 -123 -160 0
121 123 -160 0
-121 123 160 0
121 -123 160 0
-125 -127 -162 0
125 127 -162 0
-125 127 162 0
125 -127 162 0
-129 -131 -164 0
129 131 -164 0
-129 131 164 0
129 -131 164 0
-133 -135 -166 0
133 135 -166 0
-133 135 166 0
133 -135 166 0
-137 -139 -168 0
137 139 -168 0
-137 139 168 0
137 -139 168 0
-141 -143 -170 0
141 143 -170 0
-141 143 170 0
141 -143 170 0
-145 -147 -172 0
145 147 -172 0
-145 147 172 0
145 -147 172 0
-148 -150 -174 0
148 150 -174 0
-148 150 174 0
148 -150 174 0
-152 -154 -176 0
152 154 -176 0
-152 154 176 0
152 -154 176 0
-156 -158 -178 0
156 158 -178 0
-156 158 178 0
156 -158 178 0
-160 -162 -180 0
160 162 -180 0
-160 162 180 0
160 -162 180 0
-164 -166 -182 0
164 166 -182 0
-164 166 182 0
164 -166 182 0
-168 -170 -184 0
168 170 -184 0
-168 170 184 0
168 -170 184 0
-172 -173 -186 0
172 173 -186 0
-172 173 186 0
172 -173 186 0
-174 -176 -188 0
174 176 -188 0
-174 176 188 0
174 -176 188 0
-178 -180 -190 0
178 180 -190 0
-178 180 190 0
178 -180 190 0
-182 -184 -192 0
182 184 -192 0
-182 184 192 0
182 -184 192 0
-186 -188 -194 0
186 188 -194 0
-186 188 194 0
186 -188 194 0
-190 -192 194 0
190 192 194 0
-190 192 -194 0
190 -192 -194 0
-13 -20 -225 0
13 20 -225 0
-13 20 225 0
13 -20 225 0
-27 -34 -198 0
27 34 -198 0
-27 34 198 0
27 -34 198 0
-41 -48 -200 0
41 48 -200 0
-41 48 200 0
41 -48 200 0
-149 -151 -202 0
149 151 -202 0
-149 151 202 0
149 -151 202 0
-153 -155 -204 0
153 155 -204 0
-153 155 204 0
153 -155 204 0
-157 -159 -206 0
157 159 -206 0
-157 159 206 0
157 -159 206 0
-161 -163 -208 0
161 163 -208 0
-161 163 208 0
161 -163 208 0
-165 -167 -210 0
165 167 -210 0
-165 167 210 0
165 -167 210 0
-169 -171 -212 0
169 171 -212 0
-169 171 212 0
169 -171 212 0
-175 -177 -215 0
175 177 -215 0
-175 177 215 0
175 -177 215 0
-179 -181 -216 0
179 181 -216 0
-179 181 216 0
179 -181 216 0
-183 -185 -218 0
183 185 -218 0
-183 185 218 0
183 -185 218 0
-187 -189 -220 0
187 189 -220 0
-187 189 220 0
187 -189 220 0
-191 -193 -222 0
191 193 -222 0
-191 193 222 0
191 -193 222 0
-195 -196 -224 0
195 196 -224 0
-195 196 224 0
195 -196 224 0
-198 -200 -226 0
198 200 -226 0
-198 200 226 0
198 -200 226 0
-202 -204 -228 0
202 204 -228 0
-202 204 228 0
202 -204 228 0
-206 -208 -230 0
206 208 -230 0
-206 208 230 0
206 -208 230 0
-210 -212 -232 0
210 212 -232 0
-210 212 232 0
210 -212 232 0
-214 -215 -234 0
214 215 -234 0
-214 215 234 0
214 -215 234 0
-216 -218 -236 0
216 218 -236 0
-216 218 236 0
216 -218 236 0
-220 -222 -238 0
220 222 -238 0
-220 222 238 0
220 -222 238 0
-224 -225 -240 0
224 225 -240 0
-224 225 240 0
224 -225 240 0
-226 -228 -242 0
226 228 -242 0
-226 228 242 0
226 -228 242 0
-230 -232 -244 0
230 232 -244 0
-230 232 244 0
230 -232 244 0
-234 -236 -246 0
234 236 -246 0
-234 236 246 0
234 -236 246 0
-238 -240 -248 0
238 240 -248 0
-238 240 248 0
238 -240 248 0
-242 -244 -250 0
242 244 -250 0
-242 244 250 0
242 -244 250 0
-246 -248 -250 0
246 248 -250 0
-246 248 250 0
246 -248 250 0
-21 -28 -253 0
21 28 -253 0
-21 28 253 0
21 -28 253 0
-35 -42 -255 0
35 42 -255 0
-35 42 255 0
35 -42 255 0
-49 -197 -257 0
49 197 -257 0
-49 197 257 0
49 -197 257 0
-199 -201 -259 0
199 201 -259 0
-199 201 259 0
199 -201 259 0
-203 -205 -261 0
203 205 -261 0
-203 205 261 0
203 -205 261 0
-207 -209 -263 0
207 209 -263 0
-207 209 263 0
207 -209 263 0
-211 -213 -265 0
211 213 -265 0
-211 213 265 0
211 -213 265 0
-217 -219 -267 0
217 219 -267 0
-217 219 267 0
217 -219 267 0
-221 -223 -269 0
221 223 -269 0
-221 223 269 0
221 -223 269 0
-227 -229 -272 0
227 229 -272 0
-227 229 272 0
227 -229 272 0
-231 -233 -273 0
231 233 -273 0
-231 233 273 0
231 -233 273 0
-235 -237 -275 0
235 237 -275 0
-235 237 275 0
235 -237 275 0
-239 -241 -277 0
239 241 -277 0
-239 241 277 0
239 -241 277 0
-243 -245 -279 0
243 245 -279 0
-243 245 279 0
243 -245 279 0
-247 -249 -281 0
247 249 -281 0
-247 249 281 0
247 -249 281 0
-251 -252 -283 0
251 252 -283 0
-251 252 283 0
251 -252 283 0
-250 -253 -285 0
250 253 -285 0
-250 253 285 0
250 -253 285 0
-255 -257 -287 0
255 257 -287 0
-255 257 287 0
255 -257 287 0
-259 -261 -289 0
259 261 -289 0
-259 261 289 0
259 -261 289 0
-263 -265 -291 0
263 265 -291 0
-263 265 291 0
263 -265 291 0
-266 -267 -293 0
266 267 -293 0
-266 267 293 0
266 -267 293 0
-269 -271 -295 0
269 271 -295 0
-269 271 295 0
269 -271 295 0
-272 -273 -297 0
272 273 -297 0
-272 273 297 0
272 -273 297 0
-275 -277 -299 0
275 277 -299 0
-275 277 299 0
275 -277 299 0
-279 -281 -301 0
279 281 -301 0
-279 281 301 0
279 -281 301 0
-283 -285 -303 0
283 285 -303 0
-283 285 303 0
283 -285 303 0
-287 -289 -305 0
287 289 -305 0
-287 289 305 0
287 -289 305 0
-291 -293 -307 0
291 293 -307 0
-291 293 307 0
291 -293 307 0
-295 -297 -309 0
295 297 -309 0
-295 297 309 0
295 -297 309 0
-299 -301 -311 0
299 301 -311 0
-299 301 311 0
299 -301 311 0
-303 -305 -313 0
303 305 -313 0
-303 305 313 0
303 -305 313 0
-307 -309 -315 0
307 309 -315 0
-307 309 315 0
307 -309 315 0
-311 -313 -315 0
311 313 -315 0
-311 313 315 0
311 -313 315 0
-29 -36 -318 0
29 36 -318 0
-29 36 318 0
29 -36 318 0
-43 -50 -320 0
43 50 -320 0
-43 50 320 0
43 -50 320 0
-254 -256 -322 0
254 256 -322 0
-254 256 322 0
254 -256 322 0
-258 -260 -324 0
258 260 -324 0
-258 260 324 0
258 -260 324 0
-262 -264 -326 0
262 264 -326 0
-262 264 326 0
262 -264 326 0
-268 -270 -329 0
268 270 -329 0
-268 270 329 0
268 -270 329 0
-274 -276 -331 0
274 276 -331 0
-274 276 331 0
274 -276 331 0
-278 -280 -332 0
278 280 -332 0
-278 280 332 0
278 -280 332 0
-282 -284 -334 0
282 284 -334 0
-282 284 334 0
282 -284 334 0
-286 -288 -336 0
286 288 -336 0
-286 288 336 0
286 -288 336 0
-290 -292 -338 0
290 292 -338 0
-290 292 338 0
290 -292 338 0
-294 -296 -340 0
294 296 -340 0
-294 296 340 0
294 -296 340 0
-298 -300 -342 0
298 300 -342 0
-298 300 342 0
298 -300 342 0
-302 -304 -344 0
302 304 -344 0
-302 304 344 0
302 -304 344 0
-306 -308 -346 0
306 308 -346 0
-306 308 346 0
306 -308 346 0
-310 -312 -348 0
310 312 -348 0
-310 312 348 0
310 -312 348 0
-314 -316 -350 0
314 316 -350 0
-314 316 350 0
314 -316 350 0
-315 -317 -352 0
315 317 -352 0
315 -317 352 0
-315 317 352 0
-318 -320 -354 0
318 320 -354 0
-318 320 354 0
318 -320 354 0
-322 -324 -356 0
322 324 -356 0
-322 324 356 0
322 -324 356 0
-326 -328 -358 0
326 328 -358 0
-326 328 358 0
326 -328 358 0
-329 -330 -360 0
329 330 -360 0
-329 330 360 0
329 -330 360 0
-331 -332 -362 0
331 332 -362 0
-331 332 362 0
331 -332 362 0
-334 -336 -364 0
334 336 -364 0
-334 336 364 0
334 -336 364 0
-338 -340 -366 0
338 340 -366 0
-338 340 366 0
338 -340 366 0
-342 -344 -368 0
342 344 -368 0
-342 344 368 0
342 -344 368 0
-346 -348 -370 0
346 348 -370 0
-346 348 370 0
346 -348 370 0
-350 -352 -372 0
350 352 -372 0
-350 352 372 0
350 -352 372 0
-354 -356 -374 0
354 356 -374 0
-354 356 374 0
354 -356 374 0
-358 -360 -376 0
358 360 -376 0
-358 360 376 0
358 -360 376 0
-362 -364 -378 0
362 364 -378 0
-362 364 378 0
362 -364 378 0
-366 -368 -380 0
366 368 -380 0
-366 368 380 0
366 -368 380 0
-370 -372 -382 0
370 372 -382 0
-370 372 382 0
370 -372 382 0
-374 -376 -384 0
374 376 -384 0
-374 376 384 0
374 -376 384 0
-378 -380 -386 0
378 380 -386 0
-378 380 386 0
378 -380 386 0
-382 -384 386 0
382 384 386 0
-382 384 -386 0
382 -384 -386 0
-37 -44 -388 0
37 44 -388 0
-37 44 388 0
37 -44 388 0
-51 -319 -390 0
51 319 -390 0
-51 319 390 0
51 -319 390 0
-321 -323 -392 0
321 323 -392 0
-321 323 392 0
321 -323 392 0
-325 -327 -394 0
325 327 -394 0
-325 327 394 0
325 -327 394 0
-333 -335 -398 0
333 335 -398 0
-333 335 398 0
333 -335 398 0
-337 -339 -400 0
337 339 -400 0
-337 339 400 0
337 -339 400 0
-341 -343 -402 0
341 343 -402 0
-341 343 402 0
341 -343 402 0
-345 -347 -404 0
345 347 -404 0
-345 347 404 0
345 -347 404 0
-349 -351 -406 0
349 351 -406 0
-349 351 406 0
349 -351 406 0
-353 -355 -408 0
353 355 -408 0
-353 355 408 0
353 -355 408 0
-357 -359 -410 0
357 359 -410 0
-357 359 410 0
357 -359 410 0
-361 -363 -412 0
361 363 -412 0
-361 363 412 0
361 -363 412 0
-365 -367 -414 0
365 367 -414 0
-365 367 414 0
365 -367 414 0
-369 -371 -416 0
369 371 -416 0
-369 371 416 0
369 -371 416 0
-373 -375 -418 0
373 375 -418 0
-373 375 418 0
373 -375 418 0
-377 -379 -420 0
377 379 -420 0
-377 379 420 0
377 -379 420 0
-381 -383 -422 0
381 383 -422 0
-381 383 422 0
381 -383 422 0
-385 -387 -424 0
385 387 -424 0
-385 387 424 0
385 -387 424 0
-388 -390 -427 0
388 390 -427 0
-388 390 427 0
388 -390 427 0
-392 -394 -428 0
392 394 -428 0
-392 394 428 0
392 -394 428 0
-396 -397 -430 0
396 397 -430 0
-396 397 430 0
396 -397 430 0
-398 -400 -432 0
398 400 -432 0
-398 400 432 0
398 -400 432 0
-402 -404 -434 0
402 404 -434 0
-402 404 434 0
402 -404 434 0
-406 -408 -436 0
406 408 -436 0
-406 408 436 0
406 -408 436 0
-410 -412 -438 0
410 412 -438 0
-410 412 438 0
410 -412 438 0
-414 -416 -440 0
414 416 -440 0
-414 416 440 0
414 -416 440 0
-418 -420 -442 0
418 420 -442 0
-418 420 442 0
418 -420 442 0
-422 -424 -444 0
422 424 -444 0
-422 424 444 0
422 -424 444 0
-426 -427 -446 0
426 427 -446 0
-426 427 446 0
426 -427 446 0
-428 -430 -448 0
428 430 -448 0
-428 430 448 0
428 -430 448 0
-432 -434 -450 0
432 434 -450 0
-432 434 450 0
432 -434 450 0
-436 -438 -452 0
436 438 -452 0
-436 438 452 0
436 -438 452 0
-440 -442 -454 0
440 442 -454 0
-440 442 454 0
440 -442 454 0
-444 -446 -456 0
444 446 -456 0
-444 446 456 0
444 -446 456 0
-448 -450 -458 0
448 450 -458 0
-448 450 458 0
448 -450 458 0
-452 -454 -460 0
452 454 -460 0
-452 454 460 0
452 -454 460 0
-456 -458 460 0
456 458 460 0
-456 458 -460 0
456 -458 -460 0
-45 -52 -498 0
45 52 -498 0
-45 52 498 0
45 -52 498 0
-389 -391 -464 0
389 391 -464 0
-389 391 464 0
389 -391 464 0
-393 -395 -466 0
393 395 -466 0
-393 395 466 0
393 -395 466 0
-399 -401 -500 0
399 401 -500 0
-399 401 500 0
399 -401 500 0
-403 -405 -468 0
403 405 -468 0
-403 405 468 0
403 -405 468 0
-407 -409 -470 0
407 409 -470 0
-407 409 470 0
407 -409 470 0
-411 -413 -472 0
411 413 -472 0
-411 413 472 0
411 -413 472 0
-415 -417 -474 0
415 417 -474 0
-415 417 474 0
415 -417 474 0
-419 -421 -476 0
419 421 -476 0
-419 421 476 0
419 -421 476 0
-423 -425 -478 0
423 425 -478 0
-423 425 478 0
423 -425 478 0
-429 -431 -481 0
429 431 -481 0
-429 431 481 0
429 -431 481 0
-433 -435 -482 0
433 435 -482 0
-433 435 482 0
433 -435 482 0
-437 -439 -484 0
437 439 -484 0
-437 439 484 0
437 -439 484 0
-441 -443 -486 0
441 443 -486 0
-441 443 486 0
441 -443 486 0
-445 -447 -488 0
445 447 -488 0
-445 447 488 0
445 -447 488 0
-449 -451 -490 0
449 451 -490 0
-449 451 490 0
449 -451 490 0
-453 -455 -492 0
453 455 -492 0
-453 455 492 0
453 -455 492 0
-457 -459 -494 0
457 459 -494 0
-457 459 494 0
457 -459 494 0
-461 -462 -496 0
461 462 -496 0
-461 462 496 0
461 -462 496 0
-464 -466 -499 0
464 466 -499 0
-464 466 499 0
464 -466 499 0
-468 -470 -501 0
468 470 -501 0
-468 470 501 0
468 -470 501 0
-472 -474 -502 0
472 474 -502 0
-472 474 502 0
472 -474 502 0
-476 -478 -504 0
476 478 -504 0
-476 478 504 0
476 -478 504 0
-480 -481 -506 0
480 481 -506 0
-480 481 506 0
480 -481 506 0
-482 -484 -508 0
482 484 -508 0
-482 484 508 0
482 -484 508 0
-486 -488 -510 0
486 488 -510 0
-486 488 510 0
486 -488 510 0
-490 -492 -512 0
490 492 -512 0
-490 492 512 0
490 -492 512 0
-494 -496 -514 0
494 496 -514 0
-494 496 514 0
494 -496 514 0
-498 -499 -516 0
498 499 -516 0
-498 499 516 0
498 -499 516 0
-500 -501 -518 0
500 501 -518 0
-500 501 518 0
500 -501 518 0
-502 -504 -520 0
502 504 -520 0
-502 504 520 0
502 -504 520 0
-506 -508 -522 0
506 508 -522 0
-506 508 522 0
506 -508 522 0
-510 -512 -524 0
510 512 -524 0
-510 512 524 0
510 -512 524 0
-514 -516 -526 0
514 516 -526 0
-514 516 526 0
514 -516 526 0
-518 -520 -528 0
518 520 -528 0
-518 520 528 0
518 -520 528 0
-522 -524 -530 0
522 524 -530 0
-522 524 530 0
522 -524 530 0
-526 -528 530 0
526 528 530 0
-526 528 -530 0
526 -528 -530 0
-53 -463 -565 0
53 463 -565 0
-53 463 565 0
53 -463 565 0
-465 -467 -534 0
465 467 -534 0
-465 467 534 0
465 -467 534 0
-469 -471 -537 0
469 471 -537 0
-469 471 537 0
469 -471 537 0
-473 -475 -538 0
473 475 -538 0
-473 475 538 0
473 -475 538 0
-477 -479 -540 0
477 479 -540 0
-477 479 540 0
477 -479 540 0
-483 -485 -543 0
483 485 -543 0
-483 485 543 0
483 -485 543 0
-487 -489 -544 0
487 489 -544 0
-487 489 544 0
487 -489 544 0
-491 -493 -546 0
491 493 -546 0
-491 493 546 0
491 -493 546 0
-495 -497 -548 0
495 497 -548 0
-495 497 548 0
495 -497 548 0
-503 -505 -551 0
503 505 -551 0
-503 505 551 0
503 -505 551 0
-507 -509 -552 0
507 509 -552 0
-507 509 552 0
507 -509 552 0
-511 -513 -554 0
511 513 -554 0
-511 513 554 0
511 -513 554 0
-515 -517 -556 0
515 517 -556 0
-515 517 556 0
515 -517 556 0
-519 -521 -558 0
519 521 -558 0
-519 521 558 0
519 -521 558 0
-523 -525 -560 0
523 525 -560 0
-523 525 560 0
523 -525 560 0
-527 -529 -562 0
527 529 -562 0
-527 529 562 0
527 -529 562 0
-531 -532 -564 0
531 532 -564 0
-531 532 564 0
531 -532 564 0
-534 -536 -566 0
534 536 -566 0
-534 536 566 0
534 -536 566 0
-537 -538 -568 0
537 538 -568 0
-537 538 568 0
537 -538 568 0
-540 -542 -570 0
540 542 -570 0
-540 542 570 0
540 -542 570 0
-543 -544 -572 0
543 544 -572 0
-543 544 572 0
543 -544 572 0
-546 -548 -574 0
546 548 -574 0
-546 548 574 0
546 -548 574 0
-549 -550 -576 0
549 550 -576 0
-549 550 576 0
549 -550 576 0
-551 -552 -578 0
551 552 -578 0
-551 552 578 0
551 -552 578 0
-554 -556 -580 0
554 556 -580 0
-554 556 580 0
554 -556 580 0
-558 -560 -582 0
558 560 -582 0
-558 560 582 0
558 -560 582 0
-562 -564 -584 0
562 564 -584 0
-562 564 584 0
562 -564 584 0
-565 -566 -586 0
565 566 -586 0
-565 566 586 0
565 -566 586 0
-568 -570 -588 0
568 570 -588 0
-568 570 588 0
568 -570 588 0
-572 -574 -590 0
572 574 -590 0
-572 574 590 0
572 -574 590 0
-576 -578 -592 0
576 578 -592 0
-576 578 592 0
576 -578 592 0
-580 -582 -594 0
580 582 -594 0
-580 582 594 0
580 -582 594 0
-584 -586 -596 0
584 586 -596 0
-584 586 596 0
584 -586 596 0
-588 -590 -598 0
588 590 -598 0
-588 590 598 0
588 -590 598 0
-592 -594 -600 0
592 594 -600 0
-592 594 600 0
592 -594 600 0
-596 -598 600 0
596 598 600 0
-596 598 -600 0
596 -598 -600 0
-533 -535 -602 0
533 535 -602 0
-533 535 602 0
533 -535 602 0
-539 -541 -604 0
539 541 -604 0
-539 541 604 0
539 -541 604 0
-545 -547 -606 0
545 547 -606 0
-545 547 606 0
545 -547 606 0
-553 -555 -609 0
553 555 -609 0
-553 555 609 0
553 -555 609 0
-557 -559 -610 0
557 559 -610 0
-557 559 610 0
557 -559 610 0
-561 -563 -612 0
561 563 -612 0
-561 563 612 0
561 -563 612 0
-567 -569 -615 0
567 569 -615 0
-567 569 615 0
567 -569 615 0
-571 -573 -616 0
571 573 -616 0
-571 573 616 0
571 -573 616 0
-575 -577 -618 0
575 577 -618 0
-575 577 618 0
575 -577 618 0
-579 -581 -620 0
579 581 -620 0
-579 581 620 0
579 -581 620 0
-583 -585 -622 0
583 585 -622 0
-583 585 622 0
583 -585 622 0
-587 -589 -624 0
587 589 -624 0
-587 589 624 0
587 -589 624 0
-591 -593 -626 0
591 593 -626 0
-591 593 626 0
591 -593 626 0
-595 -597 -628 0
595 597 -628 0
-595 597 628 0
595 -597 628 0
-599 -601 -630 0
599 601 -630 0
-599 601 630 0
599 -601 630 0
-602 -603 -633 0
602 603 -633 0
-602 603 633 0
602 -603 633 0
-604 -605 -634 0
604 605 -634 0
-604 605 634 0
604 -605 634 0
-606 -607 -636 0
606 607 -636 0
-606 607 636 0
606 -607 636 0
-608 -609 -638 0
608 609 -638 0
-608 609 638 0
608 -609 638 0
-610 -612 -640 0
610 612 -640 0
-610 612 640 0
610 -612 640 0
-614 -615 -642 0
614 615 -642 0
-614 615 642 0
614 -615 642 0
-616 -618 -644 0
616 618 -644 0
-616 618 644 0
616 -618 644 0
-620 -622 -646 0
620 622 -646 0
-620 622 646 0
620 -622 646 0
-624 -626 -648 0
624 626 -648 0
-624 626 648 0
624 -626 648 0
-628 -630 -650 0
628 630 -650 0
-628 630 650 0
628 -630 650 0
-632 -633 -652 0
632 633 -652 0
-632 633 652 0
632 -633 652 0
-634 -636 -654 0
634 636 -654 0
-634 636 654 0
634 -636 654 0
-638 -640 -656 0
638 640 -656 0
-638 640 656 0
638 -640 656 0
-642 -644 -658 0
642 644 -658 0
-642 644 658 0
642 -644 658 0
-646 -648 -660 0
646 648 -660 0
-646 648 660 0
646 -648 660 0
-650 -652 -662 0
650 652 -662 0
-650 652 662 0
650 -652 662 0
-654 -656 -664 0
654 656 -664 0
-654 656 664 0
654 -656 664 0
-658 -660 -666 0
658 660 -666 0
-658 660 666 0
658 -660 666 0
-662 -664 -666 0
662 664 -666 0
-662 664 666 0
662 -664 666 0
-611 -613 -673 0
611 613 -673 0
-611 613 673 0
611 -613 673 0
-617 -619 -675 0
617 619 -675 0
-617 619 675 0
617 -619 675 0
-621 -623 -677 0
621 623 -677 0
-621 623 677 0
621 -623 677 0
-625 -627 -679 0
625 627 -679 0
-625 627 679 0
625 -627 679 0
-629 -631 -681 0
629 631 -681 0
-629 631 681 0
629 -631 681 0
-635 -637 -684 0
635 637 -684 0
-635 637 684 0
635 -637 684 0
-639 -641 -685 0
639 641 -685 0
-639 641 685 0
639 -641 685 0
-643 -645 -687 0
643 645 -687 0
-643 645 687 0
643 -645 687 0
-647 -649 -689 0
647 649 -689 0
-647 649 689 0
647 -649 689 0
-651 -653 -691 0
651 653 -691 0
-651 653 691 0
651 -653 691 0
-655 -657 -693 0
655 657 -693 0
-655 657 693 0
655 -657 693 0
-659 -661 -695 0
659 661 -695 0
-659 661 695 0
659 -661 695 0
-663 -665 -697 0
663 665 -697 0
-663 665 697 0
663 -665 697 0
-667 -668 -699 0
667 668 -699 0
-667 668 699 0
667 -668 699 0
-666 -669 -701 0
666 669 -701 0
-666 669 701 0
666 -669 701 0
-670 -671 -703 0
670 671 -703 0
-670 671 703 0
670 -671 703 0
-672 -673 -705 0
672 673 -705 0
-672 673 705 0
672 -673 705 0
-674 -675 -707 0
674 675 -707 0
-674 675 707 0
674 -675 707 0
-677 -679 -709 0
677 679 -709 0
-677 679 709 0
677 -679 709 0
-681 -683 -711 0
681 683 -711 0
-681 683 711 0
681 -683 711 0
-684 -685 -713 0
684 685 -713 0
-684 685 713 0
684 -685 713 0
-687 -689 -715 0
687 689 -715 0
-687 689 715 0
687 -689 715 0
-691 -693 -717 0
691 693 -717 0
-691 693 717 0
691 -693 717 0
-695 -697 -719 0
695 697 -719 0
-695 697 719 0
695 -697 719 0
-699 -701 -721 0
699 701 -721 0
-699 701 721 0
699 -701 721 0
-703 -705 -723 0
703 705 -723 0
-703 705 723 0
703 -705 723 0
-707 -709 -725 0
707 709 -725 0
-707 709 725 0
707 -709 725 0
-711 -713 -727 0
711 713 -727 0
-711 713 727 0
711 -713 727 0
-715 -717 -729 0
715 717 -729 0
-715 717 729 0
715 -717 729 0
-719 -721 -731 0
719 721 -731 0
-719 721 731 0
719 -721 731 0
-723 -725 -733 0
723 725 -733 0
-723 725 733 0
723 -725 733 0
-727 -729 -735 0
727 729 -735 0
-727 729 735 0
727 -729 735 0
-731 -733 -735 0
731 733 -735 0
-731 733 735 0
731 -733 735 0
-676 -678 -739 0
676 678 -739 0
-676 678 739 0
676 -678 739 0
-680 -682 -740 0
680 682 -740 0
-680 682 740 0
680 -682 740 0
-686 -688 -742 0
686 688 -742 0
-686 688 742 0
686 -688 742 0
-690 -692 -744 0
690 692 -744 0
-690 692 744 0
690 -692 744 0
-694 -696 -746 0
694 696 -746 0
-694 696 746 0
694 -696 746 0
-698 -700 -748 0
698 700 -748 0
-698 700 748 0
698 -700 748 0
-702 -704 -750 0
702 704 -750 0
-702 704 750 0
702 -704 750 0
-706 -708 -752 0
706 708 -752 0
-706 708 752 0
706 -708 752 0
-710 -712 -754 0
710 712 -754 0
-710 712 754 0
710 -712 754 0
-714 -716 -756 0
714 716 -756 0
-714 716 756 0
714 -716 756 0
-718 -720 -758 0
718 720 -758 0
-718 720 758 0
718 -720 758 0
-722 -724 -760 0
722 724 -760 0
-722 724 760 0
722 -724 760 0
-726 -728 -762 0
726 728 -762 0
-726 728 762 0
726 -728 762 0
-730 -732 -764 0
730 732 -764 0
-730 732 764 0
730 -732 764 0
-734 -736 -766 0
734 736 -766 0
-734 736 766 0
734 -736 766 0
-735 -737 -768 0
735 737 -768 0
735 -737 768 0
-735 737 768 0
-738 -739 -786 0
738 739 -786 0
-738 739 786 0
738 -739 786 0
-740 -741 -770 0
740 741 -770 0
-740 741 770 0
740 -741 770 0
-742 -744 -772 0
742 744 -772 0
-742 744 772 0
742 -744 772 0
-746 -748 -774 0
746 748 -774 0
-746 748 774 0
746 -748 774 0
-750 -752 -776 0
750 752 -776 0
-750 752 776 0
750 -752 776 0
-754 -756 -778 0
754 756 -778 0
-754 756 778 0
754 -756 778 0
-758 -760 -780 0
758 760 -780 0
-758 760 780 0
758 -760 780 0
-762 -764 -782 0
762 764 -782 0
-762 764 782 0
762 -764 782 0
-766 -768 -784 0
766 768 -784 0
-766 768 784 0
766 -768 784 0
-770 -772 -787 0
770 772 -787 0
-770 772 787 0
770 -772 787 0
-774 -776 -788 0
774 776 -788 0
-774 776 788 0
774 -776 788 0
-778 -780 -790 0
778 780 -790 0
-778 780 790 0
778 -780 790 0
-782 -784 -792 0
782 784 -792 0
-782 784 792 0
782 -784 792 0
-786 -787 -794 0
786 787 -794 0
-786 787 794 0
786 -787 794 0
-788 -790 -796 0
788 790 -796 0
-788 790 796 0
788 -790 796 0
-792 -794 -796 0
792 794 -796 0
-792 794 796 0
792 -794 796 0
-743 -745 -801 0
743 745 -801 0
-743 745 801 0
743 -745 801 0
-747 -749 -802 0
747 749 -802 0
-747 749 802 0
747 -749 802 0
-751 -753 -804 0
751 753 -804 0
-751 753 804 0
751 -753 804 0
-755 -757 -806 0
755 757 -806 0
-755 757 806 0
755 -757 806 0
-759 -761 -808 0
759 761 -808 0
-759 761 808 0
759 -761 808 0
-763 -765 -810 0
763 765 -810 0
-763 765 810 0
763 -765 810 0
-767 -769 -812 0
767 769 -812 0
-767 769 812 0
767 -769 812 0
-771 -773 -815 0
771 773 -815 0
-771 773 815 0
771 -773 815 0
-775 -777 -816 0
775 777 -816 0
-775 777 816 0
775 -777 816 0
-779 -781 -818 0
779 781 -818 0
-779 781 818 0
779 -781 818 0
-783 -785 -820 0
783 785 -820 0
-783 785 820 0
783 -785 820 0
-789 -791 -822 0
789 791 -822 0
-789 791 822 0
789 -791 822 0
-793 -795 -824 0
793 795 -824 0
-793 795 824 0
793 -795 824 0
-797 -798 -826 0
797 798 -826 0
-797 798 826 0
797 -798 826 0
-799 -800 -827 0
799 800 -827 0
-799 800 827 0
799 -800 827 0
-801 -802 -829 0
801 802 -829 0
-801 802 829 0
801 -802 829 0
-804 -806 -831 0
804 806 -831 0
-804 806 831 0
804 -806 831 0
-808 -810 -833 0
808 810 -833 0
-808 810 833 0
808 -810 833 0
-812 -814 -835 0
812 814 -835 0
-812 814 835 0
812 -814 835 0
-815 -816 -837 0
815 816 -837 0
-815 816 837 0
815 -816 837 0
-818 -820 -839 0
818 820 -839 0
-818 820 839 0
818 -820 839 0
-821 -822 -841 0
821 822 -841 0
-821 822 841 0
821 -822 841 0
-824 -826 -843 0
824 826 -843 0
-824 826 843 0
824 -826 843 0
-796 -827 -845 0
796 827 -845 0
-796 827 845 0
796 -827 845 0
-829 -831 -847 0
829 831 -847 0
-829 831 847 0
829 -831 847 0
-833 -835 -849 0
833 835 -849 0
-833 835 849 0
833 -835 849 0
-837 -839 -851 0
837 839 -851 0
-837 839 851 0
837 -839 851 0
-841 -843 -853 0
841 843 -853 0
-841 843 853 0
841 -843 853 0
-845 -847 -855 0
845 847 -855 0
-845 847 855 0
845 -847 855 0
-849 -851 -857 0
849 851 -857 0
-849 851 857 0
849 -851 857 0
-853 -855 -857 0
853 855 -857 0
-853 855 857 0
853 -855 857 0
-803 -805 -861 0
803 805 -861 0
-803 805 861 0
803 -805 861 0
-807 -809 -863 0
807 809 -863 0
-807 809 863 0
807 -809 863 0
-811 -813 -865 0
811 813 -865 0
-811 813 865 0
811 -813 865 0
-817 -819 -867 0
817 819 -867 0
-817 819 867 0
817 -819 867 0
-823 -825 -869 0
823 825 -869 0
-823 825 869 0
823 -825 869 0
-828 -830 -871 0
828 830 -871 0
-828 830 871 0
828 -830 871 0
-832 -834 -873 0
832 834 -873 0
-832 834 873 0
832 -834 873 0
-836 -838 -875 0
836 838 -875 0
-836 838 875 0
836 -838 875 0
-840 -842 -877 0
840 842 -877 0
-840 842 877 0
840 -842 877 0
-844 -846 -879 0
844 846 -879 0
-844 846 879 0
844 -846 879 0
-848 -850 -881 0
848 850 -881 0
-848 850 881 0
848 -850 881 0
-852 -854 -883 0
852 854 -883 0
-852 854 883 0
852 -854 883 0
-856 -858 -885 0
856 858 -885 0
-856 858 885 0
856 -858 885 0
-857 -859 -887 0
857 859 -887 0
857 -859 887 0
-857 859 887 0
-861 -863 -888 0
861 863 -888 0
-861 863 888 0
861 -863 888 0
-865 -866 -890 0
865 866 -890 0
-865 866 890 0
865 -866 890 0
-867 -868 -892 0
867 868 -892 0
-867 868 892 0
867 -868 892 0
-869 -870 -894 0
869 870 -894 0
-869 870 894 0
869 -870 894 0
-871 -873 -896 0
871 873 -896 0
-871 873 896 0
871 -873 896 0
-875 -877 -898 0
875 877 -898 0
-875 877 898 0
875 -877 898 0
-879 -881 -900 0
879 881 -900 0
-879 881 900 0
879 -881 900 0
-883 -885 -902 0
883 885 -902 0
-883 885 902 0
883 -885 902 0
-860 -887 -904 0
860 887 -904 0
860 -887 904 0
-860 887 904 0
-888 -890 -906 0
888 890 -906 0
-888 890 906 0
888 -890 906 0
-892 -894 -908 0
892 894 -908 0
-892 894 908 0
892 -894 908 0
-896 -898 -910 0
896 898 -910 0
-896 898 910 0
896 -898 910 0
-900 -902 -912 0
900 902 -912 0
-900 902 912 0
900 -902 912 0
-904 -906 -914 0
904 906 -914 0
-904 906 914 0
904 -906 914 0
-908 -910 -916 0
908 910 -916 0
-908 910 916 0
908 -910 916 0
-912 -914 -916 0
912 914 -916 0
-912 914 916 0
912 -914 916 0
-862 -864 -919 0
862 864 -919 0
-862 864 919 0
862 -864 919 0
-872 -874 -923 0
872 874 -923 0
-872 874 923 0
872 -874 923 0
-876 -878 -924 0
876 878 -924 0
-876 878 924 0
876 -878 924 0
-880 -882 -926 0
880 882 -926 0
-880 882 926 0
880 -882 926 0
-884 -886 -928 0
884 886 -928 0
-884 886 928 0
884 -886 928 0
-889 -891 -930 0
889 891 -930 0
-889 891 930 0
889 -891 930 0
-893 -895 -932 0
893 895 -932 0
-893 895 932 0
893 -895 932 0
-897 -899 -934 0
897 899 -934 0
-897 899 934 0
897 -899 934 0
-901 -903 -936 0
901 903 -936 0
-901 903 936 0
901 -903 936 0
-905 -907 -938 0
905 907 -938 0
-905 907 938 0
905 -907 938 0
-909 -911 -940 0
909 911 -940 0
-909 911 940 0
909 -911 940 0
-913 -915 -942 0
913 915 -942 0
-913 915 942 0
913 -915 942 0
-917 -918 -944 0
917 918 -944 0
-917 918 944 0
917 -918 944 0
-919 -920 -946 0
919 920 -946 0
-919 920 946 0
919 -920 946 0
-921 -922 -947 0
921 922 -947 0
-921 922 947 0
921 -922 947 0
-923 -924 -949 0
923 924 -949 0
-923 924 949 0
923 -924 949 0
-926 -928 -951 0
926 928 -951 0
-926 928 951 0
926 -928 951 0
-929 -930 -953 0
929 930 -953 0
-929 930 953 0
929 -930 953 0
-932 -934 -955 0
932 934 -955 0
-932 934 955 0
932 -934 955 0
-936 -938 -957 0
936 938 -957 0
-936 938 957 0
936 -938 957 0
-940 -942 -959 0
940 942 -959 0
-940 942 959 0
940 -942 959 0
-916 -944 -961 0
916 944 -961 0
916 -944 961 0
-916 944 961 0
-946 -947 -963 0
946 947 -963 0
-946 947 963 0
946 -947 963 0
-949 -951 -965 0
949 951 -965 0
-949 951 965 0
949 -951 965 0
-953 -955 -967 0
953 955 -967 0
-953 955 967 0
953 -955 967 0
-957 -959 -969 0
957 959 -969 0
-957 959 969 0
957 -959 969 0
-961 -963 -971 0
961 963 -971 0
-961 963 971 0
961 -963 971 0
-965 -967 -973 0
965 967 -973 0
-965 967 973 0
965 -967 973 0
-969 -971 -973 0
969 971 -973 0
-969 971 973 0
969 -971 973 0
-925 -927 -978 0
925 927 -978 0
-925 927 978 0
925 -927 978 0
-931 -933 -980 0
931 933 -980 0
-931 933 980 0
931 -933 980 0
-935 -937 -981 0
935 937 -981 0
-935 937 981 0
935 -937 981 0
-939 -941 -983 0
939 941 -983 0
-939 941 983 0
939 -941 983 0
-943 -945 -985 0
943 945 -985 0
-943 945 985 0
943 -945 985 0
-948 -950 -987 0
948 950 -987 0
-948 950 987 0
948 -950 987 0
-952 -954 -989 0
952 954 -989 0
-952 954 989 0
952 -954 989 0
-956 -958 -991 0
956 958 -991 0
-956 958 991 0
956 -958 991 0
-960 -962 -993 0
960 962 -993 0
-960 962 993 0
960 -962 993 0
-964 -966 -995 0
964 966 -995 0
-964 966 995 0
964 -966 995 0
-968 -970 -997 0
968 970 -997 0
-968 970 997 0
968 -970 997 0
-972 -974 -999 0
972 974 -999 0
-972 974 999 0
972 -974 999 0
-973 -975 -1001 0
973 975 -1001 0
973 -975 1001 0
-973 975 1001 0
-977 -978 -1003 0
977 978 -1003 0
-977 978 1003 0
977 -978 1003 0
-979 -980 -1004 0
979 980 -1004 0
-979 980 1004 0
979 -980 1004 0
-981 -983 -1006 0
981 983 -1006 0
-981 983 1006 0
981 -983 1006 0
-985 -986 -1008 0
985 986 -1008 0
-985 986 1008 0
985 -986 1008 0
-987 -989 -1010 0
987 989 -1010 0
-987 989 1010 0
987 -989 1010 0
-991 -993 -1012 0
991 993 -1012 0
-991 993 1012 0
991 -993 1012 0
-995 -997 -1014 0
995 997 -1014 0
-995 997 1014 0
995 -997 1014 0
-999 -1001 -1016 0
999 1001 -1016 0
-999 1001 1016 0
999 -1001 1016 0
-976 -1003 -1018 0
976 1003 -1018 0
-976 1003 1018 0
976 -1003 1018 0
-1004 -1006 -1020 0
1004 1006 -1020 0
-1004 1006 1020 0
1004 -1006 1020 0
-1008 -1010 -1022 0
1008 1010 -1022 0
-1008 1010 1022 0
1008 -1010 1022 0
-1012 -1014 -1024 0
1012 1014 -1024 0
-1012 1014 1024 0
1012 -1014 1024 0
-1016 -1018 -1026 0
1016 1018 -1026 0
-1016 1018 1026 0
1016 -1018 1026 0
-1020 -1022 -1028 0
1020 1022 -1028 0
-1020 1022 1028 0
1020 -1022 1028 0
-1024 -1026 -1028 0
1024 1026 -1028 0
-1024 1026 1028 0
1024 -1026 1028 0
-982 -984 -1033 0
982 984 -1033 0
-982 984 1033 0
982 -984 1033 0
-988 -990 -1035 0
988 990 -1035 0
-988 990 1035 0
988 -990 1035 0
-992 -994 -1036 0
992 994 -1036 0
-992 994 1036 0
992 -994 1036 0
-996 -998 -1038 0
996 998 -1038 0
-996 998 1038 0
996 -998 1038 0
-1000 -1002 -1040 0
1000 1002 -1040 0
-1000 1002 1040 0
1000 -1002 1040 0
-1005 -1007 -1042 0
1005 1007 -1042 0
-1005 1007 1042 0
1005 -1007 1042 0
-1009 -1011 -1044 0
1009 1011 -1044 0
-1009 1011 1044 0
1009 -1011 1044 0
-1013 -1015 -1046 0
1013 1015 -1046 0
-1013 1015 1046 0
1013 -1015 1046 0
-1017 -1019 -1048 0
1017 1019 -1048 0
-1017 1019 1048 0
1017 -1019 1048 0
-1021 -1023 -1050 0
1021 1023 -1050 0
-1021 1023 1050 0
1021 -1023 1050 0
-1025 -1027 -1052 0
1025 1027 -1052 0
-1025 1027 1052 0
1025 -1027 1052 0
-1029 -1030 -1054 0
1029 1030 -1054 0
-1029 1030 1054 0
1029 -1030 1054 0
-1031 -1032 -1055 0
1031 1032 -1055 0
-1031 1032 1055 0
1031 -1032 1055 0
-1033 -1034 -1057 0
1033 1034 -1057 0
-1033 1034 1057 0
1033 -1034 1057 0
-1035 -1036 -1059 0
1035 1036 -1059 0
-1035 1036 1059 0
1035 -1036 1059 0
-1038 -1040 -1061 0
1038 1040 -1061 0
-1038 1040 1061 0
1038 -1040 1061 0
-1041 -1042 -1063 0
1041 1042 -1063 0
-1041 1042 1063 0
1041 -1042 1063 0
-1044 -1046 -1065 0
1044 1046 -1065 0
-1044 1046 1065 0
1044 -1046 1065 0
-1048 -1050 -1067 0
1048 1050 -1067 0
-1048 1050 1067 0
1048 -1050 1067 0
-1052 -1054 -1069 0
1052 1054 -1069 0
-1052 1054 1069 0
1052 -1054 1069 0
-1028 -1055 -1071 0
1028 1055 -1071 0
-1028 1055 1071 0
1028 -1055 1071 0
-1057 -1059 -1073 0
1057 1059 -1073 0
-1057 1059 1073 0
1057 -1059 1073 0
-1061 -1063 -1075 0
1061 1063 -1075 0
-1061 1063 1075 0
1061 -1063 1075 0
-1065 -1067 -1077 0
1065 1067 -1077 0
-1065 1067 1077 0
1065 -1067 1077 0
-1069 -1071 -1079 0
1069 1071 -1079 0
-1069 1071 1079 0
1069 -1071 1079 0
-1073 -1075 -1081 0
1073 1075 -1081 0
-1073 1075 1081 0
1073 -1075 1081 0
-1077 -1079 -1081 0
1077 1079 -1081 0
-1077 1079 1081 0
1077 -1079 1081 0
-1037 -1039 -1086 0
1037 1039 -1086 0
-1037 1039 1086 0
1037 -1039 1086 0
-1043 -1045 -1088 0
1043 1045 -1088 0
-1043 1045 1088 0
1043 -1045 1088 0
-1047 -1049 -1089 0
1047 1049 -1089 0
-1047 1049 1089 0
1047 -1049 1089 0
-1051 -1053 -1091 0
1051 1053 -1091 0
-1051 1053 1091 0
1051 -1053 1091 0
-1056 -1058 -1094 0
1056 1058 -1094 0
-1056 1058 1094 0
1056 -1058 1094 0
-1060 -1062 -1095 0
1060 1062 -1095 0
-1060 1062 1095 0
1060 -1062 1095 0
-1064 -1066 -1097 0
1064 1066 -1097 0
-1064 1066 1097 0
1064 -1066 1097 0
-1068 -1070 -1099 0
1068 1070 -1099 0
-1068 1070 1099 0
1068 -1070 1099 0
-1072 -1074 -1101 0
1072 1074 -1101 0
-1072 1074 1101 0
1072 -1074 1101 0
-1076 -1078 -1103 0
1076 1078 -1103 0
-1076 1078 1103 0
1076 -1078 1103 0
-1080 -1082 -1105 0
1080 1082 -1105 0
-1080 1082 1105 0
1080 -1082 1105 0
-1081 -1083 -1107 0
1081 1083 -1107 0
1081 -1083 1107 0
-1081 1083 1107 0
-1085 -1086 -1108 0
1085 1086 -1108 0
-1085 1086 1108 0
1085 -1086 1108 0
-1087 -1088 -1110 0
1087 1088 -1110 0
-1087 1088 1110 0
1087 -1088 1110 0
-1089 -1091 -1112 0
1089 1091 -1112 0
-1089 1091 1112 0
1089 -1091 1112 0
-1093 -1094 -1114 0
1093 1094 -1114 0
-1093 1094 1114 0
1093 -1094 1114 0
-1095 -1097 -1116 0
1095 1097 -1116 0
-1095 1097 1116 0
1095 -1097 1116 0
-1099 -1101 -1118 0
1099 1101 -1118 0
-1099 1101 1118 0
1099 -1101 1118 0
-1103 -1105 -1120 0
1103 1105 -1120 0
-1103 1105 1120 0
1103 -1105 1120 0
-1084 -1107 -1122 0
1084 1107 -1122 0
1084 -1107 1122 0
-1084 1107 1122 0
-1108 -1110 -1124 0
1108 1110 -1124 0
-1108 1110 1124 0
1108 -1110 1124 0
-1112 -1114 -1126 0
1112 1114 -1126 0
-1112 1114 1126 0
1112 -1114 1126 0
-1116 -1118 -1128 0
1116 1118 -1128 0
-1116 1118 1128 0
1116 -1118 1128 0
-1120 -1122 -1130 0
1120 1122 -1130 0
-1120 1122 1130 0
1120 -1122 1130 0
-1124 -1126 -1132 0
1124 1126 -1132 0
-1124 1126 1132 0
1124 -1126 1132 0
-1128 -1130 -1132 0
1128 1130 -1132 0
-1128 1130 1132 0
1128 -1130 1132 0
-1090 -1092 -1137 0
1090 1092 -1137 0
-1090 1092 1137 0
1090 -1092 1137 0
-1096 -1098 -1139 0
1096 1098 -1139 0
-1096 1098 1139 0
1096 -1098 1139 0
-1100 -1102 -1140 0
1100 1102 -1140 0
-1100 1102 1140 0
1100 -1102 1140 0
-1104 -1106 -1142 0
1104 1106 -1142 0
-1104 1106 1142 0
1104 -1106 1142 0
-1109 -1111 -1145 0
1109 1111 -1145 0
-1109 1111 1145 0
1109 -1111 1145 0
-1113 -1115 -1146 0
1113 1115 -1146 0
-1113 1115 1146 0
1113 -1115 1146 0
-1117 -1119 -1148 0
1117 1119 -1148 0
-1117 1119 1148 0
1117 -1119 1148 0
-1121 -1123 -1150 0
1121 1123 -1150 0
-1121 1123 1150 0
1121 -1123 1150 0
-1125 -1127 -1152 0
1125 1127 -1152 0
-1125 1127 1152 0
1125 -1127 1152 0
-1129 -1131 -1154 0
1129 1131 -1154 0
-1129 1131 1154 0
1129 -1131 1154 0
-1133 -1134 -1156 0
1133 1134 -1156 0
-1133 1134 1156 0
1133 -1134 1156 0
-1135 -1136 -1158 0
1135 1136 -1158 0
-1135 1136 1158 0
1135 -1136 1158 0
-1137 -1138 -1159 0
1137 1138 -1159 0
-1137 1138 1159 0
1137 -1138 1159 0
-1139 -1140 -1161 0
1139 1140 -1161 0
-1139 1140 1161 0
1139 -1140 1161 0
-1142 -1144 -1163 0
1142 1144 -1163 0
-1142 1144 1163 0
1142 -1144 1163 0
-1145 -1146 -1165 0
1145 1146 -1165 0
-1145 1146 1165 0
1145 -1146 1165 0
-1148 -1150 -1167 0
1148 1150 -1167 0
-1148 1150 1167 0
1148 -1150 1167 0
-1152 -1154 -1169 0
1152 1154 -1169 0
-1152 1154 1169 0
1152 -1154 1169 0
-1132 -1156 -1171 0
1132 1156 -1171 0
1132 -1156 1171 0
-1132 1156 1171 0
-1158 -1159 -1173 0
1158 1159 -1173 0
-1158 1159 1173 0
1158 -1159 1173 0
-1161 -1163 -1175 0
1161 1163 -1175 0
-1161 1163 1175 0
1161 -1163 1175 0
-1165 -1167 -1177 0
1165 1167 -1177 0
-1165 1167 1177 0
1165 -1167 1177 0
-1169 -1171 -1179 0
1169 1171 -1179 0
-1169 1171 1179 0
1169 -1171 1179 0
-1173 -1175 -1181 0
1173 1175 -1181 0
-1173 1175 1181 0
1173 -1175 1181 0
-1177 -1179 -1181 0
1177 1179 -1181 0
-1177 1179 1181 0
1177 -1179 1181 0
-1141 -1143 -1185 0
1141 1143 -1185 0
-1141 1143 1185 0
1141 -1143 1185 0
-1147 -1149 -1187 0
1147 1149 -1187 0
-1147 1149 1187 0
1147 -1149 1187 0
-1151 -1153 -1188 0
1151 1153 -1188 0
-1151 1153 1188 0
1151 -1153 1188 0
-1155 -1157 -1190 0
1155 1157 -1190 0
-1155 1157 1190 0
1155 -1157 1190 0
-1160 -1162 -1193 0
1160 1162 -1193 0
-1160 1162 1193 0
1160 -1162 1193 0
-1164 -1166 -1194 0
1164 1166 -1194 0
-1164 1166 1194 0
1164 -1166 1194 0
-1168 -1170 -1196 0
1168 1170 -1196 0
-1168 1170 1196 0
1168 -1170 1196 0
-1172 -1174 -1198 0
1172 1174 -1198 0
-1172 1174 1198 0
1172 -1174 1198 0
-1176 -1178 -1200 0
1176 1178 -1200 0
-1176 1178 1200 0
1176 -1178 1200 0
-1180 -1182 -1202 0
1180 1182 -1202 0
-1180 1182 1202 0
1180 -1182 1202 0
-1181 -1183 -1204 0
1181 1183 -1204 0
1181 -1183 1204 0
-1181 1183 1204 0
-1184 -1185 -1207 0
1184 1185 -1207 0
-1184 1185 1207 0
1184 -1185 1207 0
-1186 -1187 -1208 0
1186 1187 -1208 0
-1186 1187 1208 0
1186 -1187 1208 0
-1188 -1190 -1210 0
1188 1190 -1210 0
-1188 1190 1210 0
1188 -1190 1210 0
-1192 -1193 -1212 0
1192 1193 -1212 0
-1192 1193 1212 0
1192 -1193 1212 0
-1194 -1196 -1214 0
1194 1196 -1214 0
-1194 1196 1214 0
1194 -1196 1214 0
-1198 -1200 -1216 0
1198 1200 -1216 0
-1198 1200 1216 0
1198 -1200 1216 0
-1202 -1204 -1218 0
1202 1204 -1218 0
-1202 1204 1218 0
1202 -1204 1218 0
-1206 -1207 -1220 0
1206 1207 -1220 0
-1206 1207 1220 0
1206 -1207 1220 0
-1208 -1210 -1222 0
1208 1210 -1222 0
-1208 1210 1222 0
1208 -1210 1222 0
-1212 -1214 -1224 0
1212 1214 -1224 0
-1212 1214 1224 0
1212 -1214 1224 0
-1216 -1218 -1226 0
1216 1218 -1226 0
-1216 1218 1226 0
1216 -1218 1226 0
-1220 -1222 -1228 0
1220 1222 -1228 0
-1220 1222 1228 0
1220 -1222 1228 0
-1224 -1226 -1228 0
1224 1226 -1228 0
-1224 1226 1228 0
1224 -1226 1228 0
-1189 -1191 -1233 0
1189 1191 -1233 0
-1189 1191 1233 0
1189 -1191 1233 0
-1195 -1197 -1235 0
1195 1197 -1235 0
-1195 1197 1235 0
1195 -1197 1235 0
-1199 -1201 -1236 0
1199 1201 -1236 0
-1199 1201 1236 0
1199 -1201 1236 0
-1203 -1205 -1238 0
1203 1205 -1238 0
-1203 1205 1238 0
1203 -1205 1238 0
-1209 -1211 -1241 0
1209 1211 -1241 0
-1209 1211 1241 0
1209 -1211 1241 0
-1213 -1215 -1242 0
1213 1215 -1242 0
-1213 1215 1242 0
1213 -1215 1242 0
-1217 -1219 -1244 0
1217 1219 -1244 0
-1217 1219 1244 0
1217 -1219 1244 0
-1221 -1223 -1246 0
1221 1223 -1246 0
-1221 1223 1246 0
1221 -1223 1246 0
-1225 -1227 -1248 0
1225 1227 -1248 0
-1225 1227 1248 0
1225 -1227 1248 0
-1229 -1230 -1250 0
1229 1230 -1250 0
-1229 1230 1250 0
1229 -1230 1250 0
-1231 -1232 -1251 0
1231 1232 -1251 0
-1231 1232 1251 0
1231 -1232 1251 0
-1233 -1234 -1253 0
1233 1234 -1253 0
-1233 1234 1253 0
1233 -1234 1253 0
-1235 -1236 -1255 0
1235 1236 -1255 0
-1235 1236 1255 0
1235 -1236 1255 0
-1238 -1240 -1257 0
1238 1240 -1257 0
-1238 1240 1257 0
1238 -1240 1257 0
-1241 -1242 -1259 0
1241 1242 -1259 0
-1241 1242 1259 0
1241 -1242 1259 0
-1244 -1246 -1261 0
1244 1246 -1261 0
-1244 1246 1261 0
1244 -1246 1261 0
-1248 -1250 -1263 0
1248 1250 -1263 0
-1248 1250 1263 0
1248 -1250 1263 0
-1228 -1251 -1265 0
1228 1251 -1265 0
-1228 1251 1265 0
1228 -1251 1265 0
-1253 -1255 -1267 0
1253 1255 -1267 0
-1253 1255 1267 0
1253 -1255 1267 0
-1257 -1259 -1269 0
1257 1259 -1269 0
-1257 1259 1269 0
1257 -1259 1269 0
-1261 -1263 -1271 0
1261 1263 -1271 0
-1261 1263 1271 0
1261 -1263 1271 0
-1265 -1267 -1273 0
1265 1267 -1273 0
-1265 1267 1273 0
1265 -1267 1273 0
-1269 -1271 -1273 0
1269 1271 -1273 0
-1269 1271 1273 0
1269 -1271 1273 0
-1237 -1239 -1278 0
1237 1239 -1278 0
-1237 1239 1278 0
1237 -1239 1278 0
-1243 -1245 -1280 0
1243 1245 -1280 0
-1243 1245 1280 0
1243 -1245 1280 0
-1247 -1249 -1281 0
1247 1249 -1281 0
-1247 1249 1281 0
1247 -1249 1281 0
-1252 -1254 -1283 0
1252 1254 -1283 0
-1252 1254 1283 0
1252 -1254 1283 0
-1256 -1258 -1285 0
1256 1258 -1285 0
-1256 1258 1285 0
1256 -1258 1285 0
-1260 -1262 -1287 0
1260 1262 -1287 0
-1260 1262 1287 0
1260 -1262 1287 0
-1264 -1266 -1289 0
1264 1266 -1289 0
-1264 1266 1289 0
1264 -1266 1289 0
-1268 -1270 -1291 0
1268 1270 -1291 0
-1268 1270 1291 0
1268 -1270 1291 0
-1272 -1274 -1293 0
1272 1274 -1293 0
-1272 1274 1293 0
1272 -1274 1293 0
-1273 -1275 -1295 0
1273 1275 -1295 0
1273 -1275 1295 0
-1273 1275 1295 0
-1277 -1278 -1296 0
1277 1278 -1296 0
-1277 1278 1296 0
1277 -1278 1296 0
-1279 -1280 -1298 0
1279 1280 -1298 0
-1279 1280 1298 0
1279 -1280 1298 0
-1281 -1282 -1300 0
1281 1282 -1300 0
-1281 1282 1300 0
1281 -1282 1300 0
-1283 -1285 -1302 0
1283 1285 -1302 0
-1283 1285 1302 0
1283 -1285 1302 0
-1287 -1289 -1304 0
1287 1289 -1304 0
-1287 1289 1304 0
1287 -1289 1304 0
-1291 -1293 -1306 0
1291 1293 -1306 0
-1291 1293 1306 0
1291 -1293 1306 0
-1276 -1295 -1308 0
1276 1295 -1308 0
1276 -1295 1308 0
-1276 1295 1308 0
-1296 -1298 -1310 0
1296 1298 -1310 0
-1296 1298 1310 0
1296 -1298 1310 0
-1300 -1302 -1312 0
1300 1302 -1312 0
-1300 1302 1312 0
1300 -1302 1312 0
-1304 -1306 -1314 0
1304 1306 -1314 0
-1304 1306 1314 0
1304 -1306 1314 0
-1308 -1310 -1316 0
1308 1310 -1316 0
-1308 1310 1316 0
1308 -1310 1316 0
-1312 -1314 -1316 0
1312 1314 -1316 0
-1312 1314 1316 0
1312 -1314 1316 0
-1284 -1286 -1322 0
1284 1286 -1322 0
-1284 1286 1322 0
1284 -1286 1322 0
-1288 -1290 -1324 0
1288 1290 -1324 0
-1288 1290 1324 0
1288 -1290 1324 0
-1292 -1294 -1326 0
1292 1294 -1326 0
-1292 1294 1326 0
1292 -1294 1326 0
-1297 -1299 -1328 0
1297 1299 -1328 0
-1297 1299 1328 0
1297 -1299 1328 0
-1301 -1303 -1330 0
1301 1303 -1330 0
-1301 1303 1330 0
1301 -1303 1330 0
-1305 -1307 -1332 0
1305 1307 -1332 0
-1305 1307 1332 0
1305 -1307 1332 0
-1309 -1311 -1334 0
1309 1311 -1334 0
-1309 1311 1334 0
1309 -1311 1334 0
-1313 -1315 -1336 0
1313 1315 -1336 0
-1313 1315 1336 0
1313 -1315 1336 0
-1317 -1318 -1338 0
1317 1318 -1338 0
-1317 1318 1338 0
1317 -1318 1338 0
-1319 -1320 -1340 0
1319 1320 -1340 0
-1319 1320 1340 0
1319 -1320 1340 0
-1321 -1322 -1341 0
1321 1322 -1341 0
-1321 1322 1341 0
1321 -1322 1341 0
-1324 -1326 -1343 0
1324 1326 -1343 0
-1324 1326 1343 0
1324 -1326 1343 0
-1327 -1328 -1345 0
1327 1328 -1345 0
-1327 1328 1345 0
1327 -1328 1345 0
-1330 -1332 -1347 0
1330 1332 -1347 0
-1330 1332 1347 0
1330 -1332 1347 0
-1334 -1336 -1349 0
1334 1336 -1349 0
-1334 1336 1349 0
1334 -1336 1349 0
-1316 -1338 -1351 0
1316 1338 -1351 0
1316 -1338 1351 0
-1316 1338 1351 0
-1340 -1341 -1353 0
1340 1341 -1353 0
-1340 1341 1353 0
1340 -1341 1353 0
-1343 -1345 -1355 0
1343 1345 -1355 0
-1343 1345 1355 0
1343 -1345 1355 0
-1347 -1349 -1357 0
1347 1349 -1357 0
-1347 1349 1357 0
1347 -1349 1357 0
-1351 -1353 -1359 0
1351 1353 -1359 0
-1351 1353 1359 0
1351 -1353 1359 0
-1355 -1357 -1359 0
1355 1357 -1359 0
-1355 1357 1359 0
1355 -1357 1359 0
-1323 -1325 -1362 0
1323 1325 -1362 0
-1323 1325 1362 0
1323 -1325 1362 0
-1329 -1331 -1364 0
1329 1331 -1364 0
-1329 1331 1364 0
1329 -1331 1364 0
-1333 -1335 -1366 0
1333 1335 -1366 0
-1333 1335 1366 0
1333 -1335 1366 0
-1337 -1339 -1368 0
1337 1339 -1368 0
-1337 1339 1368 0
1337 -1339 1368 0
-1342 -1344 -1370 0
1342 1344 -1370 0
-1342 1344 1370 0
1342 -1344 1370 0
-1346 -1348 -1372 0
1346 1348 -1372 0
-1346 1348 1372 0
1346 -1348 1372 0
-1350 -1352 -1374 0
1350 1352 -1374 0
-1350 1352 1374 0
1350 -1352 1374 0
-1354 -1356 -1376 0
1354 1356 -1376 0
-1354 1356 1376 0
1354 -1356 1376 0
-1358 -1360 -1378 0
1358 1360 -1378 0
-1358 1360 1378 0
1358 -1360 1378 0
-1359 -1361 -1380 0
1359 1361 -1380 0
1359 -1361 1380 0
-1359 1361 1380 0
-1362 -1363 -1391 0
1362 1363 -1391 0
-1362 1363 1391 0
1362 -1363 1391 0
-1364 -1366 -1382 0
1364 1366 -1382 0
-1364 1366 1382 0
1364 -1366 1382 0
-1368 -1369 -1384 0
1368 1369 -1384 0
-1368 1369 1384 0
1368 -1369 1384 0
-1370 -1372 -1386 0
1370 1372 -1386 0
-1370 1372 1386 0
1370 -1372 1386 0
-1374 -1376 -1388 0
1374 1376 -1388 0
-1374 1376 1388 0
1374 -1376 1388 0
-1378 -1380 -1390 0
1378 1380 -1390 0
-1378 1380 1390 0
1378 -1380 1390 0
-1382 -1384 -1392 0
1382 1384 -1392 0
-1382 1384 1392 0
1382 -1384 1392 0
-1386 -1388 -1394 0
1386 1388 -1394 0
-1386 1388 1394 0
1386 -1388 1394 0
-1390 -1391 -1396 0
1390 1391 -1396 0
-1390 1391 1396 0
1390 -1391 1396 0
-1392 -1394 -1396 0
1392 1394 -1396 0
-1392 1394 1396 0
1392 -1394 1396 0
-1365 -1367 -1400 0
1365 1367 -1400 0
-1365 1367 1400 0
1365 -1367 1400 0
-1371 -1373 -1402 0
1371 1373 -1402 0
-1371 1373 1402 0
1371 -1373 1402 0
-1375 -1377 -1404 0
1375 1377 -1404 0
-1375 1377 1404 0
1375 -1377 1404 0
-1379 -1381 -1406 0
1379 1381 -1406 0
-1379 1381 1406 0
1379 -1381 1406 0
-1383 -1385 -1408 0
1383 1385 -1408 0
-1383 1385 1408 0
1383 -1385 1408 0
-1387 -1389 -1410 0
1387 1389 -1410 0
-1387 1389 1410 0
1387 -1389 1410 0
-1393 -1395 -1413 0
1393 1395 -1413 0
-1393 1395 1413 0
1393 -1395 1413 0
-1397 -1398 -1414 0
1397 1398 -1414 0
-1397 1398 1414 0
1397 -1398 1414 0
-1399 -1400 -1415 0
1399 1400 -1415 0
-1399 1400 1415 0
1399 -1400 1415 0
-1401 -1402 -1417 0
1401 1402 -1417 0
-1401 1402 1417 0
1401 -1402 1417 0
-1404 -1406 -1419 0
1404 1406 -1419 0
-1404 1406 1419 0
1404 -1406 1419 0
-1407 -1408 -1421 0
1407 1408 -1421 0
-1407 1408 1421 0
1407 -1408 1421 0
-1410 -1412 -1423 0
1410 1412 -1423 0
-1410 1412 1423 0
1410 -1412 1423 0
-1413 -1414 -1425 0
1413 1414 -1425 0
-1413 1414 1425 0
1413 -1414 1425 0
-1396 -1415 -1427 0
1396 1415 -1427 0
-1396 1415 1427 0
1396 -1415 1427 0
-1417 -1419 -1429 0
1417 1419 -1429 0
-1417 1419 1429 0
1417 -1419 1429 0
-1421 -1423 -1431 0
1421 1423 -1431 0
-1421 1423 1431 0
1421 -1423 1431 0
-1425 -1427 -1433 0
1425 1427 -1433 0
-1425 1427 1433 0
1425 -1427 1433 0
-1429 -1431 -1433 0
1429 1431 -1433 0
-1429 1431 1433 0
1429 -1431 1433 0
-1403 -1405 -1437 0
1403 1405 -1437 0
-1403 1405 1437 0
1403 -1405 1437 0
-1409 -1411 -1439 0
1409 1411 -1439 0
-1409 1411 1439 0
1409 -1411 1439 0
-1416 -1418 -1442 0
1416 1418 -1442 0
-1416 1418 1442 0
1416 -1418 1442 0
-1420 -1422 -1443 0
1420 1422 -1443 0
-1420 1422 1443 0
1420 -1422 1443 0
-1424 -1426 -1445 0
1424 1426 -1445 0
-1424 1426 1445 0
1424 -1426 1445 0
-1428 -1430 -1447 0
1428 1430 -1447 0
-1428 1430 1447 0
1428 -1430 1447 0
-1432 -1434 -1449 0
1432 1434 -1449 0
-1432 1434 1449 0
1432 -1434 1449 0
-1433 -1435 -1451 0
1433 1435 -1451 0
1433 -1435 1451 0
-1433 1435 1451 0
-1437 -1438 -1452 0
1437 1438 -1452 0
-1437 1438 1452 0
1437 -1438 1452 0
-1439 -1440 -1454 0
1439 1440 -1454 0
-1439 1440 1454 0
1439 -1440 1454 0
-1441 -1442 -1456 0
1441 1442 -1456 0
-1441 1442 1456 0
1441 -1442 1456 0
-1443 -1445 -1458 0
1443 1445 -1458 0
-1443 1445 1458 0
1443 -1445 1458 0
-1447 -1449 -1460 0
1447 1449 -1460 0
-1447 1449 1460 0
1447 -1449 1460 0
-1436 -1451 -1462 0
1436 1451 -1462 0
1436 -1451 1462 0
-1436 1451 1462 0
-1452 -1454 -1464 0
1452 1454 -1464 0
-1452 1454 1464 0
1452 -1454 1464 0
-1456 -1458 -1466 0
1456 1458 -1466 0
-1456 1458 1466 0
1456 -1458 1466 0
-1460 -1462 -1468 0
1460 1462 -1468 0
-1460 1462 1468 0
1460 -1462 1468 0
-1464 -1466 -1468 0
1464 1466 -1468 0
-1464 1466 1468 0
1464 -1466 1468 0
-1444 -1446 -1474 0
1444 1446 -1474 0
-1444 1446 1474 0
1444 -1446 1474 0
-1448 -1450 -1476 0
1448 1450 -1476 0
-1448 1450 1476 0
1448 -1450 1476 0
-1453 -1455 -1479 0
1453 1455 -1479 0
-1453 1455 1479 0
1453 -1455 1479 0
-1457 -1459 -1480 0
1457 1459 -1480 0
-1457 1459 1480 0
1457 -1459 1480 0
-1461 -1463 -1482 0
1461 1463 -1482 0
-1461 1463 1482 0
1461 -1463 1482 0
-1465 -1467 -1484 0
1465 1467 -1484 0
-1465 1467 1484 0
1465 -1467 1484 0
-1469 -1470 -1486 0
1469 1470 -1486 0
-1469 1470 1486 0
1469 -1470 1486 0
-1471 -1472 -1488 0
1471 1472 -1488 0
-1471 1472 1488 0
1471 -1472 1488 0
-1473 -1474 -1489 0
1473 1474 -1489 0
-1473 1474 1489 0
1473 -1474 1489 0
-1476 -1478 -1491 0
1476 1478 -1491 0
-1476 1478 1491 0
1476 -1478 1491 0
-1479 -1480 -1493 0
1479 1480 -1493 0
-1479 1480 1493 0
1479 -1480 1493 0
-1482 -1484 -1495 0
1482 1484 -1495 0
-1482 1484 1495 0
1482 -1484 1495 0
-1468 -1486 -1497 0
1468 1486 -1497 0
1468 -1486 1497 0
-1468 1486 1497 0
-1488 -1489 -1499 0
1488 1489 -1499 0
-1488 1489 1499 0
1488 -1489 1499 0
-1491 -1493 -1501 0
1491 1493 -1501 0
-1491 1493 1501 0
1491 -1493 1501 0
-1495 -1497 -1503 0
1495 1497 -1503 0
-1495 1497 1503 0
1495 -1497 1503 0
-1499 -1501 -1503 0
1499 1501 -1503 0
-1499 1501 1503 0
1499 -1501 1503 0
-1475 -1477 -1506 0
1475 1477 -1506 0
-1475 1477 1506 0
1475 -1477 1506 0
-1481 -1483 -1508 0
1481 1483 -1508 0
-1481 1483 1508 0
1481 -1483 1508 0
-1485 -1487 -1510 0
1485 1487 -1510 0
-1485 1487 1510 0
1485 -1487 1510 0
-1490 -1492 -1513 0
1490 1492 -1513 0
-1490 1492 1513 0
1490 -1492 1513 0
-1494 -1496 -1514 0
1494 1496 -1514 0
-1494 1496 1514 0
1494 -1496 1514 0
-1498 -1500 -1516 0
1498 1500 -1516 0
-1498 1500 1516 0
1498 -1500 1516 0
-1502 -1504 -1518 0
1502 1504 -1518 0
-1502 1504 1518 0
1502 -1504 1518 0
-1503 -1505 -1520 0
1503 1505 -1520 0
1503 -1505 1520 0
-1503 1505 1520 0
-1506 -1507 -1530 0
1506 1507 -1530 0
-1506 1507 1530 0
1506 -1507 1530 0
-1508 -1510 -1522 0
1508 1510 -1522 0
-1508 1510 1522 0
1508 -1510 1522 0
-1512 -1513 -1524 0
1512 1513 -1524 0
-1512 1513 1524 0
1512 -1513 1524 0
-1514 -1516 -1526 0
1514 1516 -1526 0
-1514 1516 1526 0
1514 -1516 1526 0
-1518 -1520 -1528 0
1518 1520 -1528 0
-1518 1520 1528 0
1518 -1520 1528 0
-1522 -1524 -1531 0
1522 1524 -1531 0
-1522 1524 1531 0
1522 -1524 1531 0
-1526 -1528 -1532 0
1526 1528 -1532 0
-1526 1528 1532 0
1526 -1528 1532 0
-1530 -1531 -1532 0
1530 1531 -1532 0
-1530 1531 1532 0
1530 -1531 1532 0
-1509 -1511 -1536 0
1509 1511 -1536 0
-1509 1511 1536 0
1509 -1511 1536 0
-1515 -1517 -1538 0
1515 1517 -1538 0
-1515 1517 1538 0
1515 -1517 1538 0
-1519 -1521 -1540 0
1519 1521 -1540 0
-1519 1521 1540 0
1519 -1521 1540 0
-1523 -1525 -1543 0
1523 1525 -1543 0
-1523 1525 1543 0
1523 -1525 1543 0
-1527 -1529 -1544 0
1527 1529 -1544 0
-1527 1529 1544 0
1527 -1529 1544 0
-1533 -1534 -1546 0
1533 1534 -1546 0
-1533 1534 1546 0
1533 -1534 1546 0
-1535 -1536 -1547 0
1535 1536 -1547 0
-1535 1536 1547 0
1535 -1536 1547 0
-1537 -1538 -1549 0
1537 1538 -1549 0
-1537 1538 1549 0
1537 -1538 1549 0
-1540 -1542 -1551 0
1540 1542 -1551 0
-1540 1542 1551 0
1540 -1542 1551 0
-1543 -1544 -1553 0
1543 1544 -1553 0
-1543 1544 1553 0
1543 -1544 1553 0
-1545 -1546 -1555 0
1545 1546 -1555 0
-1545 1546 1555 0
1545 -1546 1555 0
-1532 -1547 -1557 0
1532 1547 -1557 0
-1532 1547 1557 0
1532 -1547 1557 0
-1549 -1551 -1559 0
1549 1551 -1559 0
-1549 1551 1559 0
1549 -1551 1559 0
-1553 -1555 -1561 0
1553 1555 -1561 0
-1553 1555 1561 0
1553 -1555 1561 0
-1557 -1559 -1561 0
1557 1559 -1561 0
-1557 1559 1561 0
1557 -1559 1561 0
-1539 -1541 -1565 0
1539 1541 -1565 0
-1539 1541 1565 0
1539 -1541 1565 0
-1548 -1550 -1569 0
1548 1550 -1569 0
-1548 1550 1569 0
1548 -1550 1569 0
-1552 -1554 -1571 0
1552 1554 -1571 0
-1552 1554 1571 0
1552 -1554 1571 0
-1556 -1558 -1573 0
1556 1558 -1573 0
-1556 1558 1573 0
1556 -1558 1573 0
-1560 -1562 -1575 0
1560 1562 -1575 0
-1560 1562 1575 0
1560 -1562 1575 0
-1561 -1563 -1577 0
1561 1563 -1577 0
1561 -1563 1577 0
-1561 1563 1577 0
-1565 -1566 -1578 0
1565 1566 -1578 0
-1565 1566 1578 0
1565 -1566 1578 0
-1567 -1568 -1580 0
1567 1568 -1580 0
-1567 1568 1580 0
1567 -1568 1580 0
-1569 -1571 -1582 0
1569 1571 -1582 0
-1569 1571 1582 0
1569 -1571 1582 0
-1573 -1575 -1584 0
1573 1575 -1584 0
-1573 1575 1584 0
1573 -1575 1584 0
-1564 -1577 -1586 0
1564 1577 -1586 0
1564 -1577 1586 0
-1564 1577 1586 0
-1578 -1580 -1588 0
1578 1580 -1588 0
-1578 1580 1588 0
1578 -1580 1588 0
-1582 -1584 -1590 0
1582 1584 -1590 0
-1582 1584 1590 0
1582 -1584 1590 0
-1586 -1588 -1590 0
1586 1588 -1590 0
-1586 1588 1590 0
1586 -1588 1590 0
-1570 -1572 -1594 0
1570 1572 -1594 0
-1570 1572 1594 0
1570 -1572 1594 0
-1574 -1576 -1595 0
1574 1576 -1595 0
-1574 1576 1595 0
1574 -1576 1595 0
-1579 -1581 -1597 0
1579 1581 -1597 0
-1579 1581 1597 0
1579 -1581 1597 0
-1583 -1585 -1599 0
1583 1585 -1599 0
-1583 1585 1599 0
1583 -1585 1599 0
-1587 -1589 -1601 0
1587 1589 -1601 0
-1587 1589 1601 0
1587 -1589 1601 0
-1591 -1592 -1603 0
1591 1592 -1603 0
-1591 1592 1603 0
1591 -1592 1603 0
-1594 -1595 -1605 0
1594 1595 -1605 0
-1594 1595 1605 0
1594 -1595 1605 0
-1596 -1597 -1607 0
1596 1597 -1607 0
-1596 1597 1607 0
1596 -1597 1607 0
-1599 -1601 -1609 0
1599 1601 -1609 0
-1599 1601 1609 0
1599 -1601 1609 0
-1590 -1603 -1611 0
1590 1603 -1611 0
1590 -1603 1611 0
-1590 1603 1611 0
-1593 -1605 -1613 0
1593 1605 -1613 0
-1593 1605 1613 0
1593 -1605 1613 0
-1607 -1609 -1615 0
1607 1609 -1615 0
-1607 1609 1615 0
1607 -1609 1615 0
-1611 -1613 -1615 0
1611 1613 -1615 0
-1611 1613 1615 0
1611 -1613 1615 0
-1598 -1600 -1620 0
1598 1600 -1620 0
-1598 1600 1620 0
1598 -1600 1620 0
-1602 -1604 -1630 0
1602 1604 -1630 0
-1602 1604 1630 0
1602 -1604 1630 0
-1606 -1608 -1621 0
1606 1608 -1621 0
-1606 1608 1621 0
1606 -1608 1621 0
-1610 -1612 -1623 0
1610 1612 -1623 0
-1610 1612 1623 0
1610 -1612 1623 0
-1614 -1616 -1625 0
1614 1616 -1625 0
-1614 1616 1625 0
1614 -1616 1625 0
-1615 -1617 -1627 0
1615 1617 -1627 0
1615 -1617 1627 0
-1615 1617 1627 0
-1619 -1620 -1629 0
1619 1620 -1629 0
-1619 1620 1629 0
1619 -1620 1629 0
-1621 -1623 -1631 0
1621 1623 -1631 0
-1621 1623 1631 0
1621 -1623 1631 0
-1625 -1627 -1632 0
1625 1627 -1632 0
-1625 1627 1632 0
1625 -1627 1632 0
-1618 -1629 -1634 0
1618 1629 -1634 0
-1618 1629 1634 0
1618 -1629 1634 0
-1630 -1631 -1636 0
1630 1631 -1636 0
-1630 1631 1636 0
1630 -1631 1636 0
-1632 -1634 -1636 0
1632 1634 -1636 0
-1632 1634 1636 0
1632 -1634 1636 0
-1622 -1624 -1641 0
1622 1624 -1641 0
-1622 1624 1641 0
1622 -1624 1641 0
-1626 -1628 -1642 0
1626 1628 -1642 0
-1626 1628 1642 0
1626 -1628 1642 0
-1633 -1635 -1645 0
1633 1635 -1645 0
-1633 1635 1645 0
1633 -1635 1645 0
-1637 -1638 -1646 0
1637 1638 -1646 0
-1637 1638 1646 0
1637 -1638 1646 0
-1639 -1640 -1647 0
1639 1640 -1647 0
-1639 1640 1647 0
1639 -1640 1647 0
-1641 -1642 -1649 0
1641 1642 -1649 0
-1641 1642 1649 0
1641 -1642 1649 0
-1643 -1644 -1651 0
1643 1644 -1651 0
-1643 1644 1651 0
1643 -1644 1651 0
-1645 -1646 -1653 0
1645 1646 -1653 0
-1645 1646 1653 0
1645 -1646 1653 0
-1636 -1647 -1655 0
1636 1647 -1655 0
-1636 1647 1655 0
1636 -1647 1655 0
-1649 -1651 -1657 0
1649 1651 -1657 0
-1649 1651 1657 0
1649 -1651 1657 0
-1653 -1655 -1657 0
1653 1655 -1657 0
-1653 1655 1657 0
1653 -1655 1657 0
-1648 -1650 -1664 0
1648 1650 -1664 0
-1648 1650 1664 0
1648 -1650 1664 0
-1652 -1654 -1665 0
1652 1654 -1665 0
-1652 1654 1665 0
1652 -1654 1665 0
-1656 -1658 -1667 0
1656 1658 -1667 0
-1656 1658 1667 0
1656 -1658 1667 0
-1657 -1659 -1669 0
1657 1659 -1669 0
1657 -1659 1669 0
-1657 1659 1669 0
-1661 -1662 -1670 0
1661 1662 -1670 0
-1661 1662 1670 0
1661 -1662 1670 0
-1663 -1664 -1672 0
1663 1664 -1672 0
-1663 1664 1672 0
1663 -1664 1672 0
-1665 -1667 -1674 0
1665 1667 -1674 0
-1665 1667 1674 0
1665 -1667 1674 0
-1660 -1669 -1676 0
1660 1669 -1676 0
1660 -1669 1676 0
-1660 1669 1676 0
-1670 -1672 -1678 0
1670 1672 -1678 0
-1670 1672 1678 0
1670 -1672 1678 0
-1674 -1676 -1678 0
1674 1676 -1678 0
-1674 1676 1678 0
1674 -1676 1678 0
-1666 -1668 -1682 0
1666 1668 -1682 0
-1666 1668 1682 0
1666 -1668 1682 0
-1671 -1673 -1684 0
1671 1673 -1684 0
-1671 1673 1684 0
1671 -1673 1684 0
-1675 -1677 -1685 0
1675 1677 -1685 0
-1675 1677 1685 0
1675 -1677 1685 0
-1679 -1680 -1687 0
1679 1680 -1687 0
-1679 1680 1687 0
1679 -1680 1687 0
-1682 -1683 -1689 0
1682 1683 -1689 0
-1682 1683 1689 0
1682 -1683 1689 0
-1684 -1685 -1691 0
1684 1685 -1691 0
-1684 1685 1691 0
1684 -1685 1691 0
-1678 -1687 -1693 0
1678 1687 -1693 0
1678 -1687 1693 0
-1678 1687 1693 0
-1681 -1689 -1695 0
1681 1689 -1695 0
-1681 1689 1695 0
1681 -1689 1695 0
-1691 -1693 -1695 0
1691 1693 -1695 0
-1691 1693 1695 0
1691 -1693 1695 0
-1686 -1688 -1700 0
1686 1688 -1700 0
-1686 1688 1700 0
1686 -1688 1700 0
-1690 -1692 -1706 0
1690 1692 -1706 0
-1690 1692 1706 0
1690 -1692 1706 0
-1694 -1696 -1701 0
1694 1696 -1701 0
-1694 1696 1701 0
1694 -1696 1701 0
-1695 -1697 -1703 0
1695 1697 -1703 0
1695 -1697 1703 0
-1695 1697 1703 0
-1699 -1700 -1705 0
1699 1700 -1705 0
-1699 1700 1705 0
1699 -1700 1705 0
-1701 -1703 -1707 0
1701 1703 -1707 0
-1701 1703 1707 0
1701 -1703 1707 0
-1698 -1705 -1708 0
1698 1705 -1708 0
-1698 1705 1708 0
1698 -1705 1708 0
-1706 -1707 -1708 0
1706 1707 -1708 0
-1706 1707 1708 0
1706 -1707 1708 0
-1702 -1704 -1713 0
1702 1704 -1713 0
-1702 1704 1713 0
1702 -1704 1713 0
-1709 -1710 -1716 0
1709 1710 -1716 0
-1709 1710 1716 0
1709 -1710 1716 0
-1711 -1712 -1717 0
1711 1712 -1717 0
-1711 1712 1717 0
1711 -1712 1717 0
-1713 -1714 -1719 0
1713 1714 -1719 0
-1713 1714 1719 0
1713 -1714 1719 0
-1715 -1716 -1721 0
1715 1716 -1721 0
-1715 1716 1721 0
1715 -1716 1721 0
-1708 -1717 -1723 0
1708 1717 -1723 0
-1708 1717 1723 0
1708 -1717 1723 0
-1719 -1721 -1723 0
1719 1721 -1723 0
-1719 1721 1723 0
1719 -1721 1723 0
-1718 -1720 -1728 0
1718 1720 -1728 0
-1718 1720 1728 0
1718 -1720 1728 0
-1722 -1724 -1730 0
1722 1724 -1730 0
-1722 1724 1730 0
1722 -1724 1730 0
-1723 -1725 -1732 0
1723 1725 -1732 0
1723 -1725 1732 0
-1723 1725 1732 0
-1728 -1730 -1733 0
1728 1730 -1733 0
-1728 1730 1733 0
1728 -1730 1733 0
-1726 -1732 -1734 0
1726 1732 -1734 0
1726 -1732 1734 0
-1726 1732 1734 0
-1727 -1733 -1734 0
1727 1733 -1734 0
-1727 1733 1734 0
1727 -1733 1734 0
-1729 -1731 -1740 0
1729 1731 -1740 0
-1729 1731 1740 0
1729 -1731 1740 0
-1735 -1736 -1739 0
1735 1736 -1739 0
-1735 1736 1739 0
1735 -1736 1739 0
-1737 -1738 -1741 0
1737 1738 -1741 0
-1737 1738 1741 0
1737 -1738 1741 0
-1734 -1739 -1743 0
1734 1739 -1743 0
1734 -1739 1743 0
-1734 1739 1743 0
-1740 -1741 -1743 0
1740 1741 -1743 0
-1740 1741 1743 0
1740 -1741 1743 0
-1742 -1744 -1748 0
1742 1744 -1748 0
-1742 1744 1748 0
1742 -1744 1748 0
-1743 -1745 -1750 0
1743 1745 -1750 0
1743 -1745 1750 0
-1743 1745 1750 0
-1748 -1750 -1752 0
1748 1750 -1752 0
-1748 1750 1752 0
1748 -1750 1752 0
-1746 -1747 -1752 0
1746 1747 -1752 0
-1746 1747 1752 0
1746 -1747 1752 0
-1749 -1751 -1755 0
1749 1751 -1755 0
-1749 1751 1755 0
1749 -1751 1755 0
-1753 -1754 -1756 0
1753 1754 -1756 0
-1753 1754 1756 0
1753 -1754 1756 0
-1752 -1755 -1756 0
1752 1755 -1756 0
-1752 1755 1756 0
1752 -1755 1756 0
-1756 -1757 -1759 0
1756 1757 -1759 0
1756 -1757 1759 0
-1756 1757 1759 0
-1758 -1759 -1760 0
1758 1759 -1760 0
1758 -1759 1760 0
-1758 1759 1760 0
1760 -1761 1762 0
-1760 1761 1762 0
