c Factorization SAT instance #30: N = 310147 = 331 x 937
c p = 331 (9 bits), q = 937 (10 bits)
c N = 310147 (19 bits)
c Generator: generate_instances.py  d=3, k=50, seed=None
p cnf 4853 17157
1 9 -85 0
-1 -9 0
-9 85 0
1 -2 10 0
-1 -10 0
2 -10 0
1 -3 11 0
-1 -11 0
3 -11 0
1 -4 12 0
-1 -12 0
4 -12 0
1 -5 13 0
-1 -13 0
5 -13 0
1 -6 14 0
-1 -14 0
6 -14 0
1 -7 15 0
-1 -15 0
7 -15 0
1 -8 16 0
-1 -16 0
8 -16 0
-1 17 -85 0
-17 85 0
1 -17 0
-2 18 -85 0
-18 85 0
2 -18 0
-3 19 -85 0
-19 85 0
3 -19 0
-4 20 -85 0
-20 85 0
4 -20 0
-5 21 -85 0
-21 85 0
5 -21 0
-6 22 -85 0
-22 85 0
6 -22 0
-7 23 -85 0
-23 85 0
7 -23 0
-8 24 -85 0
-24 85 0
8 -24 0
-1 -25 26 0
25 -26 0
1 -26 0
-25 27 -85 0
25 -27 0
-27 85 0
-2 -25 28 0
25 -28 0
2 -28 0
-3 -25 29 0
25 -29 0
3 -29 0
-4 -25 30 0
25 -30 0
4 -30 0
-5 -25 31 0
25 -31 0
5 -31 0
-6 -25 32 0
25 -32 0
6 -32 0
-7 -25 33 0
25 -33 0
7 -33 0
-8 -25 34 0
25 -34 0
8 -34 0
-1 -35 36 0
35 -36 0
1 -36 0
-35 37 -85 0
35 -37 0
-37 85 0
-2 -35 38 0
35 -38 0
2 -38 0
-3 -35 39 0
35 -39 0
3 -39 0
-4 -35 40 0
35 -40 0
4 -40 0
-5 -35 41 0
35 -41 0
5 -41 0
-6 -35 42 0
35 -42 0
6 -42 0
-7 -35 43 0
35 -43 0
7 -43 0
-8 -35 44 0
35 -44 0
8 -44 0
-1 -45 46 0
45 -46 0
1 -46 0
-45 47 -85 0
45 -47 0
-47 85 0
-2 -45 48 0
45 -48 0
2 -48 0
-3 -45 49 0
45 -49 0
3 -49 0
-4 -45 50 0
45 -50 0
4 -50 0
-5 -45 51 0
45 -51 0
5 -51 0
-6 -45 52 0
45 -52 0
6 -52 0
-7 -45 53 0
45 -53 0
7 -53 0
-8 -45 54 0
45 -54 0
8 -54 0
-1 -55 56 0
55 -56 0
1 -56 0
-55 57 -85 0
55 -57 0
-57 85 0
-2 -55 58 0
55 -58 0
2 -58 0
-3 -55 59 0
55 -59 0
3 -59 0
-4 -55 60 0
55 -60 0
4 -60 0
-5 -55 61 0
55 -61 0
5 -61 0
-6 -55 62 0
55 -62 0
6 -62 0
-7 -55 63 0
55 -63 0
7 -63 0
-8 -55 64 0
55 -64 0
8 -64 0
-1 -65 66 0
65 -66 0
1 -66 0
-65 67 -85 0
65 -67 0
-67 85 0
-2 -65 68 0
65 -68 0
2 -68 0
-3 -65 69 0
65 -69 0
3 -69 0
-4 -65 70 0
65 -70 0
4 -70 0
-5 -65 71 0
65 -71 0
5 -71 0
-6 -65 72 0
65 -72 0
6 -72 0
-7 -65 73 0
65 -73 0
7 -73 0
-8 -65 74 0
65 -74 0
8 -74 0
-1 -75 76 0
75 -76 0
1 -76 0
-75 77 -85 0
75 -77 0
-77 85 0
-2 -75 78 0
75 -78 0
2 -78 0
-3 -75 79 0
75 -79 0
3 -79 0
-4 -75 80 0
75 -80 0
4 -80 0
-5 -75 81 0
75 -81 0
5 -81 0
-6 -75 82 0
75 -82 0
6 -82 0
-7 -75 83 0
75 -83 0
7 -83 0
-8 -75 84 0
75 -84 0
8 -84 0
-2 -9 87 0
2 -87 0
9 -87 0
-17 -25 94 0
17 -94 0
25 -94 0
-85 -86 95 0
85 -95 0
86 -95 0
-3 -10 90 0
3 -90 0
10 -90 0
-26 -85 92 0
85 -92 0
26 -92 0
-35 -87 109 0
35 -109 0
87 -109 0
-88 -89 110 0
88 -110 0
89 -110 0
-91 -93 98 0
91 -98 0
93 -98 0
-94 -95 100 0
94 -100 0
95 -100 0
-96 -97 101 0
96 -101 0
97 -101 0
-4 -11 103 0
4 -103 0
11 -103 0
-18 -27 105 0
18 -105 0
27 -105 0
-36 -45 107 0
36 -107 0
45 -107 0
-90 -92 134 0
90 -134 0
92 -134 0
-98 -100 135 0
98 -135 0
100 -135 0
-99 -101 113 0
101 -113 0
99 -113 0
-102 -104 115 0
102 -115 0
104 -115 0
-106 -108 117 0
106 -117 0
108 -117 0
-109 -110 119 0
109 -119 0
110 -119 0
-111 -112 121 0
111 -121 0
112 -121 0
-114 -116 123 0
114 -123 0
116 -123 0
-118 -120 124 0
118 -124 0
120 -124 0
-5 -12 126 0
5 -126 0
12 -126 0
-19 -28 128 0
19 -128 0
28 -128 0
-37 -46 130 0
37 -130 0
46 -130 0
-55 -103 132 0
55 -132 0
103 -132 0
-105 -107 171 0
105 -171 0
107 -171 0
-113 -115 172 0
113 -172 0
115 -172 0
-117 -119 138 0
117 -138 0
119 -138 0
-121 -123 140 0
121 -140 0
123 -140 0
-122 -124 142 0
124 -142 0
122 -142 0
-125 -127 144 0
125 -144 0
127 -144 0
-129 -131 146 0
129 -146 0
131 -146 0
-133 -134 148 0
133 -148 0
134 -148 0
-135 -136 150 0
135 -150 0
136 -150 0
-137 -139 152 0
137 -152 0
139 -152 0
-141 -143 154 0
141 -154 0
143 -154 0
-145 -147 156 0
145 -156 0
147 -156 0
-149 -151 158 0
149 -158 0
151 -158 0
-153 -155 159 0
153 -159 0
155 -159 0
-6 -13 161 0
6 -161 0
13 -161 0
-20 -29 163 0
20 -163 0
29 -163 0
-38 -47 165 0
38 -165 0
47 -165 0
-56 -65 167 0
56 -167 0
65 -167 0
-126 -128 169 0
126 -169 0
128 -169 0
-130 -132 222 0
130 -222 0
132 -222 0
-138 -140 223 0
138 -223 0
140 -223 0
-142 -144 175 0
142 -175 0
144 -175 0
-146 -148 177 0
146 -177 0
148 -177 0
-150 -152 179 0
150 -179 0
152 -179 0
-154 -156 181 0
154 -181 0
156 -181 0
-158 -159 183 0
158 -183 0
159 -183 0
-157 -160 185 0
157 -185 0
160 -185 0
-162 -164 187 0
162 -187 0
164 -187 0
-166 -168 189 0
166 -189 0
168 -189 0
-170 -171 191 0
170 -191 0
171 -191 0
-172 -173 193 0
172 -193 0
173 -193 0
-174 -176 195 0
174 -195 0
176 -195 0
-178 -180 197 0
178 -197 0
180 -197 0
-182 -184 199 0
182 -199 0
184 -199 0
-186 -188 201 0
186 -201 0
188 -201 0
-190 -192 203 0
190 -203 0
192 -203 0
-194 -196 205 0
194 -205 0
196 -205 0
-198 -200 207 0
198 -207 0
200 -207 0
-202 -204 208 0
202 -208 0
204 -208 0
-7 -14 209 0
7 -209 0
14 -209 0
-21 -30 211 0
21 -211 0
30 -211 0
-39 -48 213 0
39 -213 0
48 -213 0
-57 -66 215 0
57 -215 0
66 -215 0
-75 -161 217 0
75 -217 0
161 -217 0
-163 -165 219 0
163 -219 0
165 -219 0
-167 -169 221 0
167 -221 0
169 -221 0
-175 -177 225 0
175 -225 0
177 -225 0
-179 -181 227 0
179 -227 0
181 -227 0
-183 -185 229 0
183 -229 0
185 -229 0
-187 -189 231 0
187 -231 0
189 -231 0
-191 -193 233 0
191 -233 0
193 -233 0
-195 -197 235 0
195 -235 0
197 -235 0
-199 -201 237 0
199 -237 0
201 -237 0
-203 -205 239 0
203 -239 0
205 -239 0
-207 -208 293 0
207 -293 0
208 -293 0
-210 -212 243 0
210 -243 0
212 -243 0
-214 -216 245 0
214 -245 0
216 -245 0
-218 -220 247 0
218 -247 0
220 -247 0
-222 -223 249 0
222 -249 0
223 -249 0
-224 -226 251 0
224 -251 0
226 -251 0
-228 -230 253 0
228 -253 0
230 -253 0
-232 -234 255 0
232 -255 0
234 -255 0
-236 -238 257 0
236 -257 0
238 -257 0
-240 -241 259 0
240 -259 0
241 -259 0
-242 -244 261 0
242 -261 0
244 -261 0
-246 -248 263 0
246 -263 0
248 -263 0
-250 -252 265 0
250 -265 0
252 -265 0
-254 -256 267 0
254 -267 0
256 -267 0
-258 -260 269 0
258 -269 0
260 -269 0
-262 -264 271 0
262 -271 0
264 -271 0
-266 -268 272 0
266 -272 0
268 -272 0
-8 -15 273 0
8 -273 0
15 -273 0
-22 -31 275 0
22 -275 0
31 -275 0
-40 -49 277 0
40 -277 0
49 -277 0
-58 -67 279 0
58 -279 0
67 -279 0
-76 -209 281 0
76 -281 0
209 -281 0
-211 -213 283 0
211 -283 0
213 -283 0
-215 -217 285 0
215 -285 0
217 -285 0
-219 -221 286 0
219 -286 0
221 -286 0
-225 -227 361 0
225 -361 0
227 -361 0
-229 -231 289 0
229 -289 0
231 -289 0
-233 -235 291 0
233 -291 0
235 -291 0
-237 -239 363 0
237 -363 0
239 -363 0
-243 -245 295 0
243 -295 0
245 -295 0
-247 -249 297 0
247 -297 0
249 -297 0
-251 -253 299 0
251 -299 0
253 -299 0
-255 -257 301 0
255 -301 0
257 -301 0
-259 -261 303 0
259 -303 0
261 -303 0
-263 -265 305 0
263 -305 0
265 -305 0
-267 -269 307 0
267 -307 0
269 -307 0
-271 -272 309 0
271 -309 0
272 -309 0
-274 -276 372 0
274 -372 0
276 -372 0
-278 -280 313 0
278 -313 0
280 -313 0
-282 -284 315 0
282 -315 0
284 -315 0
-287 -288 374 0
287 -374 0
288 -374 0
-290 -292 319 0
290 -319 0
292 -319 0
-293 -294 321 0
293 -321 0
294 -321 0
-296 -298 323 0
296 -323 0
298 -323 0
-300 -302 325 0
300 -325 0
302 -325 0
-304 -306 327 0
304 -327 0
306 -327 0
-308 -310 329 0
308 -329 0
310 -329 0
-311 -312 331 0
311 -331 0
312 -331 0
-314 -316 333 0
314 -333 0
316 -333 0
-317 -318 335 0
317 -335 0
318 -335 0
-320 -322 337 0
320 -337 0
322 -337 0
-324 -326 339 0
324 -339 0
326 -339 0
-328 -330 341 0
328 -341 0
330 -341 0
-332 -334 343 0
332 -343 0
334 -343 0
-336 -338 345 0
336 -345 0
338 -345 0
-340 -342 388 0
340 -388 0
342 -388 0
-16 -23 347 0
16 -347 0
23 -347 0
-32 -41 349 0
32 -349 0
41 -349 0
-50 -59 351 0
50 -351 0
59 -351 0
-68 -77 353 0
68 -353 0
77 -353 0
-273 -275 355 0
273 -355 0
275 -355 0
-277 -279 357 0
277 -357 0
279 -357 0
-281 -283 359 0
281 -359 0
283 -359 0
-285 -286 448 0
285 -448 0
286 -448 0
-289 -291 449 0
289 -449 0
291 -449 0
-295 -297 365 0
295 -365 0
297 -365 0
-299 -301 367 0
299 -367 0
301 -367 0
-303 -305 369 0
303 -369 0
305 -369 0
-307 -309 371 0
307 -371 0
309 -371 0
-313 -315 452 0
313 -452 0
315 -452 0
-319 -321 453 0
319 -453 0
321 -453 0
-323 -325 377 0
323 -377 0
325 -377 0
-327 -329 379 0
327 -379 0
329 -379 0
-331 -333 381 0
331 -381 0
333 -381 0
-335 -337 383 0
335 -383 0
337 -383 0
-339 -341 385 0
339 -385 0
341 -385 0
-343 -345 387 0
343 -387 0
345 -387 0
-346 -348 459 0
346 -459 0
348 -459 0
-350 -352 391 0
350 -391 0
352 -391 0
-354 -356 393 0
354 -393 0
356 -393 0
-358 -360 395 0
358 -395 0
360 -395 0
-361 -362 397 0
361 -397 0
362 -397 0
-363 -364 399 0
363 -399 0
364 -399 0
-366 -368 401 0
366 -401 0
368 -401 0
-370 -372 403 0
370 -403 0
372 -403 0
-373 -374 405 0
373 -405 0
374 -405 0
-375 -376 407 0
375 -407 0
376 -407 0
-378 -380 409 0
378 -409 0
380 -409 0
-382 -384 411 0
382 -411 0
384 -411 0
-386 -388 413 0
386 -413 0
388 -413 0
-389 -390 415 0
389 -415 0
390 -415 0
-392 -394 417 0
392 -417 0
394 -417 0
-396 -398 419 0
396 -419 0
398 -419 0
-400 -402 421 0
400 -421 0
402 -421 0
-404 -406 423 0
404 -423 0
406 -423 0
-408 -410 425 0
408 -425 0
410 -425 0
-412 -414 427 0
412 -427 0
414 -427 0
-416 -418 429 0
416 -429 0
418 -429 0
-420 -422 431 0
420 -431 0
422 -431 0
-424 -426 433 0
424 -433 0
426 -433 0
-428 -430 434 0
428 -434 0
430 -434 0
-24 -33 436 0
24 -436 0
33 -436 0
-42 -51 438 0
42 -438 0
51 -438 0
-60 -69 440 0
60 -440 0
69 -440 0
-78 -347 442 0
78 -442 0
347 -442 0
-349 -351 444 0
349 -444 0
351 -444 0
-353 -355 446 0
353 -446 0
355 -446 0
-357 -359 546 0
357 -546 0
359 -546 0
-365 -367 547 0
365 -547 0
367 -547 0
-369 -371 548 0
369 -548 0
371 -548 0
-377 -379 549 0
377 -549 0
379 -549 0
-381 -383 456 0
381 -456 0
383 -456 0
-385 -387 458 0
385 -458 0
387 -458 0
-391 -393 551 0
391 -551 0
393 -551 0
-395 -397 462 0
395 -462 0
397 -462 0
-399 -401 464 0
399 -464 0
401 -464 0
-403 -405 466 0
403 -466 0
405 -466 0
-407 -409 468 0
407 -468 0
409 -468 0
-411 -413 470 0
411 -470 0
413 -470 0
-415 -417 472 0
415 -472 0
417 -472 0
-419 -421 474 0
419 -474 0
421 -474 0
-423 -425 476 0
423 -476 0
425 -476 0
-427 -429 478 0
427 -478 0
429 -478 0
-431 -433 480 0
431 -480 0
433 -480 0
-432 -434 482 0
434 -482 0
432 -482 0
-435 -437 484 0
435 -484 0
437 -484 0
-439 -441 486 0
439 -486 0
441 -486 0
-443 -445 488 0
443 -488 0
445 -488 0
-447 -448 490 0
447 -490 0
448 -490 0
-449 -450 492 0
449 -492 0
450 -492 0
-451 -452 494 0
451 -494 0
452 -494 0
-453 -454 496 0
453 -496 0
454 -496 0
-455 -457 498 0
455 -498 0
457 -498 0
-459 -460 500 0
459 -500 0
460 -500 0
-461 -463 502 0
461 -502 0
463 -502 0
-465 -467 504 0
465 -504 0
467 -504 0
-469 -471 506 0
469 -506 0
471 -506 0
-473 -475 508 0
473 -508 0
475 -508 0
-477 -479 510 0
477 -510 0
479 -510 0
-481 -483 512 0
481 -512 0
483 -512 0
-485 -487 514 0
485 -514 0
487 -514 0
-489 -491 516 0
489 -516 0
491 -516 0
-493 -495 518 0
493 -518 0
495 -518 0
-497 -499 520 0
497 -520 0
499 -520 0
-501 -503 522 0
501 -522 0
503 -522 0
-505 -507 524 0
505 -524 0
507 -524 0
-509 -511 526 0
509 -526 0
511 -526 0
-513 -515 528 0
513 -528 0
515 -528 0
-517 -519 530 0
517 -530 0
519 -530 0
-521 -523 532 0
521 -532 0
523 -532 0
-525 -527 534 0
525 -534 0
527 -534 0
-529 -531 535 0
529 -535 0
531 -535 0
-34 -43 536 0
34 -536 0
43 -536 0
-52 -61 538 0
52 -538 0
61 -538 0
-70 -79 540 0
70 -540 0
79 -540 0
-436 -438 542 0
436 -542 0
438 -542 0
-440 -442 544 0
440 -544 0
442 -544 0
-444 -446 654 0
444 -654 0
446 -654 0
-456 -458 655 0
456 -655 0
458 -655 0
-462 -464 656 0
462 -656 0
464 -656 0
-466 -468 554 0
466 -554 0
468 -554 0
-470 -472 556 0
470 -556 0
472 -556 0
-474 -476 558 0
474 -558 0
476 -558 0
-478 -480 560 0
478 -560 0
480 -560 0
-482 -484 562 0
482 -562 0
484 -562 0
-486 -488 564 0
486 -564 0
488 -564 0
-490 -492 566 0
490 -566 0
492 -566 0
-494 -496 568 0
494 -568 0
496 -568 0
-498 -500 570 0
498 -570 0
500 -570 0
-502 -504 572 0
502 -572 0
504 -572 0
-506 -508 574 0
506 -574 0
508 -574 0
-510 -512 576 0
510 -576 0
512 -576 0
-514 -516 578 0
514 -578 0
516 -578 0
-518 -520 580 0
518 -580 0
520 -580 0
-522 -524 582 0
522 -582 0
524 -582 0
-526 -528 584 0
526 -584 0
528 -584 0
-530 -532 586 0
530 -586 0
532 -586 0
-534 -535 588 0
534 -588 0
535 -588 0
-537 -539 674 0
537 -674 0
539 -674 0
-541 -543 592 0
541 -592 0
543 -592 0
-545 -546 594 0
545 -594 0
546 -594 0
-547 -548 596 0
547 -596 0
548 -596 0
-549 -550 598 0
549 -598 0
550 -598 0
-551 -552 600 0
551 -600 0
552 -600 0
-553 -555 602 0
553 -602 0
555 -602 0
-557 -559 604 0
557 -604 0
559 -604 0
-561 -563 606 0
561 -606 0
563 -606 0
-565 -567 608 0
565 -608 0
567 -608 0
-569 -571 610 0
569 -610 0
571 -610 0
-573 -575 612 0
573 -612 0
575 -612 0
-577 -579 614 0
577 -614 0
579 -614 0
-581 -583 616 0
581 -616 0
583 -616 0
-585 -587 618 0
585 -618 0
587 -618 0
-589 -590 620 0
589 -620 0
590 -620 0
-591 -593 622 0
591 -622 0
593 -622 0
-595 -597 624 0
595 -624 0
597 -624 0
-599 -601 626 0
599 -626 0
601 -626 0
-603 -605 628 0
603 -628 0
605 -628 0
-607 -609 630 0
607 -630 0
609 -630 0
-611 -613 632 0
611 -632 0
613 -632 0
-615 -617 634 0
615 -634 0
617 -634 0
-619 -621 636 0
619 -636 0
621 -636 0
-623 -625 638 0
623 -638 0
625 -638 0
-627 -629 640 0
627 -640 0
629 -640 0
-631 -633 642 0
631 -642 0
633 -642 0
-635 -637 644 0
635 -644 0
637 -644 0
-639 -641 645 0
639 -645 0
641 -645 0
-44 -53 646 0
44 -646 0
53 -646 0
-62 -71 648 0
62 -648 0
71 -648 0
-80 -536 650 0
80 -650 0
536 -650 0
-538 -540 652 0
538 -652 0
540 -652 0
-542 -544 766 0
542 -766 0
544 -766 0
-554 -556 767 0
554 -767 0
556 -767 0
-558 -560 659 0
558 -659 0
560 -659 0
-562 -564 661 0
562 -661 0
564 -661 0
-566 -568 663 0
566 -663 0
568 -663 0
-570 -572 665 0
570 -665 0
572 -665 0
-574 -576 667 0
574 -667 0
576 -667 0
-578 -580 669 0
578 -669 0
580 -669 0
-582 -584 671 0
582 -671 0
584 -671 0
-586 -588 673 0
586 -673 0
588 -673 0
-592 -594 776 0
592 -776 0
594 -776 0
-596 -598 677 0
596 -677 0
598 -677 0
-600 -602 679 0
600 -679 0
602 -679 0
-604 -606 681 0
604 -681 0
606 -681 0
-608 -610 683 0
608 -683 0
610 -683 0
-612 -614 685 0
612 -685 0
614 -685 0
-616 -618 687 0
616 -687 0
618 -687 0
-620 -622 689 0
620 -689 0
622 -689 0
-624 -626 691 0
624 -691 0
626 -691 0
-628 -630 693 0
628 -693 0
630 -693 0
-632 -634 695 0
632 -695 0
634 -695 0
-636 -638 697 0
636 -697 0
638 -697 0
-640 -642 699 0
640 -699 0
642 -699 0
-644 -645 787 0
644 -787 0
645 -787 0
-647 -649 703 0
647 -703 0
649 -703 0
-651 -653 705 0
651 -705 0
653 -705 0
-655 -656 789 0
655 -789 0
656 -789 0
-657 -658 708 0
657 -708 0
658 -708 0
-660 -662 710 0
660 -710 0
662 -710 0
-664 -666 712 0
664 -712 0
666 -712 0
-668 -670 714 0
668 -714 0
670 -714 0
-672 -674 716 0
672 -716 0
674 -716 0
-675 -676 718 0
675 -718 0
676 -718 0
-678 -680 720 0
678 -720 0
680 -720 0
-682 -684 722 0
682 -722 0
684 -722 0
-686 -688 724 0
686 -724 0
688 -724 0
-690 -692 726 0
690 -726 0
692 -726 0
-694 -696 728 0
694 -728 0
696 -728 0
-698 -700 730 0
698 -730 0
700 -730 0
-701 -702 732 0
701 -732 0
702 -732 0
-654 -704 734 0
704 -734 0
654 -734 0
-706 -707 736 0
706 -736 0
707 -736 0
-709 -711 738 0
709 -738 0
711 -738 0
-713 -715 740 0
713 -740 0
715 -740 0
-717 -719 742 0
717 -742 0
719 -742 0
-721 -723 744 0
721 -744 0
723 -744 0
-725 -727 746 0
725 -746 0
727 -746 0
-729 -731 748 0
729 -748 0
731 -748 0
-733 -735 750 0
733 -750 0
735 -750 0
-737 -739 752 0
737 -752 0
739 -752 0
-741 -743 754 0
741 -754 0
743 -754 0
-745 -747 756 0
745 -756 0
747 -756 0
-749 -751 758 0
749 -758 0
751 -758 0
-753 -755 815 0
753 -815 0
755 -815 0
-54 -63 760 0
54 -760 0
63 -760 0
-72 -81 762 0
72 -762 0
81 -762 0
-646 -648 764 0
646 -764 0
648 -764 0
-650 -652 883 0
650 -883 0
652 -883 0
-659 -661 769 0
659 -769 0
661 -769 0
-663 -665 771 0
663 -771 0
665 -771 0
-667 -669 773 0
667 -773 0
669 -773 0
-671 -673 775 0
671 -775 0
673 -775 0
-677 -679 885 0
677 -885 0
679 -885 0
-681 -683 779 0
681 -779 0
683 -779 0
-685 -687 781 0
685 -781 0
687 -781 0
-689 -691 783 0
689 -783 0
691 -783 0
-693 -695 785 0
693 -785 0
695 -785 0
-697 -699 890 0
697 -890 0
699 -890 0
-703 -705 891 0
703 -891 0
705 -891 0
-708 -710 791 0
708 -791 0
710 -791 0
-712 -714 793 0
712 -793 0
714 -793 0
-716 -718 795 0
716 -795 0
718 -795 0
-720 -722 797 0
720 -797 0
722 -797 0
-724 -726 799 0
724 -799 0
726 -799 0
-728 -730 801 0
728 -801 0
730 -801 0
-732 -734 803 0
732 -803 0
734 -803 0
-736 -738 805 0
736 -805 0
738 -805 0
-740 -742 807 0
740 -807 0
742 -807 0
-744 -746 809 0
744 -809 0
746 -809 0
-748 -750 811 0
748 -811 0
750 -811 0
-752 -754 813 0
752 -813 0
754 -813 0
-756 -758 904 0
756 -904 0
758 -904 0
-759 -761 817 0
759 -817 0
761 -817 0
-763 -765 819 0
763 -819 0
765 -819 0
-767 -768 906 0
767 -906 0
768 -906 0
-770 -772 822 0
770 -822 0
772 -822 0
-774 -776 824 0
774 -824 0
776 -824 0
-777 -778 826 0
777 -826 0
778 -826 0
-780 -782 828 0
780 -828 0
782 -828 0
-784 -786 830 0
784 -830 0
786 -830 0
-787 -788 832 0
787 -832 0
788 -832 0
-789 -790 834 0
789 -834 0
790 -834 0
-792 -794 836 0
792 -836 0
794 -836 0
-796 -798 838 0
796 -838 0
798 -838 0
-800 -802 840 0
800 -840 0
802 -840 0
-804 -806 842 0
804 -842 0
806 -842 0
-808 -810 844 0
808 -844 0
810 -844 0
-812 -814 846 0
812 -846 0
814 -846 0
-815 -816 848 0
815 -848 0
816 -848 0
-766 -818 850 0
818 -850 0
766 -850 0
-820 -821 852 0
820 -852 0
821 -852 0
-823 -825 854 0
823 -854 0
825 -854 0
-827 -829 856 0
827 -856 0
829 -856 0
-831 -833 858 0
831 -858 0
833 -858 0
-835 -837 860 0
835 -860 0
837 -860 0
-839 -841 862 0
839 -862 0
841 -862 0
-843 -845 864 0
843 -864 0
845 -864 0
-847 -849 866 0
847 -866 0
849 -866 0
-851 -853 868 0
851 -868 0
853 -868 0
-855 -857 870 0
855 -870 0
857 -870 0
-859 -861 872 0
859 -872 0
861 -872 0
-863 -865 874 0
863 -874 0
865 -874 0
-867 -869 876 0
867 -876 0
869 -876 0
-871 -873 877 0
871 -877 0
873 -877 0
-64 -73 879 0
64 -879 0
73 -879 0
-82 -760 881 0
82 -881 0
760 -881 0
-762 -764 1003 0
762 -1003 0
764 -1003 0
-769 -771 1004 0
769 -1004 0
771 -1004 0
-773 -775 1005 0
773 -1005 0
775 -1005 0
-779 -781 887 0
779 -887 0
781 -887 0
-783 -785 889 0
783 -889 0
785 -889 0
-791 -793 893 0
791 -893 0
793 -893 0
-795 -797 895 0
795 -895 0
797 -895 0
-799 -801 897 0
799 -897 0
801 -897 0
-803 -805 899 0
803 -899 0
805 -899 0
-807 -809 901 0
807 -901 0
809 -901 0
-811 -813 903 0
811 -903 0
813 -903 0
-817 -819 1011 0
817 -1011 0
819 -1011 0
-822 -824 1012 0
822 -1012 0
824 -1012 0
-826 -828 909 0
826 -909 0
828 -909 0
-830 -832 911 0
830 -911 0
832 -911 0
-834 -836 913 0
834 -913 0
836 -913 0
-838 -840 915 0
838 -915 0
840 -915 0
-842 -844 917 0
842 -917 0
844 -917 0
-846 -848 919 0
846 -919 0
848 -919 0
-850 -852 921 0
850 -921 0
852 -921 0
-854 -856 923 0
854 -923 0
856 -923 0
-858 -860 925 0
858 -925 0
860 -925 0
-862 -864 927 0
862 -927 0
864 -927 0
-866 -868 929 0
866 -929 0
868 -929 0
-870 -872 931 0
870 -931 0
872 -931 0
-874 -876 933 0
874 -933 0
876 -933 0
-875 -877 935 0
877 -935 0
875 -935 0
-878 -880 937 0
878 -937 0
880 -937 0
-882 -883 939 0
882 -939 0
883 -939 0
-884 -885 1027 0
884 -1027 0
885 -1027 0
-886 -888 943 0
886 -943 0
888 -943 0
-890 -891 945 0
890 -945 0
891 -945 0
-892 -894 947 0
892 -947 0
894 -947 0
-896 -898 949 0
896 -949 0
898 -949 0
-900 -902 951 0
900 -951 0
902 -951 0
-904 -905 953 0
904 -953 0
905 -953 0
-906 -907 955 0
906 -955 0
907 -955 0
-908 -910 957 0
908 -957 0
910 -957 0
-912 -914 959 0
912 -959 0
914 -959 0
-916 -918 961 0
916 -961 0
918 -961 0
-920 -922 963 0
920 -963 0
922 -963 0
-924 -926 965 0
924 -965 0
926 -965 0
-928 -930 967 0
928 -967 0
930 -967 0
-932 -934 969 0
932 -969 0
934 -969 0
-936 -938 971 0
936 -971 0
938 -971 0
-940 -941 973 0
940 -973 0
941 -973 0
-942 -944 975 0
942 -975 0
944 -975 0
-946 -948 977 0
946 -977 0
948 -977 0
-950 -952 979 0
950 -979 0
952 -979 0
-954 -956 981 0
954 -981 0
956 -981 0
-958 -960 983 0
958 -983 0
960 -983 0
-962 -964 985 0
962 -985 0
964 -985 0
-966 -968 987 0
966 -987 0
968 -987 0
-970 -972 989 0
970 -989 0
972 -989 0
-974 -976 991 0
974 -991 0
976 -991 0
-978 -980 993 0
978 -993 0
980 -993 0
-982 -984 995 0
982 -995 0
984 -995 0
-986 -988 997 0
986 -997 0
988 -997 0
-990 -992 999 0
990 -999 0
992 -999 0
-994 -996 1000 0
994 -1000 0
996 -1000 0
-74 -83 1001 0
74 -1001 0
83 -1001 0
-879 -881 1124 0
879 -1124 0
881 -1124 0
-887 -889 1125 0
887 -1125 0
889 -1125 0
-893 -895 1007 0
893 -1007 0
895 -1007 0
-897 -899 1009 0
897 -1009 0
899 -1009 0
-901 -903 1127 0
901 -1127 0
903 -1127 0
-909 -911 1128 0
909 -1128 0
911 -1128 0
-913 -915 1015 0
913 -1015 0
915 -1015 0
-917 -919 1017 0
917 -1017 0
919 -1017 0
-921 -923 1019 0
921 -1019 0
923 -1019 0
-925 -927 1021 0
925 -1021 0
927 -1021 0
-929 -931 1023 0
929 -1023 0
931 -1023 0
-933 -935 1025 0
933 -1025 0
935 -1025 0
-937 -939 1134 0
937 -1134 0
939 -1134 0
-943 -945 1029 0
943 -1029 0
945 -1029 0
-947 -949 1031 0
947 -1031 0
949 -1031 0
-951 -953 1033 0
951 -1033 0
953 -1033 0
-955 -957 1035 0
955 -1035 0
957 -1035 0
-959 -961 1037 0
959 -1037 0
961 -1037 0
-963 -965 1039 0
963 -1039 0
965 -1039 0
-967 -969 1041 0
967 -1041 0
969 -1041 0
-971 -973 1043 0
971 -1043 0
973 -1043 0
-975 -977 1045 0
975 -1045 0
977 -1045 0
-979 -981 1047 0
979 -1047 0
981 -1047 0
-983 -985 1049 0
983 -1049 0
985 -1049 0
-987 -989 1051 0
987 -1051 0
989 -1051 0
-991 -993 1053 0
991 -1053 0
993 -1053 0
-995 -997 1055 0
995 -1055 0
997 -1055 0
-999 -1000 1148 0
999 -1148 0
1000 -1148 0
-1002 -1003 1059 0
1002 -1059 0
1003 -1059 0
-1004 -1005 1061 0
1004 -1061 0
1005 -1061 0
-1006 -1008 1150 0
1006 -1150 0
1008 -1150 0
-1010 -1011 1065 0
1010 -1065 0
1011 -1065 0
-1012 -1013 1067 0
1012 -1067 0
1013 -1067 0
-1014 -1016 1069 0
1014 -1069 0
1016 -1069 0
-1018 -1020 1071 0
1018 -1071 0
1020 -1071 0
-1022 -1024 1073 0
1022 -1073 0
1024 -1073 0
-1026 -1027 1075 0
1026 -1075 0
1027 -1075 0
-1028 -1030 1077 0
1028 -1077 0
1030 -1077 0
-1032 -1034 1079 0
1032 -1079 0
1034 -1079 0
-1036 -1038 1081 0
1036 -1081 0
1038 -1081 0
-1040 -1042 1083 0
1040 -1083 0
1042 -1083 0
-1044 -1046 1085 0
1044 -1085 0
1046 -1085 0
-1048 -1050 1087 0
1048 -1087 0
1050 -1087 0
-1052 -1054 1089 0
1052 -1089 0
1054 -1089 0
-1056 -1057 1091 0
1056 -1091 0
1057 -1091 0
-1058 -1060 1093 0
1058 -1093 0
1060 -1093 0
-1062 -1063 1095 0
1062 -1095 0
1063 -1095 0
-1064 -1066 1097 0
1064 -1097 0
1066 -1097 0
-1068 -1070 1099 0
1068 -1099 0
1070 -1099 0
-1072 -1074 1101 0
1072 -1101 0
1074 -1101 0
-1076 -1078 1103 0
1076 -1103 0
1078 -1103 0
-1080 -1082 1105 0
1080 -1105 0
1082 -1105 0
-1084 -1086 1107 0
1084 -1107 0
1086 -1107 0
-1088 -1090 1109 0
1088 -1109 0
1090 -1109 0
-1092 -1094 1111 0
1092 -1111 0
1094 -1111 0
-1096 -1098 1113 0
1096 -1113 0
1098 -1113 0
-1100 -1102 1115 0
1100 -1115 0
1102 -1115 0
-1104 -1106 1117 0
1104 -1117 0
1106 -1117 0
-1108 -1110 1119 0
1108 -1119 0
1110 -1119 0
-1112 -1114 1121 0
1112 -1121 0
1114 -1121 0
-1116 -1118 1122 0
1116 -1122 0
1118 -1122 0
-84 -1001 1246 0
84 -1246 0
1001 -1246 0
-1007 -1009 1247 0
1007 -1247 0
1009 -1247 0
-1015 -1017 1248 0
1015 -1248 0
1017 -1248 0
-1019 -1021 1131 0
1019 -1131 0
1021 -1131 0
-1023 -1025 1133 0
1023 -1133 0
1025 -1133 0
-1029 -1031 1250 0
1029 -1250 0
1031 -1250 0
-1033 -1035 1137 0
1033 -1137 0
1035 -1137 0
-1037 -1039 1139 0
1037 -1139 0
1039 -1139 0
-1041 -1043 1141 0
1041 -1141 0
1043 -1141 0
-1045 -1047 1143 0
1045 -1143 0
1047 -1143 0
-1049 -1051 1145 0
1049 -1145 0
1051 -1145 0
-1053 -1055 1147 0
1053 -1147 0
1055 -1147 0
-1059 -1061 1256 0
1059 -1256 0
1061 -1256 0
-1065 -1067 1257 0
1065 -1257 0
1067 -1257 0
-1069 -1071 1153 0
1069 -1153 0
1071 -1153 0
-1073 -1075 1155 0
1073 -1155 0
1075 -1155 0
-1077 -1079 1157 0
1077 -1157 0
1079 -1157 0
-1081 -1083 1159 0
1081 -1159 0
1083 -1159 0
-1085 -1087 1161 0
1085 -1161 0
1087 -1161 0
-1089 -1091 1163 0
1089 -1163 0
1091 -1163 0
-1093 -1095 1165 0
1093 -1165 0
1095 -1165 0
-1097 -1099 1167 0
1097 -1167 0
1099 -1167 0
-1101 -1103 1169 0
1101 -1169 0
1103 -1169 0
-1105 -1107 1171 0
1105 -1171 0
1107 -1171 0
-1109 -1111 1173 0
1109 -1173 0
1111 -1173 0
-1113 -1115 1175 0
1113 -1175 0
1115 -1175 0
-1117 -1119 1177 0
1117 -1177 0
1119 -1177 0
-1121 -1122 1179 0
1121 -1179 0
1122 -1179 0
-1120 -1123 1271 0
1120 -1271 0
1123 -1271 0
-1125 -1126 1182 0
1125 -1182 0
1126 -1182 0
-1127 -1128 1184 0
1127 -1184 0
1128 -1184 0
-1129 -1130 1186 0
1129 -1186 0
1130 -1186 0
-1132 -1134 1188 0
1132 -1188 0
1134 -1188 0
-1135 -1136 1190 0
1135 -1190 0
1136 -1190 0
-1138 -1140 1192 0
1138 -1192 0
1140 -1192 0
-1142 -1144 1194 0
1142 -1194 0
1144 -1194 0
-1146 -1148 1196 0
1146 -1196 0
1148 -1196 0
-1149 -1150 1198 0
1149 -1198 0
1150 -1198 0
-1151 -1152 1200 0
1151 -1200 0
1152 -1200 0
-1154 -1156 1202 0
1154 -1202 0
1156 -1202 0
-1158 -1160 1204 0
1158 -1204 0
1160 -1204 0
-1162 -1164 1206 0
1162 -1206 0
1164 -1206 0
-1166 -1168 1208 0
1166 -1208 0
1168 -1208 0
-1170 -1172 1210 0
1170 -1210 0
1172 -1210 0
-1174 -1176 1212 0
1174 -1212 0
1176 -1212 0
-1178 -1180 1214 0
1178 -1214 0
1180 -1214 0
-1124 -1181 1216 0
1124 -1216 0
1181 -1216 0
-1183 -1185 1218 0
1183 -1218 0
1185 -1218 0
-1187 -1189 1220 0
1187 -1220 0
1189 -1220 0
-1191 -1193 1222 0
1191 -1222 0
1193 -1222 0
-1195 -1197 1224 0
1195 -1224 0
1197 -1224 0
-1199 -1201 1226 0
1199 -1226 0
1201 -1226 0
-1203 -1205 1228 0
1203 -1228 0
1205 -1228 0
-1207 -1209 1230 0
1207 -1230 0
1209 -1230 0
-1211 -1213 1232 0
1211 -1232 0
1213 -1232 0
-1215 -1217 1234 0
1215 -1234 0
1217 -1234 0
-1219 -1221 1236 0
1219 -1236 0
1221 -1236 0
-1223 -1225 1238 0
1223 -1238 0
1225 -1238 0
-1227 -1229 1240 0
1227 -1240 0
1229 -1240 0
-1231 -1233 1242 0
1231 -1242 0
1233 -1242 0
-1235 -1237 1244 0
1235 -1244 0
1237 -1244 0
-1239 -1241 1245 0
1239 -1245 0
1241 -1245 0
-1131 -1133 1455 0
1131 -1455 0
1133 -1455 0
-1137 -1139 1252 0
1137 -1252 0
1139 -1252 0
-1141 -1143 1254 0
1141 -1254 0
1143 -1254 0
-1145 -1147 1370 0
1145 -1370 0
1147 -1370 0
-1153 -1155 1371 0
1153 -1371 0
1155 -1371 0
-1157 -1159 1260 0
1157 -1260 0
1159 -1260 0
-1161 -1163 1262 0
1161 -1262 0
1163 -1262 0
-1165 -1167 1264 0
1165 -1264 0
1167 -1264 0
-1169 -1171 1266 0
1169 -1266 0
1171 -1266 0
-1173 -1175 1268 0
1173 -1268 0
1175 -1268 0
-1177 -1179 1270 0
1177 -1270 0
1179 -1270 0
-1182 -1184 1377 0
1182 -1377 0
1184 -1377 0
-1186 -1188 1274 0
1186 -1274 0
1188 -1274 0
-1190 -1192 1276 0
1190 -1276 0
1192 -1276 0
-1194 -1196 1278 0
1194 -1278 0
1196 -1278 0
-1198 -1200 1280 0
1198 -1280 0
1200 -1280 0
-1202 -1204 1282 0
1202 -1282 0
1204 -1282 0
-1206 -1208 1284 0
1206 -1284 0
1208 -1284 0
-1210 -1212 1286 0
1210 -1286 0
1212 -1286 0
-1214 -1216 1288 0
1214 -1288 0
1216 -1288 0
-1218 -1220 1290 0
1218 -1290 0
1220 -1290 0
-1222 -1224 1292 0
1222 -1292 0
1224 -1292 0
-1226 -1228 1294 0
1226 -1294 0
1228 -1294 0
-1230 -1232 1296 0
1230 -1296 0
1232 -1296 0
-1234 -1236 1298 0
1234 -1298 0
1236 -1298 0
-1238 -1240 1300 0
1238 -1300 0
1240 -1300 0
-1242 -1244 1302 0
1242 -1302 0
1244 -1302 0
-1243 -1245 1304 0
1245 -1304 0
1243 -1304 0
-1247 -1248 1394 0
1247 -1394 0
1248 -1394 0
-1249 -1250 1307 0
1249 -1307 0
1250 -1307 0
-1251 -1253 1309 0
1251 -1309 0
1253 -1309 0
-1255 -1256 1311 0
1255 -1311 0
1256 -1311 0
-1257 -1258 1313 0
1257 -1313 0
1258 -1313 0
-1259 -1261 1315 0
1259 -1315 0
1261 -1315 0
-1263 -1265 1317 0
1263 -1317 0
1265 -1317 0
-1267 -1269 1319 0
1267 -1319 0
1269 -1319 0
-1271 -1272 1321 0
1271 -1321 0
1272 -1321 0
-1273 -1275 1323 0
1273 -1323 0
1275 -1323 0
-1277 -1279 1325 0
1277 -1325 0
1279 -1325 0
-1281 -1283 1327 0
1281 -1327 0
1283 -1327 0
-1285 -1287 1329 0
1285 -1329 0
1287 -1329 0
-1289 -1291 1331 0
1289 -1331 0
1291 -1331 0
-1293 -1295 1333 0
1293 -1333 0
1295 -1333 0
-1297 -1299 1335 0
1297 -1335 0
1299 -1335 0
-1301 -1303 1337 0
1301 -1337 0
1303 -1337 0
-1246 -1305 1339 0
1246 -1339 0
1305 -1339 0
-1306 -1308 1341 0
1306 -1341 0
1308 -1341 0
-1310 -1312 1343 0
1310 -1343 0
1312 -1343 0
-1314 -1316 1345 0
1314 -1345 0
1316 -1345 0
-1318 -1320 1347 0
1318 -1347 0
1320 -1347 0
-1322 -1324 1349 0
1322 -1349 0
1324 -1349 0
-1326 -1328 1351 0
1326 -1351 0
1328 -1351 0
-1330 -1332 1353 0
1330 -1353 0
1332 -1353 0
-1334 -1336 1355 0
1334 -1355 0
1336 -1355 0
-1338 -1340 1357 0
1338 -1357 0
1340 -1357 0
-1342 -1344 1359 0
1342 -1359 0
1344 -1359 0
-1346 -1348 1361 0
1346 -1361 0
1348 -1361 0
-1350 -1352 1363 0
1350 -1363 0
1352 -1363 0
-1354 -1356 1365 0
1354 -1365 0
1356 -1365 0
-1358 -1360 1367 0
1358 -1367 0
1360 -1367 0
-1362 -1364 1368 0
1362 -1368 0
1364 -1368 0
-1252 -1254 1536 0
1252 -1536 0
1254 -1536 0
-1260 -1262 1373 0
1260 -1373 0
1262 -1373 0
-1264 -1266 1375 0
1264 -1375 0
1266 -1375 0
-1268 -1270 1485 0
1268 -1485 0
1270 -1485 0
-1274 -1276 1379 0
1274 -1379 0
1276 -1379 0
-1278 -1280 1381 0
1278 -1381 0
1280 -1381 0
-1282 -1284 1383 0
1282 -1383 0
1284 -1383 0
-1286 -1288 1385 0
1286 -1385 0
1288 -1385 0
-1290 -1292 1387 0
1290 -1387 0
1292 -1387 0
-1294 -1296 1389 0
1294 -1389 0
1296 -1389 0
-1298 -1300 1391 0
1298 -1391 0
1300 -1391 0
-1302 -1304 1393 0
1302 -1393 0
1304 -1393 0
-1307 -1309 1492 0
1307 -1492 0
1309 -1492 0
-1311 -1313 1397 0
1311 -1397 0
1313 -1397 0
-1315 -1317 1399 0
1315 -1399 0
1317 -1399 0
-1319 -1321 1401 0
1319 -1401 0
1321 -1401 0
-1323 -1325 1403 0
1323 -1403 0
1325 -1403 0
-1327 -1329 1405 0
1327 -1405 0
1329 -1405 0
-1331 -1333 1407 0
1331 -1407 0
1333 -1407 0
-1335 -1337 1409 0
1335 -1409 0
1337 -1409 0
-1339 -1341 1411 0
1339 -1411 0
1341 -1411 0
-1343 -1345 1413 0
1343 -1413 0
1345 -1413 0
-1347 -1349 1415 0
1347 -1415 0
1349 -1415 0
-1351 -1353 1417 0
1351 -1417 0
1353 -1417 0
-1355 -1357 1419 0
1355 -1419 0
1357 -1419 0
-1359 -1361 1421 0
1359 -1421 0
1361 -1421 0
-1363 -1365 1423 0
1363 -1423 0
1365 -1423 0
-1367 -1368 1506 0
1367 -1506 0
1368 -1506 0
-1369 -1370 1507 0
1369 -1507 0
1370 -1507 0
-1371 -1372 1427 0
1371 -1427 0
1372 -1427 0
-1374 -1376 1429 0
1374 -1429 0
1376 -1429 0
-1377 -1378 1431 0
1377 -1431 0
1378 -1431 0
-1380 -1382 1433 0
1380 -1433 0
1382 -1433 0
-1384 -1386 1435 0
1384 -1435 0
1386 -1435 0
-1388 -1390 1437 0
1388 -1437 0
1390 -1437 0
-1392 -1394 1439 0
1392 -1439 0
1394 -1439 0
-1395 -1396 1441 0
1395 -1441 0
1396 -1441 0
-1398 -1400 1443 0
1398 -1443 0
1400 -1443 0
-1402 -1404 1445 0
1402 -1445 0
1404 -1445 0
-1406 -1408 1447 0
1406 -1447 0
1408 -1447 0
-1410 -1412 1449 0
1410 -1449 0
1412 -1449 0
-1414 -1416 1451 0
1414 -1451 0
1416 -1451 0
-1418 -1420 1453 0
1418 -1453 0
1420 -1453 0
-1422 -1424 1521 0
1422 -1521 0
1424 -1521 0
-1425 -1426 1457 0
1425 -1457 0
1426 -1457 0
-1428 -1430 1459 0
1428 -1459 0
1430 -1459 0
-1432 -1434 1461 0
1432 -1461 0
1434 -1461 0
-1436 -1438 1463 0
1436 -1463 0
1438 -1463 0
-1440 -1442 1465 0
1440 -1465 0
1442 -1465 0
-1444 -1446 1467 0
1444 -1467 0
1446 -1467 0
-1448 -1450 1469 0
1448 -1469 0
1450 -1469 0
-1452 -1454 1471 0
1452 -1471 0
1454 -1471 0
-1455 -1456 1473 0
1455 -1473 0
1456 -1473 0
-1458 -1460 1475 0
1458 -1475 0
1460 -1475 0
-1462 -1464 1477 0
1462 -1477 0
1464 -1477 0
-1466 -1468 1479 0
1466 -1479 0
1468 -1479 0
-1470 -1472 1481 0
1470 -1481 0
1472 -1481 0
-1474 -1476 1483 0
1474 -1483 0
1476 -1483 0
-1478 -1480 1484 0
1478 -1484 0
1480 -1484 0
-1373 -1375 1598 0
1373 -1598 0
1375 -1598 0
-1379 -1381 1599 0
1379 -1599 0
1381 -1599 0
-1383 -1385 1488 0
1383 -1488 0
1385 -1488 0
-1387 -1389 1490 0
1387 -1490 0
1389 -1490 0
-1391 -1393 1601 0
1391 -1601 0
1393 -1601 0
-1397 -1399 1494 0
1397 -1494 0
1399 -1494 0
-1401 -1403 1496 0
1401 -1496 0
1403 -1496 0
-1405 -1407 1498 0
1405 -1498 0
1407 -1498 0
-1409 -1411 1500 0
1409 -1500 0
1411 -1500 0
-1413 -1415 1502 0
1413 -1502 0
1415 -1502 0
-1417 -1419 1504 0
1417 -1504 0
1419 -1504 0
-1421 -1423 1607 0
1421 -1607 0
1423 -1607 0
-1427 -1429 1608 0
1427 -1608 0
1429 -1608 0
-1431 -1433 1510 0
1431 -1510 0
1433 -1510 0
-1435 -1437 1512 0
1435 -1512 0
1437 -1512 0
-1439 -1441 1514 0
1439 -1514 0
1441 -1514 0
-1443 -1445 1516 0
1443 -1516 0
1445 -1516 0
-1447 -1449 1518 0
1447 -1518 0
1449 -1518 0
-1451 -1453 1520 0
1451 -1520 0
1453 -1520 0
-1457 -1459 1614 0
1457 -1614 0
1459 -1614 0
-1461 -1463 1524 0
1461 -1524 0
1463 -1524 0
-1465 -1467 1526 0
1465 -1526 0
1467 -1526 0
-1469 -1471 1528 0
1469 -1528 0
1471 -1528 0
-1473 -1475 1530 0
1473 -1530 0
1475 -1530 0
-1477 -1479 1532 0
1477 -1532 0
1479 -1532 0
-1481 -1483 1534 0
1481 -1534 0
1483 -1534 0
-1482 -1484 1620 0
1484 -1620 0
1482 -1620 0
-1485 -1486 1621 0
1485 -1621 0
1486 -1621 0
-1487 -1489 1540 0
1487 -1540 0
1489 -1540 0
-1491 -1492 1542 0
1491 -1542 0
1492 -1542 0
-1493 -1495 1544 0
1493 -1544 0
1495 -1544 0
-1497 -1499 1546 0
1497 -1546 0
1499 -1546 0
-1501 -1503 1548 0
1501 -1548 0
1503 -1548 0
-1505 -1506 1550 0
1505 -1550 0
1506 -1550 0
-1507 -1508 1552 0
1507 -1552 0
1508 -1552 0
-1509 -1511 1554 0
1509 -1554 0
1511 -1554 0
-1513 -1515 1556 0
1513 -1556 0
1515 -1556 0
-1517 -1519 1558 0
1517 -1558 0
1519 -1558 0
-1521 -1522 1560 0
1521 -1560 0
1522 -1560 0
-1523 -1525 1562 0
1523 -1562 0
1525 -1562 0
-1527 -1529 1564 0
1527 -1564 0
1529 -1564 0
-1531 -1533 1566 0
1531 -1566 0
1533 -1566 0
-1535 -1536 1568 0
1535 -1568 0
1536 -1568 0
-1537 -1538 1570 0
1537 -1570 0
1538 -1570 0
-1539 -1541 1572 0
1539 -1572 0
1541 -1572 0
-1543 -1545 1574 0
1543 -1574 0
1545 -1574 0
-1547 -1549 1576 0
1547 -1576 0
1549 -1576 0
-1551 -1553 1578 0
1551 -1578 0
1553 -1578 0
-1555 -1557 1580 0
1555 -1580 0
1557 -1580 0
-1559 -1561 1582 0
1559 -1582 0
1561 -1582 0
-1563 -1565 1584 0
1563 -1584 0
1565 -1584 0
-1567 -1569 1586 0
1567 -1586 0
1569 -1586 0
-1571 -1573 1588 0
1571 -1588 0
1573 -1588 0
-1575 -1577 1590 0
1575 -1590 0
1577 -1590 0
-1579 -1581 1592 0
1579 -1592 0
1581 -1592 0
-1583 -1585 1594 0
1583 -1594 0
1585 -1594 0
-1587 -1589 1596 0
1587 -1596 0
1589 -1596 0
-1591 -1593 1597 0
1591 -1597 0
1593 -1597 0
-1488 -1490 1765 0
1488 -1765 0
1490 -1765 0
-1494 -1496 1713 0
1494 -1713 0
1496 -1713 0
-1498 -1500 1604 0
1498 -1604 0
1500 -1604 0
-1502 -1504 1606 0
1502 -1606 0
1504 -1606 0
-1510 -1512 1610 0
1510 -1610 0
1512 -1610 0
-1514 -1516 1612 0
1514 -1612 0
1516 -1612 0
-1518 -1520 1715 0
1518 -1715 0
1520 -1715 0
-1524 -1526 1616 0
1524 -1616 0
1526 -1616 0
-1528 -1530 1618 0
1528 -1618 0
1530 -1618 0
-1532 -1534 1717 0
1532 -1717 0
1534 -1717 0
-1540 -1542 1718 0
1540 -1718 0
1542 -1718 0
-1544 -1546 1624 0
1544 -1624 0
1546 -1624 0
-1548 -1550 1626 0
1548 -1626 0
1550 -1626 0
-1552 -1554 1628 0
1552 -1628 0
1554 -1628 0
-1556 -1558 1630 0
1556 -1630 0
1558 -1630 0
-1560 -1562 1632 0
1560 -1632 0
1562 -1632 0
-1564 -1566 1634 0
1564 -1634 0
1566 -1634 0
-1568 -1570 1636 0
1568 -1636 0
1570 -1636 0
-1572 -1574 1638 0
1572 -1638 0
1574 -1638 0
-1576 -1578 1640 0
1576 -1640 0
1578 -1640 0
-1580 -1582 1642 0
1580 -1642 0
1582 -1642 0
-1584 -1586 1644 0
1584 -1644 0
1586 -1644 0
-1588 -1590 1646 0
1588 -1646 0
1590 -1646 0
-1592 -1594 1648 0
1592 -1648 0
1594 -1648 0
-1596 -1597 1650 0
1596 -1650 0
1597 -1650 0
-1598 -1599 1732 0
1598 -1732 0
1599 -1732 0
-1600 -1601 1653 0
1600 -1653 0
1601 -1653 0
-1602 -1603 1655 0
1602 -1655 0
1603 -1655 0
-1605 -1607 1657 0
1605 -1657 0
1607 -1657 0
-1608 -1609 1659 0
1608 -1659 0
1609 -1659 0
-1611 -1613 1661 0
1611 -1661 0
1613 -1661 0
-1614 -1615 1663 0
1614 -1663 0
1615 -1663 0
-1617 -1619 1665 0
1617 -1665 0
1619 -1665 0
-1620 -1621 1667 0
1620 -1667 0
1621 -1667 0
-1622 -1623 1669 0
1622 -1669 0
1623 -1669 0
-1625 -1627 1671 0
1625 -1671 0
1627 -1671 0
-1629 -1631 1673 0
1629 -1673 0
1631 -1673 0
-1633 -1635 1675 0
1633 -1675 0
1635 -1675 0
-1637 -1639 1677 0
1637 -1677 0
1639 -1677 0
-1641 -1643 1679 0
1641 -1679 0
1643 -1679 0
-1645 -1647 1681 0
1645 -1681 0
1647 -1681 0
-1595 -1649 1683 0
1649 -1683 0
1595 -1683 0
-1651 -1652 1685 0
1651 -1685 0
1652 -1685 0
-1654 -1656 1687 0
1654 -1687 0
1656 -1687 0
-1658 -1660 1689 0
1658 -1689 0
1660 -1689 0
-1662 -1664 1691 0
1662 -1691 0
1664 -1691 0
-1666 -1668 1693 0
1666 -1693 0
1668 -1693 0
-1670 -1672 1695 0
1670 -1695 0
1672 -1695 0
-1674 -1676 1697 0
1674 -1697 0
1676 -1697 0
-1678 -1680 1699 0
1678 -1699 0
1680 -1699 0
-1682 -1684 1701 0
1682 -1701 0
1684 -1701 0
-1686 -1688 1703 0
1686 -1703 0
1688 -1703 0
-1690 -1692 1705 0
1690 -1705 0
1692 -1705 0
-1694 -1696 1707 0
1694 -1707 0
1696 -1707 0
-1698 -1700 1709 0
1698 -1709 0
1700 -1709 0
-1702 -1704 1711 0
1702 -1711 0
1704 -1711 0
-1706 -1708 1712 0
1706 -1712 0
1708 -1712 0
-1604 -1606 1824 0
1604 -1824 0
1606 -1824 0
-1610 -1612 1825 0
1610 -1825 0
1612 -1825 0
-1616 -1618 1826 0
1616 -1826 0
1618 -1826 0
-1624 -1626 1720 0
1624 -1720 0
1626 -1720 0
-1628 -1630 1722 0
1628 -1722 0
1630 -1722 0
-1632 -1634 1724 0
1632 -1724 0
1634 -1724 0
-1636 -1638 1726 0
1636 -1726 0
1638 -1726 0
-1640 -1642 1728 0
1640 -1728 0
1642 -1728 0
-1644 -1646 1730 0
1644 -1730 0
1646 -1730 0
-1648 -1650 1832 0
1648 -1832 0
1650 -1832 0
-1653 -1655 1734 0
1653 -1734 0
1655 -1734 0
-1657 -1659 1736 0
1657 -1736 0
1659 -1736 0
-1661 -1663 1738 0
1661 -1738 0
1663 -1738 0
-1665 -1667 1740 0
1665 -1740 0
1667 -1740 0
-1669 -1671 1742 0
1669 -1742 0
1671 -1742 0
-1673 -1675 1744 0
1673 -1744 0
1675 -1744 0
-1677 -1679 1746 0
1677 -1746 0
1679 -1746 0
-1681 -1683 1748 0
1681 -1748 0
1683 -1748 0
-1685 -1687 1750 0
1685 -1750 0
1687 -1750 0
-1689 -1691 1752 0
1689 -1752 0
1691 -1752 0
-1693 -1695 1754 0
1693 -1754 0
1695 -1754 0
-1697 -1699 1756 0
1697 -1756 0
1699 -1756 0
-1701 -1703 1758 0
1701 -1758 0
1703 -1758 0
-1705 -1707 1760 0
1705 -1760 0
1707 -1760 0
-1709 -1711 1762 0
1709 -1762 0
1711 -1762 0
-1710 -1712 1764 0
1712 -1764 0
1710 -1764 0
-1713 -1714 1847 0
1713 -1847 0
1714 -1847 0
-1715 -1716 1848 0
1715 -1848 0
1716 -1848 0
-1717 -1718 1770 0
1717 -1770 0
1718 -1770 0
-1719 -1721 1772 0
1719 -1772 0
1721 -1772 0
-1723 -1725 1774 0
1723 -1774 0
1725 -1774 0
-1727 -1729 1776 0
1727 -1776 0
1729 -1776 0
-1731 -1732 1778 0
1731 -1778 0
1732 -1778 0
-1733 -1735 1780 0
1733 -1780 0
1735 -1780 0
-1737 -1739 1782 0
1737 -1782 0
1739 -1782 0
-1741 -1743 1784 0
1741 -1784 0
1743 -1784 0
-1745 -1747 1786 0
1745 -1786 0
1747 -1786 0
-1749 -1751 1788 0
1749 -1788 0
1751 -1788 0
-1753 -1755 1790 0
1753 -1790 0
1755 -1790 0
-1757 -1759 1792 0
1757 -1792 0
1759 -1792 0
-1761 -1763 1794 0
1761 -1794 0
1763 -1794 0
-1765 -1766 1796 0
1765 -1796 0
1766 -1796 0
-1767 -1768 1798 0
1767 -1798 0
1768 -1798 0
-1769 -1771 1800 0
1769 -1800 0
1771 -1800 0
-1773 -1775 1802 0
1773 -1802 0
1775 -1802 0
-1777 -1779 1804 0
1777 -1804 0
1779 -1804 0
-1781 -1783 1806 0
1781 -1806 0
1783 -1806 0
-1785 -1787 1808 0
1785 -1808 0
1787 -1808 0
-1789 -1791 1810 0
1789 -1810 0
1791 -1810 0
-1793 -1795 1812 0
1793 -1812 0
1795 -1812 0
-1797 -1799 1814 0
1797 -1814 0
1799 -1814 0
-1801 -1803 1816 0
1801 -1816 0
1803 -1816 0
-1805 -1807 1818 0
1805 -1818 0
1807 -1818 0
-1809 -1811 1820 0
1809 -1820 0
1811 -1820 0
-1813 -1815 1822 0
1813 -1822 0
1815 -1822 0
-1817 -1819 1823 0
1817 -1823 0
1819 -1823 0
-1720 -1722 1933 0
1720 -1933 0
1722 -1933 0
-1724 -1726 1829 0
1724 -1829 0
1726 -1829 0
-1728 -1730 1831 0
1728 -1831 0
1730 -1831 0
-1734 -1736 1935 0
1734 -1935 0
1736 -1935 0
-1738 -1740 1835 0
1738 -1835 0
1740 -1835 0
-1742 -1744 1837 0
1742 -1837 0
1744 -1837 0
-1746 -1748 1839 0
1746 -1839 0
1748 -1839 0
-1750 -1752 1841 0
1750 -1841 0
1752 -1841 0
-1754 -1756 1843 0
1754 -1843 0
1756 -1843 0
-1758 -1760 1845 0
1758 -1845 0
1760 -1845 0
-1762 -1764 1941 0
1762 -1941 0
1764 -1941 0
-1770 -1772 1942 0
1770 -1942 0
1772 -1942 0
-1774 -1776 1851 0
1774 -1851 0
1776 -1851 0
-1778 -1780 1853 0
1778 -1853 0
1780 -1853 0
-1782 -1784 1855 0
1782 -1855 0
1784 -1855 0
-1786 -1788 1857 0
1786 -1857 0
1788 -1857 0
-1790 -1792 1859 0
1790 -1859 0
1792 -1859 0
-1794 -1796 1861 0
1794 -1861 0
1796 -1861 0
-1798 -1800 1863 0
1798 -1863 0
1800 -1863 0
-1802 -1804 1865 0
1802 -1865 0
1804 -1865 0
-1806 -1808 1867 0
1806 -1867 0
1808 -1867 0
-1810 -1812 1869 0
1810 -1869 0
1812 -1869 0
-1814 -1816 1871 0
1814 -1871 0
1816 -1871 0
-1818 -1820 1873 0
1818 -1873 0
1820 -1873 0
-1822 -1823 1955 0
1822 -1955 0
1823 -1955 0
-1824 -1825 1956 0
1824 -1956 0
1825 -1956 0
-1827 -1828 1877 0
1827 -1877 0
1828 -1877 0
-1830 -1832 1879 0
1830 -1879 0
1832 -1879 0
-1833 -1834 1881 0
1833 -1881 0
1834 -1881 0
-1836 -1838 1883 0
1836 -1883 0
1838 -1883 0
-1840 -1842 1885 0
1840 -1885 0
1842 -1885 0
-1844 -1846 1887 0
1844 -1887 0
1846 -1887 0
-1847 -1848 1889 0
1847 -1889 0
1848 -1889 0
-1849 -1850 1891 0
1849 -1891 0
1850 -1891 0
-1852 -1854 1893 0
1852 -1893 0
1854 -1893 0
-1856 -1858 1895 0
1856 -1895 0
1858 -1895 0
-1860 -1862 1897 0
1860 -1897 0
1862 -1897 0
-1864 -1866 1899 0
1864 -1899 0
1866 -1899 0
-1868 -1870 1901 0
1868 -1901 0
1870 -1901 0
-1872 -1874 1903 0
1872 -1903 0
1874 -1903 0
-1821 -1875 1905 0
1821 -1905 0
1875 -1905 0
-1826 -1876 1907 0
1826 -1907 0
1876 -1907 0
-1878 -1880 1909 0
1878 -1909 0
1880 -1909 0
-1882 -1884 1911 0
1882 -1911 0
1884 -1911 0
-1886 -1888 1913 0
1886 -1913 0
1888 -1913 0
-1890 -1892 1915 0
1890 -1915 0
1892 -1915 0
-1894 -1896 1917 0
1894 -1917 0
1896 -1917 0
-1898 -1900 1919 0
1898 -1919 0
1900 -1919 0
-1902 -1904 1921 0
1902 -1921 0
1904 -1921 0
-1906 -1908 1923 0
1906 -1923 0
1908 -1923 0
-1910 -1912 1925 0
1910 -1925 0
1912 -1925 0
-1914 -1916 1927 0
1914 -1927 0
1916 -1927 0
-1918 -1920 1929 0
1918 -1929 0
1920 -1929 0
-1922 -1924 1931 0
1922 -1931 0
1924 -1931 0
-1926 -1928 1932 0
1926 -1932 0
1928 -1932 0
-1829 -1831 2042 0
1829 -2042 0
1831 -2042 0
-1835 -1837 2043 0
1835 -2043 0
1837 -2043 0
-1839 -1841 1938 0
1839 -1938 0
1841 -1938 0
-1843 -1845 1940 0
1843 -1940 0
1845 -1940 0
-1851 -1853 1944 0
1851 -1944 0
1853 -1944 0
-1855 -1857 1946 0
1855 -1946 0
1857 -1946 0
-1859 -1861 1948 0
1859 -1948 0
1861 -1948 0
-1863 -1865 1950 0
1863 -1950 0
1865 -1950 0
-1867 -1869 1952 0
1867 -1952 0
1869 -1952 0
-1871 -1873 1954 0
1871 -1954 0
1873 -1954 0
-1877 -1879 1958 0
1877 -1958 0
1879 -1958 0
-1881 -1883 1960 0
1881 -1960 0
1883 -1960 0
-1885 -1887 1962 0
1885 -1962 0
1887 -1962 0
-1889 -1891 1964 0
1889 -1964 0
1891 -1964 0
-1893 -1895 1966 0
1893 -1966 0
1895 -1966 0
-1897 -1899 1968 0
1897 -1968 0
1899 -1968 0
-1901 -1903 1970 0
1901 -1970 0
1903 -1970 0
-1905 -1907 1972 0
1905 -1972 0
1907 -1972 0
-1909 -1911 1974 0
1909 -1974 0
1911 -1974 0
-1913 -1915 1976 0
1913 -1976 0
1915 -1976 0
-1917 -1919 1978 0
1917 -1978 0
1919 -1978 0
-1921 -1923 1980 0
1921 -1980 0
1923 -1980 0
-1925 -1927 1982 0
1925 -1982 0
1927 -1982 0
-1929 -1931 1984 0
1929 -1984 0
1931 -1984 0
-1930 -1932 2061 0
1932 -2061 0
1930 -2061 0
-1933 -1934 1986 0
1933 -1986 0
1934 -1986 0
-1935 -1936 1988 0
1935 -1988 0
1936 -1988 0
-1937 -1939 1990 0
1937 -1990 0
1939 -1990 0
-1941 -1942 1992 0
1941 -1992 0
1942 -1992 0
-1943 -1945 1994 0
1943 -1994 0
1945 -1994 0
-1947 -1949 1996 0
1947 -1996 0
1949 -1996 0
-1951 -1953 1998 0
1951 -1998 0
1953 -1998 0
-1955 -1956 2000 0
1955 -2000 0
1956 -2000 0
-1957 -1959 2002 0
1957 -2002 0
1959 -2002 0
-1961 -1963 2004 0
1961 -2004 0
1963 -2004 0
-1965 -1967 2006 0
1965 -2006 0
1967 -2006 0
-1969 -1971 2008 0
1969 -2008 0
1971 -2008 0
-1973 -1975 2010 0
1973 -2010 0
1975 -2010 0
-1977 -1979 2012 0
1977 -2012 0
1979 -2012 0
-1981 -1983 2075 0
1981 -2075 0
1983 -2075 0
-1985 -1987 2016 0
1985 -2016 0
1987 -2016 0
-1989 -1991 2018 0
1989 -2018 0
1991 -2018 0
-1993 -1995 2020 0
1993 -2020 0
1995 -2020 0
-1997 -1999 2022 0
1997 -2022 0
1999 -2022 0
-2001 -2003 2024 0
2001 -2024 0
2003 -2024 0
-2005 -2007 2026 0
2005 -2026 0
2007 -2026 0
-2009 -2011 2028 0
2009 -2028 0
2011 -2028 0
-2013 -2014 2030 0
2013 -2030 0
2014 -2030 0
-2015 -2017 2032 0
2015 -2032 0
2017 -2032 0
-2019 -2021 2034 0
2019 -2034 0
2021 -2034 0
-2023 -2025 2036 0
2023 -2036 0
2025 -2036 0
-2027 -2029 2038 0
2027 -2038 0
2029 -2038 0
-2031 -2033 2040 0
2031 -2040 0
2033 -2040 0
-2035 -2037 2041 0
2035 -2041 0
2037 -2041 0
-1938 -1940 2143 0
1938 -2143 0
1940 -2143 0
-1944 -1946 2144 0
1944 -2144 0
1946 -2144 0
-1948 -1950 2046 0
1948 -2046 0
1950 -2046 0
-1952 -1954 2047 0
1952 -2047 0
1954 -2047 0
-1958 -1960 2146 0
1958 -2146 0
1960 -2146 0
-1962 -1964 2050 0
1962 -2050 0
1964 -2050 0
-1966 -1968 2052 0
1966 -2052 0
1968 -2052 0
-1970 -1972 2054 0
1970 -2054 0
1972 -2054 0
-1974 -1976 2056 0
1974 -2056 0
1976 -2056 0
-1978 -1980 2058 0
1978 -2058 0
1980 -2058 0
-1982 -1984 2060 0
1982 -2060 0
1984 -2060 0
-1986 -1988 2152 0
1986 -2152 0
1988 -2152 0
-1990 -1992 2064 0
1990 -2064 0
1992 -2064 0
-1994 -1996 2066 0
1994 -2066 0
1996 -2066 0
-1998 -2000 2068 0
1998 -2068 0
2000 -2068 0
-2002 -2004 2070 0
2002 -2070 0
2004 -2070 0
-2006 -2008 2072 0
2006 -2072 0
2008 -2072 0
-2010 -2012 2074 0
2010 -2074 0
2012 -2074 0
-2016 -2018 2158 0
2016 -2158 0
2018 -2158 0
-2020 -2022 2078 0
2020 -2078 0
2022 -2078 0
-2024 -2026 2080 0
2024 -2080 0
2026 -2080 0
-2028 -2030 2082 0
2028 -2082 0
2030 -2082 0
-2032 -2034 2084 0
2032 -2084 0
2034 -2084 0
-2036 -2038 2086 0
2036 -2086 0
2038 -2086 0
-2040 -2041 2088 0
2040 -2088 0
2041 -2088 0
-2042 -2043 2164 0
2042 -2164 0
2043 -2164 0
-2044 -2045 2165 0
2044 -2165 0
2045 -2165 0
-2048 -2049 2166 0
2048 -2166 0
2049 -2166 0
-2051 -2053 2095 0
2051 -2095 0
2053 -2095 0
-2055 -2057 2097 0
2055 -2097 0
2057 -2097 0
-2059 -2061 2099 0
2059 -2099 0
2061 -2099 0
-2062 -2063 2101 0
2062 -2101 0
2063 -2101 0
-2065 -2067 2103 0
2065 -2103 0
2067 -2103 0
-2069 -2071 2105 0
2069 -2105 0
2071 -2105 0
-2073 -2075 2107 0
2073 -2107 0
2075 -2107 0
-2076 -2077 2109 0
2076 -2109 0
2077 -2109 0
-2079 -2081 2111 0
2079 -2111 0
2081 -2111 0
-2083 -2085 2113 0
2083 -2113 0
2085 -2113 0
-2039 -2087 2115 0
2087 -2115 0
2039 -2115 0
-2089 -2090 2117 0
2089 -2117 0
2090 -2117 0
-2091 -2092 2119 0
2091 -2119 0
2092 -2119 0
-2093 -2094 2121 0
2093 -2121 0
2094 -2121 0
-2096 -2098 2123 0
2096 -2123 0
2098 -2123 0
-2100 -2102 2125 0
2100 -2125 0
2102 -2125 0
-2104 -2106 2127 0
2104 -2127 0
2106 -2127 0
-2108 -2110 2129 0
2108 -2129 0
2110 -2129 0
-2112 -2114 2131 0
2112 -2131 0
2114 -2131 0
-2116 -2118 2133 0
2116 -2133 0
2118 -2133 0
-2120 -2122 2135 0
2120 -2135 0
2122 -2135 0
-2124 -2126 2137 0
2124 -2137 0
2126 -2137 0
-2128 -2130 2139 0
2128 -2139 0
2130 -2139 0
-2132 -2134 2141 0
2132 -2141 0
2134 -2141 0
-2136 -2138 2142 0
2136 -2142 0
2138 -2142 0
-2046 -2047 2248 0
2046 -2248 0
2047 -2248 0
-2050 -2052 2249 0
2050 -2249 0
2052 -2249 0
-2054 -2056 2149 0
2054 -2149 0
2056 -2149 0
-2058 -2060 2151 0
2058 -2151 0
2060 -2151 0
-2064 -2066 2251 0
2064 -2251 0
2066 -2251 0
-2068 -2070 2155 0
2068 -2155 0
2070 -2155 0
-2072 -2074 2157 0
2072 -2157 0
2074 -2157 0
-2078 -2080 2253 0
2078 -2253 0
2080 -2253 0
-2082 -2084 2161 0
2082 -2161 0
2084 -2161 0
-2086 -2088 2163 0
2086 -2163 0
2088 -2163 0
-2095 -2097 2254 0
2095 -2254 0
2097 -2254 0
-2099 -2101 2169 0
2099 -2169 0
2101 -2169 0
-2103 -2105 2171 0
2103 -2171 0
2105 -2171 0
-2107 -2109 2173 0
2107 -2173 0
2109 -2173 0
-2111 -2113 2175 0
2111 -2175 0
2113 -2175 0
-2115 -2117 2177 0
2115 -2177 0
2117 -2177 0
-2119 -2121 2179 0
2119 -2179 0
2121 -2179 0
-2123 -2125 2181 0
2123 -2181 0
2125 -2181 0
-2127 -2129 2183 0
2127 -2183 0
2129 -2183 0
-2131 -2133 2185 0
2131 -2185 0
2133 -2185 0
-2135 -2137 2187 0
2135 -2187 0
2137 -2187 0
-2139 -2141 2189 0
2139 -2189 0
2141 -2189 0
-2140 -2142 2191 0
2142 -2191 0
2140 -2191 0
-2144 -2145 2267 0
2144 -2267 0
2145 -2267 0
-2146 -2147 2194 0
2146 -2194 0
2147 -2194 0
-2148 -2150 2196 0
2148 -2196 0
2150 -2196 0
-2152 -2153 2198 0
2152 -2198 0
2153 -2198 0
-2154 -2156 2200 0
2154 -2200 0
2156 -2200 0
-2158 -2159 2202 0
2158 -2202 0
2159 -2202 0
-2160 -2162 2204 0
2160 -2204 0
2162 -2204 0
-2164 -2165 2206 0
2164 -2206 0
2165 -2206 0
-2166 -2167 2208 0
2166 -2208 0
2167 -2208 0
-2168 -2170 2210 0
2168 -2210 0
2170 -2210 0
-2172 -2174 2212 0
2172 -2212 0
2174 -2212 0
-2176 -2178 2214 0
2176 -2214 0
2178 -2214 0
-2180 -2182 2216 0
2180 -2216 0
2182 -2216 0
-2184 -2186 2218 0
2184 -2218 0
2186 -2218 0
-2188 -2190 2220 0
2188 -2220 0
2190 -2220 0
-2143 -2192 2222 0
2143 -2222 0
2192 -2222 0
-2193 -2195 2224 0
2193 -2224 0
2195 -2224 0
-2197 -2199 2226 0
2197 -2226 0
2199 -2226 0
-2201 -2203 2228 0
2201 -2228 0
2203 -2228 0
-2205 -2207 2230 0
2205 -2230 0
2207 -2230 0
-2209 -2211 2232 0
2209 -2232 0
2211 -2232 0
-2213 -2215 2234 0
2213 -2234 0
2215 -2234 0
-2217 -2219 2236 0
2217 -2236 0
2219 -2236 0
-2221 -2223 2238 0
2221 -2238 0
2223 -2238 0
-2225 -2227 2240 0
2225 -2240 0
2227 -2240 0
-2229 -2231 2242 0
2229 -2242 0
2231 -2242 0
-2233 -2235 2244 0
2233 -2244 0
2235 -2244 0
-2237 -2239 2246 0
2237 -2246 0
2239 -2246 0
-2241 -2243 2247 0
2241 -2247 0
2243 -2247 0
-2149 -2151 2349 0
2149 -2349 0
2151 -2349 0
-2155 -2157 2350 0
2155 -2350 0
2157 -2350 0
-2161 -2163 2351 0
2161 -2351 0
2163 -2351 0
-2169 -2171 2256 0
2169 -2256 0
2171 -2256 0
-2173 -2175 2258 0
2173 -2258 0
2175 -2258 0
-2177 -2179 2260 0
2177 -2260 0
2179 -2260 0
-2181 -2183 2262 0
2181 -2262 0
2183 -2262 0
-2185 -2187 2264 0
2185 -2264 0
2187 -2264 0
-2189 -2191 2266 0
2189 -2266 0
2191 -2266 0
-2194 -2196 2356 0
2194 -2356 0
2196 -2356 0
-2198 -2200 2270 0
2198 -2270 0
2200 -2270 0
-2202 -2204 2272 0
2202 -2272 0
2204 -2272 0
-2206 -2208 2274 0
2206 -2274 0
2208 -2274 0
-2210 -2212 2276 0
2210 -2276 0
2212 -2276 0
-2214 -2216 2278 0
2214 -2278 0
2216 -2278 0
-2218 -2220 2280 0
2218 -2280 0
2220 -2280 0
-2222 -2224 2282 0
2222 -2282 0
2224 -2282 0
-2226 -2228 2284 0
2226 -2284 0
2228 -2284 0
-2230 -2232 2286 0
2230 -2286 0
2232 -2286 0
-2234 -2236 2288 0
2234 -2288 0
2236 -2288 0
-2238 -2240 2290 0
2238 -2290 0
2240 -2290 0
-2242 -2244 2292 0
2242 -2292 0
2244 -2292 0
-2246 -2247 2367 0
2246 -2367 0
2247 -2367 0
-2248 -2249 2295 0
2248 -2295 0
2249 -2295 0
-2250 -2251 2297 0
2250 -2297 0
2251 -2297 0
-2252 -2253 2369 0
2252 -2369 0
2253 -2369 0
-2254 -2255 2301 0
2254 -2301 0
2255 -2301 0
-2257 -2259 2303 0
2257 -2303 0
2259 -2303 0
-2261 -2263 2305 0
2261 -2305 0
2263 -2305 0
-2265 -2267 2307 0
2265 -2307 0
2267 -2307 0
-2268 -2269 2309 0
2268 -2309 0
2269 -2309 0
-2271 -2273 2311 0
2271 -2311 0
2273 -2311 0
-2275 -2277 2313 0
2275 -2313 0
2277 -2313 0
-2279 -2281 2315 0
2279 -2315 0
2281 -2315 0
-2283 -2285 2317 0
2283 -2317 0
2285 -2317 0
-2287 -2289 2319 0
2287 -2319 0
2289 -2319 0
-2291 -2293 2321 0
2291 -2321 0
2293 -2321 0
-2245 -2294 2323 0
2245 -2323 0
2294 -2323 0
-2296 -2298 2325 0
2296 -2325 0
2298 -2325 0
-2299 -2300 2327 0
2299 -2327 0
2300 -2327 0
-2302 -2304 2329 0
2302 -2329 0
2304 -2329 0
-2306 -2308 2331 0
2306 -2331 0
2308 -2331 0
-2310 -2312 2333 0
2310 -2333 0
2312 -2333 0
-2314 -2316 2335 0
2314 -2335 0
2316 -2335 0
-2318 -2320 2337 0
2318 -2337 0
2320 -2337 0
-2322 -2324 2339 0
2322 -2339 0
2324 -2339 0
-2326 -2328 2341 0
2326 -2341 0
2328 -2341 0
-2330 -2332 2343 0
2330 -2343 0
2332 -2343 0
-2334 -2336 2345 0
2334 -2345 0
2336 -2345 0
-2338 -2340 2347 0
2338 -2347 0
2340 -2347 0
-2342 -2344 2348 0
2342 -2348 0
2344 -2348 0
-2256 -2258 2448 0
2256 -2448 0
2258 -2448 0
-2260 -2262 2353 0
2260 -2353 0
2262 -2353 0
-2264 -2266 2355 0
2264 -2355 0
2266 -2355 0
-2270 -2272 2450 0
2270 -2450 0
2272 -2450 0
-2274 -2276 2359 0
2274 -2359 0
2276 -2359 0
-2278 -2280 2361 0
2278 -2361 0
2280 -2361 0
-2282 -2284 2363 0
2282 -2363 0
2284 -2363 0
-2286 -2288 2365 0
2286 -2365 0
2288 -2365 0
-2290 -2292 2453 0
2290 -2453 0
2292 -2453 0
-2295 -2297 2454 0
2295 -2454 0
2297 -2454 0
-2301 -2303 2371 0
2301 -2371 0
2303 -2371 0
-2305 -2307 2373 0
2305 -2373 0
2307 -2373 0
-2309 -2311 2375 0
2309 -2375 0
2311 -2375 0
-2313 -2315 2377 0
2313 -2377 0
2315 -2377 0
-2317 -2319 2379 0
2317 -2379 0
2319 -2379 0
-2321 -2323 2381 0
2321 -2381 0
2323 -2381 0
-2325 -2327 2383 0
2325 -2383 0
2327 -2383 0
-2329 -2331 2385 0
2329 -2385 0
2331 -2385 0
-2333 -2335 2387 0
2333 -2387 0
2335 -2387 0
-2337 -2339 2389 0
2337 -2389 0
2339 -2389 0
-2341 -2343 2391 0
2341 -2391 0
2343 -2391 0
-2345 -2347 2393 0
2345 -2393 0
2347 -2393 0
-2346 -2348 2465 0
2348 -2465 0
2346 -2465 0
-2350 -2351 2466 0
2350 -2466 0
2351 -2466 0
-2352 -2354 2398 0
2352 -2398 0
2354 -2398 0
-2356 -2357 2400 0
2356 -2400 0
2357 -2400 0
-2358 -2360 2402 0
2358 -2402 0
2360 -2402 0
-2362 -2364 2404 0
2362 -2404 0
2364 -2404 0
-2366 -2367 2406 0
2366 -2406 0
2367 -2406 0
-2368 -2369 2408 0
2368 -2408 0
2369 -2408 0
-2370 -2372 2410 0
2370 -2410 0
2372 -2410 0
-2374 -2376 2412 0
2374 -2412 0
2376 -2412 0
-2378 -2380 2414 0
2378 -2414 0
2380 -2414 0
-2382 -2384 2416 0
2382 -2416 0
2384 -2416 0
-2386 -2388 2418 0
2386 -2418 0
2388 -2418 0
-2390 -2392 2420 0
2390 -2420 0
2392 -2420 0
-2349 -2394 2422 0
2394 -2422 0
2349 -2422 0
-2395 -2396 2424 0
2395 -2424 0
2396 -2424 0
-2397 -2399 2426 0
2397 -2426 0
2399 -2426 0
-2401 -2403 2428 0
2401 -2428 0
2403 -2428 0
-2405 -2407 2430 0
2405 -2430 0
2407 -2430 0
-2409 -2411 2432 0
2409 -2432 0
2411 -2432 0
-2413 -2415 2434 0
2413 -2434 0
2415 -2434 0
-2417 -2419 2436 0
2417 -2436 0
2419 -2436 0
-2421 -2423 2438 0
2421 -2438 0
2423 -2438 0
-2425 -2427 2440 0
2425 -2440 0
2427 -2440 0
-2429 -2431 2442 0
2429 -2442 0
2431 -2442 0
-2433 -2435 2444 0
2433 -2444 0
2435 -2444 0
-2437 -2439 2446 0
2437 -2446 0
2439 -2446 0
-2441 -2443 2447 0
2441 -2447 0
2443 -2447 0
-2353 -2355 2545 0
2353 -2545 0
2355 -2545 0
-2359 -2361 2546 0
2359 -2546 0
2361 -2546 0
-2363 -2365 2547 0
2363 -2547 0
2365 -2547 0
-2371 -2373 2548 0
2371 -2548 0
2373 -2548 0
-2375 -2377 2457 0
2375 -2457 0
2377 -2457 0
-2379 -2381 2459 0
2379 -2459 0
2381 -2459 0
-2383 -2385 2461 0
2383 -2461 0
2385 -2461 0
-2387 -2389 2463 0
2387 -2463 0
2389 -2463 0
-2391 -2393 2551 0
2391 -2551 0
2393 -2551 0
-2398 -2400 2552 0
2398 -2552 0
2400 -2552 0
-2402 -2404 2469 0
2402 -2469 0
2404 -2469 0
-2406 -2408 2471 0
2406 -2471 0
2408 -2471 0
-2410 -2412 2473 0
2410 -2473 0
2412 -2473 0
-2414 -2416 2475 0
2414 -2475 0
2416 -2475 0
-2418 -2420 2477 0
2418 -2477 0
2420 -2477 0
-2422 -2424 2479 0
2422 -2479 0
2424 -2479 0
-2426 -2428 2481 0
2426 -2481 0
2428 -2481 0
-2430 -2432 2483 0
2430 -2483 0
2432 -2483 0
-2434 -2436 2485 0
2434 -2485 0
2436 -2485 0
-2438 -2440 2487 0
2438 -2487 0
2440 -2487 0
-2442 -2444 2489 0
2442 -2489 0
2444 -2489 0
-2446 -2447 2491 0
2446 -2491 0
2447 -2491 0
-2449 -2450 2493 0
2449 -2493 0
2450 -2493 0
-2451 -2452 2495 0
2451 -2495 0
2452 -2495 0
-2453 -2454 2497 0
2453 -2497 0
2454 -2497 0
-2455 -2456 2499 0
2455 -2499 0
2456 -2499 0
-2458 -2460 2501 0
2458 -2501 0
2460 -2501 0
-2462 -2464 2503 0
2462 -2503 0
2464 -2503 0
-2465 -2466 2505 0
2465 -2505 0
2466 -2505 0
-2467 -2468 2507 0
2467 -2507 0
2468 -2507 0
-2470 -2472 2509 0
2470 -2509 0
2472 -2509 0
-2474 -2476 2511 0
2474 -2511 0
2476 -2511 0
-2478 -2480 2513 0
2478 -2513 0
2480 -2513 0
-2482 -2484 2515 0
2482 -2515 0
2484 -2515 0
-2486 -2488 2517 0
2486 -2517 0
2488 -2517 0
-2445 -2490 2519 0
2490 -2519 0
2445 -2519 0
-2448 -2492 2521 0
2448 -2521 0
2492 -2521 0
-2494 -2496 2523 0
2494 -2523 0
2496 -2523 0
-2498 -2500 2525 0
2498 -2525 0
2500 -2525 0
-2502 -2504 2527 0
2502 -2527 0
2504 -2527 0
-2506 -2508 2529 0
2506 -2529 0
2508 -2529 0
-2510 -2512 2531 0
2510 -2531 0
2512 -2531 0
-2514 -2516 2533 0
2514 -2533 0
2516 -2533 0
-2518 -2520 2535 0
2518 -2535 0
2520 -2535 0
-2522 -2524 2537 0
2522 -2537 0
2524 -2537 0
-2526 -2528 2539 0
2526 -2539 0
2528 -2539 0
-2530 -2532 2541 0
2530 -2541 0
2532 -2541 0
-2534 -2536 2543 0
2534 -2543 0
2536 -2543 0
-2538 -2540 2544 0
2538 -2544 0
2540 -2544 0
-2457 -2459 2682 0
2457 -2682 0
2459 -2682 0
-2461 -2463 2640 0
2461 -2640 0
2463 -2640 0
-2469 -2471 2641 0
2469 -2641 0
2471 -2641 0
-2473 -2475 2555 0
2473 -2555 0
2475 -2555 0
-2477 -2479 2557 0
2477 -2557 0
2479 -2557 0
-2481 -2483 2559 0
2481 -2559 0
2483 -2559 0
-2485 -2487 2561 0
2485 -2561 0
2487 -2561 0
-2489 -2491 2644 0
2489 -2644 0
2491 -2644 0
-2493 -2495 2563 0
2493 -2563 0
2495 -2563 0
-2497 -2499 2565 0
2497 -2565 0
2499 -2565 0
-2501 -2503 2567 0
2501 -2567 0
2503 -2567 0
-2505 -2507 2569 0
2505 -2569 0
2507 -2569 0
-2509 -2511 2571 0
2509 -2571 0
2511 -2571 0
-2513 -2515 2573 0
2513 -2573 0
2515 -2573 0
-2517 -2519 2575 0
2517 -2575 0
2519 -2575 0
-2521 -2523 2577 0
2521 -2577 0
2523 -2577 0
-2525 -2527 2579 0
2525 -2579 0
2527 -2579 0
-2529 -2531 2581 0
2529 -2581 0
2531 -2581 0
-2533 -2535 2583 0
2533 -2583 0
2535 -2583 0
-2537 -2539 2585 0
2537 -2585 0
2539 -2585 0
-2541 -2543 2587 0
2541 -2587 0
2543 -2587 0
-2542 -2544 2589 0
2544 -2589 0
2542 -2589 0
-2546 -2547 2658 0
2546 -2658 0
2547 -2658 0
-2548 -2549 2592 0
2548 -2592 0
2549 -2592 0
-2550 -2551 2594 0
2550 -2594 0
2551 -2594 0
-2552 -2553 2596 0
2552 -2596 0
2553 -2596 0
-2554 -2556 2598 0
2554 -2598 0
2556 -2598 0
-2558 -2560 2663 0
2558 -2663 0
2560 -2663 0
-2562 -2564 2602 0
2562 -2602 0
2564 -2602 0
-2566 -2568 2604 0
2566 -2604 0
2568 -2604 0
-2570 -2572 2606 0
2570 -2606 0
2572 -2606 0
-2574 -2576 2608 0
2574 -2608 0
2576 -2608 0
-2578 -2580 2610 0
2578 -2610 0
2580 -2610 0
-2582 -2584 2612 0
2582 -2612 0
2584 -2612 0
-2586 -2588 2614 0
2586 -2614 0
2588 -2614 0
-2545 -2590 2616 0
2545 -2616 0
2590 -2616 0
-2591 -2593 2618 0
2591 -2618 0
2593 -2618 0
-2595 -2597 2620 0
2595 -2620 0
2597 -2620 0
-2599 -2600 2622 0
2599 -2622 0
2600 -2622 0
-2601 -2603 2624 0
2601 -2624 0
2603 -2624 0
-2605 -2607 2626 0
2605 -2626 0
2607 -2626 0
-2609 -2611 2628 0
2609 -2628 0
2611 -2628 0
-2613 -2615 2630 0
2613 -2630 0
2615 -2630 0
-2617 -2619 2632 0
2617 -2632 0
2619 -2632 0
-2621 -2623 2634 0
2621 -2634 0
2623 -2634 0
-2625 -2627 2636 0
2625 -2636 0
2627 -2636 0
-2629 -2631 2638 0
2629 -2638 0
2631 -2638 0
-2633 -2635 2639 0
2633 -2639 0
2635 -2639 0
-2555 -2557 2733 0
2555 -2733 0
2557 -2733 0
-2559 -2561 2734 0
2559 -2734 0
2561 -2734 0
-2563 -2565 2646 0
2563 -2646 0
2565 -2646 0
-2567 -2569 2648 0
2567 -2648 0
2569 -2648 0
-2571 -2573 2650 0
2571 -2650 0
2573 -2650 0
-2575 -2577 2652 0
2575 -2652 0
2577 -2652 0
-2579 -2581 2654 0
2579 -2654 0
2581 -2654 0
-2583 -2585 2656 0
2583 -2656 0
2585 -2656 0
-2587 -2589 2740 0
2587 -2740 0
2589 -2740 0
-2592 -2594 2660 0
2592 -2660 0
2594 -2660 0
-2596 -2598 2662 0
2596 -2662 0
2598 -2662 0
-2602 -2604 2742 0
2602 -2742 0
2604 -2742 0
-2606 -2608 2666 0
2606 -2666 0
2608 -2666 0
-2610 -2612 2668 0
2610 -2668 0
2612 -2668 0
-2614 -2616 2670 0
2614 -2670 0
2616 -2670 0
-2618 -2620 2672 0
2618 -2672 0
2620 -2672 0
-2622 -2624 2674 0
2622 -2674 0
2624 -2674 0
-2626 -2628 2676 0
2626 -2676 0
2628 -2676 0
-2630 -2632 2678 0
2630 -2678 0
2632 -2678 0
-2634 -2636 2680 0
2634 -2680 0
2636 -2680 0
-2638 -2639 2751 0
2638 -2751 0
2639 -2751 0
-2640 -2641 2752 0
2640 -2752 0
2641 -2752 0
-2642 -2643 2685 0
2642 -2685 0
2643 -2685 0
-2644 -2645 2687 0
2644 -2687 0
2645 -2687 0
-2647 -2649 2689 0
2647 -2689 0
2649 -2689 0
-2651 -2653 2691 0
2651 -2691 0
2653 -2691 0
-2655 -2657 2693 0
2655 -2693 0
2657 -2693 0
-2658 -2659 2695 0
2658 -2695 0
2659 -2695 0
-2661 -2663 2697 0
2661 -2697 0
2663 -2697 0
-2664 -2665 2699 0
2664 -2699 0
2665 -2699 0
-2667 -2669 2701 0
2667 -2701 0
2669 -2701 0
-2671 -2673 2703 0
2671 -2703 0
2673 -2703 0
-2675 -2677 2705 0
2675 -2705 0
2677 -2705 0
-2679 -2681 2707 0
2679 -2707 0
2681 -2707 0
-2637 -2682 2709 0
2637 -2709 0
2682 -2709 0
-2683 -2684 2711 0
2683 -2711 0
2684 -2711 0
-2686 -2688 2713 0
2686 -2713 0
2688 -2713 0
-2690 -2692 2715 0
2690 -2715 0
2692 -2715 0
-2694 -2696 2717 0
2694 -2717 0
2696 -2717 0
-2698 -2700 2719 0
2698 -2719 0
2700 -2719 0
-2702 -2704 2721 0
2702 -2721 0
2704 -2721 0
-2706 -2708 2723 0
2706 -2723 0
2708 -2723 0
-2710 -2712 2725 0
2710 -2725 0
2712 -2725 0
-2714 -2716 2727 0
2714 -2727 0
2716 -2727 0
-2718 -2720 2729 0
2718 -2729 0
2720 -2729 0
-2722 -2724 2731 0
2722 -2731 0
2724 -2731 0
-2726 -2728 2732 0
2726 -2732 0
2728 -2732 0
-2646 -2648 2736 0
2646 -2736 0
2648 -2736 0
-2650 -2652 2738 0
2650 -2738 0
2652 -2738 0
-2654 -2656 2826 0
2654 -2826 0
2656 -2826 0
-2660 -2662 2827 0
2660 -2827 0
2662 -2827 0
-2666 -2668 2744 0
2666 -2744 0
2668 -2744 0
-2670 -2672 2746 0
2670 -2746 0
2672 -2746 0
-2674 -2676 2748 0
2674 -2748 0
2676 -2748 0
-2678 -2680 2750 0
2678 -2750 0
2680 -2750 0
-2685 -2687 2754 0
2685 -2754 0
2687 -2754 0
-2689 -2691 2756 0
2689 -2756 0
2691 -2756 0
-2693 -2695 2758 0
2693 -2758 0
2695 -2758 0
-2697 -2699 2760 0
2697 -2760 0
2699 -2760 0
-2701 -2703 2762 0
2701 -2762 0
2703 -2762 0
-2705 -2707 2764 0
2705 -2764 0
2707 -2764 0
-2709 -2711 2766 0
2709 -2766 0
2711 -2766 0
-2713 -2715 2768 0
2713 -2768 0
2715 -2768 0
-2717 -2719 2770 0
2717 -2770 0
2719 -2770 0
-2721 -2723 2772 0
2721 -2772 0
2723 -2772 0
-2725 -2727 2774 0
2725 -2774 0
2727 -2774 0
-2729 -2731 2776 0
2729 -2776 0
2731 -2776 0
-2730 -2732 2841 0
2732 -2841 0
2730 -2841 0
-2733 -2734 2778 0
2733 -2778 0
2734 -2778 0
-2735 -2737 2780 0
2735 -2780 0
2737 -2780 0
-2739 -2740 2782 0
2739 -2782 0
2740 -2782 0
-2741 -2742 2784 0
2741 -2784 0
2742 -2784 0
-2743 -2745 2786 0
2743 -2786 0
2745 -2786 0
-2747 -2749 2788 0
2747 -2788 0
2749 -2788 0
-2751 -2752 2790 0
2751 -2790 0
2752 -2790 0
-2753 -2755 2792 0
2753 -2792 0
2755 -2792 0
-2757 -2759 2794 0
2757 -2794 0
2759 -2794 0
-2761 -2763 2796 0
2761 -2796 0
2763 -2796 0
-2765 -2767 2798 0
2765 -2798 0
2767 -2798 0
-2769 -2771 2800 0
2769 -2800 0
2771 -2800 0
-2773 -2775 2852 0
2773 -2852 0
2775 -2852 0
-2777 -2779 2804 0
2777 -2804 0
2779 -2804 0
-2781 -2783 2806 0
2781 -2806 0
2783 -2806 0
-2785 -2787 2808 0
2785 -2808 0
2787 -2808 0
-2789 -2791 2810 0
2789 -2810 0
2791 -2810 0
-2793 -2795 2812 0
2793 -2812 0
2795 -2812 0
-2797 -2799 2814 0
2797 -2814 0
2799 -2814 0
-2801 -2802 2816 0
2801 -2816 0
2802 -2816 0
-2803 -2805 2818 0
2803 -2818 0
2805 -2818 0
-2807 -2809 2820 0
2807 -2820 0
2809 -2820 0
-2811 -2813 2822 0
2811 -2822 0
2813 -2822 0
-2815 -2817 2824 0
2815 -2824 0
2817 -2824 0
-2819 -2821 2825 0
2819 -2825 0
2821 -2825 0
-2736 -2738 2913 0
2736 -2913 0
2738 -2913 0
-2744 -2746 2914 0
2744 -2914 0
2746 -2914 0
-2748 -2750 2915 0
2748 -2915 0
2750 -2915 0
-2754 -2756 2830 0
2754 -2830 0
2756 -2830 0
-2758 -2760 2832 0
2758 -2832 0
2760 -2832 0
-2762 -2764 2834 0
2762 -2834 0
2764 -2834 0
-2766 -2768 2836 0
2766 -2836 0
2768 -2836 0
-2770 -2772 2838 0
2770 -2838 0
2772 -2838 0
-2774 -2776 2840 0
2774 -2840 0
2776 -2840 0
-2778 -2780 2921 0
2778 -2921 0
2780 -2921 0
-2782 -2784 2844 0
2782 -2844 0
2784 -2844 0
-2786 -2788 2846 0
2786 -2846 0
2788 -2846 0
-2790 -2792 2848 0
2790 -2848 0
2792 -2848 0
-2794 -2796 2850 0
2794 -2850 0
2796 -2850 0
-2798 -2800 2926 0
2798 -2926 0
2800 -2926 0
-2804 -2806 2854 0
2804 -2854 0
2806 -2854 0
-2808 -2810 2856 0
2808 -2856 0
2810 -2856 0
-2812 -2814 2858 0
2812 -2858 0
2814 -2858 0
-2816 -2818 2860 0
2816 -2860 0
2818 -2860 0
-2820 -2822 2862 0
2820 -2862 0
2822 -2862 0
-2824 -2825 2864 0
2824 -2864 0
2825 -2864 0
-2826 -2827 2867 0
2826 -2867 0
2827 -2867 0
-2828 -2829 2869 0
2828 -2869 0
2829 -2869 0
-2831 -2833 2932 0
2831 -2932 0
2833 -2932 0
-2835 -2837 2873 0
2835 -2873 0
2837 -2873 0
-2839 -2841 2875 0
2839 -2875 0
2841 -2875 0
-2842 -2843 2877 0
2842 -2877 0
2843 -2877 0
-2845 -2847 2879 0
2845 -2879 0
2847 -2879 0
-2849 -2851 2881 0
2849 -2881 0
2851 -2881 0
-2852 -2853 2883 0
2852 -2883 0
2853 -2883 0
-2855 -2857 2885 0
2855 -2885 0
2857 -2885 0
-2859 -2861 2887 0
2859 -2887 0
2861 -2887 0
-2823 -2863 2889 0
2863 -2889 0
2823 -2889 0
-2865 -2866 2891 0
2865 -2891 0
2866 -2891 0
-2868 -2870 2893 0
2868 -2893 0
2870 -2893 0
-2871 -2872 2895 0
2871 -2895 0
2872 -2895 0
-2874 -2876 2897 0
2874 -2897 0
2876 -2897 0
-2878 -2880 2899 0
2878 -2899 0
2880 -2899 0
-2882 -2884 2901 0
2882 -2901 0
2884 -2901 0
-2886 -2888 2903 0
2886 -2903 0
2888 -2903 0
-2890 -2892 2905 0
2890 -2905 0
2892 -2905 0
-2894 -2896 2907 0
2894 -2907 0
2896 -2907 0
-2898 -2900 2909 0
2898 -2909 0
2900 -2909 0
-2902 -2904 2911 0
2902 -2911 0
2904 -2911 0
-2906 -2908 2912 0
2906 -2912 0
2908 -2912 0
-2830 -2832 2917 0
2830 -2917 0
2832 -2917 0
-2834 -2836 2919 0
2834 -2919 0
2836 -2919 0
-2838 -2840 3000 0
2838 -3000 0
2840 -3000 0
-2844 -2846 2923 0
2844 -2923 0
2846 -2923 0
-2848 -2850 2925 0
2848 -2925 0
2850 -2925 0
-2854 -2856 3002 0
2854 -3002 0
2856 -3002 0
-2858 -2860 2929 0
2858 -2929 0
2860 -2929 0
-2862 -2864 2931 0
2862 -2931 0
2864 -2931 0
-2867 -2869 3004 0
2867 -3004 0
2869 -3004 0
-2873 -2875 3005 0
2873 -3005 0
2875 -3005 0
-2877 -2879 2935 0
2877 -2935 0
2879 -2935 0
-2881 -2883 2937 0
2881 -2937 0
2883 -2937 0
-2885 -2887 2939 0
2885 -2939 0
2887 -2939 0
-2889 -2891 2941 0
2889 -2941 0
2891 -2941 0
-2893 -2895 2943 0
2893 -2943 0
2895 -2943 0
-2897 -2899 2945 0
2897 -2945 0
2899 -2945 0
-2901 -2903 2947 0
2901 -2947 0
2903 -2947 0
-2905 -2907 2949 0
2905 -2949 0
2907 -2949 0
-2909 -2911 2951 0
2909 -2951 0
2911 -2951 0
-2910 -2912 2953 0
2912 -2953 0
2910 -2953 0
-2914 -2915 3015 0
2914 -3015 0
2915 -3015 0
-2916 -2918 2956 0
2916 -2956 0
2918 -2956 0
-2920 -2921 2958 0
2920 -2958 0
2921 -2958 0
-2922 -2924 2960 0
2922 -2960 0
2924 -2960 0
-2926 -2927 2962 0
2926 -2962 0
2927 -2962 0
-2928 -2930 3018 0
2928 -3018 0
2930 -3018 0
-2932 -2933 2966 0
2932 -2966 0
2933 -2966 0
-2934 -2936 2968 0
2934 -2968 0
2936 -2968 0
-2938 -2940 2970 0
2938 -2970 0
2940 -2970 0
-2942 -2944 2972 0
2942 -2972 0
2944 -2972 0
-2946 -2948 2974 0
2946 -2974 0
2948 -2974 0
-2950 -2952 2976 0
2950 -2976 0
2952 -2976 0
-2913 -2954 2978 0
2913 -2978 0
2954 -2978 0
-2955 -2957 2980 0
2955 -2980 0
2957 -2980 0
-2959 -2961 2982 0
2959 -2982 0
2961 -2982 0
-2963 -2964 2984 0
2963 -2984 0
2964 -2984 0
-2965 -2967 2986 0
2965 -2986 0
2967 -2986 0
-2969 -2971 2988 0
2969 -2988 0
2971 -2988 0
-2973 -2975 2990 0
2973 -2990 0
2975 -2990 0
-2977 -2979 2992 0
2977 -2992 0
2979 -2992 0
-2981 -2983 2994 0
2981 -2994 0
2983 -2994 0
-2985 -2987 2996 0
2985 -2996 0
2987 -2996 0
-2989 -2991 2998 0
2989 -2998 0
2991 -2998 0
-2993 -2995 2999 0
2993 -2999 0
2995 -2999 0
-2917 -2919 3083 0
2917 -3083 0
2919 -3083 0
-2923 -2925 3084 0
2923 -3084 0
2925 -3084 0
-2929 -2931 3085 0
2929 -3085 0
2931 -3085 0
-2935 -2937 3086 0
2935 -3086 0
2937 -3086 0
-2939 -2941 3008 0
2939 -3008 0
2941 -3008 0
-2943 -2945 3010 0
2943 -3010 0
2945 -3010 0
-2947 -2949 3012 0
2947 -3012 0
2949 -3012 0
-2951 -2953 3014 0
2951 -3014 0
2953 -3014 0
-2956 -2958 3089 0
2956 -3089 0
2958 -3089 0
-2960 -2962 3090 0
2960 -3090 0
2962 -3090 0
-2966 -2968 3020 0
2966 -3020 0
2968 -3020 0
-2970 -2972 3022 0
2970 -3022 0
2972 -3022 0
-2974 -2976 3024 0
2974 -3024 0
2976 -3024 0
-2978 -2980 3026 0
2978 -3026 0
2980 -3026 0
-2982 -2984 3028 0
2982 -3028 0
2984 -3028 0
-2986 -2988 3030 0
2986 -3030 0
2988 -3030 0
-2990 -2992 3032 0
2990 -3032 0
2992 -3032 0
-2994 -2996 3034 0
2994 -3034 0
2996 -3034 0
-2998 -2999 3097 0
2998 -3097 0
2999 -3097 0
-3000 -3001 3098 0
3000 -3098 0
3001 -3098 0
-3002 -3003 3039 0
3002 -3039 0
3003 -3039 0
-3004 -3005 3041 0
3004 -3041 0
3005 -3041 0
-3006 -3007 3043 0
3006 -3043 0
3007 -3043 0
-3009 -3011 3045 0
3009 -3045 0
3011 -3045 0
-3013 -3015 3047 0
3013 -3047 0
3015 -3047 0
-3016 -3017 3049 0
3016 -3049 0
3017 -3049 0
-3018 -3019 3051 0
3018 -3051 0
3019 -3051 0
-3021 -3023 3053 0
3021 -3053 0
3023 -3053 0
-3025 -3027 3055 0
3025 -3055 0
3027 -3055 0
-3029 -3031 3057 0
3029 -3057 0
3031 -3057 0
-3033 -3035 3059 0
3033 -3059 0
3035 -3059 0
-2997 -3036 3061 0
2997 -3061 0
3036 -3061 0
-3037 -3038 3063 0
3037 -3063 0
3038 -3063 0
-3040 -3042 3065 0
3040 -3065 0
3042 -3065 0
-3044 -3046 3067 0
3044 -3067 0
3046 -3067 0
-3048 -3050 3069 0
3048 -3069 0
3050 -3069 0
-3052 -3054 3071 0
3052 -3071 0
3054 -3071 0
-3056 -3058 3073 0
3056 -3073 0
3058 -3073 0
-3060 -3062 3075 0
3060 -3075 0
3062 -3075 0
-3064 -3066 3077 0
3064 -3077 0
3066 -3077 0
-3068 -3070 3079 0
3068 -3079 0
3070 -3079 0
-3072 -3074 3081 0
3072 -3081 0
3074 -3081 0
-3076 -3078 3082 0
3076 -3082 0
3078 -3082 0
-3008 -3010 3168 0
3008 -3168 0
3010 -3168 0
-3012 -3014 3169 0
3012 -3169 0
3014 -3169 0
-3020 -3022 3170 0
3020 -3170 0
3022 -3170 0
-3024 -3026 3093 0
3024 -3093 0
3026 -3093 0
-3028 -3030 3095 0
3028 -3095 0
3030 -3095 0
-3032 -3034 3172 0
3032 -3172 0
3034 -3172 0
-3039 -3041 3173 0
3039 -3173 0
3041 -3173 0
-3043 -3045 3101 0
3043 -3101 0
3045 -3101 0
-3047 -3049 3103 0
3047 -3103 0
3049 -3103 0
-3051 -3053 3105 0
3051 -3105 0
3053 -3105 0
-3055 -3057 3107 0
3055 -3107 0
3057 -3107 0
-3059 -3061 3109 0
3059 -3109 0
3061 -3109 0
-3063 -3065 3111 0
3063 -3111 0
3065 -3111 0
-3067 -3069 3113 0
3067 -3113 0
3069 -3113 0
-3071 -3073 3115 0
3071 -3115 0
3073 -3115 0
-3075 -3077 3117 0
3075 -3117 0
3077 -3117 0
-3079 -3081 3119 0
3079 -3119 0
3081 -3119 0
-3080 -3082 3183 0
3082 -3183 0
3080 -3183 0
-3084 -3085 3122 0
3084 -3122 0
3085 -3122 0
-3086 -3087 3124 0
3086 -3124 0
3087 -3124 0
-3088 -3089 3126 0
3088 -3126 0
3089 -3126 0
-3090 -3091 3128 0
3090 -3128 0
3091 -3128 0
-3092 -3094 3130 0
3092 -3130 0
3094 -3130 0
-3096 -3097 3132 0
3096 -3132 0
3097 -3132 0
-3098 -3099 3134 0
3098 -3134 0
3099 -3134 0
-3100 -3102 3136 0
3100 -3136 0
3102 -3136 0
-3104 -3106 3138 0
3104 -3138 0
3106 -3138 0
-3108 -3110 3140 0
3108 -3140 0
3110 -3140 0
-3112 -3114 3142 0
3112 -3142 0
3114 -3142 0
-3116 -3118 3144 0
3116 -3144 0
3118 -3144 0
-3083 -3120 3146 0
3120 -3146 0
3083 -3146 0
-3121 -3123 3148 0
3121 -3148 0
3123 -3148 0
-3125 -3127 3150 0
3125 -3150 0
3127 -3150 0
-3129 -3131 3152 0
3129 -3152 0
3131 -3152 0
-3133 -3135 3154 0
3133 -3154 0
3135 -3154 0
-3137 -3139 3156 0
3137 -3156 0
3139 -3156 0
-3141 -3143 3158 0
3141 -3158 0
3143 -3158 0
-3145 -3147 3160 0
3145 -3160 0
3147 -3160 0
-3149 -3151 3162 0
3149 -3162 0
3151 -3162 0
-3153 -3155 3164 0
3153 -3164 0
3155 -3164 0
-3157 -3159 3166 0
3157 -3166 0
3159 -3166 0
-3161 -3163 3167 0
3161 -3167 0
3163 -3167 0
-3093 -3095 3253 0
3093 -3253 0
3095 -3253 0
-3101 -3103 3175 0
3101 -3175 0
3103 -3175 0
-3105 -3107 3177 0
3105 -3177 0
3107 -3177 0
-3109 -3111 3179 0
3109 -3179 0
3111 -3179 0
-3113 -3115 3181 0
3113 -3181 0
3115 -3181 0
-3117 -3119 3258 0
3117 -3258 0
3119 -3258 0
-3122 -3124 3185 0
3122 -3185 0
3124 -3185 0
-3126 -3128 3187 0
3126 -3187 0
3128 -3187 0
-3130 -3132 3189 0
3130 -3189 0
3132 -3189 0
-3134 -3136 3191 0
3134 -3191 0
3136 -3191 0
-3138 -3140 3193 0
3138 -3193 0
3140 -3193 0
-3142 -3144 3195 0
3142 -3195 0
3144 -3195 0
-3146 -3148 3197 0
3146 -3197 0
3148 -3197 0
-3150 -3152 3199 0
3150 -3199 0
3152 -3199 0
-3154 -3156 3201 0
3154 -3201 0
3156 -3201 0
-3158 -3160 3203 0
3158 -3203 0
3160 -3203 0
-3162 -3164 3205 0
3162 -3205 0
3164 -3205 0
-3166 -3167 3207 0
3166 -3207 0
3167 -3207 0
-3169 -3170 3209 0
3169 -3209 0
3170 -3209 0
-3171 -3172 3211 0
3171 -3211 0
3172 -3211 0
-3173 -3174 3213 0
3173 -3213 0
3174 -3213 0
-3176 -3178 3215 0
3176 -3215 0
3178 -3215 0
-3180 -3182 3217 0
3180 -3217 0
3182 -3217 0
-3183 -3184 3219 0
3183 -3219 0
3184 -3219 0
-3186 -3188 3221 0
3186 -3221 0
3188 -3221 0
-3190 -3192 3223 0
3190 -3223 0
3192 -3223 0
-3194 -3196 3225 0
3194 -3225 0
3196 -3225 0
-3198 -3200 3227 0
3198 -3227 0
3200 -3227 0
-3202 -3204 3229 0
3202 -3229 0
3204 -3229 0
-3165 -3206 3231 0
3206 -3231 0
3165 -3231 0
-3168 -3208 3233 0
3168 -3233 0
3208 -3233 0
-3210 -3212 3235 0
3210 -3235 0
3212 -3235 0
-3214 -3216 3237 0
3214 -3237 0
3216 -3237 0
-3218 -3220 3239 0
3218 -3239 0
3220 -3239 0
-3222 -3224 3241 0
3222 -3241 0
3224 -3241 0
-3226 -3228 3243 0
3226 -3243 0
3228 -3243 0
-3230 -3232 3245 0
3230 -3245 0
3232 -3245 0
-3234 -3236 3247 0
3234 -3247 0
3236 -3247 0
-3238 -3240 3249 0
3238 -3249 0
3240 -3249 0
-3242 -3244 3251 0
3242 -3251 0
3244 -3251 0
-3246 -3248 3252 0
3246 -3252 0
3248 -3252 0
-3175 -3177 3255 0
3175 -3255 0
3177 -3255 0
-3179 -3181 3257 0
3179 -3257 0
3181 -3257 0
-3185 -3187 3330 0
3185 -3330 0
3187 -3330 0
-3189 -3191 3261 0
3189 -3261 0
3191 -3261 0
-3193 -3195 3263 0
3193 -3263 0
3195 -3263 0
-3197 -3199 3265 0
3197 -3265 0
3199 -3265 0
-3201 -3203 3267 0
3201 -3267 0
3203 -3267 0
-3205 -3207 3335 0
3205 -3335 0
3207 -3335 0
-3209 -3211 3269 0
3209 -3269 0
3211 -3269 0
-3213 -3215 3271 0
3213 -3271 0
3215 -3271 0
-3217 -3219 3273 0
3217 -3273 0
3219 -3273 0
-3221 -3223 3275 0
3221 -3275 0
3223 -3275 0
-3225 -3227 3277 0
3225 -3277 0
3227 -3277 0
-3229 -3231 3279 0
3229 -3279 0
3231 -3279 0
-3233 -3235 3281 0
3233 -3281 0
3235 -3281 0
-3237 -3239 3283 0
3237 -3283 0
3239 -3283 0
-3241 -3243 3285 0
3241 -3285 0
3243 -3285 0
-3245 -3247 3287 0
3245 -3287 0
3247 -3287 0
-3249 -3251 3289 0
3249 -3289 0
3251 -3289 0
-3250 -3252 3291 0
3252 -3291 0
3250 -3291 0
-3254 -3256 3293 0
3254 -3293 0
3256 -3293 0
-3258 -3259 3295 0
3258 -3295 0
3259 -3295 0
-3260 -3262 3297 0
3260 -3297 0
3262 -3297 0
-3264 -3266 3299 0
3264 -3299 0
3266 -3299 0
-3268 -3270 3349 0
3268 -3349 0
3270 -3349 0
-3272 -3274 3303 0
3272 -3303 0
3274 -3303 0
-3276 -3278 3305 0
3276 -3305 0
3278 -3305 0
-3280 -3282 3307 0
3280 -3307 0
3282 -3307 0
-3284 -3286 3309 0
3284 -3309 0
3286 -3309 0
-3288 -3290 3352 0
3288 -3352 0
3290 -3352 0
-3292 -3294 3312 0
3292 -3312 0
3294 -3312 0
-3296 -3298 3314 0
3296 -3314 0
3298 -3314 0
-3300 -3301 3316 0
3300 -3316 0
3301 -3316 0
-3302 -3304 3318 0
3302 -3318 0
3304 -3318 0
-3306 -3308 3320 0
3306 -3320 0
3308 -3320 0
-3253 -3310 3322 0
3310 -3322 0
3253 -3322 0
-3311 -3313 3324 0
3311 -3324 0
3313 -3324 0
-3315 -3317 3326 0
3315 -3326 0
3317 -3326 0
-3319 -3321 3328 0
3319 -3328 0
3321 -3328 0
-3323 -3325 3329 0
3323 -3329 0
3325 -3329 0
-3255 -3257 3403 0
3255 -3403 0
3257 -3403 0
-3261 -3263 3332 0
3261 -3332 0
3263 -3332 0
-3265 -3267 3334 0
3265 -3334 0
3267 -3334 0
-3269 -3271 3405 0
3269 -3405 0
3271 -3405 0
-3273 -3275 3338 0
3273 -3338 0
3275 -3338 0
-3277 -3279 3340 0
3277 -3340 0
3279 -3340 0
-3281 -3283 3342 0
3281 -3342 0
3283 -3342 0
-3285 -3287 3344 0
3285 -3344 0
3287 -3344 0
-3289 -3291 3410 0
3289 -3410 0
3291 -3410 0
-3293 -3295 3346 0
3293 -3346 0
3295 -3346 0
-3297 -3299 3348 0
3297 -3348 0
3299 -3348 0
-3303 -3305 3412 0
3303 -3412 0
3305 -3412 0
-3307 -3309 3413 0
3307 -3413 0
3309 -3413 0
-3312 -3314 3354 0
3312 -3354 0
3314 -3354 0
-3316 -3318 3356 0
3316 -3356 0
3318 -3356 0
-3320 -3322 3358 0
3320 -3358 0
3322 -3358 0
-3324 -3326 3360 0
3324 -3360 0
3326 -3360 0
-3328 -3329 3418 0
3328 -3418 0
3329 -3418 0
-3330 -3331 3419 0
3330 -3419 0
3331 -3419 0
-3333 -3335 3365 0
3333 -3365 0
3335 -3365 0
-3336 -3337 3367 0
3336 -3367 0
3337 -3367 0
-3339 -3341 3369 0
3339 -3369 0
3341 -3369 0
-3343 -3345 3371 0
3343 -3371 0
3345 -3371 0
-3347 -3349 3424 0
3347 -3424 0
3349 -3424 0
-3350 -3351 3375 0
3350 -3375 0
3351 -3375 0
-3352 -3353 3377 0
3352 -3377 0
3353 -3377 0
-3355 -3357 3379 0
3355 -3379 0
3357 -3379 0
-3359 -3361 3381 0
3359 -3381 0
3361 -3381 0
-3327 -3362 3383 0
3327 -3383 0
3362 -3383 0
-3363 -3364 3385 0
3363 -3385 0
3364 -3385 0
-3366 -3368 3387 0
3366 -3387 0
3368 -3387 0
-3370 -3372 3389 0
3370 -3389 0
3372 -3389 0
-3373 -3374 3391 0
3373 -3391 0
3374 -3391 0
-3376 -3378 3393 0
3376 -3393 0
3378 -3393 0
-3380 -3382 3395 0
3380 -3395 0
3382 -3395 0
-3384 -3386 3397 0
3384 -3397 0
3386 -3397 0
-3388 -3390 3399 0
3388 -3399 0
3390 -3399 0
-3392 -3394 3401 0
3392 -3401 0
3394 -3401 0
-3396 -3398 3402 0
3396 -3402 0
3398 -3402 0
-3332 -3334 3482 0
3332 -3482 0
3334 -3482 0
-3338 -3340 3407 0
3338 -3407 0
3340 -3407 0
-3342 -3344 3409 0
3342 -3409 0
3344 -3409 0
-3346 -3348 3484 0
3346 -3484 0
3348 -3484 0
-3354 -3356 3415 0
3354 -3415 0
3356 -3415 0
-3358 -3360 3417 0
3358 -3417 0
3360 -3417 0
-3365 -3367 3421 0
3365 -3421 0
3367 -3421 0
-3369 -3371 3423 0
3369 -3423 0
3371 -3423 0
-3375 -3377 3486 0
3375 -3486 0
3377 -3486 0
-3379 -3381 3427 0
3379 -3427 0
3381 -3427 0
-3383 -3385 3429 0
3383 -3429 0
3385 -3429 0
-3387 -3389 3431 0
3387 -3431 0
3389 -3431 0
-3391 -3393 3433 0
3391 -3433 0
3393 -3433 0
-3395 -3397 3435 0
3395 -3435 0
3397 -3435 0
-3399 -3401 3437 0
3399 -3437 0
3401 -3437 0
-3400 -3402 3492 0
3402 -3492 0
3400 -3492 0
-3404 -3405 3440 0
3404 -3440 0
3405 -3440 0
-3406 -3408 3442 0
3406 -3442 0
3408 -3442 0
-3410 -3411 3444 0
3410 -3444 0
3411 -3444 0
-3412 -3413 3446 0
3412 -3446 0
3413 -3446 0
-3414 -3416 3448 0
3414 -3448 0
3416 -3448 0
-3418 -3419 3450 0
3418 -3450 0
3419 -3450 0
-3420 -3422 3452 0
3420 -3452 0
3422 -3452 0
-3424 -3425 3454 0
3424 -3454 0
3425 -3454 0
-3426 -3428 3456 0
3426 -3456 0
3428 -3456 0
-3430 -3432 3458 0
3430 -3458 0
3432 -3458 0
-3434 -3436 3460 0
3434 -3460 0
3436 -3460 0
-3403 -3438 3462 0
3438 -3462 0
3403 -3462 0
-3439 -3441 3464 0
3439 -3464 0
3441 -3464 0
-3443 -3445 3466 0
3443 -3466 0
3445 -3466 0
-3447 -3449 3468 0
3447 -3468 0
3449 -3468 0
-3451 -3453 3470 0
3451 -3470 0
3453 -3470 0
-3455 -3457 3472 0
3455 -3472 0
3457 -3472 0
-3459 -3461 3474 0
3459 -3474 0
3461 -3474 0
-3463 -3465 3476 0
3463 -3476 0
3465 -3476 0
-3467 -3469 3478 0
3467 -3478 0
3469 -3478 0
-3471 -3473 3480 0
3471 -3480 0
3473 -3480 0
-3475 -3477 3481 0
3475 -3481 0
3477 -3481 0
-3407 -3409 3553 0
3407 -3553 0
3409 -3553 0
-3415 -3417 3554 0
3415 -3554 0
3417 -3554 0
-3421 -3423 3555 0
3421 -3555 0
3423 -3555 0
-3427 -3429 3556 0
3427 -3556 0
3429 -3556 0
-3431 -3433 3489 0
3431 -3489 0
3433 -3489 0
-3435 -3437 3491 0
3435 -3491 0
3437 -3491 0
-3440 -3442 3558 0
3440 -3558 0
3442 -3558 0
-3444 -3446 3495 0
3444 -3495 0
3446 -3495 0
-3448 -3450 3497 0
3448 -3497 0
3450 -3497 0
-3452 -3454 3499 0
3452 -3499 0
3454 -3499 0
-3456 -3458 3501 0
3456 -3501 0
3458 -3501 0
-3460 -3462 3503 0
3460 -3503 0
3462 -3503 0
-3464 -3466 3505 0
3464 -3505 0
3466 -3505 0
-3468 -3470 3507 0
3468 -3507 0
3470 -3507 0
-3472 -3474 3509 0
3472 -3509 0
3474 -3509 0
-3476 -3478 3511 0
3476 -3511 0
3478 -3511 0
-3480 -3481 3513 0
3480 -3513 0
3481 -3513 0
-3482 -3483 3568 0
3482 -3568 0
3483 -3568 0
-3485 -3486 3517 0
3485 -3517 0
3486 -3517 0
-3487 -3488 3519 0
3487 -3519 0
3488 -3519 0
-3490 -3492 3521 0
3490 -3521 0
3492 -3521 0
-3493 -3494 3523 0
3493 -3523 0
3494 -3523 0
-3496 -3498 3525 0
3496 -3525 0
3498 -3525 0
-3500 -3502 3527 0
3500 -3527 0
3502 -3527 0
-3504 -3506 3529 0
3504 -3529 0
3506 -3529 0
-3508 -3510 3531 0
3508 -3531 0
3510 -3531 0
-3479 -3512 3533 0
3512 -3533 0
3479 -3533 0
-3484 -3514 3535 0
3514 -3535 0
3484 -3535 0
-3515 -3516 3537 0
3515 -3537 0
3516 -3537 0
-3518 -3520 3539 0
3518 -3539 0
3520 -3539 0
-3522 -3524 3541 0
3522 -3541 0
3524 -3541 0
-3526 -3528 3543 0
3526 -3543 0
3528 -3543 0
-3530 -3532 3545 0
3530 -3545 0
3532 -3545 0
-3534 -3536 3547 0
3534 -3547 0
3536 -3547 0
-3538 -3540 3549 0
3538 -3549 0
3540 -3549 0
-3542 -3544 3551 0
3542 -3551 0
3544 -3551 0
-3546 -3548 3552 0
3546 -3552 0
3548 -3552 0
-3489 -3491 3626 0
3489 -3626 0
3491 -3626 0
-3495 -3497 3627 0
3495 -3627 0
3497 -3627 0
-3499 -3501 3561 0
3499 -3561 0
3501 -3561 0
-3503 -3505 3563 0
3503 -3563 0
3505 -3563 0
-3507 -3509 3565 0
3507 -3565 0
3509 -3565 0
-3511 -3513 3567 0
3511 -3567 0
3513 -3567 0
-3517 -3519 3570 0
3517 -3570 0
3519 -3570 0
-3521 -3523 3572 0
3521 -3572 0
3523 -3572 0
-3525 -3527 3574 0
3525 -3574 0
3527 -3574 0
-3529 -3531 3576 0
3529 -3576 0
3531 -3576 0
-3533 -3535 3578 0
3533 -3578 0
3535 -3578 0
-3537 -3539 3580 0
3537 -3580 0
3539 -3580 0
-3541 -3543 3582 0
3541 -3582 0
3543 -3582 0
-3545 -3547 3584 0
3545 -3584 0
3547 -3584 0
-3549 -3551 3586 0
3549 -3586 0
3551 -3586 0
-3550 -3552 3588 0
3552 -3588 0
3550 -3588 0
-3554 -3555 3640 0
3554 -3640 0
3555 -3640 0
-3556 -3557 3591 0
3556 -3591 0
3557 -3591 0
-3558 -3559 3593 0
3558 -3593 0
3559 -3593 0
-3560 -3562 3595 0
3560 -3595 0
3562 -3595 0
-3564 -3566 3597 0
3564 -3597 0
3566 -3597 0
-3569 -3571 3643 0
3569 -3643 0
3571 -3643 0
-3573 -3575 3600 0
3573 -3600 0
3575 -3600 0
-3577 -3579 3602 0
3577 -3602 0
3579 -3602 0
-3581 -3583 3604 0
3581 -3604 0
3583 -3604 0
-3585 -3587 3606 0
3585 -3606 0
3587 -3606 0
-3553 -3589 3608 0
3553 -3608 0
3589 -3608 0
-3590 -3592 3610 0
3590 -3610 0
3592 -3610 0
-3594 -3596 3612 0
3594 -3612 0
3596 -3612 0
-3568 -3598 3614 0
3568 -3614 0
3598 -3614 0
-3599 -3601 3616 0
3599 -3616 0
3601 -3616 0
-3603 -3605 3618 0
3603 -3618 0
3605 -3618 0
-3607 -3609 3620 0
3607 -3620 0
3609 -3620 0
-3611 -3613 3622 0
3611 -3622 0
3613 -3622 0
-3615 -3617 3624 0
3615 -3624 0
3617 -3624 0
-3619 -3621 3625 0
3619 -3625 0
3621 -3625 0
-3561 -3563 3629 0
3561 -3629 0
3563 -3629 0
-3565 -3567 3630 0
3565 -3630 0
3567 -3630 0
-3570 -3572 3694 0
3570 -3694 0
3572 -3694 0
-3574 -3576 3633 0
3574 -3633 0
3576 -3633 0
-3578 -3580 3635 0
3578 -3635 0
3580 -3635 0
-3582 -3584 3637 0
3582 -3637 0
3584 -3637 0
-3586 -3588 3639 0
3586 -3639 0
3588 -3639 0
-3591 -3593 3699 0
3591 -3699 0
3593 -3699 0
-3595 -3597 3700 0
3595 -3700 0
3597 -3700 0
-3600 -3602 3645 0
3600 -3645 0
3602 -3645 0
-3604 -3606 3647 0
3604 -3647 0
3606 -3647 0
-3608 -3610 3649 0
3608 -3649 0
3610 -3649 0
-3612 -3614 3651 0
3612 -3651 0
3614 -3651 0
-3616 -3618 3653 0
3616 -3653 0
3618 -3653 0
-3620 -3622 3655 0
3620 -3655 0
3622 -3655 0
-3624 -3625 3706 0
3624 -3706 0
3625 -3706 0
-3627 -3628 3707 0
3627 -3707 0
3628 -3707 0
-3631 -3632 3708 0
3631 -3708 0
3632 -3708 0
-3634 -3636 3661 0
3634 -3661 0
3636 -3661 0
-3638 -3640 3663 0
3638 -3663 0
3640 -3663 0
-3641 -3642 3665 0
3641 -3665 0
3642 -3665 0
-3643 -3644 3667 0
3643 -3667 0
3644 -3667 0
-3646 -3648 3669 0
3646 -3669 0
3648 -3669 0
-3650 -3652 3671 0
3650 -3671 0
3652 -3671 0
-3654 -3656 3673 0
3654 -3673 0
3656 -3673 0
-3623 -3626 3675 0
3623 -3675 0
3626 -3675 0
-3657 -3658 3677 0
3657 -3677 0
3658 -3677 0
-3659 -3660 3679 0
3659 -3679 0
3660 -3679 0
-3662 -3664 3681 0
3662 -3681 0
3664 -3681 0
-3666 -3668 3683 0
3666 -3683 0
3668 -3683 0
-3670 -3672 3685 0
3670 -3685 0
3672 -3685 0
-3674 -3676 3687 0
3674 -3687 0
3676 -3687 0
-3678 -3680 3689 0
3678 -3689 0
3680 -3689 0
-3682 -3684 3691 0
3682 -3691 0
3684 -3691 0
-3686 -3688 3692 0
3686 -3692 0
3688 -3692 0
-3629 -3630 3762 0
3629 -3762 0
3630 -3762 0
-3633 -3635 3696 0
3633 -3696 0
3635 -3696 0
-3637 -3639 3698 0
3637 -3698 0
3639 -3698 0
-3645 -3647 3702 0
3645 -3702 0
3647 -3702 0
-3649 -3651 3704 0
3649 -3704 0
3651 -3704 0
-3653 -3655 3764 0
3653 -3764 0
3655 -3764 0
-3661 -3663 3710 0
3661 -3710 0
3663 -3710 0
-3665 -3667 3712 0
3665 -3712 0
3667 -3712 0
-3669 -3671 3714 0
3669 -3714 0
3671 -3714 0
-3673 -3675 3716 0
3673 -3716 0
3675 -3716 0
-3677 -3679 3718 0
3677 -3718 0
3679 -3718 0
-3681 -3683 3720 0
3681 -3720 0
3683 -3720 0
-3685 -3687 3722 0
3685 -3722 0
3687 -3722 0
-3689 -3691 3724 0
3689 -3724 0
3691 -3724 0
-3690 -3692 3771 0
3692 -3771 0
3690 -3771 0
-3693 -3694 3726 0
3693 -3726 0
3694 -3726 0
-3695 -3697 3728 0
3695 -3728 0
3697 -3728 0
-3699 -3700 3730 0
3699 -3730 0
3700 -3730 0
-3701 -3703 3732 0
3701 -3732 0
3703 -3732 0
-3705 -3706 3734 0
3705 -3734 0
3706 -3734 0
-3707 -3708 3736 0
3707 -3736 0
3708 -3736 0
-3709 -3711 3738 0
3709 -3738 0
3711 -3738 0
-3713 -3715 3740 0
3713 -3740 0
3715 -3740 0
-3717 -3719 3742 0
3717 -3742 0
3719 -3742 0
-3721 -3723 3744 0
3721 -3744 0
3723 -3744 0
-3725 -3727 3781 0
3725 -3781 0
3727 -3781 0
-3729 -3731 3748 0
3729 -3748 0
3731 -3748 0
-3733 -3735 3750 0
3733 -3750 0
3735 -3750 0
-3737 -3739 3752 0
3737 -3752 0
3739 -3752 0
-3741 -3743 3754 0
3741 -3754 0
3743 -3754 0
-3745 -3746 3756 0
3745 -3756 0
3746 -3756 0
-3747 -3749 3758 0
3747 -3758 0
3749 -3758 0
-3751 -3753 3760 0
3751 -3760 0
3753 -3760 0
-3755 -3757 3761 0
3755 -3761 0
3757 -3761 0
-3696 -3698 3825 0
3696 -3825 0
3698 -3825 0
-3702 -3704 3826 0
3702 -3826 0
3704 -3826 0
-3710 -3712 3827 0
3710 -3827 0
3712 -3827 0
-3714 -3716 3767 0
3714 -3767 0
3716 -3767 0
-3718 -3720 3769 0
3718 -3769 0
3720 -3769 0
-3722 -3724 3829 0
3722 -3829 0
3724 -3829 0
-3726 -3728 3773 0
3726 -3773 0
3728 -3773 0
-3730 -3732 3775 0
3730 -3775 0
3732 -3775 0
-3734 -3736 3777 0
3734 -3777 0
3736 -3777 0
-3738 -3740 3779 0
3738 -3779 0
3740 -3779 0
-3742 -3744 3834 0
3742 -3834 0
3744 -3834 0
-3748 -3750 3783 0
3748 -3783 0
3750 -3783 0
-3752 -3754 3785 0
3752 -3785 0
3754 -3785 0
-3756 -3758 3787 0
3756 -3787 0
3758 -3787 0
-3760 -3761 3789 0
3760 -3789 0
3761 -3789 0
-3762 -3763 3837 0
3762 -3837 0
3763 -3837 0
-3765 -3766 3793 0
3765 -3793 0
3766 -3793 0
-3768 -3770 3795 0
3768 -3795 0
3770 -3795 0
-3771 -3772 3797 0
3771 -3797 0
3772 -3797 0
-3774 -3776 3799 0
3774 -3799 0
3776 -3799 0
-3778 -3780 3801 0
3778 -3801 0
3780 -3801 0
-3781 -3782 3803 0
3781 -3803 0
3782 -3803 0
-3784 -3786 3805 0
3784 -3805 0
3786 -3805 0
-3759 -3788 3807 0
3788 -3807 0
3759 -3807 0
-3790 -3791 3809 0
3790 -3809 0
3791 -3809 0
-3764 -3792 3811 0
3764 -3811 0
3792 -3811 0
-3794 -3796 3813 0
3794 -3813 0
3796 -3813 0
-3798 -3800 3815 0
3798 -3815 0
3800 -3815 0
-3802 -3804 3817 0
3802 -3817 0
3804 -3817 0
-3806 -3808 3819 0
3806 -3819 0
3808 -3819 0
-3810 -3812 3821 0
3810 -3821 0
3812 -3821 0
-3814 -3816 3823 0
3814 -3823 0
3816 -3823 0
-3818 -3820 3824 0
3818 -3824 0
3820 -3824 0
-3767 -3769 3888 0
3767 -3888 0
3769 -3888 0
-3773 -3775 3831 0
3773 -3831 0
3775 -3831 0
-3777 -3779 3833 0
3777 -3833 0
3779 -3833 0
-3783 -3785 3890 0
3783 -3890 0
3785 -3890 0
-3787 -3789 3891 0
3787 -3891 0
3789 -3891 0
-3793 -3795 3892 0
3793 -3892 0
3795 -3892 0
-3797 -3799 3839 0
3797 -3839 0
3799 -3839 0
-3801 -3803 3841 0
3801 -3841 0
3803 -3841 0
-3805 -3807 3843 0
3805 -3843 0
3807 -3843 0
-3809 -3811 3845 0
3809 -3845 0
3811 -3845 0
-3813 -3815 3847 0
3813 -3847 0
3815 -3847 0
-3817 -3819 3849 0
3817 -3849 0
3819 -3849 0
-3821 -3823 3851 0
3821 -3851 0
3823 -3851 0
-3822 -3824 3853 0
3824 -3853 0
3822 -3853 0
-3826 -3827 3899 0
3826 -3899 0
3827 -3899 0
-3828 -3829 3856 0
3828 -3856 0
3829 -3856 0
-3830 -3832 3858 0
3830 -3858 0
3832 -3858 0
-3834 -3835 3860 0
3834 -3860 0
3835 -3860 0
-3836 -3837 3862 0
3836 -3862 0
3837 -3862 0
-3838 -3840 3904 0
3838 -3904 0
3840 -3904 0
-3842 -3844 3866 0
3842 -3866 0
3844 -3866 0
-3846 -3848 3868 0
3846 -3868 0
3848 -3868 0
-3850 -3852 3870 0
3850 -3870 0
3852 -3870 0
-3825 -3854 3872 0
3825 -3872 0
3854 -3872 0
-3855 -3857 3874 0
3855 -3874 0
3857 -3874 0
-3859 -3861 3876 0
3859 -3876 0
3861 -3876 0
-3863 -3864 3878 0
3863 -3878 0
3864 -3878 0
-3865 -3867 3880 0
3865 -3880 0
3867 -3880 0
-3869 -3871 3882 0
3869 -3882 0
3871 -3882 0
-3873 -3875 3884 0
3873 -3884 0
3875 -3884 0
-3877 -3879 3886 0
3877 -3886 0
3879 -3886 0
-3881 -3883 3887 0
3881 -3887 0
3883 -3887 0
-3831 -3833 3949 0
3831 -3949 0
3833 -3949 0
-3839 -3841 3977 0
3839 -3977 0
3841 -3977 0
-3843 -3845 3895 0
3843 -3895 0
3845 -3895 0
-3847 -3849 3897 0
3847 -3897 0
3849 -3897 0
-3851 -3853 3951 0
3851 -3951 0
3853 -3951 0
-3856 -3858 3901 0
3856 -3901 0
3858 -3901 0
-3860 -3862 3903 0
3860 -3903 0
3862 -3903 0
-3866 -3868 3953 0
3866 -3953 0
3868 -3953 0
-3870 -3872 3907 0
3870 -3907 0
3872 -3907 0
-3874 -3876 3909 0
3874 -3909 0
3876 -3909 0
-3878 -3880 3911 0
3878 -3911 0
3880 -3911 0
-3882 -3884 3913 0
3882 -3913 0
3884 -3913 0
-3886 -3887 3958 0
3886 -3958 0
3887 -3958 0
-3889 -3890 3959 0
3889 -3959 0
3890 -3959 0
-3891 -3892 3917 0
3891 -3917 0
3892 -3917 0
-3893 -3894 3919 0
3893 -3919 0
3894 -3919 0
-3896 -3898 3921 0
3896 -3921 0
3898 -3921 0
-3899 -3900 3923 0
3899 -3923 0
3900 -3923 0
-3902 -3904 3925 0
3902 -3925 0
3904 -3925 0
-3905 -3906 3927 0
3905 -3927 0
3906 -3927 0
-3908 -3910 3929 0
3908 -3929 0
3910 -3929 0
-3912 -3914 3931 0
3912 -3931 0
3914 -3931 0
-3885 -3888 3933 0
3885 -3933 0
3888 -3933 0
-3915 -3916 3935 0
3915 -3935 0
3916 -3935 0
-3918 -3920 3937 0
3918 -3937 0
3920 -3937 0
-3922 -3924 3939 0
3922 -3939 0
3924 -3939 0
-3926 -3928 3941 0
3926 -3941 0
3928 -3941 0
-3930 -3932 3943 0
3930 -3943 0
3932 -3943 0
-3934 -3936 3945 0
3934 -3945 0
3936 -3945 0
-3938 -3940 3947 0
3938 -3947 0
3940 -3947 0
-3942 -3944 3948 0
3942 -3948 0
3944 -3948 0
-3895 -3897 4010 0
3895 -4010 0
3897 -4010 0
-3901 -3903 4011 0
3901 -4011 0
3903 -4011 0
-3907 -3909 3955 0
3907 -3955 0
3909 -3955 0
-3911 -3913 3957 0
3911 -3957 0
3913 -3957 0
-3917 -3919 3961 0
3917 -3961 0
3919 -3961 0
-3921 -3923 3963 0
3921 -3963 0
3923 -3963 0
-3925 -3927 3965 0
3925 -3965 0
3927 -3965 0
-3929 -3931 3967 0
3929 -3967 0
3931 -3967 0
-3933 -3935 3969 0
3933 -3969 0
3935 -3969 0
-3937 -3939 3971 0
3937 -3971 0
3939 -3971 0
-3941 -3943 3973 0
3941 -3973 0
3943 -3973 0
-3945 -3947 3975 0
3945 -3975 0
3947 -3975 0
-3946 -3948 4020 0
3948 -4020 0
3946 -4020 0
-3950 -3951 4021 0
3950 -4021 0
3951 -4021 0
-3952 -3953 3980 0
3952 -3980 0
3953 -3980 0
-3954 -3956 3982 0
3954 -3982 0
3956 -3982 0
-3958 -3959 3984 0
3958 -3984 0
3959 -3984 0
-3960 -3962 3986 0
3960 -3986 0
3962 -3986 0
-3964 -3966 3988 0
3964 -3988 0
3966 -3988 0
-3968 -3970 3990 0
3968 -3990 0
3970 -3990 0
-3972 -3974 3992 0
3972 -3992 0
3974 -3992 0
-3949 -3976 3994 0
3976 -3994 0
3949 -3994 0
-3977 -3978 3996 0
3977 -3996 0
3978 -3996 0
-3979 -3981 3998 0
3979 -3998 0
3981 -3998 0
-3983 -3985 4000 0
3983 -4000 0
3985 -4000 0
-3987 -3989 4002 0
3987 -4002 0
3989 -4002 0
-3991 -3993 4004 0
3991 -4004 0
3993 -4004 0
-3995 -3997 4006 0
3995 -4006 0
3997 -4006 0
-3999 -4001 4008 0
3999 -4008 0
4001 -4008 0
-4003 -4005 4009 0
4003 -4009 0
4005 -4009 0
-3955 -3957 4069 0
3955 -4069 0
3957 -4069 0
-3961 -3963 4013 0
3961 -4013 0
3963 -4013 0
-3965 -3967 4015 0
3965 -4015 0
3967 -4015 0
-3969 -3971 4017 0
3969 -4017 0
3971 -4017 0
-3973 -3975 4019 0
3973 -4019 0
3975 -4019 0
-3980 -3982 4023 0
3980 -4023 0
3982 -4023 0
-3984 -3986 4025 0
3984 -4025 0
3986 -4025 0
-3988 -3990 4027 0
3988 -4027 0
3990 -4027 0
-3992 -3994 4029 0
3992 -4029 0
3994 -4029 0
-3996 -3998 4031 0
3996 -4031 0
3998 -4031 0
-4000 -4002 4033 0
4000 -4033 0
4002 -4033 0
-4004 -4006 4035 0
4004 -4035 0
4006 -4035 0
-4008 -4009 4037 0
4008 -4037 0
4009 -4037 0
-4011 -4012 4079 0
4011 -4079 0
4012 -4079 0
-4014 -4016 4041 0
4014 -4041 0
4016 -4041 0
-4018 -4020 4043 0
4018 -4043 0
4020 -4043 0
-4021 -4022 4045 0
4021 -4045 0
4022 -4045 0
-4024 -4026 4047 0
4024 -4047 0
4026 -4047 0
-4028 -4030 4049 0
4028 -4049 0
4030 -4049 0
-4032 -4034 4051 0
4032 -4051 0
4034 -4051 0
-4007 -4036 4053 0
4036 -4053 0
4007 -4053 0
-4010 -4038 4055 0
4010 -4055 0
4038 -4055 0
-4039 -4040 4057 0
4039 -4057 0
4040 -4057 0
-4042 -4044 4059 0
4042 -4059 0
4044 -4059 0
-4046 -4048 4061 0
4046 -4061 0
4048 -4061 0
-4050 -4052 4063 0
4050 -4063 0
4052 -4063 0
-4054 -4056 4065 0
4054 -4065 0
4056 -4065 0
-4058 -4060 4067 0
4058 -4067 0
4060 -4067 0
-4062 -4064 4068 0
4062 -4068 0
4064 -4068 0
-4013 -4015 4120 0
4013 -4120 0
4015 -4120 0
-4017 -4019 4121 0
4017 -4121 0
4019 -4121 0
-4023 -4025 4072 0
4023 -4072 0
4025 -4072 0
-4027 -4029 4074 0
4027 -4074 0
4029 -4074 0
-4031 -4033 4076 0
4031 -4076 0
4033 -4076 0
-4035 -4037 4078 0
4035 -4078 0
4037 -4078 0
-4041 -4043 4081 0
4041 -4081 0
4043 -4081 0
-4045 -4047 4083 0
4045 -4083 0
4047 -4083 0
-4049 -4051 4085 0
4049 -4085 0
4051 -4085 0
-4053 -4055 4087 0
4053 -4087 0
4055 -4087 0
-4057 -4059 4089 0
4057 -4089 0
4059 -4089 0
-4061 -4063 4091 0
4061 -4091 0
4063 -4091 0
-4065 -4067 4093 0
4065 -4093 0
4067 -4093 0
-4066 -4068 4095 0
4068 -4095 0
4066 -4095 0
-4069 -4070 4131 0
4069 -4131 0
4070 -4131 0
-4071 -4073 4132 0
4071 -4132 0
4073 -4132 0
-4075 -4077 4133 0
4075 -4133 0
4077 -4133 0
-4080 -4082 4100 0
4080 -4100 0
4082 -4100 0
-4084 -4086 4102 0
4084 -4102 0
4086 -4102 0
-4088 -4090 4104 0
4088 -4104 0
4090 -4104 0
-4092 -4094 4106 0
4092 -4106 0
4094 -4106 0
-4096 -4097 4136 0
4096 -4136 0
4097 -4136 0
-4079 -4098 4110 0
4098 -4110 0
4079 -4110 0
-4099 -4101 4112 0
4099 -4112 0
4101 -4112 0
-4103 -4105 4114 0
4103 -4114 0
4105 -4114 0
-4107 -4108 4116 0
4107 -4116 0
4108 -4116 0
-4109 -4111 4118 0
4109 -4118 0
4111 -4118 0
-4113 -4115 4119 0
4113 -4119 0
4115 -4119 0
-4072 -4074 4173 0
4072 -4173 0
4074 -4173 0
-4076 -4078 4174 0
4076 -4174 0
4078 -4174 0
-4081 -4083 4124 0
4081 -4124 0
4083 -4124 0
-4085 -4087 4126 0
4085 -4126 0
4087 -4126 0
-4089 -4091 4128 0
4089 -4128 0
4091 -4128 0
-4093 -4095 4130 0
4093 -4130 0
4095 -4130 0
-4100 -4102 4176 0
4100 -4176 0
4102 -4176 0
-4104 -4106 4177 0
4104 -4177 0
4106 -4177 0
-4110 -4112 4138 0
4110 -4138 0
4112 -4138 0
-4114 -4116 4140 0
4114 -4140 0
4116 -4140 0
-4118 -4119 4179 0
4118 -4179 0
4119 -4179 0
-4120 -4121 4143 0
4120 -4143 0
4121 -4143 0
-4122 -4123 4145 0
4122 -4145 0
4123 -4145 0
-4125 -4127 4181 0
4125 -4181 0
4127 -4181 0
-4129 -4131 4149 0
4129 -4149 0
4131 -4149 0
-4132 -4133 4151 0
4132 -4151 0
4133 -4151 0
-4134 -4135 4153 0
4134 -4153 0
4135 -4153 0
-4136 -4137 4155 0
4136 -4155 0
4137 -4155 0
-4139 -4141 4157 0
4139 -4157 0
4141 -4157 0
-4117 -4142 4159 0
4117 -4159 0
4142 -4159 0
-4144 -4146 4161 0
4144 -4161 0
4146 -4161 0
-4147 -4148 4163 0
4147 -4163 0
4148 -4163 0
-4150 -4152 4165 0
4150 -4165 0
4152 -4165 0
-4154 -4156 4167 0
4154 -4167 0
4156 -4167 0
-4158 -4160 4169 0
4158 -4169 0
4160 -4169 0
-4162 -4164 4171 0
4162 -4171 0
4164 -4171 0
-4166 -4168 4172 0
4166 -4172 0
4168 -4172 0
-4124 -4126 4224 0
4124 -4224 0
4126 -4224 0
-4128 -4130 4225 0
4128 -4225 0
4130 -4225 0
-4138 -4140 4226 0
4138 -4226 0
4140 -4226 0
-4143 -4145 4227 0
4143 -4227 0
4145 -4227 0
-4149 -4151 4183 0
4149 -4183 0
4151 -4183 0
-4153 -4155 4185 0
4153 -4185 0
4155 -4185 0
-4157 -4159 4187 0
4157 -4187 0
4159 -4187 0
-4161 -4163 4189 0
4161 -4189 0
4163 -4189 0
-4165 -4167 4191 0
4165 -4191 0
4167 -4191 0
-4169 -4171 4193 0
4169 -4193 0
4171 -4193 0
-4170 -4172 4233 0
4172 -4233 0
4170 -4233 0
-4174 -4175 4234 0
4174 -4234 0
4175 -4234 0
-4176 -4177 4198 0
4176 -4198 0
4177 -4198 0
-4178 -4179 4200 0
4178 -4200 0
4179 -4200 0
-4180 -4181 4202 0
4180 -4202 0
4181 -4202 0
-4182 -4184 4204 0
4182 -4204 0
4184 -4204 0
-4186 -4188 4206 0
4186 -4206 0
4188 -4206 0
-4190 -4192 4208 0
4190 -4208 0
4192 -4208 0
-4173 -4194 4210 0
4194 -4210 0
4173 -4210 0
-4195 -4196 4212 0
4195 -4212 0
4196 -4212 0
-4197 -4199 4214 0
4197 -4214 0
4199 -4214 0
-4201 -4203 4216 0
4201 -4216 0
4203 -4216 0
-4205 -4207 4218 0
4205 -4218 0
4207 -4218 0
-4209 -4211 4220 0
4209 -4220 0
4211 -4220 0
-4213 -4215 4222 0
4213 -4222 0
4215 -4222 0
-4217 -4219 4223 0
4217 -4223 0
4219 -4223 0
-4183 -4185 4229 0
4183 -4229 0
4185 -4229 0
-4187 -4189 4231 0
4187 -4231 0
4189 -4231 0
-4191 -4193 4275 0
4191 -4275 0
4193 -4275 0
-4198 -4200 4276 0
4198 -4276 0
4200 -4276 0
-4202 -4204 4237 0
4202 -4237 0
4204 -4237 0
-4206 -4208 4239 0
4206 -4239 0
4208 -4239 0
-4210 -4212 4241 0
4210 -4241 0
4212 -4241 0
-4214 -4216 4243 0
4214 -4243 0
4216 -4243 0
-4218 -4220 4245 0
4218 -4245 0
4220 -4245 0
-4222 -4223 4247 0
4222 -4247 0
4223 -4247 0
-4224 -4225 4282 0
4224 -4282 0
4225 -4282 0
-4227 -4228 4283 0
4227 -4283 0
4228 -4283 0
-4230 -4232 4251 0
4230 -4251 0
4232 -4251 0
-4233 -4234 4253 0
4233 -4253 0
4234 -4253 0
-4235 -4236 4255 0
4235 -4255 0
4236 -4255 0
-4238 -4240 4257 0
4238 -4257 0
4240 -4257 0
-4242 -4244 4259 0
4242 -4259 0
4244 -4259 0
-4221 -4246 4261 0
4246 -4261 0
4221 -4261 0
-4226 -4248 4263 0
4248 -4263 0
4226 -4263 0
-4249 -4250 4265 0
4249 -4265 0
4250 -4265 0
-4252 -4254 4267 0
4252 -4267 0
4254 -4267 0
-4256 -4258 4269 0
4256 -4269 0
4258 -4269 0
-4260 -4262 4271 0
4260 -4271 0
4262 -4271 0
-4264 -4266 4273 0
4264 -4273 0
4266 -4273 0
-4268 -4270 4274 0
4268 -4274 0
4270 -4274 0
-4229 -4231 4322 0
4229 -4322 0
4231 -4322 0
-4237 -4239 4278 0
4237 -4278 0
4239 -4278 0
-4241 -4243 4280 0
4241 -4280 0
4243 -4280 0
-4245 -4247 4324 0
4245 -4324 0
4247 -4324 0
-4251 -4253 4325 0
4251 -4325 0
4253 -4325 0
-4255 -4257 4286 0
4255 -4286 0
4257 -4286 0
-4259 -4261 4288 0
4259 -4288 0
4261 -4288 0
-4263 -4265 4290 0
4263 -4290 0
4265 -4290 0
-4267 -4269 4292 0
4267 -4292 0
4269 -4292 0
-4271 -4273 4294 0
4271 -4294 0
4273 -4294 0
-4272 -4274 4296 0
4274 -4296 0
4272 -4296 0
-4275 -4276 4299 0
4275 -4299 0
4276 -4299 0
-4277 -4279 4301 0
4277 -4301 0
4279 -4301 0
-4281 -4282 4303 0
4281 -4303 0
4282 -4303 0
-4283 -4284 4305 0
4283 -4305 0
4284 -4305 0
-4285 -4287 4307 0
4285 -4307 0
4287 -4307 0
-4289 -4291 4309 0
4289 -4309 0
4291 -4309 0
-4293 -4295 4335 0
4293 -4335 0
4295 -4335 0
-4298 -4300 4312 0
4298 -4312 0
4300 -4312 0
-4302 -4304 4314 0
4302 -4314 0
4304 -4314 0
-4306 -4308 4316 0
4306 -4316 0
4308 -4316 0
-4297 -4310 4318 0
4310 -4318 0
4297 -4318 0
-4311 -4313 4320 0
4311 -4320 0
4313 -4320 0
-4315 -4317 4321 0
4315 -4321 0
4317 -4321 0
-4278 -4280 4365 0
4278 -4365 0
4280 -4365 0
-4286 -4288 4327 0
4286 -4327 0
4288 -4327 0
-4290 -4292 4329 0
4290 -4329 0
4292 -4329 0
-4294 -4296 4366 0
4294 -4366 0
4296 -4366 0
-4299 -4301 4331 0
4299 -4331 0
4301 -4331 0
-4303 -4305 4333 0
4303 -4333 0
4305 -4333 0
-4307 -4309 4368 0
4307 -4368 0
4309 -4368 0
-4312 -4314 4337 0
4312 -4337 0
4314 -4337 0
-4316 -4318 4339 0
4316 -4339 0
4318 -4339 0
-4320 -4321 4370 0
4320 -4370 0
4321 -4370 0
-4323 -4324 4371 0
4323 -4371 0
4324 -4371 0
-4325 -4326 4343 0
4325 -4343 0
4326 -4343 0
-4328 -4330 4345 0
4328 -4345 0
4330 -4345 0
-4332 -4334 4373 0
4332 -4373 0
4334 -4373 0
-4335 -4336 4349 0
4335 -4349 0
4336 -4349 0
-4338 -4340 4351 0
4338 -4351 0
4340 -4351 0
-4319 -4322 4353 0
4319 -4353 0
4322 -4353 0
-4341 -4342 4355 0
4341 -4355 0
4342 -4355 0
-4344 -4346 4357 0
4344 -4357 0
4346 -4357 0
-4347 -4348 4359 0
4347 -4359 0
4348 -4359 0
-4350 -4352 4361 0
4350 -4361 0
4352 -4361 0
-4354 -4356 4363 0
4354 -4363 0
4356 -4363 0
-4358 -4360 4364 0
4358 -4364 0
4360 -4364 0
-4327 -4329 4408 0
4327 -4408 0
4329 -4408 0
-4331 -4333 4409 0
4331 -4409 0
4333 -4409 0
-4337 -4339 4430 0
4337 -4430 0
4339 -4430 0
-4343 -4345 4410 0
4343 -4410 0
4345 -4410 0
-4349 -4351 4375 0
4349 -4375 0
4351 -4375 0
-4353 -4355 4377 0
4353 -4377 0
4355 -4377 0
-4357 -4359 4379 0
4357 -4379 0
4359 -4379 0
-4361 -4363 4381 0
4361 -4381 0
4363 -4381 0
-4362 -4364 4415 0
4364 -4415 0
4362 -4415 0
-4366 -4367 4416 0
4366 -4416 0
4367 -4416 0
-4368 -4369 4386 0
4368 -4386 0
4369 -4386 0
-4370 -4371 4388 0
4370 -4388 0
4371 -4388 0
-4372 -4373 4390 0
4372 -4390 0
4373 -4390 0
-4374 -4376 4392 0
4374 -4392 0
4376 -4392 0
-4378 -4380 4394 0
4378 -4394 0
4380 -4394 0
-4365 -4382 4396 0
4382 -4396 0
4365 -4396 0
-4383 -4384 4398 0
4383 -4398 0
4384 -4398 0
-4385 -4387 4400 0
4385 -4400 0
4387 -4400 0
-4389 -4391 4402 0
4389 -4402 0
4391 -4402 0
-4393 -4395 4404 0
4393 -4404 0
4395 -4404 0
-4397 -4399 4406 0
4397 -4406 0
4399 -4406 0
-4401 -4403 4407 0
4401 -4407 0
4403 -4407 0
-4375 -4377 4412 0
4375 -4412 0
4377 -4412 0
-4379 -4381 4414 0
4379 -4414 0
4381 -4414 0
-4386 -4388 4418 0
4386 -4418 0
4388 -4418 0
-4390 -4392 4420 0
4390 -4420 0
4392 -4420 0
-4394 -4396 4422 0
4394 -4422 0
4396 -4422 0
-4398 -4400 4424 0
4398 -4424 0
4400 -4424 0
-4402 -4404 4426 0
4402 -4426 0
4404 -4426 0
-4406 -4407 4428 0
4406 -4428 0
4407 -4428 0
-4408 -4409 4457 0
4408 -4457 0
4409 -4457 0
-4410 -4411 4458 0
4410 -4458 0
4411 -4458 0
-4413 -4415 4433 0
4413 -4433 0
4415 -4433 0
-4416 -4417 4435 0
4416 -4435 0
4417 -4435 0
-4419 -4421 4437 0
4419 -4437 0
4421 -4437 0
-4423 -4425 4439 0
4423 -4439 0
4425 -4439 0
-4405 -4427 4441 0
4427 -4441 0
4405 -4441 0
-4429 -4430 4443 0
4429 -4443 0
4430 -4443 0
-4431 -4432 4445 0
4431 -4445 0
4432 -4445 0
-4434 -4436 4447 0
4434 -4447 0
4436 -4447 0
-4438 -4440 4449 0
4438 -4449 0
4440 -4449 0
-4442 -4444 4451 0
4442 -4451 0
4444 -4451 0
-4446 -4448 4452 0
4446 -4452 0
4448 -4452 0
-4412 -4414 4490 0
4412 -4490 0
4414 -4490 0
-4418 -4420 4491 0
4418 -4491 0
4420 -4491 0
-4422 -4424 4454 0
4422 -4454 0
4424 -4454 0
-4426 -4428 4456 0
4426 -4456 0
4428 -4456 0
-4433 -4435 4460 0
4433 -4460 0
4435 -4460 0
-4437 -4439 4462 0
4437 -4462 0
4439 -4462 0
-4441 -4443 4464 0
4441 -4464 0
4443 -4464 0
-4445 -4447 4466 0
4445 -4466 0
4447 -4466 0
-4449 -4451 4468 0
4449 -4468 0
4451 -4468 0
-4450 -4452 4470 0
4452 -4470 0
4450 -4470 0
-4453 -4455 4496 0
4453 -4496 0
4455 -4496 0
-4457 -4458 4475 0
4457 -4475 0
4458 -4475 0
-4459 -4461 4477 0
4459 -4477 0
4461 -4477 0
-4463 -4465 4479 0
4463 -4479 0
4465 -4479 0
-4467 -4469 4481 0
4467 -4481 0
4469 -4481 0
-4472 -4473 4501 0
4472 -4501 0
4473 -4501 0
-4474 -4476 4484 0
4474 -4484 0
4476 -4484 0
-4478 -4480 4486 0
4478 -4486 0
4480 -4486 0
-4471 -4482 4488 0
4471 -4488 0
4482 -4488 0
-4483 -4485 4489 0
4483 -4489 0
4485 -4489 0
-4454 -4456 4525 0
4454 -4525 0
4456 -4525 0
-4460 -4462 4526 0
4460 -4526 0
4462 -4526 0
-4464 -4466 4494 0
4464 -4494 0
4466 -4494 0
-4468 -4470 4495 0
4468 -4495 0
4470 -4495 0
-4475 -4477 4498 0
4475 -4498 0
4477 -4498 0
-4479 -4481 4500 0
4479 -4500 0
4481 -4500 0
-4484 -4486 4528 0
4484 -4528 0
4486 -4528 0
-4488 -4489 4529 0
4488 -4529 0
4489 -4529 0
-4490 -4491 4530 0
4490 -4530 0
4491 -4530 0
-4492 -4493 4531 0
4492 -4531 0
4493 -4531 0
-4496 -4497 4509 0
4496 -4509 0
4497 -4509 0
-4499 -4501 4511 0
4499 -4511 0
4501 -4511 0
-4502 -4503 4513 0
4502 -4513 0
4503 -4513 0
-4487 -4504 4515 0
4487 -4515 0
4504 -4515 0
-4505 -4506 4517 0
4505 -4517 0
4506 -4517 0
-4507 -4508 4519 0
4507 -4519 0
4508 -4519 0
-4510 -4512 4521 0
4510 -4521 0
4512 -4521 0
-4514 -4516 4523 0
4514 -4523 0
4516 -4523 0
-4518 -4520 4524 0
4518 -4524 0
4520 -4524 0
-4494 -4495 4562 0
4494 -4562 0
4495 -4562 0
-4498 -4500 4563 0
4498 -4563 0
4500 -4563 0
-4509 -4511 4533 0
4509 -4533 0
4511 -4533 0
-4513 -4515 4535 0
4513 -4535 0
4515 -4535 0
-4517 -4519 4537 0
4517 -4537 0
4519 -4537 0
-4521 -4523 4539 0
4521 -4539 0
4523 -4539 0
-4522 -4524 4566 0
4524 -4566 0
4522 -4566 0
-4526 -4527 4567 0
4526 -4567 0
4527 -4567 0
-4528 -4529 4544 0
4528 -4544 0
4529 -4544 0
-4530 -4531 4546 0
4530 -4546 0
4531 -4546 0
-4532 -4534 4548 0
4532 -4548 0
4534 -4548 0
-4536 -4538 4550 0
4536 -4550 0
4538 -4550 0
-4525 -4540 4552 0
4540 -4552 0
4525 -4552 0
-4541 -4542 4554 0
4541 -4554 0
4542 -4554 0
-4543 -4545 4556 0
4543 -4556 0
4545 -4556 0
-4547 -4549 4558 0
4547 -4558 0
4549 -4558 0
-4551 -4553 4560 0
4551 -4560 0
4553 -4560 0
-4555 -4557 4561 0
4555 -4561 0
4557 -4561 0
-4533 -4535 4593 0
4533 -4593 0
4535 -4593 0
-4537 -4539 4594 0
4537 -4594 0
4539 -4594 0
-4544 -4546 4595 0
4544 -4595 0
4546 -4595 0
-4548 -4550 4570 0
4548 -4570 0
4550 -4570 0
-4552 -4554 4572 0
4552 -4572 0
4554 -4572 0
-4556 -4558 4574 0
4556 -4574 0
4558 -4574 0
-4560 -4561 4576 0
4560 -4576 0
4561 -4576 0
-4562 -4563 4598 0
4562 -4598 0
4563 -4598 0
-4564 -4565 4599 0
4564 -4599 0
4565 -4599 0
-4566 -4567 4579 0
4566 -4579 0
4567 -4579 0
-4568 -4569 4581 0
4568 -4581 0
4569 -4581 0
-4571 -4573 4583 0
4571 -4583 0
4573 -4583 0
-4559 -4575 4585 0
4575 -4585 0
4559 -4585 0
-4577 -4578 4602 0
4577 -4602 0
4578 -4602 0
-4580 -4582 4589 0
4580 -4589 0
4582 -4589 0
-4584 -4586 4591 0
4584 -4591 0
4586 -4591 0
-4587 -4588 4592 0
4587 -4592 0
4588 -4592 0
-4570 -4572 4636 0
4570 -4636 0
4572 -4636 0
-4574 -4576 4624 0
4574 -4624 0
4576 -4624 0
-4579 -4581 4625 0
4579 -4625 0
4581 -4625 0
-4583 -4585 4626 0
4583 -4626 0
4585 -4626 0
-4589 -4591 4604 0
4589 -4604 0
4591 -4604 0
-4590 -4592 4606 0
4592 -4606 0
4590 -4606 0
-4593 -4594 4628 0
4593 -4628 0
4594 -4628 0
-4595 -4596 4608 0
4595 -4608 0
4596 -4608 0
-4597 -4598 4610 0
4597 -4610 0
4598 -4610 0
-4599 -4600 4612 0
4599 -4612 0
4600 -4612 0
-4601 -4602 4614 0
4601 -4614 0
4602 -4614 0
-4603 -4605 4633 0
4603 -4633 0
4605 -4633 0
-4607 -4609 4618 0
4607 -4618 0
4609 -4618 0
-4611 -4613 4620 0
4611 -4620 0
4613 -4620 0
-4615 -4616 4622 0
4615 -4622 0
4616 -4622 0
-4617 -4619 4623 0
4617 -4623 0
4619 -4623 0
-4604 -4606 4655 0
4604 -4655 0
4606 -4655 0
-4608 -4610 4630 0
4608 -4630 0
4610 -4630 0
-4612 -4614 4632 0
4612 -4632 0
4614 -4632 0
-4618 -4620 4657 0
4618 -4657 0
4620 -4657 0
-4622 -4623 4658 0
4622 -4658 0
4623 -4658 0
-4624 -4625 4659 0
4624 -4659 0
4625 -4659 0
-4626 -4627 4639 0
4626 -4639 0
4627 -4639 0
-4628 -4629 4641 0
4628 -4641 0
4629 -4641 0
-4631 -4633 4643 0
4631 -4643 0
4633 -4643 0
-4634 -4635 4645 0
4634 -4645 0
4635 -4645 0
-4621 -4636 4647 0
4621 -4647 0
4636 -4647 0
-4637 -4638 4649 0
4637 -4649 0
4638 -4649 0
-4640 -4642 4651 0
4640 -4651 0
4642 -4651 0
-4644 -4646 4653 0
4644 -4653 0
4646 -4653 0
-4648 -4650 4654 0
4648 -4654 0
4650 -4654 0
-4630 -4632 4682 0
4630 -4682 0
4632 -4682 0
-4639 -4641 4661 0
4639 -4661 0
4641 -4661 0
-4643 -4645 4663 0
4643 -4663 0
4645 -4663 0
-4647 -4649 4665 0
4647 -4665 0
4649 -4665 0
-4651 -4653 4667 0
4651 -4667 0
4653 -4667 0
-4652 -4654 4686 0
4654 -4686 0
4652 -4686 0
-4656 -4657 4687 0
4656 -4687 0
4657 -4687 0
-4658 -4659 4670 0
4658 -4670 0
4659 -4670 0
-4660 -4662 4672 0
4660 -4672 0
4662 -4672 0
-4664 -4666 4689 0
4664 -4689 0
4666 -4689 0
-4655 -4668 4676 0
4655 -4676 0
4668 -4676 0
-4669 -4671 4678 0
4669 -4678 0
4671 -4678 0
-4673 -4674 4680 0
4673 -4680 0
4674 -4680 0
-4675 -4677 4681 0
4675 -4681 0
4677 -4681 0
-4661 -4663 4683 0
4661 -4683 0
4663 -4683 0
-4665 -4667 4685 0
4665 -4685 0
4667 -4685 0
-4670 -4672 4709 0
4670 -4709 0
4672 -4709 0
-4676 -4678 4691 0
4676 -4691 0
4678 -4691 0
-4680 -4681 4693 0
4680 -4693 0
4681 -4693 0
-4684 -4686 4711 0
4684 -4711 0
4686 -4711 0
-4687 -4688 4697 0
4687 -4697 0
4688 -4697 0
-4689 -4690 4699 0
4689 -4699 0
4690 -4699 0
-4679 -4692 4701 0
4692 -4701 0
4679 -4701 0
-4682 -4694 4703 0
4682 -4703 0
4694 -4703 0
-4695 -4696 4705 0
4695 -4705 0
4696 -4705 0
-4698 -4700 4707 0
4698 -4707 0
4700 -4707 0
-4702 -4704 4708 0
4702 -4708 0
4704 -4708 0
-4683 -4685 4730 0
4683 -4730 0
4685 -4730 0
-4691 -4693 4731 0
4691 -4731 0
4693 -4731 0
-4697 -4699 4713 0
4697 -4713 0
4699 -4713 0
-4701 -4703 4715 0
4701 -4715 0
4703 -4715 0
-4705 -4707 4717 0
4705 -4717 0
4707 -4717 0
-4706 -4708 4719 0
4708 -4719 0
4706 -4719 0
-4709 -4710 4734 0
4709 -4734 0
4710 -4734 0
-4712 -4714 4722 0
4712 -4722 0
4714 -4722 0
-4716 -4718 4724 0
4716 -4724 0
4718 -4724 0
-4711 -4720 4736 0
4720 -4736 0
4711 -4736 0
-4721 -4723 4728 0
4721 -4728 0
4723 -4728 0
-4725 -4726 4729 0
4725 -4729 0
4726 -4729 0
-4713 -4715 4732 0
4713 -4732 0
4715 -4732 0
-4717 -4719 4733 0
4717 -4733 0
4719 -4733 0
-4722 -4724 4751 0
4722 -4751 0
4724 -4751 0
-4728 -4729 4752 0
4728 -4752 0
4729 -4752 0
-4730 -4731 4753 0
4730 -4753 0
4731 -4753 0
-4734 -4735 4754 0
4734 -4754 0
4735 -4754 0
-4736 -4737 4743 0
4736 -4743 0
4737 -4743 0
-4727 -4738 4745 0
4727 -4745 0
4738 -4745 0
-4739 -4740 4747 0
4739 -4747 0
4740 -4747 0
-4741 -4742 4749 0
4741 -4749 0
4742 -4749 0
-4744 -4746 4750 0
4744 -4750 0
4746 -4750 0
-4732 -4733 4770 0
4732 -4770 0
4733 -4770 0
-4743 -4745 4756 0
4743 -4756 0
4745 -4756 0
-4747 -4749 4758 0
4747 -4758 0
4749 -4758 0
-4748 -4750 4771 0
4750 -4771 0
4748 -4771 0
-4751 -4752 4772 0
4751 -4772 0
4752 -4772 0
-4753 -4754 4762 0
4753 -4762 0
4754 -4762 0
-4755 -4757 4764 0
4755 -4764 0
4757 -4764 0
-4759 -4760 4774 0
4759 -4774 0
4760 -4774 0
-4761 -4763 4768 0
4761 -4768 0
4763 -4768 0
-4765 -4766 4769 0
4765 -4769 0
4766 -4769 0
-4756 -4758 4787 0
4756 -4787 0
4758 -4787 0
-4762 -4764 4788 0
4762 -4788 0
4764 -4788 0
-4768 -4769 4795 0
4768 -4795 0
4769 -4795 0
-4771 -4772 4789 0
4771 -4789 0
4772 -4789 0
-4773 -4774 4779 0
4773 -4779 0
4774 -4779 0
-4767 -4775 4781 0
4775 -4781 0
4767 -4781 0
-4770 -4776 4783 0
4770 -4783 0
4776 -4783 0
-4777 -4778 4785 0
4777 -4785 0
4778 -4785 0
-4780 -4782 4786 0
4780 -4786 0
4782 -4786 0
-4779 -4781 4802 0
4779 -4802 0
4781 -4802 0
-4783 -4785 4792 0
4783 -4792 0
4785 -4792 0
-4784 -4786 4794 0
4786 -4794 0
4784 -4794 0
-4787 -4788 4804 0
4787 -4804 0
4788 -4804 0
-4789 -4790 4805 0
4789 -4805 0
4790 -4805 0
-4791 -4793 4806 0
4791 -4806 0
4793 -4806 0
-4795 -4796 4800 0
4795 -4800 0
4796 -4800 0
-4797 -4798 4801 0
4797 -4801 0
4798 -4801 0
-4792 -4794 4815 0
4792 -4815 0
4794 -4815 0
-4800 -4801 4816 0
4800 -4816 0
4801 -4816 0
-4802 -4803 4817 0
4802 -4817 0
4803 -4817 0
-4804 -4805 4810 0
4804 -4810 0
4805 -4810 0
-4806 -4807 4812 0
4806 -4812 0
4807 -4812 0
-4808 -4809 4819 0
4808 -4819 0
4809 -4819 0
-4799 -4811 4814 0
4811 -4814 0
4799 -4814 0
-4810 -4812 4826 0
4810 -4826 0
4812 -4826 0
-4813 -4814 4827 0
4814 -4827 0
4813 -4827 0
-4816 -4817 4828 0
4816 -4828 0
4817 -4828 0
-4818 -4819 4829 0
4818 -4829 0
4819 -4829 0
-4815 -4820 4824 0
4815 -4824 0
4820 -4824 0
-4821 -4822 4825 0
4821 -4825 0
4822 -4825 0
-4824 -4825 4841 0
4824 -4841 0
4825 -4841 0
-4826 -4827 4831 0
4826 -4831 0
4827 -4831 0
-4828 -4829 4833 0
4828 -4833 0
4829 -4833 0
-4823 -4830 4837 0
4830 -4837 0
4823 -4837 0
-4832 -4834 4836 0
4832 -4836 0
4834 -4836 0
-4831 -4833 4842 0
4831 -4842 0
4833 -4842 0
-4835 -4836 4843 0
4836 -4843 0
4835 -4843 0
-4837 -4838 4844 0
4837 -4844 0
4838 -4844 0
-4839 -4840 4845 0
4839 -4845 0
4840 -4845 0
-4844 -4845 4847 0
4844 -4847 0
4845 -4847 0
-4841 -4842 4849 0
4841 -4849 0
4842 -4849 0
-4843 -4846 4850 0
4843 -4850 0
4846 -4850 0
-4847 -4849 4853 0
4847 -4853 0
4849 -4853 0
-4848 -4850 4852 0
4850 -4852 0
4848 -4852 0
4851 -4852 -4853 0
-4851 0
-2 -9 -86 0
2 9 -86 0
-2 9 86 0
2 -9 86 0
-17 -25 -88 0
17 25 -88 0
-17 25 88 0
17 -25 88 0
-85 -86 -88 0
85 86 -88 0
-85 86 88 0
85 -86 88 0
-3 -10 -89 0
3 10 -89 0
-3 10 89 0
3 -10 89 0
-26 -85 -91 0
26 85 -91 0
26 -85 91 0
-26 85 91 0
-35 -87 -93 0
35 87 -93 0
-35 87 93 0
35 -87 93 0
-88 -89 -96 0
88 89 -96 0
-88 89 96 0
88 -89 96 0
-91 -93 -97 0
91 93 -97 0
-91 93 97 0
91 -93 97 0
-94 -95 -99 0
94 95 -99 0
-94 95 99 0
94 -95 99 0
-96 -97 -99 0
96 97 -99 0
-96 97 99 0
96 -97 99 0
-4 -11 -102 0
4 11 -102 0
-4 11 102 0
4 -11 102 0
-18 -27 -104 0
18 27 -104 0
-18 27 104 0
18 -27 104 0
-36 -45 -106 0
36 45 -106 0
-36 45 106 0
36 -45 106 0
-90 -92 -108 0
90 92 -108 0
-90 92 108 0
90 -92 108 0
-98 -100 -111 0
98 100 -111 0
-98 100 111 0
98 -100 111 0
-99 -101 -112 0
99 101 -112 0
99 -101 112 0
-99 101 112 0
-102 -104 -114 0
102 104 -114 0
-102 104 114 0
102 -104 114 0
-106 -108 -116 0
106 108 -116 0
-106 108 116 0
106 -108 116 0
-109 -110 -118 0
109 110 -118 0
-109 110 118 0
109 -110 118 0
-111 -112 -120 0
111 112 -120 0
-111 112 120 0
111 -112 120 0
-114 -116 -122 0
114 116 -122 0
-114 116 122 0
114 -116 122 0
-118 -120 -122 0
118 120 -122 0
-118 120 122 0
118 -120 122 0
-5 -12 -125 0
5 12 -125 0
-5 12 125 0
5 -12 125 0
-19 -28 -127 0
19 28 -127 0
-19 28 127 0
19 -28 127 0
-37 -46 -129 0
37 46 -129 0
-37 46 129 0
37 -46 129 0
-55 -103 -131 0
55 103 -131 0
-55 103 131 0
55 -103 131 0
-105 -107 -133 0
105 107 -133 0
-105 107 133 0
105 -107 133 0
-113 -115 -136 0
113 115 -136 0
-113 115 136 0
113 -115 136 0
-117 -119 -137 0
117 119 -137 0
-117 119 137 0
117 -119 137 0
-121 -123 -139 0
121 123 -139 0
-121 123 139 0
121 -123 139 0
-122 -124 -141 0
122 124 -141 0
122 -124 141 0
-122 124 141 0
-125 -127 -143 0
125 127 -143 0
-125 127 143 0
125 -127 143 0
-129 -131 -145 0
129 131 -145 0
-129 131 145 0
129 -131 145 0
-133 -134 -147 0
133 134 -147 0
-133 134 147 0
133 -134 147 0
-135 -136 -149 0
135 136 -149 0
-135 136 149 0
135 -136 149 0
-137 -139 -151 0
137 139 -151 0
-137 139 151 0
137 -139 151 0
-141 -143 -153 0
141 143 -153 0
-141 143 153 0
141 -143 153 0
-145 -147 -155 0
145 147 -155 0
-145 147 155 0
145 -147 155 0
-149 -151 -157 0
149 151 -157 0
-149 151 157 0
149 -151 157 0
-153 -155 -157 0
153 155 -157 0
-153 155 157 0
153 -155 157 0
-6 -13 -160 0
6 13 -160 0
-6 13 160 0
6 -13 160 0
-20 -29 -162 0
20 29 -162 0
-20 29 162 0
20 -29 162 0
-38 -47 -164 0
38 47 -164 0
-38 47 164 0
38 -47 164 0
-56 -65 -166 0
56 65 -166 0
-56 65 166 0
56 -65 166 0
-126 -128 -168 0
126 128 -168 0
-126 128 168 0
126 -128 168 0
-130 -132 -170 0
130 132 -170 0
-130 132 170 0
130 -132 170 0
-138 -140 -173 0
138 140 -173 0
-138 140 173 0
138 -140 173 0
-142 -144 -174 0
142 144 -174 0
-142 144 174 0
142 -144 174 0
-146 -148 -176 0
146 148 -176 0
-146 148 176 0
146 -148 176 0
-150 -152 -178 0
150 152 -178 0
-150 152 178 0
150 -152 178 0
-154 -156 -180 0
154 156 -180 0
-154 156 180 0
154 -156 180 0
-158 -159 -182 0
158 159 -182 0
-158 159 182 0
158 -159 182 0
-157 -160 -184 0
157 160 -184 0
-157 160 184 0
157 -160 184 0
-162 -164 -186 0
162 164 -186 0
-162 164 186 0
162 -164 186 0
-166 -168 -188 0
166 168 -188 0
-166 168 188 0
166 -168 188 0
-170 -171 -190 0
170 171 -190 0
-170 171 190 0
170 -171 190 0
-172 -173 -192 0
172 173 -192 0
-172 173 192 0
172 -173 192 0
-174 -176 -194 0
174 176 -194 0
-174 176 194 0
174 -176 194 0
-178 -180 -196 0
178 180 -196 0
-178 180 196 0
178 -180 196 0
-182 -184 -198 0
182 184 -198 0
-182 184 198 0
182 -184 198 0
-186 -188 -200 0
186 188 -200 0
-186 188 200 0
186 -188 200 0
-190 -192 -202 0
190 192 -202 0
-190 192 202 0
190 -192 202 0
-194 -196 -204 0
194 196 -204 0
-194 196 204 0
194 -196 204 0
-198 -200 -206 0
198 200 -206 0
-198 200 206 0
198 -200 206 0
-202 -204 206 0
202 204 206 0
-202 204 -206 0
202 -204 -206 0
-7 -14 -241 0
7 14 -241 0
-7 14 241 0
7 -14 241 0
-21 -30 -210 0
21 30 -210 0
-21 30 210 0
21 -30 210 0
-39 -48 -212 0
39 48 -212 0
-39 48 212 0
39 -48 212 0
-57 -66 -214 0
57 66 -214 0
-57 66 214 0
57 -66 214 0
-75 -161 -216 0
75 161 -216 0
-75 161 216 0
75 -161 216 0
-163 -165 -218 0
163 165 -218 0
-163 165 218 0
163 -165 218 0
-167 -169 -220 0
167 169 -220 0
-167 169 220 0
167 -169 220 0
-175 -177 -224 0
175 177 -224 0
-175 177 224 0
175 -177 224 0
-179 -181 -226 0
179 181 -226 0
-179 181 226 0
179 -181 226 0
-183 -185 -228 0
183 185 -228 0
-183 185 228 0
183 -185 228 0
-187 -189 -230 0
187 189 -230 0
-187 189 230 0
187 -189 230 0
-191 -193 -232 0
191 193 -232 0
-191 193 232 0
191 -193 232 0
-195 -197 -234 0
195 197 -234 0
-195 197 234 0
195 -197 234 0
-199 -201 -236 0
199 201 -236 0
-199 201 236 0
199 -201 236 0
-203 -205 -238 0
203 205 -238 0
-203 205 238 0
203 -205 238 0
-207 -208 -240 0
207 208 -240 0
-207 208 240 0
207 -208 240 0
-210 -212 -242 0
210 212 -242 0
-210 212 242 0
210 -212 242 0
-214 -216 -244 0
214 216 -244 0
-214 216 244 0
214 -216 244 0
-218 -220 -246 0
218 220 -246 0
-218 220 246 0
218 -220 246 0
-222 -223 -248 0
222 223 -248 0
-222 223 248 0
222 -223 248 0
-224 -226 -250 0
224 226 -250 0
-224 226 250 0
224 -226 250 0
-228 -230 -252 0
228 230 -252 0
-228 230 252 0
228 -230 252 0
-232 -234 -254 0
232 234 -254 0
-232 234 254 0
232 -234 254 0
-236 -238 -256 0
236 238 -256 0
-236 238 256 0
236 -238 256 0
-240 -241 -258 0
240 241 -258 0
-240 241 258 0
240 -241 258 0
-242 -244 -260 0
242 244 -260 0
-242 244 260 0
242 -244 260 0
-246 -248 -262 0
246 248 -262 0
-246 248 262 0
246 -248 262 0
-250 -252 -264 0
250 252 -264 0
-250 252 264 0
250 -252 264 0
-254 -256 -266 0
254 256 -266 0
-254 256 266 0
254 -256 266 0
-258 -260 -268 0
258 260 -268 0
-258 260 268 0
258 -260 268 0
-262 -264 -270 0
262 264 -270 0
-262 264 270 0
262 -264 270 0
-266 -268 270 0
266 268 270 0
-266 268 -270 0
266 -268 -270 0
-8 -15 -310 0
8 15 -310 0
-8 15 310 0
8 -15 310 0
-22 -31 -274 0
22 31 -274 0
-22 31 274 0
22 -31 274 0
-40 -49 -276 0
40 49 -276 0
-40 49 276 0
40 -49 276 0
-58 -67 -278 0
58 67 -278 0
-58 67 278 0
58 -67 278 0
-76 -209 -280 0
76 209 -280 0
-76 209 280 0
76 -209 280 0
-211 -213 -282 0
211 213 -282 0
-211 213 282 0
211 -213 282 0
-215 -217 -284 0
215 217 -284 0
-215 217 284 0
215 -217 284 0
-219 -221 -316 0
219 221 -316 0
-219 221 316 0
219 -221 316 0
-225 -227 -287 0
225 227 -287 0
-225 227 287 0
225 -227 287 0
-229 -231 -288 0
229 231 -288 0
-229 231 288 0
229 -231 288 0
-233 -235 -290 0
233 235 -290 0
-233 235 290 0
233 -235 290 0
-237 -239 -292 0
237 239 -292 0
-237 239 292 0
237 -239 292 0
-243 -245 -294 0
243 245 -294 0
-243 245 294 0
243 -245 294 0
-247 -249 -296 0
247 249 -296 0
-247 249 296 0
247 -249 296 0
-251 -253 -298 0
251 253 -298 0
-251 253 298 0
251 -253 298 0
-255 -257 -300 0
255 257 -300 0
-255 257 300 0
255 -257 300 0
-259 -261 -302 0
259 261 -302 0
-259 261 302 0
259 -261 302 0
-263 -265 -304 0
263 265 -304 0
-263 265 304 0
263 -265 304 0
-267 -269 -306 0
267 269 -306 0
-267 269 306 0
267 -269 306 0
-271 -272 -308 0
271 272 -308 0
-271 272 308 0
271 -272 308 0
-274 -276 -311 0
274 276 -311 0
-274 276 311 0
274 -276 311 0
-278 -280 -312 0
278 280 -312 0
-278 280 312 0
278 -280 312 0
-282 -284 -314 0
282 284 -314 0
-282 284 314 0
282 -284 314 0
-287 -288 -317 0
287 288 -317 0
-287 288 317 0
287 -288 317 0
-290 -292 -318 0
290 292 -318 0
-290 292 318 0
290 -292 318 0
-293 -294 -320 0
293 294 -320 0
-293 294 320 0
293 -294 320 0
-296 -298 -322 0
296 298 -322 0
-296 298 322 0
296 -298 322 0
-300 -302 -324 0
300 302 -324 0
-300 302 324 0
300 -302 324 0
-304 -306 -326 0
304 306 -326 0
-304 306 326 0
304 -306 326 0
-308 -310 -328 0
308 310 -328 0
-308 310 328 0
308 -310 328 0
-311 -312 -330 0
311 312 -330 0
-311 312 330 0
311 -312 330 0
-314 -316 -332 0
314 316 -332 0
-314 316 332 0
314 -316 332 0
-317 -318 -334 0
317 318 -334 0
-317 318 334 0
317 -318 334 0
-320 -322 -336 0
320 322 -336 0
-320 322 336 0
320 -322 336 0
-324 -326 -338 0
324 326 -338 0
-324 326 338 0
324 -326 338 0
-328 -330 -340 0
328 330 -340 0
-328 330 340 0
328 -330 340 0
-332 -334 -342 0
332 334 -342 0
-332 334 342 0
332 -334 342 0
-336 -338 -344 0
336 338 -344 0
-336 338 344 0
336 -338 344 0
-340 -342 344 0
340 342 344 0
-340 342 -344 0
340 -342 -344 0
-16 -23 -346 0
16 23 -346 0
-16 23 346 0
16 -23 346 0
-32 -41 -348 0
32 41 -348 0
-32 41 348 0
32 -41 348 0
-50 -59 -350 0
50 59 -350 0
-50 59 350 0
50 -59 350 0
-68 -77 -352 0
68 77 -352 0
-68 77 352 0
68 -77 352 0
-273 -275 -354 0
273 275 -354 0
-273 275 354 0
273 -275 354 0
-277 -279 -356 0
277 279 -356 0
-277 279 356 0
277 -279 356 0
-281 -283 -358 0
281 283 -358 0
-281 283 358 0
281 -283 358 0
-285 -286 -360 0
285 286 -360 0
-285 286 360 0
285 -286 360 0
-289 -291 -362 0
289 291 -362 0
-289 291 362 0
289 -291 362 0
-295 -297 -364 0
295 297 -364 0
-295 297 364 0
295 -297 364 0
-299 -301 -366 0
299 301 -366 0
-299 301 366 0
299 -301 366 0
-303 -305 -368 0
303 305 -368 0
-303 305 368 0
303 -305 368 0
-307 -309 -370 0
307 309 -370 0
-307 309 370 0
307 -309 370 0
-313 -315 -373 0
313 315 -373 0
-313 315 373 0
313 -315 373 0
-319 -321 -375 0
319 321 -375 0
-319 321 375 0
319 -321 375 0
-323 -325 -376 0
323 325 -376 0
-323 325 376 0
323 -325 376 0
-327 -329 -378 0
327 329 -378 0
-327 329 378 0
327 -329 378 0
-331 -333 -380 0
331 333 -380 0
-331 333 380 0
331 -333 380 0
-335 -337 -382 0
335 337 -382 0
-335 337 382 0
335 -337 382 0
-339 -341 -384 0
339 341 -384 0
-339 341 384 0
339 -341 384 0
-343 -345 -386 0
343 345 -386 0
-343 345 386 0
343 -345 386 0
-346 -348 -389 0
346 348 -389 0
-346 348 389 0
346 -348 389 0
-350 -352 -390 0
350 352 -390 0
-350 352 390 0
350 -352 390 0
-354 -356 -392 0
354 356 -392 0
-354 356 392 0
354 -356 392 0
-358 -360 -394 0
358 360 -394 0
-358 360 394 0
358 -360 394 0
-361 -362 -396 0
361 362 -396 0
-361 362 396 0
361 -362 396 0
-363 -364 -398 0
363 364 -398 0
-363 364 398 0
363 -364 398 0
-366 -368 -400 0
366 368 -400 0
-366 368 400 0
366 -368 400 0
-370 -372 -402 0
370 372 -402 0
-370 372 402 0
370 -372 402 0
-373 -374 -404 0
373 374 -404 0
-373 374 404 0
373 -374 404 0
-375 -376 -406 0
375 376 -406 0
-375 376 406 0
375 -376 406 0
-378 -380 -408 0
378 380 -408 0
-378 380 408 0
378 -380 408 0
-382 -384 -410 0
382 384 -410 0
-382 384 410 0
382 -384 410 0
-386 -388 -412 0
386 388 -412 0
-386 388 412 0
386 -388 412 0
-389 -390 -414 0
389 390 -414 0
-389 390 414 0
389 -390 414 0
-392 -394 -416 0
392 394 -416 0
-392 394 416 0
392 -394 416 0
-396 -398 -418 0
396 398 -418 0
-396 398 418 0
396 -398 418 0
-400 -402 -420 0
400 402 -420 0
-400 402 420 0
400 -402 420 0
-404 -406 -422 0
404 406 -422 0
-404 406 422 0
404 -406 422 0
-408 -410 -424 0
408 410 -424 0
-408 410 424 0
408 -410 424 0
-412 -414 -426 0
412 414 -426 0
-412 414 426 0
412 -414 426 0
-416 -418 -428 0
416 418 -428 0
-416 418 428 0
416 -418 428 0
-420 -422 -430 0
420 422 -430 0
-420 422 430 0
420 -422 430 0
-424 -426 -432 0
424 426 -432 0
-424 426 432 0
424 -426 432 0
-428 -430 -432 0
428 430 -432 0
-428 430 432 0
428 -430 432 0
-24 -33 -435 0
24 33 -435 0
-24 33 435 0
24 -33 435 0
-42 -51 -437 0
42 51 -437 0
-42 51 437 0
42 -51 437 0
-60 -69 -439 0
60 69 -439 0
-60 69 439 0
60 -69 439 0
-78 -347 -441 0
78 347 -441 0
-78 347 441 0
78 -347 441 0
-349 -351 -443 0
349 351 -443 0
-349 351 443 0
349 -351 443 0
-353 -355 -445 0
353 355 -445 0
-353 355 445 0
353 -355 445 0
-357 -359 -447 0
357 359 -447 0
-357 359 447 0
357 -359 447 0
-365 -367 -450 0
365 367 -450 0
-365 367 450 0
365 -367 450 0
-369 -371 -451 0
369 371 -451 0
-369 371 451 0
369 -371 451 0
-377 -379 -454 0
377 379 -454 0
-377 379 454 0
377 -379 454 0
-381 -383 -455 0
381 383 -455 0
-381 383 455 0
381 -383 455 0
-385 -387 -457 0
385 387 -457 0
-385 387 457 0
385 -387 457 0
-391 -393 -460 0
391 393 -460 0
-391 393 460 0
391 -393 460 0
-395 -397 -461 0
395 397 -461 0
-395 397 461 0
395 -397 461 0
-399 -401 -463 0
399 401 -463 0
-399 401 463 0
399 -401 463 0
-403 -405 -465 0
403 405 -465 0
-403 405 465 0
403 -405 465 0
-407 -409 -467 0
407 409 -467 0
-407 409 467 0
407 -409 467 0
-411 -413 -469 0
411 413 -469 0
-411 413 469 0
411 -413 469 0
-415 -417 -471 0
415 417 -471 0
-415 417 471 0
415 -417 471 0
-419 -421 -473 0
419 421 -473 0
-419 421 473 0
419 -421 473 0
-423 -425 -475 0
423 425 -475 0
-423 425 475 0
423 -425 475 0
-427 -429 -477 0
427 429 -477 0
-427 429 477 0
427 -429 477 0
-431 -433 -479 0
431 433 -479 0
-431 433 479 0
431 -433 479 0
-432 -434 -481 0
432 434 -481 0
432 -434 481 0
-432 434 481 0
-435 -437 -483 0
435 437 -483 0
-435 437 483 0
435 -437 483 0
-439 -441 -485 0
439 441 -485 0
-439 441 485 0
439 -441 485 0
-443 -445 -487 0
443 445 -487 0
-443 445 487 0
443 -445 487 0
-447 -448 -489 0
447 448 -489 0
-447 448 489 0
447 -448 489 0
-449 -450 -491 0
449 450 -491 0
-449 450 491 0
449 -450 491 0
-451 -452 -493 0
451 452 -493 0
-451 452 493 0
451 -452 493 0
-453 -454 -495 0
453 454 -495 0
-453 454 495 0
453 -454 495 0
-455 -457 -497 0
455 457 -497 0
-455 457 497 0
455 -457 497 0
-459 -460 -499 0
459 460 -499 0
-459 460 499 0
459 -460 499 0
-461 -463 -501 0
461 463 -501 0
-461 463 501 0
461 -463 501 0
-465 -467 -503 0
465 467 -503 0
-465 467 503 0
465 -467 503 0
-469 -471 -505 0
469 471 -505 0
-469 471 505 0
469 -471 505 0
-473 -475 -507 0
473 475 -507 0
-473 475 507 0
473 -475 507 0
-477 -479 -509 0
477 479 -509 0
-477 479 509 0
477 -479 509 0
-481 -483 -511 0
481 483 -511 0
-481 483 511 0
481 -483 511 0
-485 -487 -513 0
485 487 -513 0
-485 487 513 0
485 -487 513 0
-489 -491 -515 0
489 491 -515 0
-489 491 515 0
489 -491 515 0
-493 -495 -517 0
493 495 -517 0
-493 495 517 0
493 -495 517 0
-497 -499 -519 0
497 499 -519 0
-497 499 519 0
497 -499 519 0
-501 -503 -521 0
501 503 -521 0
-501 503 521 0
501 -503 521 0
-505 -507 -523 0
505 507 -523 0
-505 507 523 0
505 -507 523 0
-509 -511 -525 0
509 511 -525 0
-509 511 525 0
509 -511 525 0
-513 -515 -527 0
513 515 -527 0
-513 515 527 0
513 -515 527 0
-517 -519 -529 0
517 519 -529 0
-517 519 529 0
517 -519 529 0
-521 -523 -531 0
521 523 -531 0
-521 523 531 0
521 -523 531 0
-525 -527 -533 0
525 527 -533 0
-525 527 533 0
525 -527 533 0
-529 -531 533 0
529 531 533 0
-529 531 -533 0
529 -531 -533 0
-34 -43 -589 0
34 43 -589 0
-34 43 589 0
34 -43 589 0
-52 -61 -537 0
52 61 -537 0
-52 61 537 0
52 -61 537 0
-70 -79 -539 0
70 79 -539 0
-70 79 539 0
70 -79 539 0
-436 -438 -541 0
436 438 -541 0
-436 438 541 0
436 -438 541 0
-440 -442 -543 0
440 442 -543 0
-440 442 543 0
440 -442 543 0
-444 -446 -545 0
444 446 -545 0
-444 446 545 0
444 -446 545 0
-456 -458 -550 0
456 458 -550 0
-456 458 550 0
456 -458 550 0
-462 -464 -552 0
462 464 -552 0
-462 464 552 0
462 -464 552 0
-466 -468 -553 0
466 468 -553 0
-466 468 553 0
466 -468 553 0
-470 -472 -555 0
470 472 -555 0
-470 472 555 0
470 -472 555 0
-474 -476 -557 0
474 476 -557 0
-474 476 557 0
474 -476 557 0
-478 -480 -559 0
478 480 -559 0
-478 480 559 0
478 -480 559 0
-482 -484 -561 0
482 484 -561 0
-482 484 561 0
482 -484 561 0
-486 -488 -563 0
486 488 -563 0
-486 488 563 0
486 -488 563 0
-490 -492 -565 0
490 492 -565 0
-490 492 565 0
490 -492 565 0
-494 -496 -567 0
494 496 -567 0
-494 496 567 0
494 -496 567 0
-498 -500 -569 0
498 500 -569 0
-498 500 569 0
498 -500 569 0
-502 -504 -571 0
502 504 -571 0
-502 504 571 0
502 -504 571 0
-506 -508 -573 0
506 508 -573 0
-506 508 573 0
506 -508 573 0
-510 -512 -575 0
510 512 -575 0
-510 512 575 0
510 -512 575 0
-514 -516 -577 0
514 516 -577 0
-514 516 577 0
514 -516 577 0
-518 -520 -579 0
518 520 -579 0
-518 520 579 0
518 -520 579 0
-522 -524 -581 0
522 524 -581 0
-522 524 581 0
522 -524 581 0
-526 -528 -583 0
526 528 -583 0
-526 528 583 0
526 -528 583 0
-530 -532 -585 0
530 532 -585 0
-530 532 585 0
530 -532 585 0
-534 -535 -587 0
534 535 -587 0
-534 535 587 0
534 -535 587 0
-537 -539 -590 0
537 539 -590 0
-537 539 590 0
537 -539 590 0
-541 -543 -591 0
541 543 -591 0
-541 543 591 0
541 -543 591 0
-545 -546 -593 0
545 546 -593 0
-545 546 593 0
545 -546 593 0
-547 -548 -595 0
547 548 -595 0
-547 548 595 0
547 -548 595 0
-549 -550 -597 0
549 550 -597 0
-549 550 597 0
549 -550 597 0
-551 -552 -599 0
551 552 -599 0
-551 552 599 0
551 -552 599 0
-553 -555 -601 0
553 555 -601 0
-553 555 601 0
553 -555 601 0
-557 -559 -603 0
557 559 -603 0
-557 559 603 0
557 -559 603 0
-561 -563 -605 0
561 563 -605 0
-561 563 605 0
561 -563 605 0
-565 -567 -607 0
565 567 -607 0
-565 567 607 0
565 -567 607 0
-569 -571 -609 0
569 571 -609 0
-569 571 609 0
569 -571 609 0
-573 -575 -611 0
573 575 -611 0
-573 575 611 0
573 -575 611 0
-577 -579 -613 0
577 579 -613 0
-577 579 613 0
577 -579 613 0
-581 -583 -615 0
581 583 -615 0
-581 583 615 0
581 -583 615 0
-585 -587 -617 0
585 587 -617 0
-585 587 617 0
585 -587 617 0
-589 -590 -619 0
589 590 -619 0
-589 590 619 0
589 -590 619 0
-591 -593 -621 0
591 593 -621 0
-591 593 621 0
591 -593 621 0
-595 -597 -623 0
595 597 -623 0
-595 597 623 0
595 -597 623 0
-599 -601 -625 0
599 601 -625 0
-599 601 625 0
599 -601 625 0
-603 -605 -627 0
603 605 -627 0
-603 605 627 0
603 -605 627 0
-607 -609 -629 0
607 609 -629 0
-607 609 629 0
607 -609 629 0
-611 -613 -631 0
611 613 -631 0
-611 613 631 0
611 -613 631 0
-615 -617 -633 0
615 617 -633 0
-615 617 633 0
615 -617 633 0
-619 -621 -635 0
619 621 -635 0
-619 621 635 0
619 -621 635 0
-623 -625 -637 0
623 625 -637 0
-623 625 637 0
623 -625 637 0
-627 -629 -639 0
627 629 -639 0
-627 629 639 0
627 -629 639 0
-631 -633 -641 0
631 633 -641 0
-631 633 641 0
631 -633 641 0
-635 -637 -643 0
635 637 -643 0
-635 637 643 0
635 -637 643 0
-639 -641 643 0
639 641 643 0
-639 641 -643 0
639 -641 -643 0
-44 -53 -701 0
44 53 -701 0
-44 53 701 0
44 -53 701 0
-62 -71 -647 0
62 71 -647 0
-62 71 647 0
62 -71 647 0
-80 -536 -649 0
80 536 -649 0
-80 536 649 0
80 -536 649 0
-538 -540 -651 0
538 540 -651 0
-538 540 651 0
538 -540 651 0
-542 -544 -653 0
542 544 -653 0
-542 544 653 0
542 -544 653 0
-554 -556 -657 0
554 556 -657 0
-554 556 657 0
554 -556 657 0
-558 -560 -658 0
558 560 -658 0
-558 560 658 0
558 -560 658 0
-562 -564 -660 0
562 564 -660 0
-562 564 660 0
562 -564 660 0
-566 -568 -662 0
566 568 -662 0
-566 568 662 0
566 -568 662 0
-570 -572 -664 0
570 572 -664 0
-570 572 664 0
570 -572 664 0
-574 -576 -666 0
574 576 -666 0
-574 576 666 0
574 -576 666 0
-578 -580 -668 0
578 580 -668 0
-578 580 668 0
578 -580 668 0
-582 -584 -670 0
582 584 -670 0
-582 584 670 0
582 -584 670 0
-586 -588 -672 0
586 588 -672 0
-586 588 672 0
586 -588 672 0
-592 -594 -675 0
592 594 -675 0
-592 594 675 0
592 -594 675 0
-596 -598 -676 0
596 598 -676 0
-596 598 676 0
596 -598 676 0
-600 -602 -678 0
600 602 -678 0
-600 602 678 0
600 -602 678 0
-604 -606 -680 0
604 606 -680 0
-604 606 680 0
604 -606 680 0
-608 -610 -682 0
608 610 -682 0
-608 610 682 0
608 -610 682 0
-612 -614 -684 0
612 614 -684 0
-612 614 684 0
612 -614 684 0
-616 -618 -686 0
616 618 -686 0
-616 618 686 0
616 -618 686 0
-620 -622 -688 0
620 622 -688 0
-620 622 688 0
620 -622 688 0
-624 -626 -690 0
624 626 -690 0
-624 626 690 0
624 -626 690 0
-628 -630 -692 0
628 630 -692 0
-628 630 692 0
628 -630 692 0
-632 -634 -694 0
632 634 -694 0
-632 634 694 0
632 -634 694 0
-636 -638 -696 0
636 638 -696 0
-636 638 696 0
636 -638 696 0
-640 -642 -698 0
640 642 -698 0
-640 642 698 0
640 -642 698 0
-644 -645 -700 0
644 645 -700 0
-644 645 700 0
644 -645 700 0
-647 -649 -702 0
647 649 -702 0
-647 649 702 0
647 -649 702 0
-651 -653 -704 0
651 653 -704 0
-651 653 704 0
651 -653 704 0
-655 -656 -706 0
655 656 -706 0
-655 656 706 0
655 -656 706 0
-657 -658 -707 0
657 658 -707 0
-657 658 707 0
657 -658 707 0
-660 -662 -709 0
660 662 -709 0
-660 662 709 0
660 -662 709 0
-664 -666 -711 0
664 666 -711 0
-664 666 711 0
664 -666 711 0
-668 -670 -713 0
668 670 -713 0
-668 670 713 0
668 -670 713 0
-672 -674 -715 0
672 674 -715 0
-672 674 715 0
672 -674 715 0
-675 -676 -717 0
675 676 -717 0
-675 676 717 0
675 -676 717 0
-678 -680 -719 0
678 680 -719 0
-678 680 719 0
678 -680 719 0
-682 -684 -721 0
682 684 -721 0
-682 684 721 0
682 -684 721 0
-686 -688 -723 0
686 688 -723 0
-686 688 723 0
686 -688 723 0
-690 -692 -725 0
690 692 -725 0
-690 692 725 0
690 -692 725 0
-694 -696 -727 0
694 696 -727 0
-694 696 727 0
694 -696 727 0
-698 -700 -729 0
698 700 -729 0
-698 700 729 0
698 -700 729 0
-701 -702 -731 0
701 702 -731 0
-701 702 731 0
701 -702 731 0
-654 -704 -733 0
654 704 -733 0
654 -704 733 0
-654 704 733 0
-706 -707 -735 0
706 707 -735 0
-706 707 735 0
706 -707 735 0
-709 -711 -737 0
709 711 -737 0
-709 711 737 0
709 -711 737 0
-713 -715 -739 0
713 715 -739 0
-713 715 739 0
713 -715 739 0
-717 -719 -741 0
717 719 -741 0
-717 719 741 0
717 -719 741 0
-721 -723 -743 0
721 723 -743 0
-721 723 743 0
721 -723 743 0
-725 -727 -745 0
725 727 -745 0
-725 727 745 0
725 -727 745 0
-729 -731 -747 0
729 731 -747 0
-729 731 747 0
729 -731 747 0
-733 -735 -749 0
733 735 -749 0
-733 735 749 0
733 -735 749 0
-737 -739 -751 0
737 739 -751 0
-737 739 751 0
737 -739 751 0
-741 -743 -753 0
741 743 -753 0
-741 743 753 0
741 -743 753 0
-745 -747 -755 0
745 747 -755 0
-745 747 755 0
745 -747 755 0
-749 -751 -757 0
749 751 -757 0
-749 751 757 0
749 -751 757 0
-753 -755 757 0
753 755 757 0
-753 755 -757 0
753 -755 -757 0
-54 -63 -759 0
54 63 -759 0
-54 63 759 0
54 -63 759 0
-72 -81 -761 0
72 81 -761 0
-72 81 761 0
72 -81 761 0
-646 -648 -763 0
646 648 -763 0
-646 648 763 0
646 -648 763 0
-650 -652 -765 0
650 652 -765 0
-650 652 765 0
650 -652 765 0
-659 -661 -768 0
659 661 -768 0
-659 661 768 0
659 -661 768 0
-663 -665 -770 0
663 665 -770 0
-663 665 770 0
663 -665 770 0
-667 -669 -772 0
667 669 -772 0
-667 669 772 0
667 -669 772 0
-671 -673 -774 0
671 673 -774 0
-671 673 774 0
671 -673 774 0
-677 -679 -777 0
677 679 -777 0
-677 679 777 0
677 -679 777 0
-681 -683 -778 0
681 683 -778 0
-681 683 778 0
681 -683 778 0
-685 -687 -780 0
685 687 -780 0
-685 687 780 0
685 -687 780 0
-689 -691 -782 0
689 691 -782 0
-689 691 782 0
689 -691 782 0
-693 -695 -784 0
693 695 -784 0
-693 695 784 0
693 -695 784 0
-697 -699 -786 0
697 699 -786 0
-697 699 786 0
697 -699 786 0
-703 -705 -788 0
703 705 -788 0
-703 705 788 0
703 -705 788 0
-708 -710 -790 0
708 710 -790 0
-708 710 790 0
708 -710 790 0
-712 -714 -792 0
712 714 -792 0
-712 714 792 0
712 -714 792 0
-716 -718 -794 0
716 718 -794 0
-716 718 794 0
716 -718 794 0
-720 -722 -796 0
720 722 -796 0
-720 722 796 0
720 -722 796 0
-724 -726 -798 0
724 726 -798 0
-724 726 798 0
724 -726 798 0
-728 -730 -800 0
728 730 -800 0
-728 730 800 0
728 -730 800 0
-732 -734 -802 0
732 734 -802 0
-732 734 802 0
732 -734 802 0
-736 -738 -804 0
736 738 -804 0
-736 738 804 0
736 -738 804 0
-740 -742 -806 0
740 742 -806 0
-740 742 806 0
740 -742 806 0
-744 -746 -808 0
744 746 -808 0
-744 746 808 0
744 -746 808 0
-748 -750 -810 0
748 750 -810 0
-748 750 810 0
748 -750 810 0
-752 -754 -812 0
752 754 -812 0
-752 754 812 0
752 -754 812 0
-756 -758 -814 0
756 758 -814 0
-756 758 814 0
756 -758 814 0
-759 -761 -816 0
759 761 -816 0
-759 761 816 0
759 -761 816 0
-763 -765 -818 0
763 765 -818 0
-763 765 818 0
763 -765 818 0
-767 -768 -820 0
767 768 -820 0
-767 768 820 0
767 -768 820 0
-770 -772 -821 0
770 772 -821 0
-770 772 821 0
770 -772 821 0
-774 -776 -823 0
774 776 -823 0
-774 776 823 0
774 -776 823 0
-777 -778 -825 0
777 778 -825 0
-777 778 825 0
777 -778 825 0
-780 -782 -827 0
780 782 -827 0
-780 782 827 0
780 -782 827 0
-784 -786 -829 0
784 786 -829 0
-784 786 829 0
784 -786 829 0
-787 -788 -831 0
787 788 -831 0
-787 788 831 0
787 -788 831 0
-789 -790 -833 0
789 790 -833 0
-789 790 833 0
789 -790 833 0
-792 -794 -835 0
792 794 -835 0
-792 794 835 0
792 -794 835 0
-796 -798 -837 0
796 798 -837 0
-796 798 837 0
796 -798 837 0
-800 -802 -839 0
800 802 -839 0
-800 802 839 0
800 -802 839 0
-804 -806 -841 0
804 806 -841 0
-804 806 841 0
804 -806 841 0
-808 -810 -843 0
808 810 -843 0
-808 810 843 0
808 -810 843 0
-812 -814 -845 0
812 814 -845 0
-812 814 845 0
812 -814 845 0
-815 -816 -847 0
815 816 -847 0
-815 816 847 0
815 -816 847 0
-766 -818 -849 0
766 818 -849 0
766 -818 849 0
-766 818 849 0
-820 -821 -851 0
820 821 -851 0
-820 821 851 0
820 -821 851 0
-823 -825 -853 0
823 825 -853 0
-823 825 853 0
823 -825 853 0
-827 -829 -855 0
827 829 -855 0
-827 829 855 0
827 -829 855 0
-831 -833 -857 0
831 833 -857 0
-831 833 857 0
831 -833 857 0
-835 -837 -859 0
835 837 -859 0
-835 837 859 0
835 -837 859 0
-839 -841 -861 0
839 841 -861 0
-839 841 861 0
839 -841 861 0
-843 -845 -863 0
843 845 -863 0
-843 845 863 0
843 -845 863 0
-847 -849 -865 0
847 849 -865 0
-847 849 865 0
847 -849 865 0
-851 -853 -867 0
851 853 -867 0
-851 853 867 0
851 -853 867 0
-855 -857 -869 0
855 857 -869 0
-855 857 869 0
855 -857 869 0
-859 -861 -871 0
859 861 -871 0
-859 861 871 0
859 -861 871 0
-863 -865 -873 0
863 865 -873 0
-863 865 873 0
863 -865 873 0
-867 -869 -875 0
867 869 -875 0
-867 869 875 0
867 -869 875 0
-871 -873 -875 0
871 873 -875 0
-871 873 875 0
871 -873 875 0
-64 -73 -878 0
64 73 -878 0
-64 73 878 0
64 -73 878 0
-82 -760 -880 0
82 760 -880 0
-82 760 880 0
82 -760 880 0
-762 -764 -882 0
762 764 -882 0
-762 764 882 0
762 -764 882 0
-769 -771 -940 0
769 771 -940 0
-769 771 940 0
769 -771 940 0
-773 -775 -884 0
773 775 -884 0
-773 775 884 0
773 -775 884 0
-779 -781 -886 0
779 781 -886 0
-779 781 886 0
779 -781 886 0
-783 -785 -888 0
783 785 -888 0
-783 785 888 0
783 -785 888 0
-791 -793 -892 0
791 793 -892 0
-791 793 892 0
791 -793 892 0
-795 -797 -894 0
795 797 -894 0
-795 797 894 0
795 -797 894 0
-799 -801 -896 0
799 801 -896 0
-799 801 896 0
799 -801 896 0
-803 -805 -898 0
803 805 -898 0
-803 805 898 0
803 -805 898 0
-807 -809 -900 0
807 809 -900 0
-807 809 900 0
807 -809 900 0
-811 -813 -902 0
811 813 -902 0
-811 813 902 0
811 -813 902 0
-817 -819 -905 0
817 819 -905 0
-817 819 905 0
817 -819 905 0
-822 -824 -907 0
822 824 -907 0
-822 824 907 0
822 -824 907 0
-826 -828 -908 0
826 828 -908 0
-826 828 908 0
826 -828 908 0
-830 -832 -910 0
830 832 -910 0
-830 832 910 0
830 -832 910 0
-834 -836 -912 0
834 836 -912 0
-834 836 912 0
834 -836 912 0
-838 -840 -914 0
838 840 -914 0
-838 840 914 0
838 -840 914 0
-842 -844 -916 0
842 844 -916 0
-842 844 916 0
842 -844 916 0
-846 -848 -918 0
846 848 -918 0
-846 848 918 0
846 -848 918 0
-850 -852 -920 0
850 852 -920 0
-850 852 920 0
850 -852 920 0
-854 -856 -922 0
854 856 -922 0
-854 856 922 0
854 -856 922 0
-858 -860 -924 0
858 860 -924 0
-858 860 924 0
858 -860 924 0
-862 -864 -926 0
862 864 -926 0
-862 864 926 0
862 -864 926 0
-866 -868 -928 0
866 868 -928 0
-866 868 928 0
866 -868 928 0
-870 -872 -930 0
870 872 -930 0
-870 872 930 0
870 -872 930 0
-874 -876 -932 0
874 876 -932 0
-874 876 932 0
874 -876 932 0
-875 -877 -934 0
875 877 -934 0
875 -877 934 0
-875 877 934 0
-878 -880 -936 0
878 880 -936 0
-878 880 936 0
878 -880 936 0
-882 -883 -938 0
882 883 -938 0
-882 883 938 0
882 -883 938 0
-884 -885 -941 0
884 885 -941 0
-884 885 941 0
884 -885 941 0
-886 -888 -942 0
886 888 -942 0
-886 888 942 0
886 -888 942 0
-890 -891 -944 0
890 891 -944 0
-890 891 944 0
890 -891 944 0
-892 -894 -946 0
892 894 -946 0
-892 894 946 0
892 -894 946 0
-896 -898 -948 0
896 898 -948 0
-896 898 948 0
896 -898 948 0
-900 -902 -950 0
900 902 -950 0
-900 902 950 0
900 -902 950 0
-904 -905 -952 0
904 905 -952 0
-904 905 952 0
904 -905 952 0
-906 -907 -954 0
906 907 -954 0
-906 907 954 0
906 -907 954 0
-908 -910 -956 0
908 910 -956 0
-908 910 956 0
908 -910 956 0
-912 -914 -958 0
912 914 -958 0
-912 914 958 0
912 -914 958 0
-916 -918 -960 0
916 918 -960 0
-916 918 960 0
916 -918 960 0
-920 -922 -962 0
920 922 -962 0
-920 922 962 0
920 -922 962 0
-924 -926 -964 0
924 926 -964 0
-924 926 964 0
924 -926 964 0
-928 -930 -966 0
928 930 -966 0
-928 930 966 0
928 -930 966 0
-932 -934 -968 0
932 934 -968 0
-932 934 968 0
932 -934 968 0
-936 -938 -970 0
936 938 -970 0
-936 938 970 0
936 -938 970 0
-940 -941 -972 0
940 941 -972 0
-940 941 972 0
940 -941 972 0
-942 -944 -974 0
942 944 -974 0
-942 944 974 0
942 -944 974 0
-946 -948 -976 0
946 948 -976 0
-946 948 976 0
946 -948 976 0
-950 -952 -978 0
950 952 -978 0
-950 952 978 0
950 -952 978 0
-954 -956 -980 0
954 956 -980 0
-954 956 980 0
954 -956 980 0
-958 -960 -982 0
958 960 -982 0
-958 960 982 0
958 -960 982 0
-962 -964 -984 0
962 964 -984 0
-962 964 984 0
962 -964 984 0
-966 -968 -986 0
966 968 -986 0
-966 968 986 0
966 -968 986 0
-970 -972 -988 0
970 972 -988 0
-970 972 988 0
970 -972 988 0
-974 -976 -990 0
974 976 -990 0
-974 976 990 0
974 -976 990 0
-978 -980 -992 0
978 980 -992 0
-978 980 992 0
978 -980 992 0
-982 -984 -994 0
982 984 -994 0
-982 984 994 0
982 -984 994 0
-986 -988 -996 0
986 988 -996 0
-986 988 996 0
986 -988 996 0
-990 -992 -998 0
990 992 -998 0
-990 992 998 0
990 -992 998 0
-994 -996 998 0
994 996 998 0
-994 996 -998 0
994 -996 -998 0
-74 -83 -1057 0
74 83 -1057 0
-74 83 1057 0
74 -83 1057 0
-879 -881 -1002 0
879 881 -1002 0
-879 881 1002 0
879 -881 1002 0
-887 -889 -1062 0
887 889 -1062 0
-887 889 1062 0
887 -889 1062 0
-893 -895 -1006 0
893 895 -1006 0
-893 895 1006 0
893 -895 1006 0
-897 -899 -1008 0
897 899 -1008 0
-897 899 1008 0
897 -899 1008 0
-901 -903 -1010 0
901 903 -1010 0
-901 903 1010 0
901 -903 1010 0
-909 -911 -1013 0
909 911 -1013 0
-909 911 1013 0
909 -911 1013 0
-913 -915 -1014 0
913 915 -1014 0
-913 915 1014 0
913 -915 1014 0
-917 -919 -1016 0
917 919 -1016 0
-917 919 1016 0
917 -919 1016 0
-921 -923 -1018 0
921 923 -1018 0
-921 923 1018 0
921 -923 1018 0
-925 -927 -1020 0
925 927 -1020 0
-925 927 1020 0
925 -927 1020 0
-929 -931 -1022 0
929 931 -1022 0
-929 931 1022 0
929 -931 1022 0
-933 -935 -1024 0
933 935 -1024 0
-933 935 1024 0
933 -935 1024 0
-937 -939 -1026 0
937 939 -1026 0
-937 939 1026 0
937 -939 1026 0
-943 -945 -1028 0
943 945 -1028 0
-943 945 1028 0
943 -945 1028 0
-947 -949 -1030 0
947 949 -1030 0
-947 949 1030 0
947 -949 1030 0
-951 -953 -1032 0
951 953 -1032 0
-951 953 1032 0
951 -953 1032 0
-955 -957 -1034 0
955 957 -1034 0
-955 957 1034 0
955 -957 1034 0
-959 -961 -1036 0
959 961 -1036 0
-959 961 1036 0
959 -961 1036 0
-963 -965 -1038 0
963 965 -1038 0
-963 965 1038 0
963 -965 1038 0
-967 -969 -1040 0
967 969 -1040 0
-967 969 1040 0
967 -969 1040 0
-971 -973 -1042 0
971 973 -1042 0
-971 973 1042 0
971 -973 1042 0
-975 -977 -1044 0
975 977 -1044 0
-975 977 1044 0
975 -977 1044 0
-979 -981 -1046 0
979 981 -1046 0
-979 981 1046 0
979 -981 1046 0
-983 -985 -1048 0
983 985 -1048 0
-983 985 1048 0
983 -985 1048 0
-987 -989 -1050 0
987 989 -1050 0
-987 989 1050 0
987 -989 1050 0
-991 -993 -1052 0
991 993 -1052 0
-991 993 1052 0
991 -993 1052 0
-995 -997 -1054 0
995 997 -1054 0
-995 997 1054 0
995 -997 1054 0
-999 -1000 -1056 0
999 1000 -1056 0
-999 1000 1056 0
999 -1000 1056 0
-1002 -1003 -1058 0
1002 1003 -1058 0
-1002 1003 1058 0
1002 -1003 1058 0
-1004 -1005 -1060 0
1004 1005 -1060 0
-1004 1005 1060 0
1004 -1005 1060 0
-1006 -1008 -1063 0
1006 1008 -1063 0
-1006 1008 1063 0
1006 -1008 1063 0
-1010 -1011 -1064 0
1010 1011 -1064 0
-1010 1011 1064 0
1010 -1011 1064 0
-1012 -1013 -1066 0
1012 1013 -1066 0
-1012 1013 1066 0
1012 -1013 1066 0
-1014 -1016 -1068 0
1014 1016 -1068 0
-1014 1016 1068 0
1014 -1016 1068 0
-1018 -1020 -1070 0
1018 1020 -1070 0
-1018 1020 1070 0
1018 -1020 1070 0
-1022 -1024 -1072 0
1022 1024 -1072 0
-1022 1024 1072 0
1022 -1024 1072 0
-1026 -1027 -1074 0
1026 1027 -1074 0
-1026 1027 1074 0
1026 -1027 1074 0
-1028 -1030 -1076 0
1028 1030 -1076 0
-1028 1030 1076 0
1028 -1030 1076 0
-1032 -1034 -1078 0
1032 1034 -1078 0
-1032 1034 1078 0
1032 -1034 1078 0
-1036 -1038 -1080 0
1036 1038 -1080 0
-1036 1038 1080 0
1036 -1038 1080 0
-1040 -1042 -1082 0
1040 1042 -1082 0
-1040 1042 1082 0
1040 -1042 1082 0
-1044 -1046 -1084 0
1044 1046 -1084 0
-1044 1046 1084 0
1044 -1046 1084 0
-1048 -1050 -1086 0
1048 1050 -1086 0
-1048 1050 1086 0
1048 -1050 1086 0
-1052 -1054 -1088 0
1052 1054 -1088 0
-1052 1054 1088 0
1052 -1054 1088 0
-1056 -1057 -1090 0
1056 1057 -1090 0
-1056 1057 1090 0
1056 -1057 1090 0
-1058 -1060 -1092 0
1058 1060 -1092 0
-1058 1060 1092 0
1058 -1060 1092 0
-1062 -1063 -1094 0
1062 1063 -1094 0
-1062 1063 1094 0
1062 -1063 1094 0
-1064 -1066 -1096 0
1064 1066 -1096 0
-1064 1066 1096 0
1064 -1066 1096 0
-1068 -1070 -1098 0
1068 1070 -1098 0
-1068 1070 1098 0
1068 -1070 1098 0
-1072 -1074 -1100 0
1072 1074 -1100 0
-1072 1074 1100 0
1072 -1074 1100 0
-1076 -1078 -1102 0
1076 1078 -1102 0
-1076 1078 1102 0
1076 -1078 1102 0
-1080 -1082 -1104 0
1080 1082 -1104 0
-1080 1082 1104 0
1080 -1082 1104 0
-1084 -1086 -1106 0
1084 1086 -1106 0
-1084 1086 1106 0
1084 -1086 1106 0
-1088 -1090 -1108 0
1088 1090 -1108 0
-1088 1090 1108 0
1088 -1090 1108 0
-1092 -1094 -1110 0
1092 1094 -1110 0
-1092 1094 1110 0
1092 -1094 1110 0
-1096 -1098 -1112 0
1096 1098 -1112 0
-1096 1098 1112 0
1096 -1098 1112 0
-1100 -1102 -1114 0
1100 1102 -1114 0
-1100 1102 1114 0
1100 -1102 1114 0
-1104 -1106 -1116 0
1104 1106 -1116 0
-1104 1106 1116 0
1104 -1106 1116 0
-1108 -1110 -1118 0
1108 1110 -1118 0
-1108 1110 1118 0
1108 -1110 1118 0
-1112 -1114 -1120 0
1112 1114 -1120 0
-1112 1114 1120 0
1112 -1114 1120 0
-1116 -1118 -1120 0
1116 1118 -1120 0
-1116 1118 1120 0
1116 -1118 1120 0
-84 -1001 -1123 0
84 1001 -1123 0
-84 1001 1123 0
84 -1001 1123 0
-1007 -1009 -1126 0
1007 1009 -1126 0
-1007 1009 1126 0
1007 -1009 1126 0
-1015 -1017 -1129 0
1015 1017 -1129 0
-1015 1017 1129 0
1015 -1017 1129 0
-1019 -1021 -1130 0
1019 1021 -1130 0
-1019 1021 1130 0
1019 -1021 1130 0
-1023 -1025 -1132 0
1023 1025 -1132 0
-1023 1025 1132 0
1023 -1025 1132 0
-1029 -1031 -1135 0
1029 1031 -1135 0
-1029 1031 1135 0
1029 -1031 1135 0
-1033 -1035 -1136 0
1033 1035 -1136 0
-1033 1035 1136 0
1033 -1035 1136 0
-1037 -1039 -1138 0
1037 1039 -1138 0
-1037 1039 1138 0
1037 -1039 1138 0
-1041 -1043 -1140 0
1041 1043 -1140 0
-1041 1043 1140 0
1041 -1043 1140 0
-1045 -1047 -1142 0
1045 1047 -1142 0
-1045 1047 1142 0
1045 -1047 1142 0
-1049 -1051 -1144 0
1049 1051 -1144 0
-1049 1051 1144 0
1049 -1051 1144 0
-1053 -1055 -1146 0
1053 1055 -1146 0
-1053 1055 1146 0
1053 -1055 1146 0
-1059 -1061 -1149 0
1059 1061 -1149 0
-1059 1061 1149 0
1059 -1061 1149 0
-1065 -1067 -1151 0
1065 1067 -1151 0
-1065 1067 1151 0
1065 -1067 1151 0
-1069 -1071 -1152 0
1069 1071 -1152 0
-1069 1071 1152 0
1069 -1071 1152 0
-1073 -1075 -1154 0
1073 1075 -1154 0
-1073 1075 1154 0
1073 -1075 1154 0
-1077 -1079 -1156 0
1077 1079 -1156 0
-1077 1079 1156 0
1077 -1079 1156 0
-1081 -1083 -1158 0
1081 1083 -1158 0
-1081 1083 1158 0
1081 -1083 1158 0
-1085 -1087 -1160 0
1085 1087 -1160 0
-1085 1087 1160 0
1085 -1087 1160 0
-1089 -1091 -1162 0
1089 1091 -1162 0
-1089 1091 1162 0
1089 -1091 1162 0
-1093 -1095 -1164 0
1093 1095 -1164 0
-1093 1095 1164 0
1093 -1095 1164 0
-1097 -1099 -1166 0
1097 1099 -1166 0
-1097 1099 1166 0
1097 -1099 1166 0
-1101 -1103 -1168 0
1101 1103 -1168 0
-1101 1103 1168 0
1101 -1103 1168 0
-1105 -1107 -1170 0
1105 1107 -1170 0
-1105 1107 1170 0
1105 -1107 1170 0
-1109 -1111 -1172 0
1109 1111 -1172 0
-1109 1111 1172 0
1109 -1111 1172 0
-1113 -1115 -1174 0
1113 1115 -1174 0
-1113 1115 1174 0
1113 -1115 1174 0
-1117 -1119 -1176 0
1117 1119 -1176 0
-1117 1119 1176 0
1117 -1119 1176 0
-1121 -1122 -1178 0
1121 1122 -1178 0
-1121 1122 1178 0
1121 -1122 1178 0
-1120 -1123 -1180 0
1120 1123 -1180 0
-1120 1123 1180 0
1120 -1123 1180 0
-1125 -1126 -1181 0
1125 1126 -1181 0
-1125 1126 1181 0
1125 -1126 1181 0
-1127 -1128 -1183 0
1127 1128 -1183 0
-1127 1128 1183 0
1127 -1128 1183 0
-1129 -1130 -1185 0
1129 1130 -1185 0
-1129 1130 1185 0
1129 -1130 1185 0
-1132 -1134 -1187 0
1132 1134 -1187 0
-1132 1134 1187 0
1132 -1134 1187 0
-1135 -1136 -1189 0
1135 1136 -1189 0
-1135 1136 1189 0
1135 -1136 1189 0
-1138 -1140 -1191 0
1138 1140 -1191 0
-1138 1140 1191 0
1138 -1140 1191 0
-1142 -1144 -1193 0
1142 1144 -1193 0
-1142 1144 1193 0
1142 -1144 1193 0
-1146 -1148 -1195 0
1146 1148 -1195 0
-1146 1148 1195 0
1146 -1148 1195 0
-1149 -1150 -1197 0
1149 1150 -1197 0
-1149 1150 1197 0
1149 -1150 1197 0
-1151 -1152 -1199 0
1151 1152 -1199 0
-1151 1152 1199 0
1151 -1152 1199 0
-1154 -1156 -1201 0
1154 1156 -1201 0
-1154 1156 1201 0
1154 -1156 1201 0
-1158 -1160 -1203 0
1158 1160 -1203 0
-1158 1160 1203 0
1158 -1160 1203 0
-1162 -1164 -1205 0
1162 1164 -1205 0
-1162 1164 1205 0
1162 -1164 1205 0
-1166 -1168 -1207 0
1166 1168 -1207 0
-1166 1168 1207 0
1166 -1168 1207 0
-1170 -1172 -1209 0
1170 1172 -1209 0
-1170 1172 1209 0
1170 -1172 1209 0
-1174 -1176 -1211 0
1174 1176 -1211 0
-1174 1176 1211 0
1174 -1176 1211 0
-1178 -1180 -1213 0
1178 1180 -1213 0
-1178 1180 1213 0
1178 -1180 1213 0
-1124 -1181 -1215 0
1124 1181 -1215 0
-1124 1181 1215 0
1124 -1181 1215 0
-1183 -1185 -1217 0
1183 1185 -1217 0
-1183 1185 1217 0
1183 -1185 1217 0
-1187 -1189 -1219 0
1187 1189 -1219 0
-1187 1189 1219 0
1187 -1189 1219 0
-1191 -1193 -1221 0
1191 1193 -1221 0
-1191 1193 1221 0
1191 -1193 1221 0
-1195 -1197 -1223 0
1195 1197 -1223 0
-1195 1197 1223 0
1195 -1197 1223 0
-1199 -1201 -1225 0
1199 1201 -1225 0
-1199 1201 1225 0
1199 -1201 1225 0
-1203 -1205 -1227 0
1203 1205 -1227 0
-1203 1205 1227 0
1203 -1205 1227 0
-1207 -1209 -1229 0
1207 1209 -1229 0
-1207 1209 1229 0
1207 -1209 1229 0
-1211 -1213 -1231 0
1211 1213 -1231 0
-1211 1213 1231 0
1211 -1213 1231 0
-1215 -1217 -1233 0
1215 1217 -1233 0
-1215 1217 1233 0
1215 -1217 1233 0
-1219 -1221 -1235 0
1219 1221 -1235 0
-1219 1221 1235 0
1219 -1221 1235 0
-1223 -1225 -1237 0
1223 1225 -1237 0
-1223 1225 1237 0
1223 -1225 1237 0
-1227 -1229 -1239 0
1227 1229 -1239 0
-1227 1229 1239 0
1227 -1229 1239 0
-1231 -1233 -1241 0
1231 1233 -1241 0
-1231 1233 1241 0
1231 -1233 1241 0
-1235 -1237 -1243 0
1235 1237 -1243 0
-1235 1237 1243 0
1235 -1237 1243 0
-1239 -1241 -1243 0
1239 1241 -1243 0
-1239 1241 1243 0
1239 -1241 1243 0
-1131 -1133 -1249 0
1131 1133 -1249 0
-1131 1133 1249 0
1131 -1133 1249 0
-1137 -1139 -1251 0
1137 1139 -1251 0
-1137 1139 1251 0
1137 -1139 1251 0
-1141 -1143 -1253 0
1141 1143 -1253 0
-1141 1143 1253 0
1141 -1143 1253 0
-1145 -1147 -1255 0
1145 1147 -1255 0
-1145 1147 1255 0
1145 -1147 1255 0
-1153 -1155 -1258 0
1153 1155 -1258 0
-1153 1155 1258 0
1153 -1155 1258 0
-1157 -1159 -1259 0
1157 1159 -1259 0
-1157 1159 1259 0
1157 -1159 1259 0
-1161 -1163 -1261 0
1161 1163 -1261 0
-1161 1163 1261 0
1161 -1163 1261 0
-1165 -1167 -1263 0
1165 1167 -1263 0
-1165 1167 1263 0
1165 -1167 1263 0
-1169 -1171 -1265 0
1169 1171 -1265 0
-1169 1171 1265 0
1169 -1171 1265 0
-1173 -1175 -1267 0
1173 1175 -1267 0
-1173 1175 1267 0
1173 -1175 1267 0
-1177 -1179 -1269 0
1177 1179 -1269 0
-1177 1179 1269 0
1177 -1179 1269 0
-1182 -1184 -1272 0
1182 1184 -1272 0
-1182 1184 1272 0
1182 -1184 1272 0
-1186 -1188 -1273 0
1186 1188 -1273 0
-1186 1188 1273 0
1186 -1188 1273 0
-1190 -1192 -1275 0
1190 1192 -1275 0
-1190 1192 1275 0
1190 -1192 1275 0
-1194 -1196 -1277 0
1194 1196 -1277 0
-1194 1196 1277 0
1194 -1196 1277 0
-1198 -1200 -1279 0
1198 1200 -1279 0
-1198 1200 1279 0
1198 -1200 1279 0
-1202 -1204 -1281 0
1202 1204 -1281 0
-1202 1204 1281 0
1202 -1204 1281 0
-1206 -1208 -1283 0
1206 1208 -1283 0
-1206 1208 1283 0
1206 -1208 1283 0
-1210 -1212 -1285 0
1210 1212 -1285 0
-1210 1212 1285 0
1210 -1212 1285 0
-1214 -1216 -1287 0
1214 1216 -1287 0
-1214 1216 1287 0
1214 -1216 1287 0
-1218 -1220 -1289 0
1218 1220 -1289 0
-1218 1220 1289 0
1218 -1220 1289 0
-1222 -1224 -1291 0
1222 1224 -1291 0
-1222 1224 1291 0
1222 -1224 1291 0
-1226 -1228 -1293 0
1226 1228 -1293 0
-1226 1228 1293 0
1226 -1228 1293 0
-1230 -1232 -1295 0
1230 1232 -1295 0
-1230 1232 1295 0
1230 -1232 1295 0
-1234 -1236 -1297 0
1234 1236 -1297 0
-1234 1236 1297 0
1234 -1236 1297 0
-1238 -1240 -1299 0
1238 1240 -1299 0
-1238 1240 1299 0
1238 -1240 1299 0
-1242 -1244 -1301 0
1242 1244 -1301 0
-1242 1244 1301 0
1242 -1244 1301 0
-1243 -1245 -1303 0
1243 1245 -1303 0
1243 -1245 1303 0
-1243 1245 1303 0
-1247 -1248 -1305 0
1247 1248 -1305 0
-1247 1248 1305 0
1247 -1248 1305 0
-1249 -1250 -1306 0
1249 1250 -1306 0
-1249 1250 1306 0
1249 -1250 1306 0
-1251 -1253 -1308 0
1251 1253 -1308 0
-1251 1253 1308 0
1251 -1253 1308 0
-1255 -1256 -1310 0
1255 1256 -1310 0
-1255 1256 1310 0
1255 -1256 1310 0
-1257 -1258 -1312 0
1257 1258 -1312 0
-1257 1258 1312 0
1257 -1258 1312 0
-1259 -1261 -1314 0
1259 1261 -1314 0
-1259 1261 1314 0
1259 -1261 1314 0
-1263 -1265 -1316 0
1263 1265 -1316 0
-1263 1265 1316 0
1263 -1265 1316 0
-1267 -1269 -1318 0
1267 1269 -1318 0
-1267 1269 1318 0
1267 -1269 1318 0
-1271 -1272 -1320 0
1271 1272 -1320 0
-1271 1272 1320 0
1271 -1272 1320 0
-1273 -1275 -1322 0
1273 1275 -1322 0
-1273 1275 1322 0
1273 -1275 1322 0
-1277 -1279 -1324 0
1277 1279 -1324 0
-1277 1279 1324 0
1277 -1279 1324 0
-1281 -1283 -1326 0
1281 1283 -1326 0
-1281 1283 1326 0
1281 -1283 1326 0
-1285 -1287 -1328 0
1285 1287 -1328 0
-1285 1287 1328 0
1285 -1287 1328 0
-1289 -1291 -1330 0
1289 1291 -1330 0
-1289 1291 1330 0
1289 -1291 1330 0
-1293 -1295 -1332 0
1293 1295 -1332 0
-1293 1295 1332 0
1293 -1295 1332 0
-1297 -1299 -1334 0
1297 1299 -1334 0
-1297 1299 1334 0
1297 -1299 1334 0
-1301 -1303 -1336 0
1301 1303 -1336 0
-1301 1303 1336 0
1301 -1303 1336 0
-1246 -1305 -1338 0
1246 1305 -1338 0
-1246 1305 1338 0
1246 -1305 1338 0
-1306 -1308 -1340 0
1306 1308 -1340 0
-1306 1308 1340 0
1306 -1308 1340 0
-1310 -1312 -1342 0
1310 1312 -1342 0
-1310 1312 1342 0
1310 -1312 1342 0
-1314 -1316 -1344 0
1314 1316 -1344 0
-1314 1316 1344 0
1314 -1316 1344 0
-1318 -1320 -1346 0
1318 1320 -1346 0
-1318 1320 1346 0
1318 -1320 1346 0
-1322 -1324 -1348 0
1322 1324 -1348 0
-1322 1324 1348 0
1322 -1324 1348 0
-1326 -1328 -1350 0
1326 1328 -1350 0
-1326 1328 1350 0
1326 -1328 1350 0
-1330 -1332 -1352 0
1330 1332 -1352 0
-1330 1332 1352 0
1330 -1332 1352 0
-1334 -1336 -1354 0
1334 1336 -1354 0
-1334 1336 1354 0
1334 -1336 1354 0
-1338 -1340 -1356 0
1338 1340 -1356 0
-1338 1340 1356 0
1338 -1340 1356 0
-1342 -1344 -1358 0
1342 1344 -1358 0
-1342 1344 1358 0
1342 -1344 1358 0
-1346 -1348 -1360 0
1346 1348 -1360 0
-1346 1348 1360 0
1346 -1348 1360 0
-1350 -1352 -1362 0
1350 1352 -1362 0
-1350 1352 1362 0
1350 -1352 1362 0
-1354 -1356 -1364 0
1354 1356 -1364 0
-1354 1356 1364 0
1354 -1356 1364 0
-1358 -1360 -1366 0
1358 1360 -1366 0
-1358 1360 1366 0
1358 -1360 1366 0
-1362 -1364 1366 0
1362 1364 1366 0
-1362 1364 -1366 0
1362 -1364 -1366 0
-1252 -1254 -1369 0
1252 1254 -1369 0
-1252 1254 1369 0
1252 -1254 1369 0
-1260 -1262 -1372 0
1260 1262 -1372 0
-1260 1262 1372 0
1260 -1262 1372 0
-1264 -1266 -1374 0
1264 1266 -1374 0
-1264 1266 1374 0
1264 -1266 1374 0
-1268 -1270 -1376 0
1268 1270 -1376 0
-1268 1270 1376 0
1268 -1270 1376 0
-1274 -1276 -1378 0
1274 1276 -1378 0
-1274 1276 1378 0
1274 -1276 1378 0
-1278 -1280 -1380 0
1278 1280 -1380 0
-1278 1280 1380 0
1278 -1280 1380 0
-1282 -1284 -1382 0
1282 1284 -1382 0
-1282 1284 1382 0
1282 -1284 1382 0
-1286 -1288 -1384 0
1286 1288 -1384 0
-1286 1288 1384 0
1286 -1288 1384 0
-1290 -1292 -1386 0
1290 1292 -1386 0
-1290 1292 1386 0
1290 -1292 1386 0
-1294 -1296 -1388 0
1294 1296 -1388 0
-1294 1296 1388 0
1294 -1296 1388 0
-1298 -1300 -1390 0
1298 1300 -1390 0
-1298 1300 1390 0
1298 -1300 1390 0
-1302 -1304 -1392 0
1302 1304 -1392 0
-1302 1304 1392 0
1302 -1304 1392 0
-1307 -1309 -1395 0
1307 1309 -1395 0
-1307 1309 1395 0
1307 -1309 1395 0
-1311 -1313 -1396 0
1311 1313 -1396 0
-1311 1313 1396 0
1311 -1313 1396 0
-1315 -1317 -1398 0
1315 1317 -1398 0
-1315 1317 1398 0
1315 -1317 1398 0
-1319 -1321 -1400 0
1319 1321 -1400 0
-1319 1321 1400 0
1319 -1321 1400 0
-1323 -1325 -1402 0
1323 1325 -1402 0
-1323 1325 1402 0
1323 -1325 1402 0
-1327 -1329 -1404 0
1327 1329 -1404 0
-1327 1329 1404 0
1327 -1329 1404 0
-1331 -1333 -1406 0
1331 1333 -1406 0
-1331 1333 1406 0
1331 -1333 1406 0
-1335 -1337 -1408 0
1335 1337 -1408 0
-1335 1337 1408 0
1335 -1337 1408 0
-1339 -1341 -1410 0
1339 1341 -1410 0
-1339 1341 1410 0
1339 -1341 1410 0
-1343 -1345 -1412 0
1343 1345 -1412 0
-1343 1345 1412 0
1343 -1345 1412 0
-1347 -1349 -1414 0
1347 1349 -1414 0
-1347 1349 1414 0
1347 -1349 1414 0
-1351 -1353 -1416 0
1351 1353 -1416 0
-1351 1353 1416 0
1351 -1353 1416 0
-1355 -1357 -1418 0
1355 1357 -1418 0
-1355 1357 1418 0
1355 -1357 1418 0
-1359 -1361 -1420 0
1359 1361 -1420 0
-1359 1361 1420 0
1359 -1361 1420 0
-1363 -1365 -1422 0
1363 1365 -1422 0
-1363 1365 1422 0
1363 -1365 1422 0
-1367 -1368 -1424 0
1367 1368 -1424 0
-1367 1368 1424 0
1367 -1368 1424 0
-1369 -1370 -1425 0
1369 1370 -1425 0
-1369 1370 1425 0
1369 -1370 1425 0
-1371 -1372 -1426 0
1371 1372 -1426 0
-1371 1372 1426 0
1371 -1372 1426 0
-1374 -1376 -1428 0
1374 1376 -1428 0
-1374 1376 1428 0
1374 -1376 1428 0
-1377 -1378 -1430 0
1377 1378 -1430 0
-1377 1378 1430 0
1377 -1378 1430 0
-1380 -1382 -1432 0
1380 1382 -1432 0
-1380 1382 1432 0
1380 -1382 1432 0
-1384 -1386 -1434 0
1384 1386 -1434 0
-1384 1386 1434 0
1384 -1386 1434 0
-1388 -1390 -1436 0
1388 1390 -1436 0
-1388 1390 1436 0
1388 -1390 1436 0
-1392 -1394 -1438 0
1392 1394 -1438 0
-1392 1394 1438 0
1392 -1394 1438 0
-1395 -1396 -1440 0
1395 1396 -1440 0
-1395 1396 1440 0
1395 -1396 1440 0
-1398 -1400 -1442 0
1398 1400 -1442 0
-1398 1400 1442 0
1398 -1400 1442 0
-1402 -1404 -1444 0
1402 1404 -1444 0
-1402 1404 1444 0
1402 -1404 1444 0
-1406 -1408 -1446 0
1406 1408 -1446 0
-1406 1408 1446 0
1406 -1408 1446 0
-1410 -1412 -1448 0
1410 1412 -1448 0
-1410 1412 1448 0
1410 -1412 1448 0
-1414 -1416 -1450 0
1414 1416 -1450 0
-1414 1416 1450 0
1414 -1416 1450 0
-1418 -1420 -1452 0
1418 1420 -1452 0
-1418 1420 1452 0
1418 -1420 1452 0
-1422 -1424 -1454 0
1422 1424 -1454 0
-1422 1424 1454 0
1422 -1424 1454 0
-1425 -1426 -1456 0
1425 1426 -1456 0
-1425 1426 1456 0
1425 -1426 1456 0
-1428 -1430 -1458 0
1428 1430 -1458 0
-1428 1430 1458 0
1428 -1430 1458 0
-1432 -1434 -1460 0
1432 1434 -1460 0
-1432 1434 1460 0
1432 -1434 1460 0
-1436 -1438 -1462 0
1436 1438 -1462 0
-1436 1438 1462 0
1436 -1438 1462 0
-1440 -1442 -1464 0
1440 1442 -1464 0
-1440 1442 1464 0
1440 -1442 1464 0
-1444 -1446 -1466 0
1444 1446 -1466 0
-1444 1446 1466 0
1444 -1446 1466 0
-1448 -1450 -1468 0
1448 1450 -1468 0
-1448 1450 1468 0
1448 -1450 1468 0
-1452 -1454 -1470 0
1452 1454 -1470 0
-1452 1454 1470 0
1452 -1454 1470 0
-1455 -1456 -1472 0
1455 1456 -1472 0
-1455 1456 1472 0
1455 -1456 1472 0
-1458 -1460 -1474 0
1458 1460 -1474 0
-1458 1460 1474 0
1458 -1460 1474 0
-1462 -1464 -1476 0
1462 1464 -1476 0
-1462 1464 1476 0
1462 -1464 1476 0
-1466 -1468 -1478 0
1466 1468 -1478 0
-1466 1468 1478 0
1466 -1468 1478 0
-1470 -1472 -1480 0
1470 1472 -1480 0
-1470 1472 1480 0
1470 -1472 1480 0
-1474 -1476 -1482 0
1474 1476 -1482 0
-1474 1476 1482 0
1474 -1476 1482 0
-1478 -1480 -1482 0
1478 1480 -1482 0
-1478 1480 1482 0
1478 -1480 1482 0
-1373 -1375 -1537 0
1373 1375 -1537 0
-1373 1375 1537 0
1373 -1375 1537 0
-1379 -1381 -1486 0
1379 1381 -1486 0
-1379 1381 1486 0
1379 -1381 1486 0
-1383 -1385 -1487 0
1383 1385 -1487 0
-1383 1385 1487 0
1383 -1385 1487 0
-1387 -1389 -1489 0
1387 1389 -1489 0
-1387 1389 1489 0
1387 -1389 1489 0
-1391 -1393 -1491 0
1391 1393 -1491 0
-1391 1393 1491 0
1391 -1393 1491 0
-1397 -1399 -1493 0
1397 1399 -1493 0
-1397 1399 1493 0
1397 -1399 1493 0
-1401 -1403 -1495 0
1401 1403 -1495 0
-1401 1403 1495 0
1401 -1403 1495 0
-1405 -1407 -1497 0
1405 1407 -1497 0
-1405 1407 1497 0
1405 -1407 1497 0
-1409 -1411 -1499 0
1409 1411 -1499 0
-1409 1411 1499 0
1409 -1411 1499 0
-1413 -1415 -1501 0
1413 1415 -1501 0
-1413 1415 1501 0
1413 -1415 1501 0
-1417 -1419 -1503 0
1417 1419 -1503 0
-1417 1419 1503 0
1417 -1419 1503 0
-1421 -1423 -1505 0
1421 1423 -1505 0
-1421 1423 1505 0
1421 -1423 1505 0
-1427 -1429 -1508 0
1427 1429 -1508 0
-1427 1429 1508 0
1427 -1429 1508 0
-1431 -1433 -1509 0
1431 1433 -1509 0
-1431 1433 1509 0
1431 -1433 1509 0
-1435 -1437 -1511 0
1435 1437 -1511 0
-1435 1437 1511 0
1435 -1437 1511 0
-1439 -1441 -1513 0
1439 1441 -1513 0
-1439 1441 1513 0
1439 -1441 1513 0
-1443 -1445 -1515 0
1443 1445 -1515 0
-1443 1445 1515 0
1443 -1445 1515 0
-1447 -1449 -1517 0
1447 1449 -1517 0
-1447 1449 1517 0
1447 -1449 1517 0
-1451 -1453 -1519 0
1451 1453 -1519 0
-1451 1453 1519 0
1451 -1453 1519 0
-1457 -1459 -1522 0
1457 1459 -1522 0
-1457 1459 1522 0
1457 -1459 1522 0
-1461 -1463 -1523 0
1461 1463 -1523 0
-1461 1463 1523 0
1461 -1463 1523 0
-1465 -1467 -1525 0
1465 1467 -1525 0
-1465 1467 1525 0
1465 -1467 1525 0
-1469 -1471 -1527 0
1469 1471 -1527 0
-1469 1471 1527 0
1469 -1471 1527 0
-1473 -1475 -1529 0
1473 1475 -1529 0
-1473 1475 1529 0
1473 -1475 1529 0
-1477 -1479 -1531 0
1477 1479 -1531 0
-1477 1479 1531 0
1477 -1479 1531 0
-1481 -1483 -1533 0
1481 1483 -1533 0
-1481 1483 1533 0
1481 -1483 1533 0
-1482 -1484 -1535 0
1482 1484 -1535 0
1482 -1484 1535 0
-1482 1484 1535 0
-1485 -1486 -1538 0
1485 1486 -1538 0
-1485 1486 1538 0
1485 -1486 1538 0
-1487 -1489 -1539 0
1487 1489 -1539 0
-1487 1489 1539 0
1487 -1489 1539 0
-1491 -1492 -1541 0
1491 1492 -1541 0
-1491 1492 1541 0
1491 -1492 1541 0
-1493 -1495 -1543 0
1493 1495 -1543 0
-1493 1495 1543 0
1493 -1495 1543 0
-1497 -1499 -1545 0
1497 1499 -1545 0
-1497 1499 1545 0
1497 -1499 1545 0
-1501 -1503 -1547 0
1501 1503 -1547 0
-1501 1503 1547 0
1501 -1503 1547 0
-1505 -1506 -1549 0
1505 1506 -1549 0
-1505 1506 1549 0
1505 -1506 1549 0
-1507 -1508 -1551 0
1507 1508 -1551 0
-1507 1508 1551 0
1507 -1508 1551 0
-1509 -1511 -1553 0
1509 1511 -1553 0
-1509 1511 1553 0
1509 -1511 1553 0
-1513 -1515 -1555 0
1513 1515 -1555 0
-1513 1515 1555 0
1513 -1515 1555 0
-1517 -1519 -1557 0
1517 1519 -1557 0
-1517 1519 1557 0
1517 -1519 1557 0
-1521 -1522 -1559 0
1521 1522 -1559 0
-1521 1522 1559 0
1521 -1522 1559 0
-1523 -1525 -1561 0
1523 1525 -1561 0
-1523 1525 1561 0
1523 -1525 1561 0
-1527 -1529 -1563 0
1527 1529 -1563 0
-1527 1529 1563 0
1527 -1529 1563 0
-1531 -1533 -1565 0
1531 1533 -1565 0
-1531 1533 1565 0
1531 -1533 1565 0
-1535 -1536 -1567 0
1535 1536 -1567 0
-1535 1536 1567 0
1535 -1536 1567 0
-1537 -1538 -1569 0
1537 1538 -1569 0
-1537 1538 1569 0
1537 -1538 1569 0
-1539 -1541 -1571 0
1539 1541 -1571 0
-1539 1541 1571 0
1539 -1541 1571 0
-1543 -1545 -1573 0
1543 1545 -1573 0
-1543 1545 1573 0
1543 -1545 1573 0
-1547 -1549 -1575 0
1547 1549 -1575 0
-1547 1549 1575 0
1547 -1549 1575 0
-1551 -1553 -1577 0
1551 1553 -1577 0
-1551 1553 1577 0
1551 -1553 1577 0
-1555 -1557 -1579 0
1555 1557 -1579 0
-1555 1557 1579 0
1555 -1557 1579 0
-1559 -1561 -1581 0
1559 1561 -1581 0
-1559 1561 1581 0
1559 -1561 1581 0
-1563 -1565 -1583 0
1563 1565 -1583 0
-1563 1565 1583 0
1563 -1565 1583 0
-1567 -1569 -1585 0
1567 1569 -1585 0
-1567 1569 1585 0
1567 -1569 1585 0
-1571 -1573 -1587 0
1571 1573 -1587 0
-1571 1573 1587 0
1571 -1573 1587 0
-1575 -1577 -1589 0
1575 1577 -1589 0
-1575 1577 1589 0
1575 -1577 1589 0
-1579 -1581 -1591 0
1579 1581 -1591 0
-1579 1581 1591 0
1579 -1581 1591 0
-1583 -1585 -1593 0
1583 1585 -1593 0
-1583 1585 1593 0
1583 -1585 1593 0
-1587 -1589 -1595 0
1587 1589 -1595 0
-1587 1589 1595 0
1587 -1589 1595 0
-1591 -1593 -1595 0
1591 1593 -1595 0
-1591 1593 1595 0
1591 -1593 1595 0
-1488 -1490 -1600 0
1488 1490 -1600 0
-1488 1490 1600 0
1488 -1490 1600 0
-1494 -1496 -1602 0
1494 1496 -1602 0
-1494 1496 1602 0
1494 -1496 1602 0
-1498 -1500 -1603 0
1498 1500 -1603 0
-1498 1500 1603 0
1498 -1500 1603 0
-1502 -1504 -1605 0
1502 1504 -1605 0
-1502 1504 1605 0
1502 -1504 1605 0
-1510 -1512 -1609 0
1510 1512 -1609 0
-1510 1512 1609 0
1510 -1512 1609 0
-1514 -1516 -1611 0
1514 1516 -1611 0
-1514 1516 1611 0
1514 -1516 1611 0
-1518 -1520 -1613 0
1518 1520 -1613 0
-1518 1520 1613 0
1518 -1520 1613 0
-1524 -1526 -1615 0
1524 1526 -1615 0
-1524 1526 1615 0
1524 -1526 1615 0
-1528 -1530 -1617 0
1528 1530 -1617 0
-1528 1530 1617 0
1528 -1530 1617 0
-1532 -1534 -1619 0
1532 1534 -1619 0
-1532 1534 1619 0
1532 -1534 1619 0
-1540 -1542 -1622 0
1540 1542 -1622 0
-1540 1542 1622 0
1540 -1542 1622 0
-1544 -1546 -1623 0
1544 1546 -1623 0
-1544 1546 1623 0
1544 -1546 1623 0
-1548 -1550 -1625 0
1548 1550 -1625 0
-1548 1550 1625 0
1548 -1550 1625 0
-1552 -1554 -1627 0
1552 1554 -1627 0
-1552 1554 1627 0
1552 -1554 1627 0
-1556 -1558 -1629 0
1556 1558 -1629 0
-1556 1558 1629 0
1556 -1558 1629 0
-1560 -1562 -1631 0
1560 1562 -1631 0
-1560 1562 1631 0
1560 -1562 1631 0
-1564 -1566 -1633 0
1564 1566 -1633 0
-1564 1566 1633 0
1564 -1566 1633 0
-1568 -1570 -1635 0
1568 1570 -1635 0
-1568 1570 1635 0
1568 -1570 1635 0
-1572 -1574 -1637 0
1572 1574 -1637 0
-1572 1574 1637 0
1572 -1574 1637 0
-1576 -1578 -1639 0
1576 1578 -1639 0
-1576 1578 1639 0
1576 -1578 1639 0
-1580 -1582 -1641 0
1580 1582 -1641 0
-1580 1582 1641 0
1580 -1582 1641 0
-1584 -1586 -1643 0
1584 1586 -1643 0
-1584 1586 1643 0
1584 -1586 1643 0
-1588 -1590 -1645 0
1588 1590 -1645 0
-1588 1590 1645 0
1588 -1590 1645 0
-1592 -1594 -1647 0
1592 1594 -1647 0
-1592 1594 1647 0
1592 -1594 1647 0
-1596 -1597 -1649 0
1596 1597 -1649 0
-1596 1597 1649 0
1596 -1597 1649 0
-1598 -1599 -1651 0
1598 1599 -1651 0
-1598 1599 1651 0
1598 -1599 1651 0
-1600 -1601 -1652 0
1600 1601 -1652 0
-1600 1601 1652 0
1600 -1601 1652 0
-1602 -1603 -1654 0
1602 1603 -1654 0
-1602 1603 1654 0
1602 -1603 1654 0
-1605 -1607 -1656 0
1605 1607 -1656 0
-1605 1607 1656 0
1605 -1607 1656 0
-1608 -1609 -1658 0
1608 1609 -1658 0
-1608 1609 1658 0
1608 -1609 1658 0
-1611 -1613 -1660 0
1611 1613 -1660 0
-1611 1613 1660 0
1611 -1613 1660 0
-1614 -1615 -1662 0
1614 1615 -1662 0
-1614 1615 1662 0
1614 -1615 1662 0
-1617 -1619 -1664 0
1617 1619 -1664 0
-1617 1619 1664 0
1617 -1619 1664 0
-1620 -1621 -1666 0
1620 1621 -1666 0
-1620 1621 1666 0
1620 -1621 1666 0
-1622 -1623 -1668 0
1622 1623 -1668 0
-1622 1623 1668 0
1622 -1623 1668 0
-1625 -1627 -1670 0
1625 1627 -1670 0
-1625 1627 1670 0
1625 -1627 1670 0
-1629 -1631 -1672 0
1629 1631 -1672 0
-1629 1631 1672 0
1629 -1631 1672 0
-1633 -1635 -1674 0
1633 1635 -1674 0
-1633 1635 1674 0
1633 -1635 1674 0
-1637 -1639 -1676 0
1637 1639 -1676 0
-1637 1639 1676 0
1637 -1639 1676 0
-1641 -1643 -1678 0
1641 1643 -1678 0
-1641 1643 1678 0
1641 -1643 1678 0
-1645 -1647 -1680 0
1645 1647 -1680 0
-1645 1647 1680 0
1645 -1647 1680 0
-1595 -1649 -1682 0
1595 1649 -1682 0
1595 -1649 1682 0
-1595 1649 1682 0
-1651 -1652 -1684 0
1651 1652 -1684 0
-1651 1652 1684 0
1651 -1652 1684 0
-1654 -1656 -1686 0
1654 1656 -1686 0
-1654 1656 1686 0
1654 -1656 1686 0
-1658 -1660 -1688 0
1658 1660 -1688 0
-1658 1660 1688 0
1658 -1660 1688 0
-1662 -1664 -1690 0
1662 1664 -1690 0
-1662 1664 1690 0
1662 -1664 1690 0
-1666 -1668 -1692 0
1666 1668 -1692 0
-1666 1668 1692 0
1666 -1668 1692 0
-1670 -1672 -1694 0
1670 1672 -1694 0
-1670 1672 1694 0
1670 -1672 1694 0
-1674 -1676 -1696 0
1674 1676 -1696 0
-1674 1676 1696 0
1674 -1676 1696 0
-1678 -1680 -1698 0
1678 1680 -1698 0
-1678 1680 1698 0
1678 -1680 1698 0
-1682 -1684 -1700 0
1682 1684 -1700 0
-1682 1684 1700 0
1682 -1684 1700 0
-1686 -1688 -1702 0
1686 1688 -1702 0
-1686 1688 1702 0
1686 -1688 1702 0
-1690 -1692 -1704 0
1690 1692 -1704 0
-1690 1692 1704 0
1690 -1692 1704 0
-1694 -1696 -1706 0
1694 1696 -1706 0
-1694 1696 1706 0
1694 -1696 1706 0
-1698 -1700 -1708 0
1698 1700 -1708 0
-1698 1700 1708 0
1698 -1700 1708 0
-1702 -1704 -1710 0
1702 1704 -1710 0
-1702 1704 1710 0
1702 -1704 1710 0
-1706 -1708 -1710 0
1706 1708 -1710 0
-1706 1708 1710 0
1706 -1708 1710 0
-1604 -1606 -1714 0
1604 1606 -1714 0
-1604 1606 1714 0
1604 -1606 1714 0
-1610 -1612 -1767 0
1610 1612 -1767 0
-1610 1612 1767 0
1610 -1612 1767 0
-1616 -1618 -1716 0
1616 1618 -1716 0
-1616 1618 1716 0
1616 -1618 1716 0
-1624 -1626 -1719 0
1624 1626 -1719 0
-1624 1626 1719 0
1624 -1626 1719 0
-1628 -1630 -1721 0
1628 1630 -1721 0
-1628 1630 1721 0
1628 -1630 1721 0
-1632 -1634 -1723 0
1632 1634 -1723 0
-1632 1634 1723 0
1632 -1634 1723 0
-1636 -1638 -1725 0
1636 1638 -1725 0
-1636 1638 1725 0
1636 -1638 1725 0
-1640 -1642 -1727 0
1640 1642 -1727 0
-1640 1642 1727 0
1640 -1642 1727 0
-1644 -1646 -1729 0
1644 1646 -1729 0
-1644 1646 1729 0
1644 -1646 1729 0
-1648 -1650 -1731 0
1648 1650 -1731 0
-1648 1650 1731 0
1648 -1650 1731 0
-1653 -1655 -1733 0
1653 1655 -1733 0
-1653 1655 1733 0
1653 -1655 1733 0
-1657 -1659 -1735 0
1657 1659 -1735 0
-1657 1659 1735 0
1657 -1659 1735 0
-1661 -1663 -1737 0
1661 1663 -1737 0
-1661 1663 1737 0
1661 -1663 1737 0
-1665 -1667 -1739 0
1665 1667 -1739 0
-1665 1667 1739 0
1665 -1667 1739 0
-1669 -1671 -1741 0
1669 1671 -1741 0
-1669 1671 1741 0
1669 -1671 1741 0
-1673 -1675 -1743 0
1673 1675 -1743 0
-1673 1675 1743 0
1673 -1675 1743 0
-1677 -1679 -1745 0
1677 1679 -1745 0
-1677 1679 1745 0
1677 -1679 1745 0
-1681 -1683 -1747 0
1681 1683 -1747 0
-1681 1683 1747 0
1681 -1683 1747 0
-1685 -1687 -1749 0
1685 1687 -1749 0
-1685 1687 1749 0
1685 -1687 1749 0
-1689 -1691 -1751 0
1689 1691 -1751 0
-1689 1691 1751 0
1689 -1691 1751 0
-1693 -1695 -1753 0
1693 1695 -1753 0
-1693 1695 1753 0
1693 -1695 1753 0
-1697 -1699 -1755 0
1697 1699 -1755 0
-1697 1699 1755 0
1697 -1699 1755 0
-1701 -1703 -1757 0
1701 1703 -1757 0
-1701 1703 1757 0
1701 -1703 1757 0
-1705 -1707 -1759 0
1705 1707 -1759 0
-1705 1707 1759 0
1705 -1707 1759 0
-1709 -1711 -1761 0
1709 1711 -1761 0
-1709 1711 1761 0
1709 -1711 1761 0
-1710 -1712 -1763 0
1710 1712 -1763 0
1710 -1712 1763 0
-1710 1712 1763 0
-1713 -1714 -1766 0
1713 1714 -1766 0
-1713 1714 1766 0
1713 -1714 1766 0
-1715 -1716 -1768 0
1715 1716 -1768 0
-1715 1716 1768 0
1715 -1716 1768 0
-1717 -1718 -1769 0
1717 1718 -1769 0
-1717 1718 1769 0
1717 -1718 1769 0
-1719 -1721 -1771 0
1719 1721 -1771 0
-1719 1721 1771 0
1719 -1721 1771 0
-1723 -1725 -1773 0
1723 1725 -1773 0
-1723 1725 1773 0
1723 -1725 1773 0
-1727 -1729 -1775 0
1727 1729 -1775 0
-1727 1729 1775 0
1727 -1729 1775 0
-1731 -1732 -1777 0
1731 1732 -1777 0
-1731 1732 1777 0
1731 -1732 1777 0
-1733 -1735 -1779 0
1733 1735 -1779 0
-1733 1735 1779 0
1733 -1735 1779 0
-1737 -1739 -1781 0
1737 1739 -1781 0
-1737 1739 1781 0
1737 -1739 1781 0
-1741 -1743 -1783 0
1741 1743 -1783 0
-1741 1743 1783 0
1741 -1743 1783 0
-1745 -1747 -1785 0
1745 1747 -1785 0
-1745 1747 1785 0
1745 -1747 1785 0
-1749 -1751 -1787 0
1749 1751 -1787 0
-1749 1751 1787 0
1749 -1751 1787 0
-1753 -1755 -1789 0
1753 1755 -1789 0
-1753 1755 1789 0
1753 -1755 1789 0
-1757 -1759 -1791 0
1757 1759 -1791 0
-1757 1759 1791 0
1757 -1759 1791 0
-1761 -1763 -1793 0
1761 1763 -1793 0
-1761 1763 1793 0
1761 -1763 1793 0
-1765 -1766 -1795 0
1765 1766 -1795 0
-1765 1766 1795 0
1765 -1766 1795 0
-1767 -1768 -1797 0
1767 1768 -1797 0
-1767 1768 1797 0
1767 -1768 1797 0
-1769 -1771 -1799 0
1769 1771 -1799 0
-1769 1771 1799 0
1769 -1771 1799 0
-1773 -1775 -1801 0
1773 1775 -1801 0
-1773 1775 1801 0
1773 -1775 1801 0
-1777 -1779 -1803 0
1777 1779 -1803 0
-1777 1779 1803 0
1777 -1779 1803 0
-1781 -1783 -1805 0
1781 1783 -1805 0
-1781 1783 1805 0
1781 -1783 1805 0
-1785 -1787 -1807 0
1785 1787 -1807 0
-1785 1787 1807 0
1785 -1787 1807 0
-1789 -1791 -1809 0
1789 1791 -1809 0
-1789 1791 1809 0
1789 -1791 1809 0
-1793 -1795 -1811 0
1793 1795 -1811 0
-1793 1795 1811 0
1793 -1795 1811 0
-1797 -1799 -1813 0
1797 1799 -1813 0
-1797 1799 1813 0
1797 -1799 1813 0
-1801 -1803 -1815 0
1801 1803 -1815 0
-1801 1803 1815 0
1801 -1803 1815 0
-1805 -1807 -1817 0
1805 1807 -1817 0
-1805 1807 1817 0
1805 -1807 1817 0
-1809 -1811 -1819 0
1809 1811 -1819 0
-1809 1811 1819 0
1809 -1811 1819 0
-1813 -1815 -1821 0
1813 1815 -1821 0
-1813 1815 1821 0
1813 -1815 1821 0
-1817 -1819 -1821 0
1817 1819 -1821 0
-1817 1819 1821 0
1817 -1819 1821 0
-1720 -1722 -1827 0
1720 1722 -1827 0
-1720 1722 1827 0
1720 -1722 1827 0
-1724 -1726 -1828 0
1724 1726 -1828 0
-1724 1726 1828 0
1724 -1726 1828 0
-1728 -1730 -1830 0
1728 1730 -1830 0
-1728 1730 1830 0
1728 -1730 1830 0
-1734 -1736 -1833 0
1734 1736 -1833 0
-1734 1736 1833 0
1734 -1736 1833 0
-1738 -1740 -1834 0
1738 1740 -1834 0
-1738 1740 1834 0
1738 -1740 1834 0
-1742 -1744 -1836 0
1742 1744 -1836 0
-1742 1744 1836 0
1742 -1744 1836 0
-1746 -1748 -1838 0
1746 1748 -1838 0
-1746 1748 1838 0
1746 -1748 1838 0
-1750 -1752 -1840 0
1750 1752 -1840 0
-1750 1752 1840 0
1750 -1752 1840 0
-1754 -1756 -1842 0
1754 1756 -1842 0
-1754 1756 1842 0
1754 -1756 1842 0
-1758 -1760 -1844 0
1758 1760 -1844 0
-1758 1760 1844 0
1758 -1760 1844 0
-1762 -1764 -1846 0
1762 1764 -1846 0
-1762 1764 1846 0
1762 -1764 1846 0
-1770 -1772 -1849 0
1770 1772 -1849 0
-1770 1772 1849 0
1770 -1772 1849 0
-1774 -1776 -1850 0
1774 1776 -1850 0
-1774 1776 1850 0
1774 -1776 1850 0
-1778 -1780 -1852 0
1778 1780 -1852 0
-1778 1780 1852 0
1778 -1780 1852 0
-1782 -1784 -1854 0
1782 1784 -1854 0
-1782 1784 1854 0
1782 -1784 1854 0
-1786 -1788 -1856 0
1786 1788 -1856 0
-1786 1788 1856 0
1786 -1788 1856 0
-1790 -1792 -1858 0
1790 1792 -1858 0
-1790 1792 1858 0
1790 -1792 1858 0
-1794 -1796 -1860 0
1794 1796 -1860 0
-1794 1796 1860 0
1794 -1796 1860 0
-1798 -1800 -1862 0
1798 1800 -1862 0
-1798 1800 1862 0
1798 -1800 1862 0
-1802 -1804 -1864 0
1802 1804 -1864 0
-1802 1804 1864 0
1802 -1804 1864 0
-1806 -1808 -1866 0
1806 1808 -1866 0
-1806 1808 1866 0
1806 -1808 1866 0
-1810 -1812 -1868 0
1810 1812 -1868 0
-1810 1812 1868 0
1810 -1812 1868 0
-1814 -1816 -1870 0
1814 1816 -1870 0
-1814 1816 1870 0
1814 -1816 1870 0
-1818 -1820 -1872 0
1818 1820 -1872 0
-1818 1820 1872 0
1818 -1820 1872 0
-1822 -1823 -1874 0
1822 1823 -1874 0
-1822 1823 1874 0
1822 -1823 1874 0
-1824 -1825 -1875 0
1824 1825 -1875 0
-1824 1825 1875 0
1824 -1825 1875 0
-1827 -1828 -1876 0
1827 1828 -1876 0
-1827 1828 1876 0
1827 -1828 1876 0
-1830 -1832 -1878 0
1830 1832 -1878 0
-1830 1832 1878 0
1830 -1832 1878 0
-1833 -1834 -1880 0
1833 1834 -1880 0
-1833 1834 1880 0
1833 -1834 1880 0
-1836 -1838 -1882 0
1836 1838 -1882 0
-1836 1838 1882 0
1836 -1838 1882 0
-1840 -1842 -1884 0
1840 1842 -1884 0
-1840 1842 1884 0
1840 -1842 1884 0
-1844 -1846 -1886 0
1844 1846 -1886 0
-1844 1846 1886 0
1844 -1846 1886 0
-1847 -1848 -1888 0
1847 1848 -1888 0
-1847 1848 1888 0
1847 -1848 1888 0
-1849 -1850 -1890 0
1849 1850 -1890 0
-1849 1850 1890 0
1849 -1850 1890 0
-1852 -1854 -1892 0
1852 1854 -1892 0
-1852 1854 1892 0
1852 -1854 1892 0
-1856 -1858 -1894 0
1856 1858 -1894 0
-1856 1858 1894 0
1856 -1858 1894 0
-1860 -1862 -1896 0
1860 1862 -1896 0
-1860 1862 1896 0
1860 -1862 1896 0
-1864 -1866 -1898 0
1864 1866 -1898 0
-1864 1866 1898 0
1864 -1866 1898 0
-1868 -1870 -1900 0
1868 1870 -1900 0
-1868 1870 1900 0
1868 -1870 1900 0
-1872 -1874 -1902 0
1872 1874 -1902 0
-1872 1874 1902 0
1872 -1874 1902 0
-1821 -1875 -1904 0
1821 1875 -1904 0
-1821 1875 1904 0
1821 -1875 1904 0
-1826 -1876 -1906 0
1826 1876 -1906 0
-1826 1876 1906 0
1826 -1876 1906 0
-1878 -1880 -1908 0
1878 1880 -1908 0
-1878 1880 1908 0
1878 -1880 1908 0
-1882 -1884 -1910 0
1882 1884 -1910 0
-1882 1884 1910 0
1882 -1884 1910 0
-1886 -1888 -1912 0
1886 1888 -1912 0
-1886 1888 1912 0
1886 -1888 1912 0
-1890 -1892 -1914 0
1890 1892 -1914 0
-1890 1892 1914 0
1890 -1892 1914 0
-1894 -1896 -1916 0
1894 1896 -1916 0
-1894 1896 1916 0
1894 -1896 1916 0
-1898 -1900 -1918 0
1898 1900 -1918 0
-1898 1900 1918 0
1898 -1900 1918 0
-1902 -1904 -1920 0
1902 1904 -1920 0
-1902 1904 1920 0
1902 -1904 1920 0
-1906 -1908 -1922 0
1906 1908 -1922 0
-1906 1908 1922 0
1906 -1908 1922 0
-1910 -1912 -1924 0
1910 1912 -1924 0
-1910 1912 1924 0
1910 -1912 1924 0
-1914 -1916 -1926 0
1914 1916 -1926 0
-1914 1916 1926 0
1914 -1916 1926 0
-1918 -1920 -1928 0
1918 1920 -1928 0
-1918 1920 1928 0
1918 -1920 1928 0
-1922 -1924 -1930 0
1922 1924 -1930 0
-1922 1924 1930 0
1922 -1924 1930 0
-1926 -1928 -1930 0
1926 1928 -1930 0
-1926 1928 1930 0
1926 -1928 1930 0
-1829 -1831 -1934 0
1829 1831 -1934 0
-1829 1831 1934 0
1829 -1831 1934 0
-1835 -1837 -1936 0
1835 1837 -1936 0
-1835 1837 1936 0
1835 -1837 1936 0
-1839 -1841 -1937 0
1839 1841 -1937 0
-1839 1841 1937 0
1839 -1841 1937 0
-1843 -1845 -1939 0
1843 1845 -1939 0
-1843 1845 1939 0
1843 -1845 1939 0
-1851 -1853 -1943 0
1851 1853 -1943 0
-1851 1853 1943 0
1851 -1853 1943 0
-1855 -1857 -1945 0
1855 1857 -1945 0
-1855 1857 1945 0
1855 -1857 1945 0
-1859 -1861 -1947 0
1859 1861 -1947 0
-1859 1861 1947 0
1859 -1861 1947 0
-1863 -1865 -1949 0
1863 1865 -1949 0
-1863 1865 1949 0
1863 -1865 1949 0
-1867 -1869 -1951 0
1867 1869 -1951 0
-1867 1869 1951 0
1867 -1869 1951 0
-1871 -1873 -1953 0
1871 1873 -1953 0
-1871 1873 1953 0
1871 -1873 1953 0
-1877 -1879 -1957 0
1877 1879 -1957 0
-1877 1879 1957 0
1877 -1879 1957 0
-1881 -1883 -1959 0
1881 1883 -1959 0
-1881 1883 1959 0
1881 -1883 1959 0
-1885 -1887 -1961 0
1885 1887 -1961 0
-1885 1887 1961 0
1885 -1887 1961 0
-1889 -1891 -1963 0
1889 1891 -1963 0
-1889 1891 1963 0
1889 -1891 1963 0
-1893 -1895 -1965 0
1893 1895 -1965 0
-1893 1895 1965 0
1893 -1895 1965 0
-1897 -1899 -1967 0
1897 1899 -1967 0
-1897 1899 1967 0
1897 -1899 1967 0
-1901 -1903 -1969 0
1901 1903 -1969 0
-1901 1903 1969 0
1901 -1903 1969 0
-1905 -1907 -1971 0
1905 1907 -1971 0
-1905 1907 1971 0
1905 -1907 1971 0
-1909 -1911 -1973 0
1909 1911 -1973 0
-1909 1911 1973 0
1909 -1911 1973 0
-1913 -1915 -1975 0
1913 1915 -1975 0
-1913 1915 1975 0
1913 -1915 1975 0
-1917 -1919 -1977 0
1917 1919 -1977 0
-1917 1919 1977 0
1917 -1919 1977 0
-1921 -1923 -1979 0
1921 1923 -1979 0
-1921 1923 1979 0
1921 -1923 1979 0
-1925 -1927 -1981 0
1925 1927 -1981 0
-1925 1927 1981 0
1925 -1927 1981 0
-1929 -1931 -1983 0
1929 1931 -1983 0
-1929 1931 1983 0
1929 -1931 1983 0
-1930 -1932 -2014 0
1930 1932 -2014 0
1930 -1932 2014 0
-1930 1932 2014 0
-1933 -1934 -1985 0
1933 1934 -1985 0
-1933 1934 1985 0
1933 -1934 1985 0
-1935 -1936 -1987 0
1935 1936 -1987 0
-1935 1936 1987 0
1935 -1936 1987 0
-1937 -1939 -1989 0
1937 1939 -1989 0
-1937 1939 1989 0
1937 -1939 1989 0
-1941 -1942 -1991 0
1941 1942 -1991 0
-1941 1942 1991 0
1941 -1942 1991 0
-1943 -1945 -1993 0
1943 1945 -1993 0
-1943 1945 1993 0
1943 -1945 1993 0
-1947 -1949 -1995 0
1947 1949 -1995 0
-1947 1949 1995 0
1947 -1949 1995 0
-1951 -1953 -1997 0
1951 1953 -1997 0
-1951 1953 1997 0
1951 -1953 1997 0
-1955 -1956 -1999 0
1955 1956 -1999 0
-1955 1956 1999 0
1955 -1956 1999 0
-1957 -1959 -2001 0
1957 1959 -2001 0
-1957 1959 2001 0
1957 -1959 2001 0
-1961 -1963 -2003 0
1961 1963 -2003 0
-1961 1963 2003 0
1961 -1963 2003 0
-1965 -1967 -2005 0
1965 1967 -2005 0
-1965 1967 2005 0
1965 -1967 2005 0
-1969 -1971 -2007 0
1969 1971 -2007 0
-1969 1971 2007 0
1969 -1971 2007 0
-1973 -1975 -2009 0
1973 1975 -2009 0
-1973 1975 2009 0
1973 -1975 2009 0
-1977 -1979 -2011 0
1977 1979 -2011 0
-1977 1979 2011 0
1977 -1979 2011 0
-1981 -1983 -2013 0
1981 1983 -2013 0
-1981 1983 2013 0
1981 -1983 2013 0
-1985 -1987 -2015 0
1985 1987 -2015 0
-1985 1987 2015 0
1985 -1987 2015 0
-1989 -1991 -2017 0
1989 1991 -2017 0
-1989 1991 2017 0
1989 -1991 2017 0
-1993 -1995 -2019 0
1993 1995 -2019 0
-1993 1995 2019 0
1993 -1995 2019 0
-1997 -1999 -2021 0
1997 1999 -2021 0
-1997 1999 2021 0
1997 -1999 2021 0
-2001 -2003 -2023 0
2001 2003 -2023 0
-2001 2003 2023 0
2001 -2003 2023 0
-2005 -2007 -2025 0
2005 2007 -2025 0
-2005 2007 2025 0
2005 -2007 2025 0
-2009 -2011 -2027 0
2009 2011 -2027 0
-2009 2011 2027 0
2009 -2011 2027 0
-2013 -2014 -2029 0
2013 2014 -2029 0
-2013 2014 2029 0
2013 -2014 2029 0
-2015 -2017 -2031 0
2015 2017 -2031 0
-2015 2017 2031 0
2015 -2017 2031 0
-2019 -2021 -2033 0
2019 2021 -2033 0
-2019 2021 2033 0
2019 -2021 2033 0
-2023 -2025 -2035 0
2023 2025 -2035 0
-2023 2025 2035 0
2023 -2025 2035 0
-2027 -2029 -2037 0
2027 2029 -2037 0
-2027 2029 2037 0
2027 -2029 2037 0
-2031 -2033 -2039 0
2031 2033 -2039 0
-2031 2033 2039 0
2031 -2033 2039 0
-2035 -2037 -2039 0
2035 2037 -2039 0
-2035 2037 2039 0
2035 -2037 2039 0
-1938 -1940 -2090 0
1938 1940 -2090 0
-1938 1940 2090 0
1938 -1940 2090 0
-1944 -1946 -2044 0
1944 1946 -2044 0
-1944 1946 2044 0
1944 -1946 2044 0
-1948 -1950 -2045 0
1948 1950 -2045 0
-1948 1950 2045 0
1948 -1950 2045 0
-1952 -1954 -2092 0
1952 1954 -2092 0
-1952 1954 2092 0
1952 -1954 2092 0
-1958 -1960 -2048 0
1958 1960 -2048 0
-1958 1960 2048 0
1958 -1960 2048 0
-1962 -1964 -2049 0
1962 1964 -2049 0
-1962 1964 2049 0
1962 -1964 2049 0
-1966 -1968 -2051 0
1966 1968 -2051 0
-1966 1968 2051 0
1966 -1968 2051 0
-1970 -1972 -2053 0
1970 1972 -2053 0
-1970 1972 2053 0
1970 -1972 2053 0
-1974 -1976 -2055 0
1974 1976 -2055 0
-1974 1976 2055 0
1974 -1976 2055 0
-1978 -1980 -2057 0
1978 1980 -2057 0
-1978 1980 2057 0
1978 -1980 2057 0
-1982 -1984 -2059 0
1982 1984 -2059 0
-1982 1984 2059 0
1982 -1984 2059 0
-1986 -1988 -2062 0
1986 1988 -2062 0
-1986 1988 2062 0
1986 -1988 2062 0
-1990 -1992 -2063 0
1990 1992 -2063 0
-1990 1992 2063 0
1990 -1992 2063 0
-1994 -1996 -2065 0
1994 1996 -2065 0
-1994 1996 2065 0
1994 -1996 2065 0
-1998 -2000 -2067 0
1998 2000 -2067 0
-1998 2000 2067 0
1998 -2000 2067 0
-2002 -2004 -2069 0
2002 2004 -2069 0
-2002 2004 2069 0
2002 -2004 2069 0
-2006 -2008 -2071 0
2006 2008 -2071 0
-2006 2008 2071 0
2006 -2008 2071 0
-2010 -2012 -2073 0
2010 2012 -2073 0
-2010 2012 2073 0
2010 -2012 2073 0
-2016 -2018 -2076 0
2016 2018 -2076 0
-2016 2018 2076 0
2016 -2018 2076 0
-2020 -2022 -2077 0
2020 2022 -2077 0
-2020 2022 2077 0
2020 -2022 2077 0
-2024 -2026 -2079 0
2024 2026 -2079 0
-2024 2026 2079 0
2024 -2026 2079 0
-2028 -2030 -2081 0
2028 2030 -2081 0
-2028 2030 2081 0
2028 -2030 2081 0
-2032 -2034 -2083 0
2032 2034 -2083 0
-2032 2034 2083 0
2032 -2034 2083 0
-2036 -2038 -2085 0
2036 2038 -2085 0
-2036 2038 2085 0
2036 -2038 2085 0
-2040 -2041 -2087 0
2040 2041 -2087 0
-2040 2041 2087 0
2040 -2041 2087 0
-2042 -2043 -2089 0
2042 2043 -2089 0
-2042 2043 2089 0
2042 -2043 2089 0
-2044 -2045 -2091 0
2044 2045 -2091 0
-2044 2045 2091 0
2044 -2045 2091 0
-2048 -2049 -2093 0
2048 2049 -2093 0
-2048 2049 2093 0
2048 -2049 2093 0
-2051 -2053 -2094 0
2051 2053 -2094 0
-2051 2053 2094 0
2051 -2053 2094 0
-2055 -2057 -2096 0
2055 2057 -2096 0
-2055 2057 2096 0
2055 -2057 2096 0
-2059 -2061 -2098 0
2059 2061 -2098 0
-2059 2061 2098 0
2059 -2061 2098 0
-2062 -2063 -2100 0
2062 2063 -2100 0
-2062 2063 2100 0
2062 -2063 2100 0
-2065 -2067 -2102 0
2065 2067 -2102 0
-2065 2067 2102 0
2065 -2067 2102 0
-2069 -2071 -2104 0
2069 2071 -2104 0
-2069 2071 2104 0
2069 -2071 2104 0
-2073 -2075 -2106 0
2073 2075 -2106 0
-2073 2075 2106 0
2073 -2075 2106 0
-2076 -2077 -2108 0
2076 2077 -2108 0
-2076 2077 2108 0
2076 -2077 2108 0
-2079 -2081 -2110 0
2079 2081 -2110 0
-2079 2081 2110 0
2079 -2081 2110 0
-2083 -2085 -2112 0
2083 2085 -2112 0
-2083 2085 2112 0
2083 -2085 2112 0
-2039 -2087 -2114 0
2039 2087 -2114 0
2039 -2087 2114 0
-2039 2087 2114 0
-2089 -2090 -2116 0
2089 2090 -2116 0
-2089 2090 2116 0
2089 -2090 2116 0
-2091 -2092 -2118 0
2091 2092 -2118 0
-2091 2092 2118 0
2091 -2092 2118 0
-2093 -2094 -2120 0
2093 2094 -2120 0
-2093 2094 2120 0
2093 -2094 2120 0
-2096 -2098 -2122 0
2096 2098 -2122 0
-2096 2098 2122 0
2096 -2098 2122 0
-2100 -2102 -2124 0
2100 2102 -2124 0
-2100 2102 2124 0
2100 -2102 2124 0
-2104 -2106 -2126 0
2104 2106 -2126 0
-2104 2106 2126 0
2104 -2106 2126 0
-2108 -2110 -2128 0
2108 2110 -2128 0
-2108 2110 2128 0
2108 -2110 2128 0
-2112 -2114 -2130 0
2112 2114 -2130 0
-2112 2114 2130 0
2112 -2114 2130 0
-2116 -2118 -2132 0
2116 2118 -2132 0
-2116 2118 2132 0
2116 -2118 2132 0
-2120 -2122 -2134 0
2120 2122 -2134 0
-2120 2122 2134 0
2120 -2122 2134 0
-2124 -2126 -2136 0
2124 2126 -2136 0
-2124 2126 2136 0
2124 -2126 2136 0
-2128 -2130 -2138 0
2128 2130 -2138 0
-2128 2130 2138 0
2128 -2130 2138 0
-2132 -2134 -2140 0
2132 2134 -2140 0
-2132 2134 2140 0
2132 -2134 2140 0
-2136 -2138 -2140 0
2136 2138 -2140 0
-2136 2138 2140 0
2136 -2138 2140 0
-2046 -2047 -2145 0
2046 2047 -2145 0
-2046 2047 2145 0
2046 -2047 2145 0
-2050 -2052 -2147 0
2050 2052 -2147 0
-2050 2052 2147 0
2050 -2052 2147 0
-2054 -2056 -2148 0
2054 2056 -2148 0
-2054 2056 2148 0
2054 -2056 2148 0
-2058 -2060 -2150 0
2058 2060 -2150 0
-2058 2060 2150 0
2058 -2060 2150 0
-2064 -2066 -2153 0
2064 2066 -2153 0
-2064 2066 2153 0
2064 -2066 2153 0
-2068 -2070 -2154 0
2068 2070 -2154 0
-2068 2070 2154 0
2068 -2070 2154 0
-2072 -2074 -2156 0
2072 2074 -2156 0
-2072 2074 2156 0
2072 -2074 2156 0
-2078 -2080 -2159 0
2078 2080 -2159 0
-2078 2080 2159 0
2078 -2080 2159 0
-2082 -2084 -2160 0
2082 2084 -2160 0
-2082 2084 2160 0
2082 -2084 2160 0
-2086 -2088 -2162 0
2086 2088 -2162 0
-2086 2088 2162 0
2086 -2088 2162 0
-2095 -2097 -2167 0
2095 2097 -2167 0
-2095 2097 2167 0
2095 -2097 2167 0
-2099 -2101 -2168 0
2099 2101 -2168 0
-2099 2101 2168 0
2099 -2101 2168 0
-2103 -2105 -2170 0
2103 2105 -2170 0
-2103 2105 2170 0
2103 -2105 2170 0
-2107 -2109 -2172 0
2107 2109 -2172 0
-2107 2109 2172 0
2107 -2109 2172 0
-2111 -2113 -2174 0
2111 2113 -2174 0
-2111 2113 2174 0
2111 -2113 2174 0
-2115 -2117 -2176 0
2115 2117 -2176 0
-2115 2117 2176 0
2115 -2117 2176 0
-2119 -2121 -2178 0
2119 2121 -2178 0
-2119 2121 2178 0
2119 -2121 2178 0
-2123 -2125 -2180 0
2123 2125 -2180 0
-2123 2125 2180 0
2123 -2125 2180 0
-2127 -2129 -2182 0
2127 2129 -2182 0
-2127 2129 2182 0
2127 -2129 2182 0
-2131 -2133 -2184 0
2131 2133 -2184 0
-2131 2133 2184 0
2131 -2133 2184 0
-2135 -2137 -2186 0
2135 2137 -2186 0
-2135 2137 2186 0
2135 -2137 2186 0
-2139 -2141 -2188 0
2139 2141 -2188 0
-2139 2141 2188 0
2139 -2141 2188 0
-2140 -2142 -2190 0
2140 2142 -2190 0
2140 -2142 2190 0
-2140 2142 2190 0
-2144 -2145 -2192 0
2144 2145 -2192 0
-2144 2145 2192 0
2144 -2145 2192 0
-2146 -2147 -2193 0
2146 2147 -2193 0
-2146 2147 2193 0
2146 -2147 2193 0
-2148 -2150 -2195 0
2148 2150 -2195 0
-2148 2150 2195 0
2148 -2150 2195 0
-2152 -2153 -2197 0
2152 2153 -2197 0
-2152 2153 2197 0
2152 -2153 2197 0
-2154 -2156 -2199 0
2154 2156 -2199 0
-2154 2156 2199 0
2154 -2156 2199 0
-2158 -2159 -2201 0
2158 2159 -2201 0
-2158 2159 2201 0
2158 -2159 2201 0
-2160 -2162 -2203 0
2160 2162 -2203 0
-2160 2162 2203 0
2160 -2162 2203 0
-2164 -2165 -2205 0
2164 2165 -2205 0
-2164 2165 2205 0
2164 -2165 2205 0
-2166 -2167 -2207 0
2166 2167 -2207 0
-2166 2167 2207 0
2166 -2167 2207 0
-2168 -2170 -2209 0
2168 2170 -2209 0
-2168 2170 2209 0
2168 -2170 2209 0
-2172 -2174 -2211 0
2172 2174 -2211 0
-2172 2174 2211 0
2172 -2174 2211 0
-2176 -2178 -2213 0
2176 2178 -2213 0
-2176 2178 2213 0
2176 -2178 2213 0
-2180 -2182 -2215 0
2180 2182 -2215 0
-2180 2182 2215 0
2180 -2182 2215 0
-2184 -2186 -2217 0
2184 2186 -2217 0
-2184 2186 2217 0
2184 -2186 2217 0
-2188 -2190 -2219 0
2188 2190 -2219 0
-2188 2190 2219 0
2188 -2190 2219 0
-2143 -2192 -2221 0
2143 2192 -2221 0
-2143 2192 2221 0
2143 -2192 2221 0
-2193 -2195 -2223 0
2193 2195 -2223 0
-2193 2195 2223 0
2193 -2195 2223 0
-2197 -2199 -2225 0
2197 2199 -2225 0
-2197 2199 2225 0
2197 -2199 2225 0
-2201 -2203 -2227 0
2201 2203 -2227 0
-2201 2203 2227 0
2201 -2203 2227 0
-2205 -2207 -2229 0
2205 2207 -2229 0
-2205 2207 2229 0
2205 -2207 2229 0
-2209 -2211 -2231 0
2209 2211 -2231 0
-2209 2211 2231 0
2209 -2211 2231 0
-2213 -2215 -2233 0
2213 2215 -2233 0
-2213 2215 2233 0
2213 -2215 2233 0
-2217 -2219 -2235 0
2217 2219 -2235 0
-2217 2219 2235 0
2217 -2219 2235 0
-2221 -2223 -2237 0
2221 2223 -2237 0
-2221 2223 2237 0
2221 -2223 2237 0
-2225 -2227 -2239 0
2225 2227 -2239 0
-2225 2227 2239 0
2225 -2227 2239 0
-2229 -2231 -2241 0
2229 2231 -2241 0
-2229 2231 2241 0
2229 -2231 2241 0
-2233 -2235 -2243 0
2233 2235 -2243 0
-2233 2235 2243 0
2233 -2235 2243 0
-2237 -2239 -2245 0
2237 2239 -2245 0
-2237 2239 2245 0
2237 -2239 2245 0
-2241 -2243 -2245 0
2241 2243 -2245 0
-2241 2243 2245 0
2241 -2243 2245 0
-2149 -2151 -2250 0
2149 2151 -2250 0
-2149 2151 2250 0
2149 -2151 2250 0
-2155 -2157 -2252 0
2155 2157 -2252 0
-2155 2157 2252 0
2155 -2157 2252 0
-2161 -2163 -2299 0
2161 2163 -2299 0
-2161 2163 2299 0
2161 -2163 2299 0
-2169 -2171 -2255 0
2169 2171 -2255 0
-2169 2171 2255 0
2169 -2171 2255 0
-2173 -2175 -2257 0
2173 2175 -2257 0
-2173 2175 2257 0
2173 -2175 2257 0
-2177 -2179 -2259 0
2177 2179 -2259 0
-2177 2179 2259 0
2177 -2179 2259 0
-2181 -2183 -2261 0
2181 2183 -2261 0
-2181 2183 2261 0
2181 -2183 2261 0
-2185 -2187 -2263 0
2185 2187 -2263 0
-2185 2187 2263 0
2185 -2187 2263 0
-2189 -2191 -2265 0
2189 2191 -2265 0
-2189 2191 2265 0
2189 -2191 2265 0
-2194 -2196 -2268 0
2194 2196 -2268 0
-2194 2196 2268 0
2194 -2196 2268 0
-2198 -2200 -2269 0
2198 2200 -2269 0
-2198 2200 2269 0
2198 -2200 2269 0
-2202 -2204 -2271 0
2202 2204 -2271 0
-2202 2204 2271 0
2202 -2204 2271 0
-2206 -2208 -2273 0
2206 2208 -2273 0
-2206 2208 2273 0
2206 -2208 2273 0
-2210 -2212 -2275 0
2210 2212 -2275 0
-2210 2212 2275 0
2210 -2212 2275 0
-2214 -2216 -2277 0
2214 2216 -2277 0
-2214 2216 2277 0
2214 -2216 2277 0
-2218 -2220 -2279 0
2218 2220 -2279 0
-2218 2220 2279 0
2218 -2220 2279 0
-2222 -2224 -2281 0
2222 2224 -2281 0
-2222 2224 2281 0
2222 -2224 2281 0
-2226 -2228 -2283 0
2226 2228 -2283 0
-2226 2228 2283 0
2226 -2228 2283 0
-2230 -2232 -2285 0
2230 2232 -2285 0
-2230 2232 2285 0
2230 -2232 2285 0
-2234 -2236 -2287 0
2234 2236 -2287 0
-2234 2236 2287 0
2234 -2236 2287 0
-2238 -2240 -2289 0
2238 2240 -2289 0
-2238 2240 2289 0
2238 -2240 2289 0
-2242 -2244 -2291 0
2242 2244 -2291 0
-2242 2244 2291 0
2242 -2244 2291 0
-2246 -2247 -2293 0
2246 2247 -2293 0
-2246 2247 2293 0
2246 -2247 2293 0
-2248 -2249 -2294 0
2248 2249 -2294 0
-2248 2249 2294 0
2248 -2249 2294 0
-2250 -2251 -2296 0
2250 2251 -2296 0
-2250 2251 2296 0
2250 -2251 2296 0
-2252 -2253 -2298 0
2252 2253 -2298 0
-2252 2253 2298 0
2252 -2253 2298 0
-2254 -2255 -2300 0
2254 2255 -2300 0
-2254 2255 2300 0
2254 -2255 2300 0
-2257 -2259 -2302 0
2257 2259 -2302 0
-2257 2259 2302 0
2257 -2259 2302 0
-2261 -2263 -2304 0
2261 2263 -2304 0
-2261 2263 2304 0
2261 -2263 2304 0
-2265 -2267 -2306 0
2265 2267 -2306 0
-2265 2267 2306 0
2265 -2267 2306 0
-2268 -2269 -2308 0
2268 2269 -2308 0
-2268 2269 2308 0
2268 -2269 2308 0
-2271 -2273 -2310 0
2271 2273 -2310 0
-2271 2273 2310 0
2271 -2273 2310 0
-2275 -2277 -2312 0
2275 2277 -2312 0
-2275 2277 2312 0
2275 -2277 2312 0
-2279 -2281 -2314 0
2279 2281 -2314 0
-2279 2281 2314 0
2279 -2281 2314 0
-2283 -2285 -2316 0
2283 2285 -2316 0
-2283 2285 2316 0
2283 -2285 2316 0
-2287 -2289 -2318 0
2287 2289 -2318 0
-2287 2289 2318 0
2287 -2289 2318 0
-2291 -2293 -2320 0
2291 2293 -2320 0
-2291 2293 2320 0
2291 -2293 2320 0
-2245 -2294 -2322 0
2245 2294 -2322 0
-2245 2294 2322 0
2245 -2294 2322 0
-2296 -2298 -2324 0
2296 2298 -2324 0
-2296 2298 2324 0
2296 -2298 2324 0
-2299 -2300 -2326 0
2299 2300 -2326 0
-2299 2300 2326 0
2299 -2300 2326 0
-2302 -2304 -2328 0
2302 2304 -2328 0
-2302 2304 2328 0
2302 -2304 2328 0
-2306 -2308 -2330 0
2306 2308 -2330 0
-2306 2308 2330 0
2306 -2308 2330 0
-2310 -2312 -2332 0
2310 2312 -2332 0
-2310 2312 2332 0
2310 -2312 2332 0
-2314 -2316 -2334 0
2314 2316 -2334 0
-2314 2316 2334 0
2314 -2316 2334 0
-2318 -2320 -2336 0
2318 2320 -2336 0
-2318 2320 2336 0
2318 -2320 2336 0
-2322 -2324 -2338 0
2322 2324 -2338 0
-2322 2324 2338 0
2322 -2324 2338 0
-2326 -2328 -2340 0
2326 2328 -2340 0
-2326 2328 2340 0
2326 -2328 2340 0
-2330 -2332 -2342 0
2330 2332 -2342 0
-2330 2332 2342 0
2330 -2332 2342 0
-2334 -2336 -2344 0
2334 2336 -2344 0
-2334 2336 2344 0
2334 -2336 2344 0
-2338 -2340 -2346 0
2338 2340 -2346 0
-2338 2340 2346 0
2338 -2340 2346 0
-2342 -2344 -2346 0
2342 2344 -2346 0
-2342 2344 2346 0
2342 -2344 2346 0
-2256 -2258 -2396 0
2256 2258 -2396 0
-2256 2258 2396 0
2256 -2258 2396 0
-2260 -2262 -2352 0
2260 2262 -2352 0
-2260 2262 2352 0
2260 -2262 2352 0
-2264 -2266 -2354 0
2264 2266 -2354 0
-2264 2266 2354 0
2264 -2266 2354 0
-2270 -2272 -2357 0
2270 2272 -2357 0
-2270 2272 2357 0
2270 -2272 2357 0
-2274 -2276 -2358 0
2274 2276 -2358 0
-2274 2276 2358 0
2274 -2276 2358 0
-2278 -2280 -2360 0
2278 2280 -2360 0
-2278 2280 2360 0
2278 -2280 2360 0
-2282 -2284 -2362 0
2282 2284 -2362 0
-2282 2284 2362 0
2282 -2284 2362 0
-2286 -2288 -2364 0
2286 2288 -2364 0
-2286 2288 2364 0
2286 -2288 2364 0
-2290 -2292 -2366 0
2290 2292 -2366 0
-2290 2292 2366 0
2290 -2292 2366 0
-2295 -2297 -2368 0
2295 2297 -2368 0
-2295 2297 2368 0
2295 -2297 2368 0
-2301 -2303 -2370 0
2301 2303 -2370 0
-2301 2303 2370 0
2301 -2303 2370 0
-2305 -2307 -2372 0
2305 2307 -2372 0
-2305 2307 2372 0
2305 -2307 2372 0
-2309 -2311 -2374 0
2309 2311 -2374 0
-2309 2311 2374 0
2309 -2311 2374 0
-2313 -2315 -2376 0
2313 2315 -2376 0
-2313 2315 2376 0
2313 -2315 2376 0
-2317 -2319 -2378 0
2317 2319 -2378 0
-2317 2319 2378 0
2317 -2319 2378 0
-2321 -2323 -2380 0
2321 2323 -2380 0
-2321 2323 2380 0
2321 -2323 2380 0
-2325 -2327 -2382 0
2325 2327 -2382 0
-2325 2327 2382 0
2325 -2327 2382 0
-2329 -2331 -2384 0
2329 2331 -2384 0
-2329 2331 2384 0
2329 -2331 2384 0
-2333 -2335 -2386 0
2333 2335 -2386 0
-2333 2335 2386 0
2333 -2335 2386 0
-2337 -2339 -2388 0
2337 2339 -2388 0
-2337 2339 2388 0
2337 -2339 2388 0
-2341 -2343 -2390 0
2341 2343 -2390 0
-2341 2343 2390 0
2341 -2343 2390 0
-2345 -2347 -2392 0
2345 2347 -2392 0
-2345 2347 2392 0
2345 -2347 2392 0
-2346 -2348 -2394 0
2346 2348 -2394 0
2346 -2348 2394 0
-2346 2348 2394 0
-2350 -2351 -2395 0
2350 2351 -2395 0
-2350 2351 2395 0
2350 -2351 2395 0
-2352 -2354 -2397 0
2352 2354 -2397 0
-2352 2354 2397 0
2352 -2354 2397 0
-2356 -2357 -2399 0
2356 2357 -2399 0
-2356 2357 2399 0
2356 -2357 2399 0
-2358 -2360 -2401 0
2358 2360 -2401 0
-2358 2360 2401 0
2358 -2360 2401 0
-2362 -2364 -2403 0
2362 2364 -2403 0
-2362 2364 2403 0
2362 -2364 2403 0
-2366 -2367 -2405 0
2366 2367 -2405 0
-2366 2367 2405 0
2366 -2367 2405 0
-2368 -2369 -2407 0
2368 2369 -2407 0
-2368 2369 2407 0
2368 -2369 2407 0
-2370 -2372 -2409 0
2370 2372 -2409 0
-2370 2372 2409 0
2370 -2372 2409 0
-2374 -2376 -2411 0
2374 2376 -2411 0
-2374 2376 2411 0
2374 -2376 2411 0
-2378 -2380 -2413 0
2378 2380 -2413 0
-2378 2380 2413 0
2378 -2380 2413 0
-2382 -2384 -2415 0
2382 2384 -2415 0
-2382 2384 2415 0
2382 -2384 2415 0
-2386 -2388 -2417 0
2386 2388 -2417 0
-2386 2388 2417 0
2386 -2388 2417 0
-2390 -2392 -2419 0
2390 2392 -2419 0
-2390 2392 2419 0
2390 -2392 2419 0
-2349 -2394 -2421 0
2349 2394 -2421 0
2349 -2394 2421 0
-2349 2394 2421 0
-2395 -2396 -2423 0
2395 2396 -2423 0
-2395 2396 2423 0
2395 -2396 2423 0
-2397 -2399 -2425 0
2397 2399 -2425 0
-2397 2399 2425 0
2397 -2399 2425 0
-2401 -2403 -2427 0
2401 2403 -2427 0
-2401 2403 2427 0
2401 -2403 2427 0
-2405 -2407 -2429 0
2405 2407 -2429 0
-2405 2407 2429 0
2405 -2407 2429 0
-2409 -2411 -2431 0
2409 2411 -2431 0
-2409 2411 2431 0
2409 -2411 2431 0
-2413 -2415 -2433 0
2413 2415 -2433 0
-2413 2415 2433 0
2413 -2415 2433 0
-2417 -2419 -2435 0
2417 2419 -2435 0
-2417 2419 2435 0
2417 -2419 2435 0
-2421 -2423 -2437 0
2421 2423 -2437 0
-2421 2423 2437 0
2421 -2423 2437 0
-2425 -2427 -2439 0
2425 2427 -2439 0
-2425 2427 2439 0
2425 -2427 2439 0
-2429 -2431 -2441 0
2429 2431 -2441 0
-2429 2431 2441 0
2429 -2431 2441 0
-2433 -2435 -2443 0
2433 2435 -2443 0
-2433 2435 2443 0
2433 -2435 2443 0
-2437 -2439 -2445 0
2437 2439 -2445 0
-2437 2439 2445 0
2437 -2439 2445 0
-2441 -2443 -2445 0
2441 2443 -2445 0
-2441 2443 2445 0
2441 -2443 2445 0
-2353 -2355 -2449 0
2353 2355 -2449 0
-2353 2355 2449 0
2353 -2355 2449 0
-2359 -2361 -2451 0
2359 2361 -2451 0
-2359 2361 2451 0
2359 -2361 2451 0
-2363 -2365 -2452 0
2363 2365 -2452 0
-2363 2365 2452 0
2363 -2365 2452 0
-2371 -2373 -2455 0
2371 2373 -2455 0
-2371 2373 2455 0
2371 -2373 2455 0
-2375 -2377 -2456 0
2375 2377 -2456 0
-2375 2377 2456 0
2375 -2377 2456 0
-2379 -2381 -2458 0
2379 2381 -2458 0
-2379 2381 2458 0
2379 -2381 2458 0
-2383 -2385 -2460 0
2383 2385 -2460 0
-2383 2385 2460 0
2383 -2385 2460 0
-2387 -2389 -2462 0
2387 2389 -2462 0
-2387 2389 2462 0
2387 -2389 2462 0
-2391 -2393 -2464 0
2391 2393 -2464 0
-2391 2393 2464 0
2391 -2393 2464 0
-2398 -2400 -2467 0
2398 2400 -2467 0
-2398 2400 2467 0
2398 -2400 2467 0
-2402 -2404 -2468 0
2402 2404 -2468 0
-2402 2404 2468 0
2402 -2404 2468 0
-2406 -2408 -2470 0
2406 2408 -2470 0
-2406 2408 2470 0
2406 -2408 2470 0
-2410 -2412 -2472 0
2410 2412 -2472 0
-2410 2412 2472 0
2410 -2412 2472 0
-2414 -2416 -2474 0
2414 2416 -2474 0
-2414 2416 2474 0
2414 -2416 2474 0
-2418 -2420 -2476 0
2418 2420 -2476 0
-2418 2420 2476 0
2418 -2420 2476 0
-2422 -2424 -2478 0
2422 2424 -2478 0
-2422 2424 2478 0
2422 -2424 2478 0
-2426 -2428 -2480 0
2426 2428 -2480 0
-2426 2428 2480 0
2426 -2428 2480 0
-2430 -2432 -2482 0
2430 2432 -2482 0
-2430 2432 2482 0
2430 -2432 2482 0
-2434 -2436 -2484 0
2434 2436 -2484 0
-2434 2436 2484 0
2434 -2436 2484 0
-2438 -2440 -2486 0
2438 2440 -2486 0
-2438 2440 2486 0
2438 -2440 2486 0
-2442 -2444 -2488 0
2442 2444 -2488 0
-2442 2444 2488 0
2442 -2444 2488 0
-2446 -2447 -2490 0
2446 2447 -2490 0
-2446 2447 2490 0
2446 -2447 2490 0
-2449 -2450 -2492 0
2449 2450 -2492 0
-2449 2450 2492 0
2449 -2450 2492 0
-2451 -2452 -2494 0
2451 2452 -2494 0
-2451 2452 2494 0
2451 -2452 2494 0
-2453 -2454 -2496 0
2453 2454 -2496 0
-2453 2454 2496 0
2453 -2454 2496 0
-2455 -2456 -2498 0
2455 2456 -2498 0
-2455 2456 2498 0
2455 -2456 2498 0
-2458 -2460 -2500 0
2458 2460 -2500 0
-2458 2460 2500 0
2458 -2460 2500 0
-2462 -2464 -2502 0
2462 2464 -2502 0
-2462 2464 2502 0
2462 -2464 2502 0
-2465 -2466 -2504 0
2465 2466 -2504 0
-2465 2466 2504 0
2465 -2466 2504 0
-2467 -2468 -2506 0
2467 2468 -2506 0
-2467 2468 2506 0
2467 -2468 2506 0
-2470 -2472 -2508 0
2470 2472 -2508 0
-2470 2472 2508 0
2470 -2472 2508 0
-2474 -2476 -2510 0
2474 2476 -2510 0
-2474 2476 2510 0
2474 -2476 2510 0
-2478 -2480 -2512 0
2478 2480 -2512 0
-2478 2480 2512 0
2478 -2480 2512 0
-2482 -2484 -2514 0
2482 2484 -2514 0
-2482 2484 2514 0
2482 -2484 2514 0
-2486 -2488 -2516 0
2486 2488 -2516 0
-2486 2488 2516 0
2486 -2488 2516 0
-2445 -2490 -2518 0
2445 2490 -2518 0
2445 -2490 2518 0
-2445 2490 2518 0
-2448 -2492 -2520 0
2448 2492 -2520 0
-2448 2492 2520 0
2448 -2492 2520 0
-2494 -2496 -2522 0
2494 2496 -2522 0
-2494 2496 2522 0
2494 -2496 2522 0
-2498 -2500 -2524 0
2498 2500 -2524 0
-2498 2500 2524 0
2498 -2500 2524 0
-2502 -2504 -2526 0
2502 2504 -2526 0
-2502 2504 2526 0
2502 -2504 2526 0
-2506 -2508 -2528 0
2506 2508 -2528 0
-2506 2508 2528 0
2506 -2508 2528 0
-2510 -2512 -2530 0
2510 2512 -2530 0
-2510 2512 2530 0
2510 -2512 2530 0
-2514 -2516 -2532 0
2514 2516 -2532 0
-2514 2516 2532 0
2514 -2516 2532 0
-2518 -2520 -2534 0
2518 2520 -2534 0
-2518 2520 2534 0
2518 -2520 2534 0
-2522 -2524 -2536 0
2522 2524 -2536 0
-2522 2524 2536 0
2522 -2524 2536 0
-2526 -2528 -2538 0
2526 2528 -2538 0
-2526 2528 2538 0
2526 -2528 2538 0
-2530 -2532 -2540 0
2530 2532 -2540 0
-2530 2532 2540 0
2530 -2532 2540 0
-2534 -2536 -2542 0
2534 2536 -2542 0
-2534 2536 2542 0
2534 -2536 2542 0
-2538 -2540 -2542 0
2538 2540 -2542 0
-2538 2540 2542 0
2538 -2540 2542 0
-2457 -2459 -2549 0
2457 2459 -2549 0
-2457 2459 2549 0
2457 -2459 2549 0
-2461 -2463 -2550 0
2461 2463 -2550 0
-2461 2463 2550 0
2461 -2463 2550 0
-2469 -2471 -2553 0
2469 2471 -2553 0
-2469 2471 2553 0
2469 -2471 2553 0
-2473 -2475 -2554 0
2473 2475 -2554 0
-2473 2475 2554 0
2473 -2475 2554 0
-2477 -2479 -2556 0
2477 2479 -2556 0
-2477 2479 2556 0
2477 -2479 2556 0
-2481 -2483 -2558 0
2481 2483 -2558 0
-2481 2483 2558 0
2481 -2483 2558 0
-2485 -2487 -2560 0
2485 2487 -2560 0
-2485 2487 2560 0
2485 -2487 2560 0
-2489 -2491 -2600 0
2489 2491 -2600 0
-2489 2491 2600 0
2489 -2491 2600 0
-2493 -2495 -2562 0
2493 2495 -2562 0
-2493 2495 2562 0
2493 -2495 2562 0
-2497 -2499 -2564 0
2497 2499 -2564 0
-2497 2499 2564 0
2497 -2499 2564 0
-2501 -2503 -2566 0
2501 2503 -2566 0
-2501 2503 2566 0
2501 -2503 2566 0
-2505 -2507 -2568 0
2505 2507 -2568 0
-2505 2507 2568 0
2505 -2507 2568 0
-2509 -2511 -2570 0
2509 2511 -2570 0
-2509 2511 2570 0
2509 -2511 2570 0
-2513 -2515 -2572 0
2513 2515 -2572 0
-2513 2515 2572 0
2513 -2515 2572 0
-2517 -2519 -2574 0
2517 2519 -2574 0
-2517 2519 2574 0
2517 -2519 2574 0
-2521 -2523 -2576 0
2521 2523 -2576 0
-2521 2523 2576 0
2521 -2523 2576 0
-2525 -2527 -2578 0
2525 2527 -2578 0
-2525 2527 2578 0
2525 -2527 2578 0
-2529 -2531 -2580 0
2529 2531 -2580 0
-2529 2531 2580 0
2529 -2531 2580 0
-2533 -2535 -2582 0
2533 2535 -2582 0
-2533 2535 2582 0
2533 -2535 2582 0
-2537 -2539 -2584 0
2537 2539 -2584 0
-2537 2539 2584 0
2537 -2539 2584 0
-2541 -2543 -2586 0
2541 2543 -2586 0
-2541 2543 2586 0
2541 -2543 2586 0
-2542 -2544 -2588 0
2542 2544 -2588 0
2542 -2544 2588 0
-2542 2544 2588 0
-2546 -2547 -2590 0
2546 2547 -2590 0
-2546 2547 2590 0
2546 -2547 2590 0
-2548 -2549 -2591 0
2548 2549 -2591 0
-2548 2549 2591 0
2548 -2549 2591 0
-2550 -2551 -2593 0
2550 2551 -2593 0
-2550 2551 2593 0
2550 -2551 2593 0
-2552 -2553 -2595 0
2552 2553 -2595 0
-2552 2553 2595 0
2552 -2553 2595 0
-2554 -2556 -2597 0
2554 2556 -2597 0
-2554 2556 2597 0
2554 -2556 2597 0
-2558 -2560 -2599 0
2558 2560 -2599 0
-2558 2560 2599 0
2558 -2560 2599 0
-2562 -2564 -2601 0
2562 2564 -2601 0
-2562 2564 2601 0
2562 -2564 2601 0
-2566 -2568 -2603 0
2566 2568 -2603 0
-2566 2568 2603 0
2566 -2568 2603 0
-2570 -2572 -2605 0
2570 2572 -2605 0
-2570 2572 2605 0
2570 -2572 2605 0
-2574 -2576 -2607 0
2574 2576 -2607 0
-2574 2576 2607 0
2574 -2576 2607 0
-2578 -2580 -2609 0
2578 2580 -2609 0
-2578 2580 2609 0
2578 -2580 2609 0
-2582 -2584 -2611 0
2582 2584 -2611 0
-2582 2584 2611 0
2582 -2584 2611 0
-2586 -2588 -2613 0
2586 2588 -2613 0
-2586 2588 2613 0
2586 -2588 2613 0
-2545 -2590 -2615 0
2545 2590 -2615 0
-2545 2590 2615 0
2545 -2590 2615 0
-2591 -2593 -2617 0
2591 2593 -2617 0
-2591 2593 2617 0
2591 -2593 2617 0
-2595 -2597 -2619 0
2595 2597 -2619 0
-2595 2597 2619 0
2595 -2597 2619 0
-2599 -2600 -2621 0
2599 2600 -2621 0
-2599 2600 2621 0
2599 -2600 2621 0
-2601 -2603 -2623 0
2601 2603 -2623 0
-2601 2603 2623 0
2601 -2603 2623 0
-2605 -2607 -2625 0
2605 2607 -2625 0
-2605 2607 2625 0
2605 -2607 2625 0
-2609 -2611 -2627 0
2609 2611 -2627 0
-2609 2611 2627 0
2609 -2611 2627 0
-2613 -2615 -2629 0
2613 2615 -2629 0
-2613 2615 2629 0
2613 -2615 2629 0
-2617 -2619 -2631 0
2617 2619 -2631 0
-2617 2619 2631 0
2617 -2619 2631 0
-2621 -2623 -2633 0
2621 2623 -2633 0
-2621 2623 2633 0
2621 -2623 2633 0
-2625 -2627 -2635 0
2625 2627 -2635 0
-2625 2627 2635 0
2625 -2627 2635 0
-2629 -2631 -2637 0
2629 2631 -2637 0
-2629 2631 2637 0
2629 -2631 2637 0
-2633 -2635 -2637 0
2633 2635 -2637 0
-2633 2635 2637 0
2633 -2635 2637 0
-2555 -2557 -2642 0
2555 2557 -2642 0
-2555 2557 2642 0
2555 -2557 2642 0
-2559 -2561 -2643 0
2559 2561 -2643 0
-2559 2561 2643 0
2559 -2561 2643 0
-2563 -2565 -2645 0
2563 2565 -2645 0
-2563 2565 2645 0
2563 -2565 2645 0
-2567 -2569 -2647 0
2567 2569 -2647 0
-2567 2569 2647 0
2567 -2569 2647 0
-2571 -2573 -2649 0
2571 2573 -2649 0
-2571 2573 2649 0
2571 -2573 2649 0
-2575 -2577 -2651 0
2575 2577 -2651 0
-2575 2577 2651 0
2575 -2577 2651 0
-2579 -2581 -2653 0
2579 2581 -2653 0
-2579 2581 2653 0
2579 -2581 2653 0
-2583 -2585 -2655 0
2583 2585 -2655 0
-2583 2585 2655 0
2583 -2585 2655 0
-2587 -2589 -2657 0
2587 2589 -2657 0
-2587 2589 2657 0
2587 -2589 2657 0
-2592 -2594 -2659 0
2592 2594 -2659 0
-2592 2594 2659 0
2592 -2594 2659 0
-2596 -2598 -2661 0
2596 2598 -2661 0
-2596 2598 2661 0
2596 -2598 2661 0
-2602 -2604 -2664 0
2602 2604 -2664 0
-2602 2604 2664 0
2602 -2604 2664 0
-2606 -2608 -2665 0
2606 2608 -2665 0
-2606 2608 2665 0
2606 -2608 2665 0
-2610 -2612 -2667 0
2610 2612 -2667 0
-2610 2612 2667 0
2610 -2612 2667 0
-2614 -2616 -2669 0
2614 2616 -2669 0
-2614 2616 2669 0
2614 -2616 2669 0
-2618 -2620 -2671 0
2618 2620 -2671 0
-2618 2620 2671 0
2618 -2620 2671 0
-2622 -2624 -2673 0
2622 2624 -2673 0
-2622 2624 2673 0
2622 -2624 2673 0
-2626 -2628 -2675 0
2626 2628 -2675 0
-2626 2628 2675 0
2626 -2628 2675 0
-2630 -2632 -2677 0
2630 2632 -2677 0
-2630 2632 2677 0
2630 -2632 2677 0
-2634 -2636 -2679 0
2634 2636 -2679 0
-2634 2636 2679 0
2634 -2636 2679 0
-2638 -2639 -2681 0
2638 2639 -2681 0
-2638 2639 2681 0
2638 -2639 2681 0
-2640 -2641 -2683 0
2640 2641 -2683 0
-2640 2641 2683 0
2640 -2641 2683 0
-2642 -2643 -2684 0
2642 2643 -2684 0
-2642 2643 2684 0
2642 -2643 2684 0
-2644 -2645 -2686 0
2644 2645 -2686 0
-2644 2645 2686 0
2644 -2645 2686 0
-2647 -2649 -2688 0
2647 2649 -2688 0
-2647 2649 2688 0
2647 -2649 2688 0
-2651 -2653 -2690 0
2651 2653 -2690 0
-2651 2653 2690 0
2651 -2653 2690 0
-2655 -2657 -2692 0
2655 2657 -2692 0
-2655 2657 2692 0
2655 -2657 2692 0
-2658 -2659 -2694 0
2658 2659 -2694 0
-2658 2659 2694 0
2658 -2659 2694 0
-2661 -2663 -2696 0
2661 2663 -2696 0
-2661 2663 2696 0
2661 -2663 2696 0
-2664 -2665 -2698 0
2664 2665 -2698 0
-2664 2665 2698 0
2664 -2665 2698 0
-2667 -2669 -2700 0
2667 2669 -2700 0
-2667 2669 2700 0
2667 -2669 2700 0
-2671 -2673 -2702 0
2671 2673 -2702 0
-2671 2673 2702 0
2671 -2673 2702 0
-2675 -2677 -2704 0
2675 2677 -2704 0
-2675 2677 2704 0
2675 -2677 2704 0
-2679 -2681 -2706 0
2679 2681 -2706 0
-2679 2681 2706 0
2679 -2681 2706 0
-2637 -2682 -2708 0
2637 2682 -2708 0
-2637 2682 2708 0
2637 -2682 2708 0
-2683 -2684 -2710 0
2683 2684 -2710 0
-2683 2684 2710 0
2683 -2684 2710 0
-2686 -2688 -2712 0
2686 2688 -2712 0
-2686 2688 2712 0
2686 -2688 2712 0
-2690 -2692 -2714 0
2690 2692 -2714 0
-2690 2692 2714 0
2690 -2692 2714 0
-2694 -2696 -2716 0
2694 2696 -2716 0
-2694 2696 2716 0
2694 -2696 2716 0
-2698 -2700 -2718 0
2698 2700 -2718 0
-2698 2700 2718 0
2698 -2700 2718 0
-2702 -2704 -2720 0
2702 2704 -2720 0
-2702 2704 2720 0
2702 -2704 2720 0
-2706 -2708 -2722 0
2706 2708 -2722 0
-2706 2708 2722 0
2706 -2708 2722 0
-2710 -2712 -2724 0
2710 2712 -2724 0
-2710 2712 2724 0
2710 -2712 2724 0
-2714 -2716 -2726 0
2714 2716 -2726 0
-2714 2716 2726 0
2714 -2716 2726 0
-2718 -2720 -2728 0
2718 2720 -2728 0
-2718 2720 2728 0
2718 -2720 2728 0
-2722 -2724 -2730 0
2722 2724 -2730 0
-2722 2724 2730 0
2722 -2724 2730 0
-2726 -2728 -2730 0
2726 2728 -2730 0
-2726 2728 2730 0
2726 -2728 2730 0
-2646 -2648 -2735 0
2646 2648 -2735 0
-2646 2648 2735 0
2646 -2648 2735 0
-2650 -2652 -2737 0
2650 2652 -2737 0
-2650 2652 2737 0
2650 -2652 2737 0
-2654 -2656 -2739 0
2654 2656 -2739 0
-2654 2656 2739 0
2654 -2656 2739 0
-2660 -2662 -2741 0
2660 2662 -2741 0
-2660 2662 2741 0
2660 -2662 2741 0
-2666 -2668 -2743 0
2666 2668 -2743 0
-2666 2668 2743 0
2666 -2668 2743 0
-2670 -2672 -2745 0
2670 2672 -2745 0
-2670 2672 2745 0
2670 -2672 2745 0
-2674 -2676 -2747 0
2674 2676 -2747 0
-2674 2676 2747 0
2674 -2676 2747 0
-2678 -2680 -2749 0
2678 2680 -2749 0
-2678 2680 2749 0
2678 -2680 2749 0
-2685 -2687 -2753 0
2685 2687 -2753 0
-2685 2687 2753 0
2685 -2687 2753 0
-2689 -2691 -2755 0
2689 2691 -2755 0
-2689 2691 2755 0
2689 -2691 2755 0
-2693 -2695 -2757 0
2693 2695 -2757 0
-2693 2695 2757 0
2693 -2695 2757 0
-2697 -2699 -2759 0
2697 2699 -2759 0
-2697 2699 2759 0
2697 -2699 2759 0
-2701 -2703 -2761 0
2701 2703 -2761 0
-2701 2703 2761 0
2701 -2703 2761 0
-2705 -2707 -2763 0
2705 2707 -2763 0
-2705 2707 2763 0
2705 -2707 2763 0
-2709 -2711 -2765 0
2709 2711 -2765 0
-2709 2711 2765 0
2709 -2711 2765 0
-2713 -2715 -2767 0
2713 2715 -2767 0
-2713 2715 2767 0
2713 -2715 2767 0
-2717 -2719 -2769 0
2717 2719 -2769 0
-2717 2719 2769 0
2717 -2719 2769 0
-2721 -2723 -2771 0
2721 2723 -2771 0
-2721 2723 2771 0
2721 -2723 2771 0
-2725 -2727 -2773 0
2725 2727 -2773 0
-2725 2727 2773 0
2725 -2727 2773 0
-2729 -2731 -2775 0
2729 2731 -2775 0
-2729 2731 2775 0
2729 -2731 2775 0
-2730 -2732 -2802 0
2730 2732 -2802 0
2730 -2732 2802 0
-2730 2732 2802 0
-2733 -2734 -2777 0
2733 2734 -2777 0
-2733 2734 2777 0
2733 -2734 2777 0
-2735 -2737 -2779 0
2735 2737 -2779 0
-2735 2737 2779 0
2735 -2737 2779 0
-2739 -2740 -2781 0
2739 2740 -2781 0
-2739 2740 2781 0
2739 -2740 2781 0
-2741 -2742 -2783 0
2741 2742 -2783 0
-2741 2742 2783 0
2741 -2742 2783 0
-2743 -2745 -2785 0
2743 2745 -2785 0
-2743 2745 2785 0
2743 -2745 2785 0
-2747 -2749 -2787 0
2747 2749 -2787 0
-2747 2749 2787 0
2747 -2749 2787 0
-2751 -2752 -2789 0
2751 2752 -2789 0
-2751 2752 2789 0
2751 -2752 2789 0
-2753 -2755 -2791 0
2753 2755 -2791 0
-2753 2755 2791 0
2753 -2755 2791 0
-2757 -2759 -2793 0
2757 2759 -2793 0
-2757 2759 2793 0
2757 -2759 2793 0
-2761 -2763 -2795 0
2761 2763 -2795 0
-2761 2763 2795 0
2761 -2763 2795 0
-2765 -2767 -2797 0
2765 2767 -2797 0
-2765 2767 2797 0
2765 -2767 2797 0
-2769 -2771 -2799 0
2769 2771 -2799 0
-2769 2771 2799 0
2769 -2771 2799 0
-2773 -2775 -2801 0
2773 2775 -2801 0
-2773 2775 2801 0
2773 -2775 2801 0
-2777 -2779 -2803 0
2777 2779 -2803 0
-2777 2779 2803 0
2777 -2779 2803 0
-2781 -2783 -2805 0
2781 2783 -2805 0
-2781 2783 2805 0
2781 -2783 2805 0
-2785 -2787 -2807 0
2785 2787 -2807 0
-2785 2787 2807 0
2785 -2787 2807 0
-2789 -2791 -2809 0
2789 2791 -2809 0
-2789 2791 2809 0
2789 -2791 2809 0
-2793 -2795 -2811 0
2793 2795 -2811 0
-2793 2795 2811 0
2793 -2795 2811 0
-2797 -2799 -2813 0
2797 2799 -2813 0
-2797 2799 2813 0
2797 -2799 2813 0
-2801 -2802 -2815 0
2801 2802 -2815 0
-2801 2802 2815 0
2801 -2802 2815 0
-2803 -2805 -2817 0
2803 2805 -2817 0
-2803 2805 2817 0
2803 -2805 2817 0
-2807 -2809 -2819 0
2807 2809 -2819 0
-2807 2809 2819 0
2807 -2809 2819 0
-2811 -2813 -2821 0
2811 2813 -2821 0
-2811 2813 2821 0
2811 -2813 2821 0
-2815 -2817 -2823 0
2815 2817 -2823 0
-2815 2817 2823 0
2815 -2817 2823 0
-2819 -2821 -2823 0
2819 2821 -2823 0
-2819 2821 2823 0
2819 -2821 2823 0
-2736 -2738 -2865 0
2736 2738 -2865 0
-2736 2738 2865 0
2736 -2738 2865 0
-2744 -2746 -2828 0
2744 2746 -2828 0
-2744 2746 2828 0
2744 -2746 2828 0
-2748 -2750 -2829 0
2748 2750 -2829 0
-2748 2750 2829 0
2748 -2750 2829 0
-2754 -2756 -2870 0
2754 2756 -2870 0
-2754 2756 2870 0
2754 -2756 2870 0
-2758 -2760 -2831 0
2758 2760 -2831 0
-2758 2760 2831 0
2758 -2760 2831 0
-2762 -2764 -2833 0
2762 2764 -2833 0
-2762 2764 2833 0
2762 -2764 2833 0
-2766 -2768 -2835 0
2766 2768 -2835 0
-2766 2768 2835 0
2766 -2768 2835 0
-2770 -2772 -2837 0
2770 2772 -2837 0
-2770 2772 2837 0
2770 -2772 2837 0
-2774 -2776 -2839 0
2774 2776 -2839 0
-2774 2776 2839 0
2774 -2776 2839 0
-2778 -2780 -2842 0
2778 2780 -2842 0
-2778 2780 2842 0
2778 -2780 2842 0
-2782 -2784 -2843 0
2782 2784 -2843 0
-2782 2784 2843 0
2782 -2784 2843 0
-2786 -2788 -2845 0
2786 2788 -2845 0
-2786 2788 2845 0
2786 -2788 2845 0
-2790 -2792 -2847 0
2790 2792 -2847 0
-2790 2792 2847 0
2790 -2792 2847 0
-2794 -2796 -2849 0
2794 2796 -2849 0
-2794 2796 2849 0
2794 -2796 2849 0
-2798 -2800 -2851 0
2798 2800 -2851 0
-2798 2800 2851 0
2798 -2800 2851 0
-2804 -2806 -2853 0
2804 2806 -2853 0
-2804 2806 2853 0
2804 -2806 2853 0
-2808 -2810 -2855 0
2808 2810 -2855 0
-2808 2810 2855 0
2808 -2810 2855 0
-2812 -2814 -2857 0
2812 2814 -2857 0
-2812 2814 2857 0
2812 -2814 2857 0
-2816 -2818 -2859 0
2816 2818 -2859 0
-2816 2818 2859 0
2816 -2818 2859 0
-2820 -2822 -2861 0
2820 2822 -2861 0
-2820 2822 2861 0
2820 -2822 2861 0
-2824 -2825 -2863 0
2824 2825 -2863 0
-2824 2825 2863 0
2824 -2825 2863 0
-2826 -2827 -2866 0
2826 2827 -2866 0
-2826 2827 2866 0
2826 -2827 2866 0
-2828 -2829 -2868 0
2828 2829 -2868 0
-2828 2829 2868 0
2828 -2829 2868 0
-2831 -2833 -2871 0
2831 2833 -2871 0
-2831 2833 2871 0
2831 -2833 2871 0
-2835 -2837 -2872 0
2835 2837 -2872 0
-2835 2837 2872 0
2835 -2837 2872 0
-2839 -2841 -2874 0
2839 2841 -2874 0
-2839 2841 2874 0
2839 -2841 2874 0
-2842 -2843 -2876 0
2842 2843 -2876 0
-2842 2843 2876 0
2842 -2843 2876 0
-2845 -2847 -2878 0
2845 2847 -2878 0
-2845 2847 2878 0
2845 -2847 2878 0
-2849 -2851 -2880 0
2849 2851 -2880 0
-2849 2851 2880 0
2849 -2851 2880 0
-2852 -2853 -2882 0
2852 2853 -2882 0
-2852 2853 2882 0
2852 -2853 2882 0
-2855 -2857 -2884 0
2855 2857 -2884 0
-2855 2857 2884 0
2855 -2857 2884 0
-2859 -2861 -2886 0
2859 2861 -2886 0
-2859 2861 2886 0
2859 -2861 2886 0
-2823 -2863 -2888 0
2823 2863 -2888 0
2823 -2863 2888 0
-2823 2863 2888 0
-2865 -2866 -2890 0
2865 2866 -2890 0
-2865 2866 2890 0
2865 -2866 2890 0
-2868 -2870 -2892 0
2868 2870 -2892 0
-2868 2870 2892 0
2868 -2870 2892 0
-2871 -2872 -2894 0
2871 2872 -2894 0
-2871 2872 2894 0
2871 -2872 2894 0
-2874 -2876 -2896 0
2874 2876 -2896 0
-2874 2876 2896 0
2874 -2876 2896 0
-2878 -2880 -2898 0
2878 2880 -2898 0
-2878 2880 2898 0
2878 -2880 2898 0
-2882 -2884 -2900 0
2882 2884 -2900 0
-2882 2884 2900 0
2882 -2884 2900 0
-2886 -2888 -2902 0
2886 2888 -2902 0
-2886 2888 2902 0
2886 -2888 2902 0
-2890 -2892 -2904 0
2890 2892 -2904 0
-2890 2892 2904 0
2890 -2892 2904 0
-2894 -2896 -2906 0
2894 2896 -2906 0
-2894 2896 2906 0
2894 -2896 2906 0
-2898 -2900 -2908 0
2898 2900 -2908 0
-2898 2900 2908 0
2898 -2900 2908 0
-2902 -2904 -2910 0
2902 2904 -2910 0
-2902 2904 2910 0
2902 -2904 2910 0
-2906 -2908 -2910 0
2906 2908 -2910 0
-2906 2908 2910 0
2906 -2908 2910 0
-2830 -2832 -2916 0
2830 2832 -2916 0
-2830 2832 2916 0
2830 -2832 2916 0
-2834 -2836 -2918 0
2834 2836 -2918 0
-2834 2836 2918 0
2834 -2836 2918 0
-2838 -2840 -2920 0
2838 2840 -2920 0
-2838 2840 2920 0
2838 -2840 2920 0
-2844 -2846 -2922 0
2844 2846 -2922 0
-2844 2846 2922 0
2844 -2846 2922 0
-2848 -2850 -2924 0
2848 2850 -2924 0
-2848 2850 2924 0
2848 -2850 2924 0
-2854 -2856 -2927 0
2854 2856 -2927 0
-2854 2856 2927 0
2854 -2856 2927 0
-2858 -2860 -2928 0
2858 2860 -2928 0
-2858 2860 2928 0
2858 -2860 2928 0
-2862 -2864 -2930 0
2862 2864 -2930 0
-2862 2864 2930 0
2862 -2864 2930 0
-2867 -2869 -2964 0
2867 2869 -2964 0
-2867 2869 2964 0
2867 -2869 2964 0
-2873 -2875 -2933 0
2873 2875 -2933 0
-2873 2875 2933 0
2873 -2875 2933 0
-2877 -2879 -2934 0
2877 2879 -2934 0
-2877 2879 2934 0
2877 -2879 2934 0
-2881 -2883 -2936 0
2881 2883 -2936 0
-2881 2883 2936 0
2881 -2883 2936 0
-2885 -2887 -2938 0
2885 2887 -2938 0
-2885 2887 2938 0
2885 -2887 2938 0
-2889 -2891 -2940 0
2889 2891 -2940 0
-2889 2891 2940 0
2889 -2891 2940 0
-2893 -2895 -2942 0
2893 2895 -2942 0
-2893 2895 2942 0
2893 -2895 2942 0
-2897 -2899 -2944 0
2897 2899 -2944 0
-2897 2899 2944 0
2897 -2899 2944 0
-2901 -2903 -2946 0
2901 2903 -2946 0
-2901 2903 2946 0
2901 -2903 2946 0
-2905 -2907 -2948 0
2905 2907 -2948 0
-2905 2907 2948 0
2905 -2907 2948 0
-2909 -2911 -2950 0
2909 2911 -2950 0
-2909 2911 2950 0
2909 -2911 2950 0
-2910 -2912 -2952 0
2910 2912 -2952 0
2910 -2912 2952 0
-2910 2912 2952 0
-2914 -2915 -2954 0
2914 2915 -2954 0
-2914 2915 2954 0
2914 -2915 2954 0
-2916 -2918 -2955 0
2916 2918 -2955 0
-2916 2918 2955 0
2916 -2918 2955 0
-2920 -2921 -2957 0
2920 2921 -2957 0
-2920 2921 2957 0
2920 -2921 2957 0
-2922 -2924 -2959 0
2922 2924 -2959 0
-2922 2924 2959 0
2922 -2924 2959 0
-2926 -2927 -2961 0
2926 2927 -2961 0
-2926 2927 2961 0
2926 -2927 2961 0
-2928 -2930 -2963 0
2928 2930 -2963 0
-2928 2930 2963 0
2928 -2930 2963 0
-2932 -2933 -2965 0
2932 2933 -2965 0
-2932 2933 2965 0
2932 -2933 2965 0
-2934 -2936 -2967 0
2934 2936 -2967 0
-2934 2936 2967 0
2934 -2936 2967 0
-2938 -2940 -2969 0
2938 2940 -2969 0
-2938 2940 2969 0
2938 -2940 2969 0
-2942 -2944 -2971 0
2942 2944 -2971 0
-2942 2944 2971 0
2942 -2944 2971 0
-2946 -2948 -2973 0
2946 2948 -2973 0
-2946 2948 2973 0
2946 -2948 2973 0
-2950 -2952 -2975 0
2950 2952 -2975 0
-2950 2952 2975 0
2950 -2952 2975 0
-2913 -2954 -2977 0
2913 2954 -2977 0
-2913 2954 2977 0
2913 -2954 2977 0
-2955 -2957 -2979 0
2955 2957 -2979 0
-2955 2957 2979 0
2955 -2957 2979 0
-2959 -2961 -2981 0
2959 2961 -2981 0
-2959 2961 2981 0
2959 -2961 2981 0
-2963 -2964 -2983 0
2963 2964 -2983 0
-2963 2964 2983 0
2963 -2964 2983 0
-2965 -2967 -2985 0
2965 2967 -2985 0
-2965 2967 2985 0
2965 -2967 2985 0
-2969 -2971 -2987 0
2969 2971 -2987 0
-2969 2971 2987 0
2969 -2971 2987 0
-2973 -2975 -2989 0
2973 2975 -2989 0
-2973 2975 2989 0
2973 -2975 2989 0
-2977 -2979 -2991 0
2977 2979 -2991 0
-2977 2979 2991 0
2977 -2979 2991 0
-2981 -2983 -2993 0
2981 2983 -2993 0
-2981 2983 2993 0
2981 -2983 2993 0
-2985 -2987 -2995 0
2985 2987 -2995 0
-2985 2987 2995 0
2985 -2987 2995 0
-2989 -2991 -2997 0
2989 2991 -2997 0
-2989 2991 2997 0
2989 -2991 2997 0
-2993 -2995 -2997 0
2993 2995 -2997 0
-2993 2995 2997 0
2993 -2995 2997 0
-2917 -2919 -3036 0
2917 2919 -3036 0
-2917 2919 3036 0
2917 -2919 3036 0
-2923 -2925 -3001 0
2923 2925 -3001 0
-2923 2925 3001 0
2923 -2925 3001 0
-2929 -2931 -3003 0
2929 2931 -3003 0
-2929 2931 3003 0
2929 -2931 3003 0
-2935 -2937 -3006 0
2935 2937 -3006 0
-2935 2937 3006 0
2935 -2937 3006 0
-2939 -2941 -3007 0
2939 2941 -3007 0
-2939 2941 3007 0
2939 -2941 3007 0
-2943 -2945 -3009 0
2943 2945 -3009 0
-2943 2945 3009 0
2943 -2945 3009 0
-2947 -2949 -3011 0
2947 2949 -3011 0
-2947 2949 3011 0
2947 -2949 3011 0
-2951 -2953 -3013 0
2951 2953 -3013 0
-2951 2953 3013 0
2951 -2953 3013 0
-2956 -2958 -3016 0
2956 2958 -3016 0
-2956 2958 3016 0
2956 -2958 3016 0
-2960 -2962 -3017 0
2960 2962 -3017 0
-2960 2962 3017 0
2960 -2962 3017 0
-2966 -2968 -3019 0
2966 2968 -3019 0
-2966 2968 3019 0
2966 -2968 3019 0
-2970 -2972 -3021 0
2970 2972 -3021 0
-2970 2972 3021 0
2970 -2972 3021 0
-2974 -2976 -3023 0
2974 2976 -3023 0
-2974 2976 3023 0
2974 -2976 3023 0
-2978 -2980 -3025 0
2978 2980 -3025 0
-2978 2980 3025 0
2978 -2980 3025 0
-2982 -2984 -3027 0
2982 2984 -3027 0
-2982 2984 3027 0
2982 -2984 3027 0
-2986 -2988 -3029 0
2986 2988 -3029 0
-2986 2988 3029 0
2986 -2988 3029 0
-2990 -2992 -3031 0
2990 2992 -3031 0
-2990 2992 3031 0
2990 -2992 3031 0
-2994 -2996 -3033 0
2994 2996 -3033 0
-2994 2996 3033 0
2994 -2996 3033 0
-2998 -2999 -3035 0
2998 2999 -3035 0
-2998 2999 3035 0
2998 -2999 3035 0
-3000 -3001 -3037 0
3000 3001 -3037 0
-3000 3001 3037 0
3000 -3001 3037 0
-3002 -3003 -3038 0
3002 3003 -3038 0
-3002 3003 3038 0
3002 -3003 3038 0
-3004 -3005 -3040 0
3004 3005 -3040 0
-3004 3005 3040 0
3004 -3005 3040 0
-3006 -3007 -3042 0
3006 3007 -3042 0
-3006 3007 3042 0
3006 -3007 3042 0
-3009 -3011 -3044 0
3009 3011 -3044 0
-3009 3011 3044 0
3009 -3011 3044 0
-3013 -3015 -3046 0
3013 3015 -3046 0
-3013 3015 3046 0
3013 -3015 3046 0
-3016 -3017 -3048 0
3016 3017 -3048 0
-3016 3017 3048 0
3016 -3017 3048 0
-3018 -3019 -3050 0
3018 3019 -3050 0
-3018 3019 3050 0
3018 -3019 3050 0
-3021 -3023 -3052 0
3021 3023 -3052 0
-3021 3023 3052 0
3021 -3023 3052 0
-3025 -3027 -3054 0
3025 3027 -3054 0
-3025 3027 3054 0
3025 -3027 3054 0
-3029 -3031 -3056 0
3029 3031 -3056 0
-3029 3031 3056 0
3029 -3031 3056 0
-3033 -3035 -3058 0
3033 3035 -3058 0
-3033 3035 3058 0
3033 -3035 3058 0
-2997 -3036 -3060 0
2997 3036 -3060 0
-2997 3036 3060 0
2997 -3036 3060 0
-3037 -3038 -3062 0
3037 3038 -3062 0
-3037 3038 3062 0
3037 -3038 3062 0
-3040 -3042 -3064 0
3040 3042 -3064 0
-3040 3042 3064 0
3040 -3042 3064 0
-3044 -3046 -3066 0
3044 3046 -3066 0
-3044 3046 3066 0
3044 -3046 3066 0
-3048 -3050 -3068 0
3048 3050 -3068 0
-3048 3050 3068 0
3048 -3050 3068 0
-3052 -3054 -3070 0
3052 3054 -3070 0
-3052 3054 3070 0
3052 -3054 3070 0
-3056 -3058 -3072 0
3056 3058 -3072 0
-3056 3058 3072 0
3056 -3058 3072 0
-3060 -3062 -3074 0
3060 3062 -3074 0
-3060 3062 3074 0
3060 -3062 3074 0
-3064 -3066 -3076 0
3064 3066 -3076 0
-3064 3066 3076 0
3064 -3066 3076 0
-3068 -3070 -3078 0
3068 3070 -3078 0
-3068 3070 3078 0
3068 -3070 3078 0
-3072 -3074 -3080 0
3072 3074 -3080 0
-3072 3074 3080 0
3072 -3074 3080 0
-3076 -3078 -3080 0
3076 3078 -3080 0
-3076 3078 3080 0
3076 -3078 3080 0
-3008 -3010 -3087 0
3008 3010 -3087 0
-3008 3010 3087 0
3008 -3010 3087 0
-3012 -3014 -3088 0
3012 3014 -3088 0
-3012 3014 3088 0
3012 -3014 3088 0
-3020 -3022 -3091 0
3020 3022 -3091 0
-3020 3022 3091 0
3020 -3022 3091 0
-3024 -3026 -3092 0
3024 3026 -3092 0
-3024 3026 3092 0
3024 -3026 3092 0
-3028 -3030 -3094 0
3028 3030 -3094 0
-3028 3030 3094 0
3028 -3030 3094 0
-3032 -3034 -3096 0
3032 3034 -3096 0
-3032 3034 3096 0
3032 -3034 3096 0
-3039 -3041 -3099 0
3039 3041 -3099 0
-3039 3041 3099 0
3039 -3041 3099 0
-3043 -3045 -3100 0
3043 3045 -3100 0
-3043 3045 3100 0
3043 -3045 3100 0
-3047 -3049 -3102 0
3047 3049 -3102 0
-3047 3049 3102 0
3047 -3049 3102 0
-3051 -3053 -3104 0
3051 3053 -3104 0
-3051 3053 3104 0
3051 -3053 3104 0
-3055 -3057 -3106 0
3055 3057 -3106 0
-3055 3057 3106 0
3055 -3057 3106 0
-3059 -3061 -3108 0
3059 3061 -3108 0
-3059 3061 3108 0
3059 -3061 3108 0
-3063 -3065 -3110 0
3063 3065 -3110 0
-3063 3065 3110 0
3063 -3065 3110 0
-3067 -3069 -3112 0
3067 3069 -3112 0
-3067 3069 3112 0
3067 -3069 3112 0
-3071 -3073 -3114 0
3071 3073 -3114 0
-3071 3073 3114 0
3071 -3073 3114 0
-3075 -3077 -3116 0
3075 3077 -3116 0
-3075 3077 3116 0
3075 -3077 3116 0
-3079 -3081 -3118 0
3079 3081 -3118 0
-3079 3081 3118 0
3079 -3081 3118 0
-3080 -3082 -3120 0
3080 3082 -3120 0
3080 -3082 3120 0
-3080 3082 3120 0
-3084 -3085 -3121 0
3084 3085 -3121 0
-3084 3085 3121 0
3084 -3085 3121 0
-3086 -3087 -3123 0
3086 3087 -3123 0
-3086 3087 3123 0
3086 -3087 3123 0
-3088 -3089 -3125 0
3088 3089 -3125 0
-3088 3089 3125 0
3088 -3089 3125 0
-3090 -3091 -3127 0
3090 3091 -3127 0
-3090 3091 3127 0
3090 -3091 3127 0
-3092 -3094 -3129 0
3092 3094 -3129 0
-3092 3094 3129 0
3092 -3094 3129 0
-3096 -3097 -3131 0
3096 3097 -3131 0
-3096 3097 3131 0
3096 -3097 3131 0
-3098 -3099 -3133 0
3098 3099 -3133 0
-3098 3099 3133 0
3098 -3099 3133 0
-3100 -3102 -3135 0
3100 3102 -3135 0
-3100 3102 3135 0
3100 -3102 3135 0
-3104 -3106 -3137 0
3104 3106 -3137 0
-3104 3106 3137 0
3104 -3106 3137 0
-3108 -3110 -3139 0
3108 3110 -3139 0
-3108 3110 3139 0
3108 -3110 3139 0
-3112 -3114 -3141 0
3112 3114 -3141 0
-3112 3114 3141 0
3112 -3114 3141 0
-3116 -3118 -3143 0
3116 3118 -3143 0
-3116 3118 3143 0
3116 -3118 3143 0
-3083 -3120 -3145 0
3083 3120 -3145 0
3083 -3120 3145 0
-3083 3120 3145 0
-3121 -3123 -3147 0
3121 3123 -3147 0
-3121 3123 3147 0
3121 -3123 3147 0
-3125 -3127 -3149 0
3125 3127 -3149 0
-3125 3127 3149 0
3125 -3127 3149 0
-3129 -3131 -3151 0
3129 3131 -3151 0
-3129 3131 3151 0
3129 -3131 3151 0
-3133 -3135 -3153 0
3133 3135 -3153 0
-3133 3135 3153 0
3133 -3135 3153 0
-3137 -3139 -3155 0
3137 3139 -3155 0
-3137 3139 3155 0
3137 -3139 3155 0
-3141 -3143 -3157 0
3141 3143 -3157 0
-3141 3143 3157 0
3141 -3143 3157 0
-3145 -3147 -3159 0
3145 3147 -3159 0
-3145 3147 3159 0
3145 -3147 3159 0
-3149 -3151 -3161 0
3149 3151 -3161 0
-3149 3151 3161 0
3149 -3151 3161 0
-3153 -3155 -3163 0
3153 3155 -3163 0
-3153 3155 3163 0
3153 -3155 3163 0
-3157 -3159 -3165 0
3157 3159 -3165 0
-3157 3159 3165 0
3157 -3159 3165 0
-3161 -3163 -3165 0
3161 3163 -3165 0
-3161 3163 3165 0
3161 -3163 3165 0
-3093 -3095 -3171 0
3093 3095 -3171 0
-3093 3095 3171 0
3093 -3095 3171 0
-3101 -3103 -3174 0
3101 3103 -3174 0
-3101 3103 3174 0
3101 -3103 3174 0
-3105 -3107 -3176 0
3105 3107 -3176 0
-3105 3107 3176 0
3105 -3107 3176 0
-3109 -3111 -3178 0
3109 3111 -3178 0
-3109 3111 3178 0
3109 -3111 3178 0
-3113 -3115 -3180 0
3113 3115 -3180 0
-3113 3115 3180 0
3113 -3115 3180 0
-3117 -3119 -3182 0
3117 3119 -3182 0
-3117 3119 3182 0
3117 -3119 3182 0
-3122 -3124 -3184 0
3122 3124 -3184 0
-3122 3124 3184 0
3122 -3124 3184 0
-3126 -3128 -3186 0
3126 3128 -3186 0
-3126 3128 3186 0
3126 -3128 3186 0
-3130 -3132 -3188 0
3130 3132 -3188 0
-3130 3132 3188 0
3130 -3132 3188 0
-3134 -3136 -3190 0
3134 3136 -3190 0
-3134 3136 3190 0
3134 -3136 3190 0
-3138 -3140 -3192 0
3138 3140 -3192 0
-3138 3140 3192 0
3138 -3140 3192 0
-3142 -3144 -3194 0
3142 3144 -3194 0
-3142 3144 3194 0
3142 -3144 3194 0
-3146 -3148 -3196 0
3146 3148 -3196 0
-3146 3148 3196 0
3146 -3148 3196 0
-3150 -3152 -3198 0
3150 3152 -3198 0
-3150 3152 3198 0
3150 -3152 3198 0
-3154 -3156 -3200 0
3154 3156 -3200 0
-3154 3156 3200 0
3154 -3156 3200 0
-3158 -3160 -3202 0
3158 3160 -3202 0
-3158 3160 3202 0
3158 -3160 3202 0
-3162 -3164 -3204 0
3162 3164 -3204 0
-3162 3164 3204 0
3162 -3164 3204 0
-3166 -3167 -3206 0
3166 3167 -3206 0
-3166 3167 3206 0
3166 -3167 3206 0
-3169 -3170 -3208 0
3169 3170 -3208 0
-3169 3170 3208 0
3169 -3170 3208 0
-3171 -3172 -3210 0
3171 3172 -3210 0
-3171 3172 3210 0
3171 -3172 3210 0
-3173 -3174 -3212 0
3173 3174 -3212 0
-3173 3174 3212 0
3173 -3174 3212 0
-3176 -3178 -3214 0
3176 3178 -3214 0
-3176 3178 3214 0
3176 -3178 3214 0
-3180 -3182 -3216 0
3180 3182 -3216 0
-3180 3182 3216 0
3180 -3182 3216 0
-3183 -3184 -3218 0
3183 3184 -3218 0
-3183 3184 3218 0
3183 -3184 3218 0
-3186 -3188 -3220 0
3186 3188 -3220 0
-3186 3188 3220 0
3186 -3188 3220 0
-3190 -3192 -3222 0
3190 3192 -3222 0
-3190 3192 3222 0
3190 -3192 3222 0
-3194 -3196 -3224 0
3194 3196 -3224 0
-3194 3196 3224 0
3194 -3196 3224 0
-3198 -3200 -3226 0
3198 3200 -3226 0
-3198 3200 3226 0
3198 -3200 3226 0
-3202 -3204 -3228 0
3202 3204 -3228 0
-3202 3204 3228 0
3202 -3204 3228 0
-3165 -3206 -3230 0
3165 3206 -3230 0
3165 -3206 3230 0
-3165 3206 3230 0
-3168 -3208 -3232 0
3168 3208 -3232 0
-3168 3208 3232 0
3168 -3208 3232 0
-3210 -3212 -3234 0
3210 3212 -3234 0
-3210 3212 3234 0
3210 -3212 3234 0
-3214 -3216 -3236 0
3214 3216 -3236 0
-3214 3216 3236 0
3214 -3216 3236 0
-3218 -3220 -3238 0
3218 3220 -3238 0
-3218 3220 3238 0
3218 -3220 3238 0
-3222 -3224 -3240 0
3222 3224 -3240 0
-3222 3224 3240 0
3222 -3224 3240 0
-3226 -3228 -3242 0
3226 3228 -3242 0
-3226 3228 3242 0
3226 -3228 3242 0
-3230 -3232 -3244 0
3230 3232 -3244 0
-3230 3232 3244 0
3230 -3232 3244 0
-3234 -3236 -3246 0
3234 3236 -3246 0
-3234 3236 3246 0
3234 -3236 3246 0
-3238 -3240 -3248 0
3238 3240 -3248 0
-3238 3240 3248 0
3238 -3240 3248 0
-3242 -3244 -3250 0
3242 3244 -3250 0
-3242 3244 3250 0
3242 -3244 3250 0
-3246 -3248 -3250 0
3246 3248 -3250 0
-3246 3248 3250 0
3246 -3248 3250 0
-3175 -3177 -3254 0
3175 3177 -3254 0
-3175 3177 3254 0
3175 -3177 3254 0
-3179 -3181 -3256 0
3179 3181 -3256 0
-3179 3181 3256 0
3179 -3181 3256 0
-3185 -3187 -3259 0
3185 3187 -3259 0
-3185 3187 3259 0
3185 -3187 3259 0
-3189 -3191 -3260 0
3189 3191 -3260 0
-3189 3191 3260 0
3189 -3191 3260 0
-3193 -3195 -3262 0
3193 3195 -3262 0
-3193 3195 3262 0
3193 -3195 3262 0
-3197 -3199 -3264 0
3197 3199 -3264 0
-3197 3199 3264 0
3197 -3199 3264 0
-3201 -3203 -3266 0
3201 3203 -3266 0
-3201 3203 3266 0
3201 -3203 3266 0
-3205 -3207 -3300 0
3205 3207 -3300 0
-3205 3207 3300 0
3205 -3207 3300 0
-3209 -3211 -3268 0
3209 3211 -3268 0
-3209 3211 3268 0
3209 -3211 3268 0
-3213 -3215 -3270 0
3213 3215 -3270 0
-3213 3215 3270 0
3213 -3215 3270 0
-3217 -3219 -3272 0
3217 3219 -3272 0
-3217 3219 3272 0
3217 -3219 3272 0
-3221 -3223 -3274 0
3221 3223 -3274 0
-3221 3223 3274 0
3221 -3223 3274 0
-3225 -3227 -3276 0
3225 3227 -3276 0
-3225 3227 3276 0
3225 -3227 3276 0
-3229 -3231 -3278 0
3229 3231 -3278 0
-3229 3231 3278 0
3229 -3231 3278 0
-3233 -3235 -3280 0
3233 3235 -3280 0
-3233 3235 3280 0
3233 -3235 3280 0
-3237 -3239 -3282 0
3237 3239 -3282 0
-3237 3239 3282 0
3237 -3239 3282 0
-3241 -3243 -3284 0
3241 3243 -3284 0
-3241 3243 3284 0
3241 -3243 3284 0
-3245 -3247 -3286 0
3245 3247 -3286 0
-3245 3247 3286 0
3245 -3247 3286 0
-3249 -3251 -3288 0
3249 3251 -3288 0
-3249 3251 3288 0
3249 -3251 3288 0
-3250 -3252 -3290 0
3250 3252 -3290 0
3250 -3252 3290 0
-3250 3252 3290 0
-3254 -3256 -3292 0
3254 3256 -3292 0
-3254 3256 3292 0
3254 -3256 3292 0
-3258 -3259 -3294 0
3258 3259 -3294 0
-3258 3259 3294 0
3258 -3259 3294 0
-3260 -3262 -3296 0
3260 3262 -3296 0
-3260 3262 3296 0
3260 -3262 3296 0
-3264 -3266 -3298 0
3264 3266 -3298 0
-3264 3266 3298 0
3264 -3266 3298 0
-3268 -3270 -3301 0
3268 3270 -3301 0
-3268 3270 3301 0
3268 -3270 3301 0
-3272 -3274 -3302 0
3272 3274 -3302 0
-3272 3274 3302 0
3272 -3274 3302 0
-3276 -3278 -3304 0
3276 3278 -3304 0
-3276 3278 3304 0
3276 -3278 3304 0
-3280 -3282 -3306 0
3280 3282 -3306 0
-3280 3282 3306 0
3280 -3282 3306 0
-3284 -3286 -3308 0
3284 3286 -3308 0
-3284 3286 3308 0
3284 -3286 3308 0
-3288 -3290 -3310 0
3288 3290 -3310 0
-3288 3290 3310 0
3288 -3290 3310 0
-3292 -3294 -3311 0
3292 3294 -3311 0
-3292 3294 3311 0
3292 -3294 3311 0
-3296 -3298 -3313 0
3296 3298 -3313 0
-3296 3298 3313 0
3296 -3298 3313 0
-3300 -3301 -3315 0
3300 3301 -3315 0
-3300 3301 3315 0
3300 -3301 3315 0
-3302 -3304 -3317 0
3302 3304 -3317 0
-3302 3304 3317 0
3302 -3304 3317 0
-3306 -3308 -3319 0
3306 3308 -3319 0
-3306 3308 3319 0
3306 -3308 3319 0
-3253 -3310 -3321 0
3253 3310 -3321 0
3253 -3310 3321 0
-3253 3310 3321 0
-3311 -3313 -3323 0
3311 3313 -3323 0
-3311 3313 3323 0
3311 -3313 3323 0
-3315 -3317 -3325 0
3315 3317 -3325 0
-3315 3317 3325 0
3315 -3317 3325 0
-3319 -3321 -3327 0
3319 3321 -3327 0
-3319 3321 3327 0
3319 -3321 3327 0
-3323 -3325 -3327 0
3323 3325 -3327 0
-3323 3325 3327 0
3323 -3325 3327 0
-3255 -3257 -3362 0
3255 3257 -3362 0
-3255 3257 3362 0
3255 -3257 3362 0
-3261 -3263 -3331 0
3261 3263 -3331 0
-3261 3263 3331 0
3261 -3263 3331 0
-3265 -3267 -3333 0
3265 3267 -3333 0
-3265 3267 3333 0
3265 -3267 3333 0
-3269 -3271 -3336 0
3269 3271 -3336 0
-3269 3271 3336 0
3269 -3271 3336 0
-3273 -3275 -3337 0
3273 3275 -3337 0
-3273 3275 3337 0
3273 -3275 3337 0
-3277 -3279 -3339 0
3277 3279 -3339 0
-3277 3279 3339 0
3277 -3279 3339 0
-3281 -3283 -3341 0
3281 3283 -3341 0
-3281 3283 3341 0
3281 -3283 3341 0
-3285 -3287 -3343 0
3285 3287 -3343 0
-3285 3287 3343 0
3285 -3287 3343 0
-3289 -3291 -3345 0
3289 3291 -3345 0
-3289 3291 3345 0
3289 -3291 3345 0
-3293 -3295 -3372 0
3293 3295 -3372 0
-3293 3295 3372 0
3293 -3295 3372 0
-3297 -3299 -3347 0
3297 3299 -3347 0
-3297 3299 3347 0
3297 -3299 3347 0
-3303 -3305 -3350 0
3303 3305 -3350 0
-3303 3305 3350 0
3303 -3305 3350 0
-3307 -3309 -3351 0
3307 3309 -3351 0
-3307 3309 3351 0
3307 -3309 3351 0
-3312 -3314 -3353 0
3312 3314 -3353 0
-3312 3314 3353 0
3312 -3314 3353 0
-3316 -3318 -3355 0
3316 3318 -3355 0
-3316 3318 3355 0
3316 -3318 3355 0
-3320 -3322 -3357 0
3320 3322 -3357 0
-3320 3322 3357 0
3320 -3322 3357 0
-3324 -3326 -3359 0
3324 3326 -3359 0
-3324 3326 3359 0
3324 -3326 3359 0
-3328 -3329 -3361 0
3328 3329 -3361 0
-3328 3329 3361 0
3328 -3329 3361 0
-3330 -3331 -3363 0
3330 3331 -3363 0
-3330 3331 3363 0
3330 -3331 3363 0
-3333 -3335 -3364 0
3333 3335 -3364 0
-3333 3335 3364 0
3333 -3335 3364 0
-3336 -3337 -3366 0
3336 3337 -3366 0
-3336 3337 3366 0
3336 -3337 3366 0
-3339 -3341 -3368 0
3339 3341 -3368 0
-3339 3341 3368 0
3339 -3341 3368 0
-3343 -3345 -3370 0
3343 3345 -3370 0
-3343 3345 3370 0
3343 -3345 3370 0
-3347 -3349 -3373 0
3347 3349 -3373 0
-3347 3349 3373 0
3347 -3349 3373 0
-3350 -3351 -3374 0
3350 3351 -3374 0
-3350 3351 3374 0
3350 -3351 3374 0
-3352 -3353 -3376 0
3352 3353 -3376 0
-3352 3353 3376 0
3352 -3353 3376 0
-3355 -3357 -3378 0
3355 3357 -3378 0
-3355 3357 3378 0
3355 -3357 3378 0
-3359 -3361 -3380 0
3359 3361 -3380 0
-3359 3361 3380 0
3359 -3361 3380 0
-3327 -3362 -3382 0
3327 3362 -3382 0
-3327 3362 3382 0
3327 -3362 3382 0
-3363 -3364 -3384 0
3363 3364 -3384 0
-3363 3364 3384 0
3363 -3364 3384 0
-3366 -3368 -3386 0
3366 3368 -3386 0
-3366 3368 3386 0
3366 -3368 3386 0
-3370 -3372 -3388 0
3370 3372 -3388 0
-3370 3372 3388 0
3370 -3372 3388 0
-3373 -3374 -3390 0
3373 3374 -3390 0
-3373 3374 3390 0
3373 -3374 3390 0
-3376 -3378 -3392 0
3376 3378 -3392 0
-3376 3378 3392 0
3376 -3378 3392 0
-3380 -3382 -3394 0
3380 3382 -3394 0
-3380 3382 3394 0
3380 -3382 3394 0
-3384 -3386 -3396 0
3384 3386 -3396 0
-3384 3386 3396 0
3384 -3386 3396 0
-3388 -3390 -3398 0
3388 3390 -3398 0
-3388 3390 3398 0
3388 -3390 3398 0
-3392 -3394 -3400 0
3392 3394 -3400 0
-3392 3394 3400 0
3392 -3394 3400 0
-3396 -3398 -3400 0
3396 3398 -3400 0
-3396 3398 3400 0
3396 -3398 3400 0
-3332 -3334 -3404 0
3332 3334 -3404 0
-3332 3334 3404 0
3332 -3334 3404 0
-3338 -3340 -3406 0
3338 3340 -3406 0
-3338 3340 3406 0
3338 -3340 3406 0
-3342 -3344 -3408 0
3342 3344 -3408 0
-3342 3344 3408 0
3342 -3344 3408 0
-3346 -3348 -3411 0
3346 3348 -3411 0
-3346 3348 3411 0
3346 -3348 3411 0
-3354 -3356 -3414 0
3354 3356 -3414 0
-3354 3356 3414 0
3354 -3356 3414 0
-3358 -3360 -3416 0
3358 3360 -3416 0
-3358 3360 3416 0
3358 -3360 3416 0
-3365 -3367 -3420 0
3365 3367 -3420 0
-3365 3367 3420 0
3365 -3367 3420 0
-3369 -3371 -3422 0
3369 3371 -3422 0
-3369 3371 3422 0
3369 -3371 3422 0
-3375 -3377 -3425 0
3375 3377 -3425 0
-3375 3377 3425 0
3375 -3377 3425 0
-3379 -3381 -3426 0
3379 3381 -3426 0
-3379 3381 3426 0
3379 -3381 3426 0
-3383 -3385 -3428 0
3383 3385 -3428 0
-3383 3385 3428 0
3383 -3385 3428 0
-3387 -3389 -3430 0
3387 3389 -3430 0
-3387 3389 3430 0
3387 -3389 3430 0
-3391 -3393 -3432 0
3391 3393 -3432 0
-3391 3393 3432 0
3391 -3393 3432 0
-3395 -3397 -3434 0
3395 3397 -3434 0
-3395 3397 3434 0
3395 -3397 3434 0
-3399 -3401 -3436 0
3399 3401 -3436 0
-3399 3401 3436 0
3399 -3401 3436 0
-3400 -3402 -3438 0
3400 3402 -3438 0
3400 -3402 3438 0
-3400 3402 3438 0
-3404 -3405 -3439 0
3404 3405 -3439 0
-3404 3405 3439 0
3404 -3405 3439 0
-3406 -3408 -3441 0
3406 3408 -3441 0
-3406 3408 3441 0
3406 -3408 3441 0
-3410 -3411 -3443 0
3410 3411 -3443 0
-3410 3411 3443 0
3410 -3411 3443 0
-3412 -3413 -3445 0
3412 3413 -3445 0
-3412 3413 3445 0
3412 -3413 3445 0
-3414 -3416 -3447 0
3414 3416 -3447 0
-3414 3416 3447 0
3414 -3416 3447 0
-3418 -3419 -3449 0
3418 3419 -3449 0
-3418 3419 3449 0
3418 -3419 3449 0
-3420 -3422 -3451 0
3420 3422 -3451 0
-3420 3422 3451 0
3420 -3422 3451 0
-3424 -3425 -3453 0
3424 3425 -3453 0
-3424 3425 3453 0
3424 -3425 3453 0
-3426 -3428 -3455 0
3426 3428 -3455 0
-3426 3428 3455 0
3426 -3428 3455 0
-3430 -3432 -3457 0
3430 3432 -3457 0
-3430 3432 3457 0
3430 -3432 3457 0
-3434 -3436 -3459 0
3434 3436 -3459 0
-3434 3436 3459 0
3434 -3436 3459 0
-3403 -3438 -3461 0
3403 3438 -3461 0
3403 -3438 3461 0
-3403 3438 3461 0
-3439 -3441 -3463 0
3439 3441 -3463 0
-3439 3441 3463 0
3439 -3441 3463 0
-3443 -3445 -3465 0
3443 3445 -3465 0
-3443 3445 3465 0
3443 -3445 3465 0
-3447 -3449 -3467 0
3447 3449 -3467 0
-3447 3449 3467 0
3447 -3449 3467 0
-3451 -3453 -3469 0
3451 3453 -3469 0
-3451 3453 3469 0
3451 -3453 3469 0
-3455 -3457 -3471 0
3455 3457 -3471 0
-3455 3457 3471 0
3455 -3457 3471 0
-3459 -3461 -3473 0
3459 3461 -3473 0
-3459 3461 3473 0
3459 -3461 3473 0
-3463 -3465 -3475 0
3463 3465 -3475 0
-3463 3465 3475 0
3463 -3465 3475 0
-3467 -3469 -3477 0
3467 3469 -3477 0
-3467 3469 3477 0
3467 -3469 3477 0
-3471 -3473 -3479 0
3471 3473 -3479 0
-3471 3473 3479 0
3471 -3473 3479 0
-3475 -3477 -3479 0
3475 3477 -3479 0
-3475 3477 3479 0
3475 -3477 3479 0
-3407 -3409 -3483 0
3407 3409 -3483 0
-3407 3409 3483 0
3407 -3409 3483 0
-3415 -3417 -3515 0
3415 3417 -3515 0
-3415 3417 3515 0
3415 -3417 3515 0
-3421 -3423 -3485 0
3421 3423 -3485 0
-3421 3423 3485 0
3421 -3423 3485 0
-3427 -3429 -3487 0
3427 3429 -3487 0
-3427 3429 3487 0
3427 -3429 3487 0
-3431 -3433 -3488 0
3431 3433 -3488 0
-3431 3433 3488 0
3431 -3433 3488 0
-3435 -3437 -3490 0
3435 3437 -3490 0
-3435 3437 3490 0
3435 -3437 3490 0
-3440 -3442 -3493 0
3440 3442 -3493 0
-3440 3442 3493 0
3440 -3442 3493 0
-3444 -3446 -3494 0
3444 3446 -3494 0
-3444 3446 3494 0
3444 -3446 3494 0
-3448 -3450 -3496 0
3448 3450 -3496 0
-3448 3450 3496 0
3448 -3450 3496 0
-3452 -3454 -3498 0
3452 3454 -3498 0
-3452 3454 3498 0
3452 -3454 3498 0
-3456 -3458 -3500 0
3456 3458 -3500 0
-3456 3458 3500 0
3456 -3458 3500 0
-3460 -3462 -3502 0
3460 3462 -3502 0
-3460 3462 3502 0
3460 -3462 3502 0
-3464 -3466 -3504 0
3464 3466 -3504 0
-3464 3466 3504 0
3464 -3466 3504 0
-3468 -3470 -3506 0
3468 3470 -3506 0
-3468 3470 3506 0
3468 -3470 3506 0
-3472 -3474 -3508 0
3472 3474 -3508 0
-3472 3474 3508 0
3472 -3474 3508 0
-3476 -3478 -3510 0
3476 3478 -3510 0
-3476 3478 3510 0
3476 -3478 3510 0
-3480 -3481 -3512 0
3480 3481 -3512 0
-3480 3481 3512 0
3480 -3481 3512 0
-3482 -3483 -3514 0
3482 3483 -3514 0
-3482 3483 3514 0
3482 -3483 3514 0
-3485 -3486 -3516 0
3485 3486 -3516 0
-3485 3486 3516 0
3485 -3486 3516 0
-3487 -3488 -3518 0
3487 3488 -3518 0
-3487 3488 3518 0
3487 -3488 3518 0
-3490 -3492 -3520 0
3490 3492 -3520 0
-3490 3492 3520 0
3490 -3492 3520 0
-3493 -3494 -3522 0
3493 3494 -3522 0
-3493 3494 3522 0
3493 -3494 3522 0
-3496 -3498 -3524 0
3496 3498 -3524 0
-3496 3498 3524 0
3496 -3498 3524 0
-3500 -3502 -3526 0
3500 3502 -3526 0
-3500 3502 3526 0
3500 -3502 3526 0
-3504 -3506 -3528 0
3504 3506 -3528 0
-3504 3506 3528 0
3504 -3506 3528 0
-3508 -3510 -3530 0
3508 3510 -3530 0
-3508 3510 3530 0
3508 -3510 3530 0
-3479 -3512 -3532 0
3479 3512 -3532 0
3479 -3512 3532 0
-3479 3512 3532 0
-3484 -3514 -3534 0
3484 3514 -3534 0
3484 -3514 3534 0
-3484 3514 3534 0
-3515 -3516 -3536 0
3515 3516 -3536 0
-3515 3516 3536 0
3515 -3516 3536 0
-3518 -3520 -3538 0
3518 3520 -3538 0
-3518 3520 3538 0
3518 -3520 3538 0
-3522 -3524 -3540 0
3522 3524 -3540 0
-3522 3524 3540 0
3522 -3524 3540 0
-3526 -3528 -3542 0
3526 3528 -3542 0
-3526 3528 3542 0
3526 -3528 3542 0
-3530 -3532 -3544 0
3530 3532 -3544 0
-3530 3532 3544 0
3530 -3532 3544 0
-3534 -3536 -3546 0
3534 3536 -3546 0
-3534 3536 3546 0
3534 -3536 3546 0
-3538 -3540 -3548 0
3538 3540 -3548 0
-3538 3540 3548 0
3538 -3540 3548 0
-3542 -3544 -3550 0
3542 3544 -3550 0
-3542 3544 3550 0
3542 -3544 3550 0
-3546 -3548 -3550 0
3546 3548 -3550 0
-3546 3548 3550 0
3546 -3548 3550 0
-3489 -3491 -3557 0
3489 3491 -3557 0
-3489 3491 3557 0
3489 -3491 3557 0
-3495 -3497 -3559 0
3495 3497 -3559 0
-3495 3497 3559 0
3495 -3497 3559 0
-3499 -3501 -3560 0
3499 3501 -3560 0
-3499 3501 3560 0
3499 -3501 3560 0
-3503 -3505 -3562 0
3503 3505 -3562 0
-3503 3505 3562 0
3503 -3505 3562 0
-3507 -3509 -3564 0
3507 3509 -3564 0
-3507 3509 3564 0
3507 -3509 3564 0
-3511 -3513 -3566 0
3511 3513 -3566 0
-3511 3513 3566 0
3511 -3513 3566 0
-3517 -3519 -3569 0
3517 3519 -3569 0
-3517 3519 3569 0
3517 -3519 3569 0
-3521 -3523 -3571 0
3521 3523 -3571 0
-3521 3523 3571 0
3521 -3523 3571 0
-3525 -3527 -3573 0
3525 3527 -3573 0
-3525 3527 3573 0
3525 -3527 3573 0
-3529 -3531 -3575 0
3529 3531 -3575 0
-3529 3531 3575 0
3529 -3531 3575 0
-3533 -3535 -3577 0
3533 3535 -3577 0
-3533 3535 3577 0
3533 -3535 3577 0
-3537 -3539 -3579 0
3537 3539 -3579 0
-3537 3539 3579 0
3537 -3539 3579 0
-3541 -3543 -3581 0
3541 3543 -3581 0
-3541 3543 3581 0
3541 -3543 3581 0
-3545 -3547 -3583 0
3545 3547 -3583 0
-3545 3547 3583 0
3545 -3547 3583 0
-3549 -3551 -3585 0
3549 3551 -3585 0
-3549 3551 3585 0
3549 -3551 3585 0
-3550 -3552 -3587 0
3550 3552 -3587 0
3550 -3552 3587 0
-3550 3552 3587 0
-3554 -3555 -3589 0
3554 3555 -3589 0
-3554 3555 3589 0
3554 -3555 3589 0
-3556 -3557 -3590 0
3556 3557 -3590 0
-3556 3557 3590 0
3556 -3557 3590 0
-3558 -3559 -3592 0
3558 3559 -3592 0
-3558 3559 3592 0
3558 -3559 3592 0
-3560 -3562 -3594 0
3560 3562 -3594 0
-3560 3562 3594 0
3560 -3562 3594 0
-3564 -3566 -3596 0
3564 3566 -3596 0
-3564 3566 3596 0
3564 -3566 3596 0
-3569 -3571 -3598 0
3569 3571 -3598 0
-3569 3571 3598 0
3569 -3571 3598 0
-3573 -3575 -3599 0
3573 3575 -3599 0
-3573 3575 3599 0
3573 -3575 3599 0
-3577 -3579 -3601 0
3577 3579 -3601 0
-3577 3579 3601 0
3577 -3579 3601 0
-3581 -3583 -3603 0
3581 3583 -3603 0
-3581 3583 3603 0
3581 -3583 3603 0
-3585 -3587 -3605 0
3585 3587 -3605 0
-3585 3587 3605 0
3585 -3587 3605 0
-3553 -3589 -3607 0
3553 3589 -3607 0
-3553 3589 3607 0
3553 -3589 3607 0
-3590 -3592 -3609 0
3590 3592 -3609 0
-3590 3592 3609 0
3590 -3592 3609 0
-3594 -3596 -3611 0
3594 3596 -3611 0
-3594 3596 3611 0
3594 -3596 3611 0
-3568 -3598 -3613 0
3568 3598 -3613 0
-3568 3598 3613 0
3568 -3598 3613 0
-3599 -3601 -3615 0
3599 3601 -3615 0
-3599 3601 3615 0
3599 -3601 3615 0
-3603 -3605 -3617 0
3603 3605 -3617 0
-3603 3605 3617 0
3603 -3605 3617 0
-3607 -3609 -3619 0
3607 3609 -3619 0
-3607 3609 3619 0
3607 -3609 3619 0
-3611 -3613 -3621 0
3611 3613 -3621 0
-3611 3613 3621 0
3611 -3613 3621 0
-3615 -3617 -3623 0
3615 3617 -3623 0
-3615 3617 3623 0
3615 -3617 3623 0
-3619 -3621 -3623 0
3619 3621 -3623 0
-3619 3621 3623 0
3619 -3621 3623 0
-3561 -3563 -3628 0
3561 3563 -3628 0
-3561 3563 3628 0
3561 -3563 3628 0
-3565 -3567 -3658 0
3565 3567 -3658 0
-3565 3567 3658 0
3565 -3567 3658 0
-3570 -3572 -3631 0
3570 3572 -3631 0
-3570 3572 3631 0
3570 -3572 3631 0
-3574 -3576 -3632 0
3574 3576 -3632 0
-3574 3576 3632 0
3574 -3576 3632 0
-3578 -3580 -3634 0
3578 3580 -3634 0
-3578 3580 3634 0
3578 -3580 3634 0
-3582 -3584 -3636 0
3582 3584 -3636 0
-3582 3584 3636 0
3582 -3584 3636 0
-3586 -3588 -3638 0
3586 3588 -3638 0
-3586 3588 3638 0
3586 -3588 3638 0
-3591 -3593 -3641 0
3591 3593 -3641 0
-3591 3593 3641 0
3591 -3593 3641 0
-3595 -3597 -3642 0
3595 3597 -3642 0
-3595 3597 3642 0
3595 -3597 3642 0
-3600 -3602 -3644 0
3600 3602 -3644 0
-3600 3602 3644 0
3600 -3602 3644 0
-3604 -3606 -3646 0
3604 3606 -3646 0
-3604 3606 3646 0
3604 -3606 3646 0
-3608 -3610 -3648 0
3608 3610 -3648 0
-3608 3610 3648 0
3608 -3610 3648 0
-3612 -3614 -3650 0
3612 3614 -3650 0
-3612 3614 3650 0
3612 -3614 3650 0
-3616 -3618 -3652 0
3616 3618 -3652 0
-3616 3618 3652 0
3616 -3618 3652 0
-3620 -3622 -3654 0
3620 3622 -3654 0
-3620 3622 3654 0
3620 -3622 3654 0
-3624 -3625 -3656 0
3624 3625 -3656 0
-3624 3625 3656 0
3624 -3625 3656 0
-3627 -3628 -3657 0
3627 3628 -3657 0
-3627 3628 3657 0
3627 -3628 3657 0
-3631 -3632 -3659 0
3631 3632 -3659 0
-3631 3632 3659 0
3631 -3632 3659 0
-3634 -3636 -3660 0
3634 3636 -3660 0
-3634 3636 3660 0
3634 -3636 3660 0
-3638 -3640 -3662 0
3638 3640 -3662 0
-3638 3640 3662 0
3638 -3640 3662 0
-3641 -3642 -3664 0
3641 3642 -3664 0
-3641 3642 3664 0
3641 -3642 3664 0
-3643 -3644 -3666 0
3643 3644 -3666 0
-3643 3644 3666 0
3643 -3644 3666 0
-3646 -3648 -3668 0
3646 3648 -3668 0
-3646 3648 3668 0
3646 -3648 3668 0
-3650 -3652 -3670 0
3650 3652 -3670 0
-3650 3652 3670 0
3650 -3652 3670 0
-3654 -3656 -3672 0
3654 3656 -3672 0
-3654 3656 3672 0
3654 -3656 3672 0
-3623 -3626 -3674 0
3623 3626 -3674 0
-3623 3626 3674 0
3623 -3626 3674 0
-3657 -3658 -3676 0
3657 3658 -3676 0
-3657 3658 3676 0
3657 -3658 3676 0
-3659 -3660 -3678 0
3659 3660 -3678 0
-3659 3660 3678 0
3659 -3660 3678 0
-3662 -3664 -3680 0
3662 3664 -3680 0
-3662 3664 3680 0
3662 -3664 3680 0
-3666 -3668 -3682 0
3666 3668 -3682 0
-3666 3668 3682 0
3666 -3668 3682 0
-3670 -3672 -3684 0
3670 3672 -3684 0
-3670 3672 3684 0
3670 -3672 3684 0
-3674 -3676 -3686 0
3674 3676 -3686 0
-3674 3676 3686 0
3674 -3676 3686 0
-3678 -3680 -3688 0
3678 3680 -3688 0
-3678 3680 3688 0
3678 -3680 3688 0
-3682 -3684 -3690 0
3682 3684 -3690 0
-3682 3684 3690 0
3682 -3684 3690 0
-3686 -3688 -3690 0
3686 3688 -3690 0
-3686 3688 3690 0
3686 -3688 3690 0
-3629 -3630 -3693 0
3629 3630 -3693 0
-3629 3630 3693 0
3629 -3630 3693 0
-3633 -3635 -3695 0
3633 3635 -3695 0
-3633 3635 3695 0
3633 -3635 3695 0
-3637 -3639 -3697 0
3637 3639 -3697 0
-3637 3639 3697 0
3637 -3639 3697 0
-3645 -3647 -3701 0
3645 3647 -3701 0
-3645 3647 3701 0
3645 -3647 3701 0
-3649 -3651 -3703 0
3649 3651 -3703 0
-3649 3651 3703 0
3649 -3651 3703 0
-3653 -3655 -3705 0
3653 3655 -3705 0
-3653 3655 3705 0
3653 -3655 3705 0
-3661 -3663 -3709 0
3661 3663 -3709 0
-3661 3663 3709 0
3661 -3663 3709 0
-3665 -3667 -3711 0
3665 3667 -3711 0
-3665 3667 3711 0
3665 -3667 3711 0
-3669 -3671 -3713 0
3669 3671 -3713 0
-3669 3671 3713 0
3669 -3671 3713 0
-3673 -3675 -3715 0
3673 3675 -3715 0
-3673 3675 3715 0
3673 -3675 3715 0
-3677 -3679 -3717 0
3677 3679 -3717 0
-3677 3679 3717 0
3677 -3679 3717 0
-3681 -3683 -3719 0
3681 3683 -3719 0
-3681 3683 3719 0
3681 -3683 3719 0
-3685 -3687 -3721 0
3685 3687 -3721 0
-3685 3687 3721 0
3685 -3687 3721 0
-3689 -3691 -3723 0
3689 3691 -3723 0
-3689 3691 3723 0
3689 -3691 3723 0
-3690 -3692 -3745 0
3690 3692 -3745 0
3690 -3692 3745 0
-3690 3692 3745 0
-3693 -3694 -3725 0
3693 3694 -3725 0
-3693 3694 3725 0
3693 -3694 3725 0
-3695 -3697 -3727 0
3695 3697 -3727 0
-3695 3697 3727 0
3695 -3697 3727 0
-3699 -3700 -3729 0
3699 3700 -3729 0
-3699 3700 3729 0
3699 -3700 3729 0
-3701 -3703 -3731 0
3701 3703 -3731 0
-3701 3703 3731 0
3701 -3703 3731 0
-3705 -3706 -3733 0
3705 3706 -3733 0
-3705 3706 3733 0
3705 -3706 3733 0
-3707 -3708 -3735 0
3707 3708 -3735 0
-3707 3708 3735 0
3707 -3708 3735 0
-3709 -3711 -3737 0
3709 3711 -3737 0
-3709 3711 3737 0
3709 -3711 3737 0
-3713 -3715 -3739 0
3713 3715 -3739 0
-3713 3715 3739 0
3713 -3715 3739 0
-3717 -3719 -3741 0
3717 3719 -3741 0
-3717 3719 3741 0
3717 -3719 3741 0
-3721 -3723 -3743 0
3721 3723 -3743 0
-3721 3723 3743 0
3721 -3723 3743 0
-3725 -3727 -3746 0
3725 3727 -3746 0
-3725 3727 3746 0
3725 -3727 3746 0
-3729 -3731 -3747 0
3729 3731 -3747 0
-3729 3731 3747 0
3729 -3731 3747 0
-3733 -3735 -3749 0
3733 3735 -3749 0
-3733 3735 3749 0
3733 -3735 3749 0
-3737 -3739 -3751 0
3737 3739 -3751 0
-3737 3739 3751 0
3737 -3739 3751 0
-3741 -3743 -3753 0
3741 3743 -3753 0
-3741 3743 3753 0
3741 -3743 3753 0
-3745 -3746 -3755 0
3745 3746 -3755 0
-3745 3746 3755 0
3745 -3746 3755 0
-3747 -3749 -3757 0
3747 3749 -3757 0
-3747 3749 3757 0
3747 -3749 3757 0
-3751 -3753 -3759 0
3751 3753 -3759 0
-3751 3753 3759 0
3751 -3753 3759 0
-3755 -3757 -3759 0
3755 3757 -3759 0
-3755 3757 3759 0
3755 -3757 3759 0
-3696 -3698 -3763 0
3696 3698 -3763 0
-3696 3698 3763 0
3696 -3698 3763 0
-3702 -3704 -3791 0
3702 3704 -3791 0
-3702 3704 3791 0
3702 -3704 3791 0
-3710 -3712 -3765 0
3710 3712 -3765 0
-3710 3712 3765 0
3710 -3712 3765 0
-3714 -3716 -3766 0
3714 3716 -3766 0
-3714 3716 3766 0
3714 -3716 3766 0
-3718 -3720 -3768 0
3718 3720 -3768 0
-3718 3720 3768 0
3718 -3720 3768 0
-3722 -3724 -3770 0
3722 3724 -3770 0
-3722 3724 3770 0
3722 -3724 3770 0
-3726 -3728 -3772 0
3726 3728 -3772 0
-3726 3728 3772 0
3726 -3728 3772 0
-3730 -3732 -3774 0
3730 3732 -3774 0
-3730 3732 3774 0
3730 -3732 3774 0
-3734 -3736 -3776 0
3734 3736 -3776 0
-3734 3736 3776 0
3734 -3736 3776 0
-3738 -3740 -3778 0
3738 3740 -3778 0
-3738 3740 3778 0
3738 -3740 3778 0
-3742 -3744 -3780 0
3742 3744 -3780 0
-3742 3744 3780 0
3742 -3744 3780 0
-3748 -3750 -3782 0
3748 3750 -3782 0
-3748 3750 3782 0
3748 -3750 3782 0
-3752 -3754 -3784 0
3752 3754 -3784 0
-3752 3754 3784 0
3752 -3754 3784 0
-3756 -3758 -3786 0
3756 3758 -3786 0
-3756 3758 3786 0
3756 -3758 3786 0
-3760 -3761 -3788 0
3760 3761 -3788 0
-3760 3761 3788 0
3760 -3761 3788 0
-3762 -3763 -3790 0
3762 3763 -3790 0
-3762 3763 3790 0
3762 -3763 3790 0
-3765 -3766 -3792 0
3765 3766 -3792 0
-3765 3766 3792 0
3765 -3766 3792 0
-3768 -3770 -3794 0
3768 3770 -3794 0
-3768 3770 3794 0
3768 -3770 3794 0
-3771 -3772 -3796 0
3771 3772 -3796 0
-3771 3772 3796 0
3771 -3772 3796 0
-3774 -3776 -3798 0
3774 3776 -3798 0
-3774 3776 3798 0
3774 -3776 3798 0
-3778 -3780 -3800 0
3778 3780 -3800 0
-3778 3780 3800 0
3778 -3780 3800 0
-3781 -3782 -3802 0
3781 3782 -3802 0
-3781 3782 3802 0
3781 -3782 3802 0
-3784 -3786 -3804 0
3784 3786 -3804 0
-3784 3786 3804 0
3784 -3786 3804 0
-3759 -3788 -3806 0
3759 3788 -3806 0
3759 -3788 3806 0
-3759 3788 3806 0
-3790 -3791 -3808 0
3790 3791 -3808 0
-3790 3791 3808 0
3790 -3791 3808 0
-3764 -3792 -3810 0
3764 3792 -3810 0
-3764 3792 3810 0
3764 -3792 3810 0
-3794 -3796 -3812 0
3794 3796 -3812 0
-3794 3796 3812 0
3794 -3796 3812 0
-3798 -3800 -3814 0
3798 3800 -3814 0
-3798 3800 3814 0
3798 -3800 3814 0
-3802 -3804 -3816 0
3802 3804 -3816 0
-3802 3804 3816 0
3802 -3804 3816 0
-3806 -3808 -3818 0
3806 3808 -3818 0
-3806 3808 3818 0
3806 -3808 3818 0
-3810 -3812 -3820 0
3810 3812 -3820 0
-3810 3812 3820 0
3810 -3812 3820 0
-3814 -3816 -3822 0
3814 3816 -3822 0
-3814 3816 3822 0
3814 -3816 3822 0
-3818 -3820 -3822 0
3818 3820 -3822 0
-3818 3820 3822 0
3818 -3820 3822 0
-3767 -3769 -3828 0
3767 3769 -3828 0
-3767 3769 3828 0
3767 -3769 3828 0
-3773 -3775 -3830 0
3773 3775 -3830 0
-3773 3775 3830 0
3773 -3775 3830 0
-3777 -3779 -3832 0
3777 3779 -3832 0
-3777 3779 3832 0
3777 -3779 3832 0
-3783 -3785 -3835 0
3783 3785 -3835 0
-3783 3785 3835 0
3783 -3785 3835 0
-3787 -3789 -3836 0
3787 3789 -3836 0
-3787 3789 3836 0
3787 -3789 3836 0
-3793 -3795 -3863 0
3793 3795 -3863 0
-3793 3795 3863 0
3793 -3795 3863 0
-3797 -3799 -3838 0
3797 3799 -3838 0
-3797 3799 3838 0
3797 -3799 3838 0
-3801 -3803 -3840 0
3801 3803 -3840 0
-3801 3803 3840 0
3801 -3803 3840 0
-3805 -3807 -3842 0
3805 3807 -3842 0
-3805 3807 3842 0
3805 -3807 3842 0
-3809 -3811 -3844 0
3809 3811 -3844 0
-3809 3811 3844 0
3809 -3811 3844 0
-3813 -3815 -3846 0
3813 3815 -3846 0
-3813 3815 3846 0
3813 -3815 3846 0
-3817 -3819 -3848 0
3817 3819 -3848 0
-3817 3819 3848 0
3817 -3819 3848 0
-3821 -3823 -3850 0
3821 3823 -3850 0
-3821 3823 3850 0
3821 -3823 3850 0
-3822 -3824 -3852 0
3822 3824 -3852 0
3822 -3824 3852 0
-3822 3824 3852 0
-3826 -3827 -3854 0
3826 3827 -3854 0
-3826 3827 3854 0
3826 -3827 3854 0
-3828 -3829 -3855 0
3828 3829 -3855 0
-3828 3829 3855 0
3828 -3829 3855 0
-3830 -3832 -3857 0
3830 3832 -3857 0
-3830 3832 3857 0
3830 -3832 3857 0
-3834 -3835 -3859 0
3834 3835 -3859 0
-3834 3835 3859 0
3834 -3835 3859 0
-3836 -3837 -3861 0
3836 3837 -3861 0
-3836 3837 3861 0
3836 -3837 3861 0
-3838 -3840 -3864 0
3838 3840 -3864 0
-3838 3840 3864 0
3838 -3840 3864 0
-3842 -3844 -3865 0
3842 3844 -3865 0
-3842 3844 3865 0
3842 -3844 3865 0
-3846 -3848 -3867 0
3846 3848 -3867 0
-3846 3848 3867 0
3846 -3848 3867 0
-3850 -3852 -3869 0
3850 3852 -3869 0
-3850 3852 3869 0
3850 -3852 3869 0
-3825 -3854 -3871 0
3825 3854 -3871 0
-3825 3854 3871 0
3825 -3854 3871 0
-3855 -3857 -3873 0
3855 3857 -3873 0
-3855 3857 3873 0
3855 -3857 3873 0
-3859 -3861 -3875 0
3859 3861 -3875 0
-3859 3861 3875 0
3859 -3861 3875 0
-3863 -3864 -3877 0
3863 3864 -3877 0
-3863 3864 3877 0
3863 -3864 3877 0
-3865 -3867 -3879 0
3865 3867 -3879 0
-3865 3867 3879 0
3865 -3867 3879 0
-3869 -3871 -3881 0
3869 3871 -3881 0
-3869 3871 3881 0
3869 -3871 3881 0
-3873 -3875 -3883 0
3873 3875 -3883 0
-3873 3875 3883 0
3873 -3875 3883 0
-3877 -3879 -3885 0
3877 3879 -3885 0
-3877 3879 3885 0
3877 -3879 3885 0
-3881 -3883 -3885 0
3881 3883 -3885 0
-3881 3883 3885 0
3881 -3883 3885 0
-3831 -3833 -3889 0
3831 3833 -3889 0
-3831 3833 3889 0
3831 -3833 3889 0
-3839 -3841 -3893 0
3839 3841 -3893 0
-3839 3841 3893 0
3839 -3841 3893 0
-3843 -3845 -3894 0
3843 3845 -3894 0
-3843 3845 3894 0
3843 -3845 3894 0
-3847 -3849 -3896 0
3847 3849 -3896 0
-3847 3849 3896 0
3847 -3849 3896 0
-3851 -3853 -3898 0
3851 3853 -3898 0
-3851 3853 3898 0
3851 -3853 3898 0
-3856 -3858 -3900 0
3856 3858 -3900 0
-3856 3858 3900 0
3856 -3858 3900 0
-3860 -3862 -3902 0
3860 3862 -3902 0
-3860 3862 3902 0
3860 -3862 3902 0
-3866 -3868 -3905 0
3866 3868 -3905 0
-3866 3868 3905 0
3866 -3868 3905 0
-3870 -3872 -3906 0
3870 3872 -3906 0
-3870 3872 3906 0
3870 -3872 3906 0
-3874 -3876 -3908 0
3874 3876 -3908 0
-3874 3876 3908 0
3874 -3876 3908 0
-3878 -3880 -3910 0
3878 3880 -3910 0
-3878 3880 3910 0
3878 -3880 3910 0
-3882 -3884 -3912 0
3882 3884 -3912 0
-3882 3884 3912 0
3882 -3884 3912 0
-3886 -3887 -3914 0
3886 3887 -3914 0
-3886 3887 3914 0
3886 -3887 3914 0
-3889 -3890 -3915 0
3889 3890 -3915 0
-3889 3890 3915 0
3889 -3890 3915 0
-3891 -3892 -3916 0
3891 3892 -3916 0
-3891 3892 3916 0
3891 -3892 3916 0
-3893 -3894 -3918 0
3893 3894 -3918 0
-3893 3894 3918 0
3893 -3894 3918 0
-3896 -3898 -3920 0
3896 3898 -3920 0
-3896 3898 3920 0
3896 -3898 3920 0
-3899 -3900 -3922 0
3899 3900 -3922 0
-3899 3900 3922 0
3899 -3900 3922 0
-3902 -3904 -3924 0
3902 3904 -3924 0
-3902 3904 3924 0
3902 -3904 3924 0
-3905 -3906 -3926 0
3905 3906 -3926 0
-3905 3906 3926 0
3905 -3906 3926 0
-3908 -3910 -3928 0
3908 3910 -3928 0
-3908 3910 3928 0
3908 -3910 3928 0
-3912 -3914 -3930 0
3912 3914 -3930 0
-3912 3914 3930 0
3912 -3914 3930 0
-3885 -3888 -3932 0
3885 3888 -3932 0
-3885 3888 3932 0
3885 -3888 3932 0
-3915 -3916 -3934 0
3915 3916 -3934 0
-3915 3916 3934 0
3915 -3916 3934 0
-3918 -3920 -3936 0
3918 3920 -3936 0
-3918 3920 3936 0
3918 -3920 3936 0
-3922 -3924 -3938 0
3922 3924 -3938 0
-3922 3924 3938 0
3922 -3924 3938 0
-3926 -3928 -3940 0
3926 3928 -3940 0
-3926 3928 3940 0
3926 -3928 3940 0
-3930 -3932 -3942 0
3930 3932 -3942 0
-3930 3932 3942 0
3930 -3932 3942 0
-3934 -3936 -3944 0
3934 3936 -3944 0
-3934 3936 3944 0
3934 -3936 3944 0
-3938 -3940 -3946 0
3938 3940 -3946 0
-3938 3940 3946 0
3938 -3940 3946 0
-3942 -3944 -3946 0
3942 3944 -3946 0
-3942 3944 3946 0
3942 -3944 3946 0
-3895 -3897 -3950 0
3895 3897 -3950 0
-3895 3897 3950 0
3895 -3897 3950 0
-3901 -3903 -3952 0
3901 3903 -3952 0
-3901 3903 3952 0
3901 -3903 3952 0
-3907 -3909 -3954 0
3907 3909 -3954 0
-3907 3909 3954 0
3907 -3909 3954 0
-3911 -3913 -3956 0
3911 3913 -3956 0
-3911 3913 3956 0
3911 -3913 3956 0
-3917 -3919 -3960 0
3917 3919 -3960 0
-3917 3919 3960 0
3917 -3919 3960 0
-3921 -3923 -3962 0
3921 3923 -3962 0
-3921 3923 3962 0
3921 -3923 3962 0
-3925 -3927 -3964 0
3925 3927 -3964 0
-3925 3927 3964 0
3925 -3927 3964 0
-3929 -3931 -3966 0
3929 3931 -3966 0
-3929 3931 3966 0
3929 -3931 3966 0
-3933 -3935 -3968 0
3933 3935 -3968 0
-3933 3935 3968 0
3933 -3935 3968 0
-3937 -3939 -3970 0
3937 3939 -3970 0
-3937 3939 3970 0
3937 -3939 3970 0
-3941 -3943 -3972 0
3941 3943 -3972 0
-3941 3943 3972 0
3941 -3943 3972 0
-3945 -3947 -3974 0
3945 3947 -3974 0
-3945 3947 3974 0
3945 -3947 3974 0
-3946 -3948 -3976 0
3946 3948 -3976 0
3946 -3948 3976 0
-3946 3948 3976 0
-3950 -3951 -3978 0
3950 3951 -3978 0
-3950 3951 3978 0
3950 -3951 3978 0
-3952 -3953 -3979 0
3952 3953 -3979 0
-3952 3953 3979 0
3952 -3953 3979 0
-3954 -3956 -3981 0
3954 3956 -3981 0
-3954 3956 3981 0
3954 -3956 3981 0
-3958 -3959 -3983 0
3958 3959 -3983 0
-3958 3959 3983 0
3958 -3959 3983 0
-3960 -3962 -3985 0
3960 3962 -3985 0
-3960 3962 3985 0
3960 -3962 3985 0
-3964 -3966 -3987 0
3964 3966 -3987 0
-3964 3966 3987 0
3964 -3966 3987 0
-3968 -3970 -3989 0
3968 3970 -3989 0
-3968 3970 3989 0
3968 -3970 3989 0
-3972 -3974 -3991 0
3972 3974 -3991 0
-3972 3974 3991 0
3972 -3974 3991 0
-3949 -3976 -3993 0
3949 3976 -3993 0
3949 -3976 3993 0
-3949 3976 3993 0
-3977 -3978 -3995 0
3977 3978 -3995 0
-3977 3978 3995 0
3977 -3978 3995 0
-3979 -3981 -3997 0
3979 3981 -3997 0
-3979 3981 3997 0
3979 -3981 3997 0
-3983 -3985 -3999 0
3983 3985 -3999 0
-3983 3985 3999 0
3983 -3985 3999 0
-3987 -3989 -4001 0
3987 3989 -4001 0
-3987 3989 4001 0
3987 -3989 4001 0
-3991 -3993 -4003 0
3991 3993 -4003 0
-3991 3993 4003 0
3991 -3993 4003 0
-3995 -3997 -4005 0
3995 3997 -4005 0
-3995 3997 4005 0
3995 -3997 4005 0
-3999 -4001 -4007 0
3999 4001 -4007 0
-3999 4001 4007 0
3999 -4001 4007 0
-4003 -4005 -4007 0
4003 4005 -4007 0
-4003 4005 4007 0
4003 -4005 4007 0
-3955 -3957 -4012 0
3955 3957 -4012 0
-3955 3957 4012 0
3955 -3957 4012 0
-3961 -3963 -4039 0
3961 3963 -4039 0
-3961 3963 4039 0
3961 -3963 4039 0
-3965 -3967 -4014 0
3965 3967 -4014 0
-3965 3967 4014 0
3965 -3967 4014 0
-3969 -3971 -4016 0
3969 3971 -4016 0
-3969 3971 4016 0
3969 -3971 4016 0
-3973 -3975 -4018 0
3973 3975 -4018 0
-3973 3975 4018 0
3973 -3975 4018 0
-3980 -3982 -4022 0
3980 3982 -4022 0
-3980 3982 4022 0
3980 -3982 4022 0
-3984 -3986 -4024 0
3984 3986 -4024 0
-3984 3986 4024 0
3984 -3986 4024 0
-3988 -3990 -4026 0
3988 3990 -4026 0
-3988 3990 4026 0
3988 -3990 4026 0
-3992 -3994 -4028 0
3992 3994 -4028 0
-3992 3994 4028 0
3992 -3994 4028 0
-3996 -3998 -4030 0
3996 3998 -4030 0
-3996 3998 4030 0
3996 -3998 4030 0
-4000 -4002 -4032 0
4000 4002 -4032 0
-4000 4002 4032 0
4000 -4002 4032 0
-4004 -4006 -4034 0
4004 4006 -4034 0
-4004 4006 4034 0
4004 -4006 4034 0
-4008 -4009 -4036 0
4008 4009 -4036 0
-4008 4009 4036 0
4008 -4009 4036 0
-4011 -4012 -4038 0
4011 4012 -4038 0
-4011 4012 4038 0
4011 -4012 4038 0
-4014 -4016 -4040 0
4014 4016 -4040 0
-4014 4016 4040 0
4014 -4016 4040 0
-4018 -4020 -4042 0
4018 4020 -4042 0
-4018 4020 4042 0
4018 -4020 4042 0
-4021 -4022 -4044 0
4021 4022 -4044 0
-4021 4022 4044 0
4021 -4022 4044 0
-4024 -4026 -4046 0
4024 4026 -4046 0
-4024 4026 4046 0
4024 -4026 4046 0
-4028 -4030 -4048 0
4028 4030 -4048 0
-4028 4030 4048 0
4028 -4030 4048 0
-4032 -4034 -4050 0
4032 4034 -4050 0
-4032 4034 4050 0
4032 -4034 4050 0
-4007 -4036 -4052 0
4007 4036 -4052 0
4007 -4036 4052 0
-4007 4036 4052 0
-4010 -4038 -4054 0
4010 4038 -4054 0
-4010 4038 4054 0
4010 -4038 4054 0
-4039 -4040 -4056 0
4039 4040 -4056 0
-4039 4040 4056 0
4039 -4040 4056 0
-4042 -4044 -4058 0
4042 4044 -4058 0
-4042 4044 4058 0
4042 -4044 4058 0
-4046 -4048 -4060 0
4046 4048 -4060 0
-4046 4048 4060 0
4046 -4048 4060 0
-4050 -4052 -4062 0
4050 4052 -4062 0
-4050 4052 4062 0
4050 -4052 4062 0
-4054 -4056 -4064 0
4054 4056 -4064 0
-4054 4056 4064 0
4054 -4056 4064 0
-4058 -4060 -4066 0
4058 4060 -4066 0
-4058 4060 4066 0
4058 -4060 4066 0
-4062 -4064 -4066 0
4062 4064 -4066 0
-4062 4064 4066 0
4062 -4064 4066 0
-4013 -4015 -4070 0
4013 4015 -4070 0
-4013 4015 4070 0
4013 -4015 4070 0
-4017 -4019 -4096 0
4017 4019 -4096 0
-4017 4019 4096 0
4017 -4019 4096 0
-4023 -4025 -4071 0
4023 4025 -4071 0
-4023 4025 4071 0
4023 -4025 4071 0
-4027 -4029 -4073 0
4027 4029 -4073 0
-4027 4029 4073 0
4027 -4029 4073 0
-4031 -4033 -4075 0
4031 4033 -4075 0
-4031 4033 4075 0
4031 -4033 4075 0
-4035 -4037 -4077 0
4035 4037 -4077 0
-4035 4037 4077 0
4035 -4037 4077 0
-4041 -4043 -4080 0
4041 4043 -4080 0
-4041 4043 4080 0
4041 -4043 4080 0
-4045 -4047 -4082 0
4045 4047 -4082 0
-4045 4047 4082 0
4045 -4047 4082 0
-4049 -4051 -4084 0
4049 4051 -4084 0
-4049 4051 4084 0
4049 -4051 4084 0
-4053 -4055 -4086 0
4053 4055 -4086 0
-4053 4055 4086 0
4053 -4055 4086 0
-4057 -4059 -4088 0
4057 4059 -4088 0
-4057 4059 4088 0
4057 -4059 4088 0
-4061 -4063 -4090 0
4061 4063 -4090 0
-4061 4063 4090 0
4061 -4063 4090 0
-4065 -4067 -4092 0
4065 4067 -4092 0
-4065 4067 4092 0
4065 -4067 4092 0
-4066 -4068 -4094 0
4066 4068 -4094 0
4066 -4068 4094 0
-4066 4068 4094 0
-4069 -4070 -4107 0
4069 4070 -4107 0
-4069 4070 4107 0
4069 -4070 4107 0
-4071 -4073 -4097 0
4071 4073 -4097 0
-4071 4073 4097 0
4071 -4073 4097 0
-4075 -4077 -4098 0
4075 4077 -4098 0
-4075 4077 4098 0
4075 -4077 4098 0
-4080 -4082 -4099 0
4080 4082 -4099 0
-4080 4082 4099 0
4080 -4082 4099 0
-4084 -4086 -4101 0
4084 4086 -4101 0
-4084 4086 4101 0
4084 -4086 4101 0
-4088 -4090 -4103 0
4088 4090 -4103 0
-4088 4090 4103 0
4088 -4090 4103 0
-4092 -4094 -4105 0
4092 4094 -4105 0
-4092 4094 4105 0
4092 -4094 4105 0
-4096 -4097 -4108 0
4096 4097 -4108 0
-4096 4097 4108 0
4096 -4097 4108 0
-4079 -4098 -4109 0
4079 4098 -4109 0
4079 -4098 4109 0
-4079 4098 4109 0
-4099 -4101 -4111 0
4099 4101 -4111 0
-4099 4101 4111 0
4099 -4101 4111 0
-4103 -4105 -4113 0
4103 4105 -4113 0
-4103 4105 4113 0
4103 -4105 4113 0
-4107 -4108 -4115 0
4107 4108 -4115 0
-4107 4108 4115 0
4107 -4108 4115 0
-4109 -4111 -4117 0
4109 4111 -4117 0
-4109 4111 4117 0
4109 -4111 4117 0
-4113 -4115 -4117 0
4113 4115 -4117 0
-4113 4115 4117 0
4113 -4115 4117 0
-4072 -4074 -4122 0
4072 4074 -4122 0
-4072 4074 4122 0
4072 -4074 4122 0
-4076 -4078 -4123 0
4076 4078 -4123 0
-4076 4078 4123 0
4076 -4078 4123 0
-4081 -4083 -4146 0
4081 4083 -4146 0
-4081 4083 4146 0
4081 -4083 4146 0
-4085 -4087 -4125 0
4085 4087 -4125 0
-4085 4087 4125 0
4085 -4087 4125 0
-4089 -4091 -4127 0
4089 4091 -4127 0
-4089 4091 4127 0
4089 -4091 4127 0
-4093 -4095 -4129 0
4093 4095 -4129 0
-4093 4095 4129 0
4093 -4095 4129 0
-4100 -4102 -4134 0
4100 4102 -4134 0
-4100 4102 4134 0
4100 -4102 4134 0
-4104 -4106 -4135 0
4104 4106 -4135 0
-4104 4106 4135 0
4104 -4106 4135 0
-4110 -4112 -4137 0
4110 4112 -4137 0
-4110 4112 4137 0
4110 -4112 4137 0
-4114 -4116 -4139 0
4114 4116 -4139 0
-4114 4116 4139 0
4114 -4116 4139 0
-4118 -4119 -4141 0
4118 4119 -4141 0
-4118 4119 4141 0
4118 -4119 4141 0
-4120 -4121 -4142 0
4120 4121 -4142 0
-4120 4121 4142 0
4120 -4121 4142 0
-4122 -4123 -4144 0
4122 4123 -4144 0
-4122 4123 4144 0
4122 -4123 4144 0
-4125 -4127 -4147 0
4125 4127 -4147 0
-4125 4127 4147 0
4125 -4127 4147 0
-4129 -4131 -4148 0
4129 4131 -4148 0
-4129 4131 4148 0
4129 -4131 4148 0
-4132 -4133 -4150 0
4132 4133 -4150 0
-4132 4133 4150 0
4132 -4133 4150 0
-4134 -4135 -4152 0
4134 4135 -4152 0
-4134 4135 4152 0
4134 -4135 4152 0
-4136 -4137 -4154 0
4136 4137 -4154 0
-4136 4137 4154 0
4136 -4137 4154 0
-4139 -4141 -4156 0
4139 4141 -4156 0
-4139 4141 4156 0
4139 -4141 4156 0
-4117 -4142 -4158 0
4117 4142 -4158 0
-4117 4142 4158 0
4117 -4142 4158 0
-4144 -4146 -4160 0
4144 4146 -4160 0
-4144 4146 4160 0
4144 -4146 4160 0
-4147 -4148 -4162 0
4147 4148 -4162 0
-4147 4148 4162 0
4147 -4148 4162 0
-4150 -4152 -4164 0
4150 4152 -4164 0
-4150 4152 4164 0
4150 -4152 4164 0
-4154 -4156 -4166 0
4154 4156 -4166 0
-4154 4156 4166 0
4154 -4156 4166 0
-4158 -4160 -4168 0
4158 4160 -4168 0
-4158 4160 4168 0
4158 -4160 4168 0
-4162 -4164 -4170 0
4162 4164 -4170 0
-4162 4164 4170 0
4162 -4164 4170 0
-4166 -4168 -4170 0
4166 4168 -4170 0
-4166 4168 4170 0
4166 -4168 4170 0
-4124 -4126 -4175 0
4124 4126 -4175 0
-4124 4126 4175 0
4124 -4126 4175 0
-4128 -4130 -4196 0
4128 4130 -4196 0
-4128 4130 4196 0
4128 -4130 4196 0
-4138 -4140 -4178 0
4138 4140 -4178 0
-4138 4140 4178 0
4138 -4140 4178 0
-4143 -4145 -4180 0
4143 4145 -4180 0
-4143 4145 4180 0
4143 -4145 4180 0
-4149 -4151 -4182 0
4149 4151 -4182 0
-4149 4151 4182 0
4149 -4151 4182 0
-4153 -4155 -4184 0
4153 4155 -4184 0
-4153 4155 4184 0
4153 -4155 4184 0
-4157 -4159 -4186 0
4157 4159 -4186 0
-4157 4159 4186 0
4157 -4159 4186 0
-4161 -4163 -4188 0
4161 4163 -4188 0
-4161 4163 4188 0
4161 -4163 4188 0
-4165 -4167 -4190 0
4165 4167 -4190 0
-4165 4167 4190 0
4165 -4167 4190 0
-4169 -4171 -4192 0
4169 4171 -4192 0
-4169 4171 4192 0
4169 -4171 4192 0
-4170 -4172 -4194 0
4170 4172 -4194 0
4170 -4172 4194 0
-4170 4172 4194 0
-4174 -4175 -4195 0
4174 4175 -4195 0
-4174 4175 4195 0
4174 -4175 4195 0
-4176 -4177 -4197 0
4176 4177 -4197 0
-4176 4177 4197 0
4176 -4177 4197 0
-4178 -4179 -4199 0
4178 4179 -4199 0
-4178 4179 4199 0
4178 -4179 4199 0
-4180 -4181 -4201 0
4180 4181 -4201 0
-4180 4181 4201 0
4180 -4181 4201 0
-4182 -4184 -4203 0
4182 4184 -4203 0
-4182 4184 4203 0
4182 -4184 4203 0
-4186 -4188 -4205 0
4186 4188 -4205 0
-4186 4188 4205 0
4186 -4188 4205 0
-4190 -4192 -4207 0
4190 4192 -4207 0
-4190 4192 4207 0
4190 -4192 4207 0
-4173 -4194 -4209 0
4173 4194 -4209 0
4173 -4194 4209 0
-4173 4194 4209 0
-4195 -4196 -4211 0
4195 4196 -4211 0
-4195 4196 4211 0
4195 -4196 4211 0
-4197 -4199 -4213 0
4197 4199 -4213 0
-4197 4199 4213 0
4197 -4199 4213 0
-4201 -4203 -4215 0
4201 4203 -4215 0
-4201 4203 4215 0
4201 -4203 4215 0
-4205 -4207 -4217 0
4205 4207 -4217 0
-4205 4207 4217 0
4205 -4207 4217 0
-4209 -4211 -4219 0
4209 4211 -4219 0
-4209 4211 4219 0
4209 -4211 4219 0
-4213 -4215 -4221 0
4213 4215 -4221 0
-4213 4215 4221 0
4213 -4215 4221 0
-4217 -4219 -4221 0
4217 4219 -4221 0
-4217 4219 4221 0
4217 -4219 4221 0
-4183 -4185 -4228 0
4183 4185 -4228 0
-4183 4185 4228 0
4183 -4185 4228 0
-4187 -4189 -4230 0
4187 4189 -4230 0
-4187 4189 4230 0
4187 -4189 4230 0
-4191 -4193 -4232 0
4191 4193 -4232 0
-4191 4193 4232 0
4191 -4193 4232 0
-4198 -4200 -4235 0
4198 4200 -4235 0
-4198 4200 4235 0
4198 -4200 4235 0
-4202 -4204 -4236 0
4202 4204 -4236 0
-4202 4204 4236 0
4202 -4204 4236 0
-4206 -4208 -4238 0
4206 4208 -4238 0
-4206 4208 4238 0
4206 -4208 4238 0
-4210 -4212 -4240 0
4210 4212 -4240 0
-4210 4212 4240 0
4210 -4212 4240 0
-4214 -4216 -4242 0
4214 4216 -4242 0
-4214 4216 4242 0
4214 -4216 4242 0
-4218 -4220 -4244 0
4218 4220 -4244 0
-4218 4220 4244 0
4218 -4220 4244 0
-4222 -4223 -4246 0
4222 4223 -4246 0
-4222 4223 4246 0
4222 -4223 4246 0
-4224 -4225 -4248 0
4224 4225 -4248 0
-4224 4225 4248 0
4224 -4225 4248 0
-4227 -4228 -4249 0
4227 4228 -4249 0
-4227 4228 4249 0
4227 -4228 4249 0
-4230 -4232 -4250 0
4230 4232 -4250 0
-4230 4232 4250 0
4230 -4232 4250 0
-4233 -4234 -4252 0
4233 4234 -4252 0
-4233 4234 4252 0
4233 -4234 4252 0
-4235 -4236 -4254 0
4235 4236 -4254 0
-4235 4236 4254 0
4235 -4236 4254 0
-4238 -4240 -4256 0
4238 4240 -4256 0
-4238 4240 4256 0
4238 -4240 4256 0
-4242 -4244 -4258 0
4242 4244 -4258 0
-4242 4244 4258 0
4242 -4244 4258 0
-4221 -4246 -4260 0
4221 4246 -4260 0
4221 -4246 4260 0
-4221 4246 4260 0
-4226 -4248 -4262 0
4226 4248 -4262 0
4226 -4248 4262 0
-4226 4248 4262 0
-4249 -4250 -4264 0
4249 4250 -4264 0
-4249 4250 4264 0
4249 -4250 4264 0
-4252 -4254 -4266 0
4252 4254 -4266 0
-4252 4254 4266 0
4252 -4254 4266 0
-4256 -4258 -4268 0
4256 4258 -4268 0
-4256 4258 4268 0
4256 -4258 4268 0
-4260 -4262 -4270 0
4260 4262 -4270 0
-4260 4262 4270 0
4260 -4262 4270 0
-4264 -4266 -4272 0
4264 4266 -4272 0
-4264 4266 4272 0
4264 -4266 4272 0
-4268 -4270 -4272 0
4268 4270 -4272 0
-4268 4270 4272 0
4268 -4270 4272 0
-4229 -4231 -4297 0
4229 4231 -4297 0
-4229 4231 4297 0
4229 -4231 4297 0
-4237 -4239 -4277 0
4237 4239 -4277 0
-4237 4239 4277 0
4237 -4239 4277 0
-4241 -4243 -4279 0
4241 4243 -4279 0
-4241 4243 4279 0
4241 -4243 4279 0
-4245 -4247 -4281 0
4245 4247 -4281 0
-4245 4247 4281 0
4245 -4247 4281 0
-4251 -4253 -4284 0
4251 4253 -4284 0
-4251 4253 4284 0
4251 -4253 4284 0
-4255 -4257 -4285 0
4255 4257 -4285 0
-4255 4257 4285 0
4255 -4257 4285 0
-4259 -4261 -4287 0
4259 4261 -4287 0
-4259 4261 4287 0
4259 -4261 4287 0
-4263 -4265 -4289 0
4263 4265 -4289 0
-4263 4265 4289 0
4263 -4265 4289 0
-4267 -4269 -4291 0
4267 4269 -4291 0
-4267 4269 4291 0
4267 -4269 4291 0
-4271 -4273 -4293 0
4271 4273 -4293 0
-4271 4273 4293 0
4271 -4273 4293 0
-4272 -4274 -4295 0
4272 4274 -4295 0
4272 -4274 4295 0
-4272 4274 4295 0
-4275 -4276 -4298 0
4275 4276 -4298 0
-4275 4276 4298 0
4275 -4276 4298 0
-4277 -4279 -4300 0
4277 4279 -4300 0
-4277 4279 4300 0
4277 -4279 4300 0
-4281 -4282 -4302 0
4281 4282 -4302 0
-4281 4282 4302 0
4281 -4282 4302 0
-4283 -4284 -4304 0
4283 4284 -4304 0
-4283 4284 4304 0
4283 -4284 4304 0
-4285 -4287 -4306 0
4285 4287 -4306 0
-4285 4287 4306 0
4285 -4287 4306 0
-4289 -4291 -4308 0
4289 4291 -4308 0
-4289 4291 4308 0
4289 -4291 4308 0
-4293 -4295 -4310 0
4293 4295 -4310 0
-4293 4295 4310 0
4293 -4295 4310 0
-4298 -4300 -4311 0
4298 4300 -4311 0
-4298 4300 4311 0
4298 -4300 4311 0
-4302 -4304 -4313 0
4302 4304 -4313 0
-4302 4304 4313 0
4302 -4304 4313 0
-4306 -4308 -4315 0
4306 4308 -4315 0
-4306 4308 4315 0
4306 -4308 4315 0
-4297 -4310 -4317 0
4297 4310 -4317 0
4297 -4310 4317 0
-4297 4310 4317 0
-4311 -4313 -4319 0
4311 4313 -4319 0
-4311 4313 4319 0
4311 -4313 4319 0
-4315 -4317 -4319 0
4315 4317 -4319 0
-4315 4317 4319 0
4315 -4317 4319 0
-4278 -4280 -4323 0
4278 4280 -4323 0
-4278 4280 4323 0
4278 -4280 4323 0
-4286 -4288 -4326 0
4286 4288 -4326 0
-4286 4288 4326 0
4286 -4288 4326 0
-4290 -4292 -4328 0
4290 4292 -4328 0
-4290 4292 4328 0
4290 -4292 4328 0
-4294 -4296 -4330 0
4294 4296 -4330 0
-4294 4296 4330 0
4294 -4296 4330 0
-4299 -4301 -4346 0
4299 4301 -4346 0
-4299 4301 4346 0
4299 -4301 4346 0
-4303 -4305 -4332 0
4303 4305 -4332 0
-4303 4305 4332 0
4303 -4305 4332 0
-4307 -4309 -4334 0
4307 4309 -4334 0
-4307 4309 4334 0
4307 -4309 4334 0
-4312 -4314 -4336 0
4312 4314 -4336 0
-4312 4314 4336 0
4312 -4314 4336 0
-4316 -4318 -4338 0
4316 4318 -4338 0
-4316 4318 4338 0
4316 -4318 4338 0
-4320 -4321 -4340 0
4320 4321 -4340 0
-4320 4321 4340 0
4320 -4321 4340 0
-4323 -4324 -4341 0
4323 4324 -4341 0
-4323 4324 4341 0
4323 -4324 4341 0
-4325 -4326 -4342 0
4325 4326 -4342 0
-4325 4326 4342 0
4325 -4326 4342 0
-4328 -4330 -4344 0
4328 4330 -4344 0
-4328 4330 4344 0
4328 -4330 4344 0
-4332 -4334 -4347 0
4332 4334 -4347 0
-4332 4334 4347 0
4332 -4334 4347 0
-4335 -4336 -4348 0
4335 4336 -4348 0
-4335 4336 4348 0
4335 -4336 4348 0
-4338 -4340 -4350 0
4338 4340 -4350 0
-4338 4340 4350 0
4338 -4340 4350 0
-4319 -4322 -4352 0
4319 4322 -4352 0
-4319 4322 4352 0
4319 -4322 4352 0
-4341 -4342 -4354 0
4341 4342 -4354 0
-4341 4342 4354 0
4341 -4342 4354 0
-4344 -4346 -4356 0
4344 4346 -4356 0
-4344 4346 4356 0
4344 -4346 4356 0
-4347 -4348 -4358 0
4347 4348 -4358 0
-4347 4348 4358 0
4347 -4348 4358 0
-4350 -4352 -4360 0
4350 4352 -4360 0
-4350 4352 4360 0
4350 -4352 4360 0
-4354 -4356 -4362 0
4354 4356 -4362 0
-4354 4356 4362 0
4354 -4356 4362 0
-4358 -4360 -4362 0
4358 4360 -4362 0
-4358 4360 4362 0
4358 -4360 4362 0
-4327 -4329 -4383 0
4327 4329 -4383 0
-4327 4329 4383 0
4327 -4329 4383 0
-4331 -4333 -4367 0
4331 4333 -4367 0
-4331 4333 4367 0
4331 -4333 4367 0
-4337 -4339 -4369 0
4337 4339 -4369 0
-4337 4339 4369 0
4337 -4339 4369 0
-4343 -4345 -4372 0
4343 4345 -4372 0
-4343 4345 4372 0
4343 -4345 4372 0
-4349 -4351 -4374 0
4349 4351 -4374 0
-4349 4351 4374 0
4349 -4351 4374 0
-4353 -4355 -4376 0
4353 4355 -4376 0
-4353 4355 4376 0
4353 -4355 4376 0
-4357 -4359 -4378 0
4357 4359 -4378 0
-4357 4359 4378 0
4357 -4359 4378 0
-4361 -4363 -4380 0
4361 4363 -4380 0
-4361 4363 4380 0
4361 -4363 4380 0
-4362 -4364 -4382 0
4362 4364 -4382 0
4362 -4364 4382 0
-4362 4364 4382 0
-4366 -4367 -4384 0
4366 4367 -4384 0
-4366 4367 4384 0
4366 -4367 4384 0
-4368 -4369 -4385 0
4368 4369 -4385 0
-4368 4369 4385 0
4368 -4369 4385 0
-4370 -4371 -4387 0
4370 4371 -4387 0
-4370 4371 4387 0
4370 -4371 4387 0
-4372 -4373 -4389 0
4372 4373 -4389 0
-4372 4373 4389 0
4372 -4373 4389 0
-4374 -4376 -4391 0
4374 4376 -4391 0
-4374 4376 4391 0
4374 -4376 4391 0
-4378 -4380 -4393 0
4378 4380 -4393 0
-4378 4380 4393 0
4378 -4380 4393 0
-4365 -4382 -4395 0
4365 4382 -4395 0
4365 -4382 4395 0
-4365 4382 4395 0
-4383 -4384 -4397 0
4383 4384 -4397 0
-4383 4384 4397 0
4383 -4384 4397 0
-4385 -4387 -4399 0
4385 4387 -4399 0
-4385 4387 4399 0
4385 -4387 4399 0
-4389 -4391 -4401 0
4389 4391 -4401 0
-4389 4391 4401 0
4389 -4391 4401 0
-4393 -4395 -4403 0
4393 4395 -4403 0
-4393 4395 4403 0
4393 -4395 4403 0
-4397 -4399 -4405 0
4397 4399 -4405 0
-4397 4399 4405 0
4397 -4399 4405 0
-4401 -4403 -4405 0
4401 4403 -4405 0
-4401 4403 4405 0
4401 -4403 4405 0
-4375 -4377 -4411 0
4375 4377 -4411 0
-4375 4377 4411 0
4375 -4377 4411 0
-4379 -4381 -4413 0
4379 4381 -4413 0
-4379 4381 4413 0
4379 -4381 4413 0
-4386 -4388 -4417 0
4386 4388 -4417 0
-4386 4388 4417 0
4386 -4388 4417 0
-4390 -4392 -4419 0
4390 4392 -4419 0
-4390 4392 4419 0
4390 -4392 4419 0
-4394 -4396 -4421 0
4394 4396 -4421 0
-4394 4396 4421 0
4394 -4396 4421 0
-4398 -4400 -4423 0
4398 4400 -4423 0
-4398 4400 4423 0
4398 -4400 4423 0
-4402 -4404 -4425 0
4402 4404 -4425 0
-4402 4404 4425 0
4402 -4404 4425 0
-4406 -4407 -4427 0
4406 4407 -4427 0
-4406 4407 4427 0
4406 -4407 4427 0
-4408 -4409 -4429 0
4408 4409 -4429 0
-4408 4409 4429 0
4408 -4409 4429 0
-4410 -4411 -4431 0
4410 4411 -4431 0
-4410 4411 4431 0
4410 -4411 4431 0
-4413 -4415 -4432 0
4413 4415 -4432 0
-4413 4415 4432 0
4413 -4415 4432 0
-4416 -4417 -4434 0
4416 4417 -4434 0
-4416 4417 4434 0
4416 -4417 4434 0
-4419 -4421 -4436 0
4419 4421 -4436 0
-4419 4421 4436 0
4419 -4421 4436 0
-4423 -4425 -4438 0
4423 4425 -4438 0
-4423 4425 4438 0
4423 -4425 4438 0
-4405 -4427 -4440 0
4405 4427 -4440 0
4405 -4427 4440 0
-4405 4427 4440 0
-4429 -4430 -4442 0
4429 4430 -4442 0
-4429 4430 4442 0
4429 -4430 4442 0
-4431 -4432 -4444 0
4431 4432 -4444 0
-4431 4432 4444 0
4431 -4432 4444 0
-4434 -4436 -4446 0
4434 4436 -4446 0
-4434 4436 4446 0
4434 -4436 4446 0
-4438 -4440 -4448 0
4438 4440 -4448 0
-4438 4440 4448 0
4438 -4440 4448 0
-4442 -4444 -4450 0
4442 4444 -4450 0
-4442 4444 4450 0
4442 -4444 4450 0
-4446 -4448 -4450 0
4446 4448 -4450 0
-4446 4448 4450 0
4446 -4448 4450 0
-4412 -4414 -4471 0
4412 4414 -4471 0
-4412 4414 4471 0
4412 -4414 4471 0
-4418 -4420 -4472 0
4418 4420 -4472 0
-4418 4420 4472 0
4418 -4420 4472 0
-4422 -4424 -4453 0
4422 4424 -4453 0
-4422 4424 4453 0
4422 -4424 4453 0
-4426 -4428 -4455 0
4426 4428 -4455 0
-4426 4428 4455 0
4426 -4428 4455 0
-4433 -4435 -4459 0
4433 4435 -4459 0
-4433 4435 4459 0
4433 -4435 4459 0
-4437 -4439 -4461 0
4437 4439 -4461 0
-4437 4439 4461 0
4437 -4439 4461 0
-4441 -4443 -4463 0
4441 4443 -4463 0
-4441 4443 4463 0
4441 -4443 4463 0
-4445 -4447 -4465 0
4445 4447 -4465 0
-4445 4447 4465 0
4445 -4447 4465 0
-4449 -4451 -4467 0
4449 4451 -4467 0
-4449 4451 4467 0
4449 -4451 4467 0
-4450 -4452 -4469 0
4450 4452 -4469 0
4450 -4452 4469 0
-4450 4452 4469 0
-4453 -4455 -4473 0
4453 4455 -4473 0
-4453 4455 4473 0
4453 -4455 4473 0
-4457 -4458 -4474 0
4457 4458 -4474 0
-4457 4458 4474 0
4457 -4458 4474 0
-4459 -4461 -4476 0
4459 4461 -4476 0
-4459 4461 4476 0
4459 -4461 4476 0
-4463 -4465 -4478 0
4463 4465 -4478 0
-4463 4465 4478 0
4463 -4465 4478 0
-4467 -4469 -4480 0
4467 4469 -4480 0
-4467 4469 4480 0
4467 -4469 4480 0
-4472 -4473 -4482 0
4472 4473 -4482 0
-4472 4473 4482 0
4472 -4473 4482 0
-4474 -4476 -4483 0
4474 4476 -4483 0
-4474 4476 4483 0
4474 -4476 4483 0
-4478 -4480 -4485 0
4478 4480 -4485 0
-4478 4480 4485 0
4478 -4480 4485 0
-4471 -4482 -4487 0
4471 4482 -4487 0
-4471 4482 4487 0
4471 -4482 4487 0
-4483 -4485 -4487 0
4483 4485 -4487 0
-4483 4485 4487 0
4483 -4485 4487 0
-4454 -4456 -4505 0
4454 4456 -4505 0
-4454 4456 4505 0
4454 -4456 4505 0
-4460 -4462 -4492 0
4460 4462 -4492 0
-4460 4462 4492 0
4460 -4462 4492 0
-4464 -4466 -4493 0
4464 4466 -4493 0
-4464 4466 4493 0
4464 -4466 4493 0
-4468 -4470 -4507 0
4468 4470 -4507 0
-4468 4470 4507 0
4468 -4470 4507 0
-4475 -4477 -4497 0
4475 4477 -4497 0
-4475 4477 4497 0
4475 -4477 4497 0
-4479 -4481 -4499 0
4479 4481 -4499 0
-4479 4481 4499 0
4479 -4481 4499 0
-4484 -4486 -4502 0
4484 4486 -4502 0
-4484 4486 4502 0
4484 -4486 4502 0
-4488 -4489 -4503 0
4488 4489 -4503 0
-4488 4489 4503 0
4488 -4489 4503 0
-4490 -4491 -4504 0
4490 4491 -4504 0
-4490 4491 4504 0
4490 -4491 4504 0
-4492 -4493 -4506 0
4492 4493 -4506 0
-4492 4493 4506 0
4492 -4493 4506 0
-4496 -4497 -4508 0
4496 4497 -4508 0
-4496 4497 4508 0
4496 -4497 4508 0
-4499 -4501 -4510 0
4499 4501 -4510 0
-4499 4501 4510 0
4499 -4501 4510 0
-4502 -4503 -4512 0
4502 4503 -4512 0
-4502 4503 4512 0
4502 -4503 4512 0
-4487 -4504 -4514 0
4487 4504 -4514 0
-4487 4504 4514 0
4487 -4504 4514 0
-4505 -4506 -4516 0
4505 4506 -4516 0
-4505 4506 4516 0
4505 -4506 4516 0
-4507 -4508 -4518 0
4507 4508 -4518 0
-4507 4508 4518 0
4507 -4508 4518 0
-4510 -4512 -4520 0
4510 4512 -4520 0
-4510 4512 4520 0
4510 -4512 4520 0
-4514 -4516 -4522 0
4514 4516 -4522 0
-4514 4516 4522 0
4514 -4516 4522 0
-4518 -4520 -4522 0
4518 4520 -4522 0
-4518 4520 4522 0
4518 -4520 4522 0
-4494 -4495 -4527 0
4494 4495 -4527 0
-4494 4495 4527 0
4494 -4495 4527 0
-4498 -4500 -4542 0
4498 4500 -4542 0
-4498 4500 4542 0
4498 -4500 4542 0
-4509 -4511 -4532 0
4509 4511 -4532 0
-4509 4511 4532 0
4509 -4511 4532 0
-4513 -4515 -4534 0
4513 4515 -4534 0
-4513 4515 4534 0
4513 -4515 4534 0
-4517 -4519 -4536 0
4517 4519 -4536 0
-4517 4519 4536 0
4517 -4519 4536 0
-4521 -4523 -4538 0
4521 4523 -4538 0
-4521 4523 4538 0
4521 -4523 4538 0
-4522 -4524 -4540 0
4522 4524 -4540 0
4522 -4524 4540 0
-4522 4524 4540 0
-4526 -4527 -4541 0
4526 4527 -4541 0
-4526 4527 4541 0
4526 -4527 4541 0
-4528 -4529 -4543 0
4528 4529 -4543 0
-4528 4529 4543 0
4528 -4529 4543 0
-4530 -4531 -4545 0
4530 4531 -4545 0
-4530 4531 4545 0
4530 -4531 4545 0
-4532 -4534 -4547 0
4532 4534 -4547 0
-4532 4534 4547 0
4532 -4534 4547 0
-4536 -4538 -4549 0
4536 4538 -4549 0
-4536 4538 4549 0
4536 -4538 4549 0
-4525 -4540 -4551 0
4525 4540 -4551 0
4525 -4540 4551 0
-4525 4540 4551 0
-4541 -4542 -4553 0
4541 4542 -4553 0
-4541 4542 4553 0
4541 -4542 4553 0
-4543 -4545 -4555 0
4543 4545 -4555 0
-4543 4545 4555 0
4543 -4545 4555 0
-4547 -4549 -4557 0
4547 4549 -4557 0
-4547 4549 4557 0
4547 -4549 4557 0
-4551 -4553 -4559 0
4551 4553 -4559 0
-4551 4553 4559 0
4551 -4553 4559 0
-4555 -4557 -4559 0
4555 4557 -4559 0
-4555 4557 4559 0
4555 -4557 4559 0
-4533 -4535 -4564 0
4533 4535 -4564 0
-4533 4535 4564 0
4533 -4535 4564 0
-4537 -4539 -4565 0
4537 4539 -4565 0
-4537 4539 4565 0
4537 -4539 4565 0
-4544 -4546 -4568 0
4544 4546 -4568 0
-4544 4546 4568 0
4544 -4546 4568 0
-4548 -4550 -4569 0
4548 4550 -4569 0
-4548 4550 4569 0
4548 -4550 4569 0
-4552 -4554 -4571 0
4552 4554 -4571 0
-4552 4554 4571 0
4552 -4554 4571 0
-4556 -4558 -4573 0
4556 4558 -4573 0
-4556 4558 4573 0
4556 -4558 4573 0
-4560 -4561 -4575 0
4560 4561 -4575 0
-4560 4561 4575 0
4560 -4561 4575 0
-4562 -4563 -4586 0
4562 4563 -4586 0
-4562 4563 4586 0
4562 -4563 4586 0
-4564 -4565 -4577 0
4564 4565 -4577 0
-4564 4565 4577 0
4564 -4565 4577 0
-4566 -4567 -4578 0
4566 4567 -4578 0
-4566 4567 4578 0
4566 -4567 4578 0
-4568 -4569 -4580 0
4568 4569 -4580 0
-4568 4569 4580 0
4568 -4569 4580 0
-4571 -4573 -4582 0
4571 4573 -4582 0
-4571 4573 4582 0
4571 -4573 4582 0
-4559 -4575 -4584 0
4559 4575 -4584 0
4559 -4575 4584 0
-4559 4575 4584 0
-4577 -4578 -4587 0
4577 4578 -4587 0
-4577 4578 4587 0
4577 -4578 4587 0
-4580 -4582 -4588 0
4580 4582 -4588 0
-4580 4582 4588 0
4580 -4582 4588 0
-4584 -4586 -4590 0
4584 4586 -4590 0
-4584 4586 4590 0
4584 -4586 4590 0
-4587 -4588 -4590 0
4587 4588 -4590 0
-4587 4588 4590 0
4587 -4588 4590 0
-4570 -4572 -4596 0
4570 4572 -4596 0
-4570 4572 4596 0
4570 -4572 4596 0
-4574 -4576 -4597 0
4574 4576 -4597 0
-4574 4576 4597 0
4574 -4576 4597 0
-4579 -4581 -4600 0
4579 4581 -4600 0
-4579 4581 4600 0
4579 -4581 4600 0
-4583 -4585 -4601 0
4583 4585 -4601 0
-4583 4585 4601 0
4583 -4585 4601 0
-4589 -4591 -4603 0
4589 4591 -4603 0
-4589 4591 4603 0
4589 -4591 4603 0
-4590 -4592 -4605 0
4590 4592 -4605 0
4590 -4592 4605 0
-4590 4592 4605 0
-4593 -4594 -4616 0
4593 4594 -4616 0
-4593 4594 4616 0
4593 -4594 4616 0
-4595 -4596 -4607 0
4595 4596 -4607 0
-4595 4596 4607 0
4595 -4596 4607 0
-4597 -4598 -4609 0
4597 4598 -4609 0
-4597 4598 4609 0
4597 -4598 4609 0
-4599 -4600 -4611 0
4599 4600 -4611 0
-4599 4600 4611 0
4599 -4600 4611 0
-4601 -4602 -4613 0
4601 4602 -4613 0
-4601 4602 4613 0
4601 -4602 4613 0
-4603 -4605 -4615 0
4603 4605 -4615 0
-4603 4605 4615 0
4603 -4605 4615 0
-4607 -4609 -4617 0
4607 4609 -4617 0
-4607 4609 4617 0
4607 -4609 4617 0
-4611 -4613 -4619 0
4611 4613 -4619 0
-4611 4613 4619 0
4611 -4613 4619 0
-4615 -4616 -4621 0
4615 4616 -4621 0
-4615 4616 4621 0
4615 -4616 4621 0
-4617 -4619 -4621 0
4617 4619 -4621 0
-4617 4619 4621 0
4617 -4619 4621 0
-4604 -4606 -4627 0
4604 4606 -4627 0
-4604 4606 4627 0
4604 -4606 4627 0
-4608 -4610 -4629 0
4608 4610 -4629 0
-4608 4610 4629 0
4608 -4610 4629 0
-4612 -4614 -4631 0
4612 4614 -4631 0
-4612 4614 4631 0
4612 -4614 4631 0
-4618 -4620 -4634 0
4618 4620 -4634 0
-4618 4620 4634 0
4618 -4620 4634 0
-4622 -4623 -4635 0
4622 4623 -4635 0
-4622 4623 4635 0
4622 -4623 4635 0
-4624 -4625 -4637 0
4624 4625 -4637 0
-4624 4625 4637 0
4624 -4625 4637 0
-4626 -4627 -4638 0
4626 4627 -4638 0
-4626 4627 4638 0
4626 -4627 4638 0
-4628 -4629 -4640 0
4628 4629 -4640 0
-4628 4629 4640 0
4628 -4629 4640 0
-4631 -4633 -4642 0
4631 4633 -4642 0
-4631 4633 4642 0
4631 -4633 4642 0
-4634 -4635 -4644 0
4634 4635 -4644 0
-4634 4635 4644 0
4634 -4635 4644 0
-4621 -4636 -4646 0
4621 4636 -4646 0
-4621 4636 4646 0
4621 -4636 4646 0
-4637 -4638 -4648 0
4637 4638 -4648 0
-4637 4638 4648 0
4637 -4638 4648 0
-4640 -4642 -4650 0
4640 4642 -4650 0
-4640 4642 4650 0
4640 -4642 4650 0
-4644 -4646 -4652 0
4644 4646 -4652 0
-4644 4646 4652 0
4644 -4646 4652 0
-4648 -4650 -4652 0
4648 4650 -4652 0
-4648 4650 4652 0
4648 -4650 4652 0
-4630 -4632 -4656 0
4630 4632 -4656 0
-4630 4632 4656 0
4630 -4632 4656 0
-4639 -4641 -4660 0
4639 4641 -4660 0
-4639 4641 4660 0
4639 -4641 4660 0
-4643 -4645 -4662 0
4643 4645 -4662 0
-4643 4645 4662 0
4643 -4645 4662 0
-4647 -4649 -4664 0
4647 4649 -4664 0
-4647 4649 4664 0
4647 -4649 4664 0
-4651 -4653 -4666 0
4651 4653 -4666 0
-4651 4653 4666 0
4651 -4653 4666 0
-4652 -4654 -4674 0
4652 4654 -4674 0
4652 -4654 4674 0
-4652 4654 4674 0
-4656 -4657 -4668 0
4656 4657 -4668 0
-4656 4657 4668 0
4656 -4657 4668 0
-4658 -4659 -4669 0
4658 4659 -4669 0
-4658 4659 4669 0
4658 -4659 4669 0
-4660 -4662 -4671 0
4660 4662 -4671 0
-4660 4662 4671 0
4660 -4662 4671 0
-4664 -4666 -4673 0
4664 4666 -4673 0
-4664 4666 4673 0
4664 -4666 4673 0
-4655 -4668 -4675 0
4655 4668 -4675 0
-4655 4668 4675 0
4655 -4668 4675 0
-4669 -4671 -4677 0
4669 4671 -4677 0
-4669 4671 4677 0
4669 -4671 4677 0
-4673 -4674 -4679 0
4673 4674 -4679 0
-4673 4674 4679 0
4673 -4674 4679 0
-4675 -4677 -4679 0
4675 4677 -4679 0
-4675 4677 4679 0
4675 -4677 4679 0
-4661 -4663 -4694 0
4661 4663 -4694 0
-4661 4663 4694 0
4661 -4663 4694 0
-4665 -4667 -4684 0
4665 4667 -4684 0
-4665 4667 4684 0
4665 -4667 4684 0
-4670 -4672 -4688 0
4670 4672 -4688 0
-4670 4672 4688 0
4670 -4672 4688 0
-4676 -4678 -4690 0
4676 4678 -4690 0
-4676 4678 4690 0
4676 -4678 4690 0
-4680 -4681 -4692 0
4680 4681 -4692 0
-4680 4681 4692 0
4680 -4681 4692 0
-4684 -4686 -4695 0
4684 4686 -4695 0
-4684 4686 4695 0
4684 -4686 4695 0
-4687 -4688 -4696 0
4687 4688 -4696 0
-4687 4688 4696 0
4687 -4688 4696 0
-4689 -4690 -4698 0
4689 4690 -4698 0
-4689 4690 4698 0
4689 -4690 4698 0
-4679 -4692 -4700 0
4679 4692 -4700 0
4679 -4692 4700 0
-4679 4692 4700 0
-4682 -4694 -4702 0
4682 4694 -4702 0
-4682 4694 4702 0
4682 -4694 4702 0
-4695 -4696 -4704 0
4695 4696 -4704 0
-4695 4696 4704 0
4695 -4696 4704 0
-4698 -4700 -4706 0
4698 4700 -4706 0
-4698 4700 4706 0
4698 -4700 4706 0
-4702 -4704 -4706 0
4702 4704 -4706 0
-4702 4704 4706 0
4702 -4704 4706 0
-4683 -4685 -4725 0
4683 4685 -4725 0
-4683 4685 4725 0
4683 -4685 4725 0
-4691 -4693 -4710 0
4691 4693 -4710 0
-4691 4693 4710 0
4691 -4693 4710 0
-4697 -4699 -4712 0
4697 4699 -4712 0
-4697 4699 4712 0
4697 -4699 4712 0
-4701 -4703 -4714 0
4701 4703 -4714 0
-4701 4703 4714 0
4701 -4703 4714 0
-4705 -4707 -4716 0
4705 4707 -4716 0
-4705 4707 4716 0
4705 -4707 4716 0
-4706 -4708 -4718 0
4706 4708 -4718 0
4706 -4708 4718 0
-4706 4708 4718 0
-4709 -4710 -4720 0
4709 4710 -4720 0
-4709 4710 4720 0
4709 -4710 4720 0
-4712 -4714 -4721 0
4712 4714 -4721 0
-4712 4714 4721 0
4712 -4714 4721 0
-4716 -4718 -4723 0
4716 4718 -4723 0
-4716 4718 4723 0
4716 -4718 4723 0
-4711 -4720 -4726 0
4711 4720 -4726 0
4711 -4720 4726 0
-4711 4720 4726 0
-4721 -4723 -4727 0
4721 4723 -4727 0
-4721 4723 4727 0
4721 -4723 4727 0
-4725 -4726 -4727 0
4725 4726 -4727 0
-4725 4726 4727 0
4725 -4726 4727 0
-4713 -4715 -4739 0
4713 4715 -4739 0
-4713 4715 4739 0
4713 -4715 4739 0
-4717 -4719 -4740 0
4717 4719 -4740 0
-4717 4719 4740 0
4717 -4719 4740 0
-4722 -4724 -4735 0
4722 4724 -4735 0
-4722 4724 4735 0
4722 -4724 4735 0
-4728 -4729 -4737 0
4728 4729 -4737 0
-4728 4729 4737 0
4728 -4729 4737 0
-4730 -4731 -4738 0
4730 4731 -4738 0
-4730 4731 4738 0
4730 -4731 4738 0
-4734 -4735 -4741 0
4734 4735 -4741 0
-4734 4735 4741 0
4734 -4735 4741 0
-4736 -4737 -4742 0
4736 4737 -4742 0
-4736 4737 4742 0
4736 -4737 4742 0
-4727 -4738 -4744 0
4727 4738 -4744 0
-4727 4738 4744 0
4727 -4738 4744 0
-4739 -4740 -4746 0
4739 4740 -4746 0
-4739 4740 4746 0
4739 -4740 4746 0
-4741 -4742 -4748 0
4741 4742 -4748 0
-4741 4742 4748 0
4741 -4742 4748 0
-4744 -4746 -4748 0
4744 4746 -4748 0
-4744 4746 4748 0
4744 -4746 4748 0
-4732 -4733 -4759 0
4732 4733 -4759 0
-4732 4733 4759 0
4732 -4733 4759 0
-4743 -4745 -4755 0
4743 4745 -4755 0
-4743 4745 4755 0
4743 -4745 4755 0
-4747 -4749 -4757 0
4747 4749 -4757 0
-4747 4749 4757 0
4747 -4749 4757 0
-4748 -4750 -4765 0
4748 4750 -4765 0
4748 -4750 4765 0
-4748 4750 4765 0
-4751 -4752 -4760 0
4751 4752 -4760 0
-4751 4752 4760 0
4751 -4752 4760 0
-4753 -4754 -4761 0
4753 4754 -4761 0
-4753 4754 4761 0
4753 -4754 4761 0
-4755 -4757 -4763 0
4755 4757 -4763 0
-4755 4757 4763 0
4755 -4757 4763 0
-4759 -4760 -4766 0
4759 4760 -4766 0
-4759 4760 4766 0
4759 -4760 4766 0
-4761 -4763 -4767 0
4761 4763 -4767 0
-4761 4763 4767 0
4761 -4763 4767 0
-4765 -4766 -4767 0
4765 4766 -4767 0
-4765 4766 4767 0
4765 -4766 4767 0
-4756 -4758 -4776 0
4756 4758 -4776 0
-4756 4758 4776 0
4756 -4758 4776 0
-4762 -4764 -4773 0
4762 4764 -4773 0
-4762 4764 4773 0
4762 -4764 4773 0
-4768 -4769 -4775 0
4768 4769 -4775 0
-4768 4769 4775 0
4768 -4769 4775 0
-4771 -4772 -4777 0
4771 4772 -4777 0
-4771 4772 4777 0
4771 -4772 4777 0
-4773 -4774 -4778 0
4773 4774 -4778 0
-4773 4774 4778 0
4773 -4774 4778 0
-4767 -4775 -4780 0
4767 4775 -4780 0
4767 -4775 4780 0
-4767 4775 4780 0
-4770 -4776 -4782 0
4770 4776 -4782 0
-4770 4776 4782 0
4770 -4776 4782 0
-4777 -4778 -4784 0
4777 4778 -4784 0
-4777 4778 4784 0
4777 -4778 4784 0
-4780 -4782 -4784 0
4780 4782 -4784 0
-4780 4782 4784 0
4780 -4782 4784 0
-4779 -4781 -4790 0
4779 4781 -4790 0
-4779 4781 4790 0
4779 -4781 4790 0
-4783 -4785 -4791 0
4783 4785 -4791 0
-4783 4785 4791 0
4783 -4785 4791 0
-4784 -4786 -4793 0
4784 4786 -4793 0
4784 -4786 4793 0
-4784 4786 4793 0
-4787 -4788 -4798 0
4787 4788 -4798 0
-4787 4788 4798 0
4787 -4788 4798 0
-4789 -4790 -4796 0
4789 4790 -4796 0
-4789 4790 4796 0
4789 -4790 4796 0
-4791 -4793 -4797 0
4791 4793 -4797 0
-4791 4793 4797 0
4791 -4793 4797 0
-4795 -4796 -4799 0
4795 4796 -4799 0
-4795 4796 4799 0
4795 -4796 4799 0
-4797 -4798 -4799 0
4797 4798 -4799 0
-4797 4798 4799 0
4797 -4798 4799 0
-4792 -4794 -4803 0
4792 4794 -4803 0
-4792 4794 4803 0
4792 -4794 4803 0
-4800 -4801 -4807 0
4800 4801 -4807 0
-4800 4801 4807 0
4800 -4801 4807 0
-4802 -4803 -4808 0
4802 4803 -4808 0
-4802 4803 4808 0
4802 -4803 4808 0
-4804 -4805 -4809 0
4804 4805 -4809 0
-4804 4805 4809 0
4804 -4805 4809 0
-4806 -4807 -4811 0
4806 4807 -4811 0
-4806 4807 4811 0
4806 -4807 4811 0
-4808 -4809 -4813 0
4808 4809 -4813 0
-4808 4809 4813 0
4808 -4809 4813 0
-4799 -4811 -4813 0
4799 4811 -4813 0
4799 -4811 4813 0
-4799 4811 4813 0
-4810 -4812 -4818 0
4810 4812 -4818 0
-4810 4812 4818 0
4810 -4812 4818 0
-4813 -4814 -4822 0
4813 4814 -4822 0
4813 -4814 4822 0
-4813 4814 4822 0
-4816 -4817 -4820 0
4816 4817 -4820 0
-4816 4817 4820 0
4816 -4817 4820 0
-4818 -4819 -4821 0
4818 4819 -4821 0
-4818 4819 4821 0
4818 -4819 4821 0
-4815 -4820 -4823 0
4815 4820 -4823 0
-4815 4820 4823 0
4815 -4820 4823 0
-4821 -4822 -4823 0
4821 4822 -4823 0
-4821 4822 4823 0
4821 -4822 4823 0
-4824 -4825 -4830 0
4824 4825 -4830 0
-4824 4825 4830 0
4824 -4825 4830 0
-4826 -4827 -4835 0
4826 4827 -4835 0
-4826 4827 4835 0
4826 -4827 4835 0
-4828 -4829 -4832 0
4828 4829 -4832 0
-4828 4829 4832 0
4828 -4829 4832 0
-4823 -4830 -4834 0
4823 4830 -4834 0
4823 -4830 4834 0
-4823 4830 4834 0
-4832 -4834 -4835 0
4832 4834 -4835 0
-4832 4834 4835 0
4832 -4834 4835 0
-4831 -4833 -4839 0
4831 4833 -4839 0
-4831 4833 4839 0
4831 -4833 4839 0
-4835 -4836 -4838 0
4835 4836 -4838 0
4835 -4836 4838 0
-4835 4836 4838 0
-4837 -4838 -4840 0
4837 4838 -4840 0
-4837 4838 4840 0
4837 -4838 4840 0
-4839 -4840 -4841 0
4839 4840 -4841 0
-4839 4840 4841 0
4839 -4840 4841 0
-4844 -4845 -4846 0
4844 4845 -4846 0
-4844 4845 4846 0
4844 -4845 4846 0
-4841 -4842 -4848 0
4841 4842 -4848 0
-4841 4842 4848 0
4841 -4842 4848 0
-4843 -4846 -4848 0
4843 4846 -4848 0
-4843 4846 4848 0
4843 -4846 4848 0
-4847 4849 4851 0
4847 -4849 4851 0
4848 -4850 4851 0
-4848 4850 4851 0
4851 4852 -4853 0
4851 -4852 4853 0
