c Factorization SAT instance #46: N = 343207 = 457 x 751
c p = 457 (9 bits), q = 751 (10 bits)
c N = 343207 (19 bits)
c Generator: generate_instances.py  d=3, k=50, seed=None
p cnf 4557 16116
1 9 -84 0
-1 -9 0
-9 84 0
1 -2 10 0
-1 -10 0
2 -10 0
1 -3 11 0
-1 -11 0
3 -11 0
1 -4 12 0
-1 -12 0
4 -12 0
1 -5 13 0
-1 -13 0
5 -13 0
1 -6 14 0
-1 -14 0
6 -14 0
1 -7 15 0
-1 -15 0
7 -15 0
1 -8 16 0
-1 -16 0
8 -16 0
-1 17 84 0
-17 -84 0
1 -17 0
-2 18 84 0
-18 -84 0
2 -18 0
-3 19 84 0
-19 -84 0
3 -19 0
-4 20 84 0
-20 -84 0
4 -20 0
-5 21 84 0
-21 -84 0
5 -21 0
-6 22 84 0
-22 -84 0
6 -22 0
-7 23 84 0
-23 -84 0
7 -23 0
-8 24 84 0
-24 -84 0
8 -24 0
-1 -25 88 0
25 -88 0
1 -88 0
-25 26 -84 0
25 -26 0
-26 84 0
-2 -25 27 0
25 -27 0
2 -27 0
-3 -25 28 0
25 -28 0
3 -28 0
-4 -25 29 0
25 -29 0
4 -29 0
-5 -25 30 0
25 -30 0
5 -30 0
-6 -25 31 0
25 -31 0
6 -31 0
-7 -25 32 0
25 -32 0
7 -32 0
-8 -25 33 0
25 -33 0
8 -33 0
-1 -34 35 0
34 -35 0
1 -35 0
-34 36 -84 0
34 -36 0
-36 84 0
-2 -34 37 0
34 -37 0
2 -37 0
-3 -34 38 0
34 -38 0
3 -38 0
-4 -34 39 0
34 -39 0
4 -39 0
-5 -34 40 0
34 -40 0
5 -40 0
-6 -34 41 0
34 -41 0
6 -41 0
-7 -34 42 0
34 -42 0
7 -42 0
-8 -34 43 0
34 -43 0
8 -43 0
-1 -44 45 0
44 -45 0
1 -45 0
-44 46 -84 0
44 -46 0
-46 84 0
-2 -44 47 0
44 -47 0
2 -47 0
-3 -44 48 0
44 -48 0
3 -48 0
-4 -44 49 0
44 -49 0
4 -49 0
-5 -44 50 0
44 -50 0
5 -50 0
-6 -44 51 0
44 -51 0
6 -51 0
-7 -44 52 0
44 -52 0
7 -52 0
-8 -44 53 0
44 -53 0
8 -53 0
-1 -54 55 0
54 -55 0
1 -55 0
-54 56 -84 0
54 -56 0
-56 84 0
-2 -54 57 0
54 -57 0
2 -57 0
-3 -54 58 0
54 -58 0
3 -58 0
-4 -54 59 0
54 -59 0
4 -59 0
-5 -54 60 0
54 -60 0
5 -60 0
-6 -54 61 0
54 -61 0
6 -61 0
-7 -54 62 0
54 -62 0
7 -62 0
-8 -54 63 0
54 -63 0
8 -63 0
-1 -64 65 0
64 -65 0
1 -65 0
-64 66 -84 0
64 -66 0
-66 84 0
-2 -64 67 0
64 -67 0
2 -67 0
-3 -64 68 0
64 -68 0
3 -68 0
-4 -64 69 0
64 -69 0
4 -69 0
-5 -64 70 0
64 -70 0
5 -70 0
-6 -64 71 0
64 -71 0
6 -71 0
-7 -64 72 0
64 -72 0
7 -72 0
-8 -64 73 0
64 -73 0
8 -73 0
-1 -74 75 0
74 -75 0
1 -75 0
-74 76 -84 0
74 -76 0
-76 84 0
-2 -74 77 0
74 -77 0
2 -77 0
-3 -74 78 0
74 -78 0
3 -78 0
-4 -74 79 0
74 -79 0
4 -79 0
-5 -74 80 0
74 -80 0
5 -80 0
-6 -74 81 0
74 -81 0
6 -81 0
-7 -74 82 0
74 -82 0
7 -82 0
-8 -74 83 0
74 -83 0
8 -83 0
-2 -9 85 0
2 -85 0
9 -85 0
-17 -25 92 0
17 -92 0
25 -92 0
-3 -10 100 0
3 -100 0
10 -100 0
-34 -85 101 0
34 -101 0
85 -101 0
-86 -87 102 0
86 -102 0
87 -102 0
-88 -89 103 0
88 -103 0
89 -103 0
-90 -91 93 0
90 -93 0
91 -93 0
-4 -11 95 0
4 -95 0
11 -95 0
-18 -26 97 0
18 -97 0
26 -97 0
-35 -44 99 0
35 -99 0
44 -99 0
-92 -93 105 0
93 -105 0
92 -105 0
-94 -96 107 0
94 -107 0
96 -107 0
-98 -100 109 0
98 -109 0
100 -109 0
-101 -102 111 0
101 -111 0
102 -111 0
-103 -104 113 0
103 -113 0
104 -113 0
-106 -108 115 0
106 -115 0
108 -115 0
-110 -112 128 0
110 -128 0
112 -128 0
-5 -12 117 0
5 -117 0
12 -117 0
-19 -27 119 0
19 -119 0
27 -119 0
-36 -45 121 0
36 -121 0
45 -121 0
-54 -95 123 0
54 -123 0
95 -123 0
-97 -99 152 0
97 -152 0
99 -152 0
-105 -107 153 0
105 -153 0
107 -153 0
-109 -111 125 0
109 -125 0
111 -125 0
-113 -115 127 0
113 -127 0
115 -127 0
-116 -118 155 0
116 -155 0
118 -155 0
-120 -122 156 0
120 -156 0
122 -156 0
-124 -126 157 0
124 -157 0
126 -157 0
-128 -129 135 0
128 -135 0
129 -135 0
-130 -131 137 0
130 -137 0
131 -137 0
-132 -133 139 0
132 -139 0
133 -139 0
-134 -136 140 0
134 -140 0
136 -140 0
-6 -13 142 0
6 -142 0
13 -142 0
-20 -28 144 0
20 -144 0
28 -144 0
-37 -46 146 0
37 -146 0
46 -146 0
-55 -64 148 0
55 -148 0
64 -148 0
-117 -119 150 0
117 -150 0
119 -150 0
-121 -123 199 0
121 -199 0
123 -199 0
-125 -127 200 0
125 -200 0
127 -200 0
-135 -137 201 0
135 -201 0
137 -201 0
-139 -140 160 0
139 -160 0
140 -160 0
-138 -141 162 0
138 -162 0
141 -162 0
-143 -145 164 0
143 -164 0
145 -164 0
-147 -149 166 0
147 -166 0
149 -166 0
-151 -152 168 0
151 -168 0
152 -168 0
-153 -154 170 0
153 -170 0
154 -170 0
-155 -156 172 0
155 -172 0
156 -172 0
-157 -158 174 0
157 -174 0
158 -174 0
-159 -161 176 0
159 -176 0
161 -176 0
-163 -165 178 0
163 -178 0
165 -178 0
-167 -169 180 0
167 -180 0
169 -180 0
-171 -173 182 0
171 -182 0
173 -182 0
-175 -177 184 0
175 -184 0
177 -184 0
-179 -181 185 0
179 -185 0
181 -185 0
-7 -14 186 0
7 -186 0
14 -186 0
-21 -29 188 0
21 -188 0
29 -188 0
-38 -47 190 0
38 -190 0
47 -190 0
-56 -65 192 0
56 -192 0
65 -192 0
-74 -142 194 0
74 -194 0
142 -194 0
-144 -146 196 0
144 -196 0
146 -196 0
-148 -150 198 0
148 -198 0
150 -198 0
-160 -162 203 0
160 -203 0
162 -203 0
-164 -166 205 0
164 -205 0
166 -205 0
-168 -170 207 0
168 -207 0
170 -207 0
-172 -174 209 0
172 -209 0
174 -209 0
-176 -178 211 0
176 -211 0
178 -211 0
-180 -182 213 0
180 -213 0
182 -213 0
-184 -185 263 0
184 -263 0
185 -263 0
-187 -189 217 0
187 -217 0
189 -217 0
-191 -193 219 0
191 -219 0
193 -219 0
-195 -197 221 0
195 -221 0
197 -221 0
-199 -200 223 0
199 -223 0
200 -223 0
-202 -204 268 0
202 -268 0
204 -268 0
-206 -208 226 0
206 -226 0
208 -226 0
-210 -212 228 0
210 -228 0
212 -228 0
-214 -215 230 0
214 -230 0
215 -230 0
-216 -218 232 0
216 -232 0
218 -232 0
-220 -222 234 0
220 -234 0
222 -234 0
-201 -224 236 0
201 -236 0
224 -236 0
-225 -227 238 0
225 -238 0
227 -238 0
-229 -231 240 0
229 -240 0
231 -240 0
-233 -235 242 0
233 -242 0
235 -242 0
-237 -239 243 0
237 -243 0
239 -243 0
-8 -15 245 0
8 -245 0
15 -245 0
-22 -30 247 0
22 -247 0
30 -247 0
-39 -48 249 0
39 -249 0
48 -249 0
-57 -66 251 0
57 -251 0
66 -251 0
-75 -186 253 0
75 -253 0
186 -253 0
-188 -190 255 0
188 -255 0
190 -255 0
-192 -194 257 0
192 -257 0
194 -257 0
-196 -198 258 0
196 -258 0
198 -258 0
-203 -205 259 0
203 -259 0
205 -259 0
-207 -209 261 0
207 -261 0
209 -261 0
-211 -213 332 0
211 -332 0
213 -332 0
-217 -219 265 0
217 -265 0
219 -265 0
-221 -223 267 0
221 -267 0
223 -267 0
-226 -228 334 0
226 -334 0
228 -334 0
-230 -232 271 0
230 -271 0
232 -271 0
-234 -236 273 0
234 -273 0
236 -273 0
-238 -240 275 0
238 -275 0
240 -275 0
-242 -243 277 0
242 -277 0
243 -277 0
-241 -244 279 0
241 -279 0
244 -279 0
-246 -248 281 0
246 -281 0
248 -281 0
-250 -252 283 0
250 -283 0
252 -283 0
-254 -256 285 0
254 -285 0
256 -285 0
-260 -262 289 0
260 -289 0
262 -289 0
-263 -264 291 0
263 -291 0
264 -291 0
-266 -268 293 0
266 -293 0
268 -293 0
-269 -270 295 0
269 -295 0
270 -295 0
-272 -274 297 0
272 -297 0
274 -297 0
-276 -278 299 0
276 -299 0
278 -299 0
-280 -282 301 0
280 -301 0
282 -301 0
-284 -286 303 0
284 -303 0
286 -303 0
-287 -288 305 0
287 -305 0
288 -305 0
-290 -292 307 0
290 -307 0
292 -307 0
-294 -296 309 0
294 -309 0
296 -309 0
-298 -300 311 0
298 -311 0
300 -311 0
-302 -304 313 0
302 -313 0
304 -313 0
-306 -308 315 0
306 -315 0
308 -315 0
-310 -312 316 0
310 -316 0
312 -316 0
-16 -23 318 0
16 -318 0
23 -318 0
-31 -40 320 0
31 -320 0
40 -320 0
-49 -58 322 0
49 -322 0
58 -322 0
-67 -76 324 0
67 -324 0
76 -324 0
-245 -247 326 0
245 -326 0
247 -326 0
-249 -251 328 0
249 -328 0
251 -328 0
-253 -255 330 0
253 -330 0
255 -330 0
-257 -258 412 0
257 -412 0
258 -412 0
-259 -261 413 0
259 -413 0
261 -413 0
-265 -267 414 0
265 -414 0
267 -414 0
-271 -273 336 0
271 -336 0
273 -336 0
-275 -277 338 0
275 -338 0
277 -338 0
-279 -281 340 0
279 -340 0
281 -340 0
-283 -285 341 0
283 -341 0
285 -341 0
-289 -291 419 0
289 -419 0
291 -419 0
-293 -295 344 0
293 -344 0
295 -344 0
-297 -299 346 0
297 -346 0
299 -346 0
-301 -303 348 0
301 -348 0
303 -348 0
-305 -307 350 0
305 -350 0
307 -350 0
-309 -311 352 0
309 -352 0
311 -352 0
-313 -315 354 0
313 -354 0
315 -354 0
-314 -316 356 0
316 -356 0
314 -356 0
-317 -319 358 0
317 -358 0
319 -358 0
-321 -323 360 0
321 -360 0
323 -360 0
-325 -327 362 0
325 -362 0
327 -362 0
-329 -331 429 0
329 -429 0
331 -429 0
-332 -333 366 0
332 -366 0
333 -366 0
-334 -335 368 0
334 -368 0
335 -368 0
-337 -339 431 0
337 -431 0
339 -431 0
-342 -343 372 0
342 -372 0
343 -372 0
-345 -347 374 0
345 -374 0
347 -374 0
-349 -351 376 0
349 -376 0
351 -376 0
-353 -355 378 0
353 -378 0
355 -378 0
-357 -359 380 0
357 -380 0
359 -380 0
-361 -363 382 0
361 -382 0
363 -382 0
-364 -365 384 0
364 -384 0
365 -384 0
-367 -369 386 0
367 -386 0
369 -386 0
-370 -371 388 0
370 -388 0
371 -388 0
-373 -375 390 0
373 -390 0
375 -390 0
-377 -379 392 0
377 -392 0
379 -392 0
-381 -383 394 0
381 -394 0
383 -394 0
-385 -387 396 0
385 -396 0
387 -396 0
-389 -391 398 0
389 -398 0
391 -398 0
-393 -395 445 0
393 -445 0
395 -445 0
-24 -32 400 0
24 -400 0
32 -400 0
-41 -50 402 0
41 -402 0
50 -402 0
-59 -68 404 0
59 -404 0
68 -404 0
-77 -318 406 0
77 -406 0
318 -406 0
-320 -322 408 0
320 -408 0
322 -408 0
-324 -326 410 0
324 -410 0
326 -410 0
-328 -330 508 0
328 -508 0
330 -508 0
-336 -338 416 0
336 -416 0
338 -416 0
-340 -341 418 0
340 -418 0
341 -418 0
-344 -346 509 0
344 -509 0
346 -509 0
-348 -350 422 0
348 -422 0
350 -422 0
-352 -354 424 0
352 -424 0
354 -424 0
-356 -358 426 0
356 -426 0
358 -426 0
-360 -362 428 0
360 -428 0
362 -428 0
-366 -368 512 0
366 -512 0
368 -512 0
-372 -374 513 0
372 -513 0
374 -513 0
-376 -378 434 0
376 -434 0
378 -434 0
-380 -382 436 0
380 -436 0
382 -436 0
-384 -386 438 0
384 -438 0
386 -438 0
-388 -390 440 0
388 -440 0
390 -440 0
-392 -394 442 0
392 -442 0
394 -442 0
-396 -398 444 0
396 -444 0
398 -444 0
-399 -401 519 0
399 -519 0
401 -519 0
-403 -405 448 0
403 -448 0
405 -448 0
-407 -409 450 0
407 -450 0
409 -450 0
-411 -412 452 0
411 -452 0
412 -452 0
-413 -414 454 0
413 -454 0
414 -454 0
-415 -417 456 0
415 -456 0
417 -456 0
-419 -420 458 0
419 -458 0
420 -458 0
-421 -423 460 0
421 -460 0
423 -460 0
-425 -427 462 0
425 -462 0
427 -462 0
-429 -430 464 0
429 -464 0
430 -464 0
-431 -432 466 0
431 -466 0
432 -466 0
-433 -435 468 0
433 -468 0
435 -468 0
-437 -439 470 0
437 -470 0
439 -470 0
-441 -443 472 0
441 -472 0
443 -472 0
-445 -446 474 0
445 -474 0
446 -474 0
-447 -449 476 0
447 -476 0
449 -476 0
-451 -453 478 0
451 -478 0
453 -478 0
-455 -457 480 0
455 -480 0
457 -480 0
-459 -461 482 0
459 -482 0
461 -482 0
-463 -465 484 0
463 -484 0
465 -484 0
-467 -469 486 0
467 -486 0
469 -486 0
-471 -473 488 0
471 -488 0
473 -488 0
-475 -477 490 0
475 -490 0
477 -490 0
-479 -481 492 0
479 -492 0
481 -492 0
-483 -485 494 0
483 -494 0
485 -494 0
-487 -489 496 0
487 -496 0
489 -496 0
-491 -493 497 0
491 -497 0
493 -497 0
-33 -42 498 0
33 -498 0
42 -498 0
-51 -60 500 0
51 -500 0
60 -500 0
-69 -78 502 0
69 -502 0
78 -502 0
-400 -402 504 0
400 -504 0
402 -504 0
-404 -406 506 0
404 -506 0
406 -506 0
-408 -410 608 0
408 -608 0
410 -608 0
-416 -418 609 0
416 -609 0
418 -609 0
-422 -424 610 0
422 -610 0
424 -610 0
-426 -428 611 0
426 -611 0
428 -611 0
-434 -436 612 0
434 -612 0
436 -612 0
-438 -440 516 0
438 -516 0
440 -516 0
-442 -444 518 0
442 -518 0
444 -518 0
-448 -450 614 0
448 -614 0
450 -614 0
-452 -454 522 0
452 -522 0
454 -522 0
-456 -458 524 0
456 -524 0
458 -524 0
-460 -462 526 0
460 -526 0
462 -526 0
-464 -466 528 0
464 -528 0
466 -528 0
-468 -470 530 0
468 -530 0
470 -530 0
-472 -474 532 0
472 -532 0
474 -532 0
-476 -478 534 0
476 -534 0
478 -534 0
-480 -482 536 0
480 -536 0
482 -536 0
-484 -486 538 0
484 -538 0
486 -538 0
-488 -490 540 0
488 -540 0
490 -540 0
-492 -494 542 0
492 -542 0
494 -542 0
-496 -497 544 0
496 -544 0
497 -544 0
-499 -501 627 0
499 -627 0
501 -627 0
-503 -505 548 0
503 -548 0
505 -548 0
-507 -508 550 0
507 -550 0
508 -550 0
-509 -510 629 0
509 -629 0
510 -629 0
-511 -512 554 0
511 -554 0
512 -554 0
-513 -514 556 0
513 -556 0
514 -556 0
-515 -517 558 0
515 -558 0
517 -558 0
-519 -520 560 0
519 -560 0
520 -560 0
-521 -523 562 0
521 -562 0
523 -562 0
-525 -527 564 0
525 -564 0
527 -564 0
-529 -531 566 0
529 -566 0
531 -566 0
-533 -535 568 0
533 -568 0
535 -568 0
-537 -539 570 0
537 -570 0
539 -570 0
-541 -543 572 0
541 -572 0
543 -572 0
-545 -546 574 0
545 -574 0
546 -574 0
-547 -549 576 0
547 -576 0
549 -576 0
-551 -552 578 0
551 -578 0
552 -578 0
-553 -555 580 0
553 -580 0
555 -580 0
-557 -559 582 0
557 -582 0
559 -582 0
-561 -563 584 0
561 -584 0
563 -584 0
-565 -567 586 0
565 -586 0
567 -586 0
-569 -571 588 0
569 -588 0
571 -588 0
-573 -575 590 0
573 -590 0
575 -590 0
-577 -579 592 0
577 -592 0
579 -592 0
-581 -583 594 0
581 -594 0
583 -594 0
-585 -587 596 0
585 -596 0
587 -596 0
-589 -591 598 0
589 -598 0
591 -598 0
-593 -595 599 0
593 -599 0
595 -599 0
-43 -52 600 0
43 -600 0
52 -600 0
-61 -70 602 0
61 -602 0
70 -602 0
-79 -498 604 0
79 -604 0
498 -604 0
-500 -502 606 0
500 -606 0
502 -606 0
-504 -506 720 0
504 -720 0
506 -720 0
-516 -518 721 0
516 -721 0
518 -721 0
-522 -524 616 0
522 -616 0
524 -616 0
-526 -528 618 0
526 -618 0
528 -618 0
-530 -532 620 0
530 -620 0
532 -620 0
-534 -536 622 0
534 -622 0
536 -622 0
-538 -540 624 0
538 -624 0
540 -624 0
-542 -544 626 0
542 -626 0
544 -626 0
-548 -550 727 0
548 -727 0
550 -727 0
-554 -556 728 0
554 -728 0
556 -728 0
-558 -560 632 0
558 -632 0
560 -632 0
-562 -564 634 0
562 -634 0
564 -634 0
-566 -568 636 0
566 -636 0
568 -636 0
-570 -572 638 0
570 -638 0
572 -638 0
-574 -576 640 0
574 -640 0
576 -640 0
-578 -580 642 0
578 -642 0
580 -642 0
-582 -584 644 0
582 -644 0
584 -644 0
-586 -588 646 0
586 -646 0
588 -646 0
-590 -592 648 0
590 -648 0
592 -648 0
-594 -596 650 0
594 -650 0
596 -650 0
-598 -599 738 0
598 -738 0
599 -738 0
-601 -603 654 0
601 -654 0
603 -654 0
-605 -607 656 0
605 -656 0
607 -656 0
-608 -609 658 0
608 -658 0
609 -658 0
-610 -611 660 0
610 -660 0
611 -660 0
-612 -613 662 0
612 -662 0
613 -662 0
-614 -615 664 0
614 -664 0
615 -664 0
-617 -619 666 0
617 -666 0
619 -666 0
-621 -623 668 0
621 -668 0
623 -668 0
-625 -627 670 0
625 -670 0
627 -670 0
-628 -629 672 0
628 -672 0
629 -672 0
-630 -631 674 0
630 -674 0
631 -674 0
-633 -635 676 0
633 -676 0
635 -676 0
-637 -639 678 0
637 -678 0
639 -678 0
-641 -643 680 0
641 -680 0
643 -680 0
-645 -647 682 0
645 -682 0
647 -682 0
-649 -651 684 0
649 -684 0
651 -684 0
-652 -653 686 0
652 -686 0
653 -686 0
-655 -657 688 0
655 -688 0
657 -688 0
-659 -661 690 0
659 -690 0
661 -690 0
-663 -665 692 0
663 -692 0
665 -692 0
-667 -669 694 0
667 -694 0
669 -694 0
-671 -673 696 0
671 -696 0
673 -696 0
-675 -677 698 0
675 -698 0
677 -698 0
-679 -681 700 0
679 -700 0
681 -700 0
-683 -685 702 0
683 -702 0
685 -702 0
-687 -689 704 0
687 -704 0
689 -704 0
-691 -693 706 0
691 -706 0
693 -706 0
-695 -697 708 0
695 -708 0
697 -708 0
-699 -701 710 0
699 -710 0
701 -710 0
-703 -705 712 0
703 -712 0
705 -712 0
-707 -709 768 0
707 -768 0
709 -768 0
-53 -62 714 0
53 -714 0
62 -714 0
-71 -80 716 0
71 -716 0
80 -716 0
-600 -602 718 0
600 -718 0
602 -718 0
-604 -606 835 0
604 -835 0
606 -835 0
-616 -618 836 0
616 -836 0
618 -836 0
-620 -622 724 0
620 -724 0
622 -724 0
-624 -626 726 0
624 -726 0
626 -726 0
-632 -634 730 0
632 -730 0
634 -730 0
-636 -638 732 0
636 -732 0
638 -732 0
-640 -642 734 0
640 -734 0
642 -734 0
-644 -646 736 0
644 -736 0
646 -736 0
-648 -650 841 0
648 -841 0
650 -841 0
-654 -656 740 0
654 -740 0
656 -740 0
-658 -660 742 0
658 -742 0
660 -742 0
-662 -664 744 0
662 -744 0
664 -744 0
-666 -668 746 0
666 -746 0
668 -746 0
-670 -672 748 0
670 -748 0
672 -748 0
-674 -676 750 0
674 -750 0
676 -750 0
-678 -680 752 0
678 -752 0
680 -752 0
-682 -684 754 0
682 -754 0
684 -754 0
-686 -688 756 0
686 -756 0
688 -756 0
-690 -692 758 0
690 -758 0
692 -758 0
-694 -696 760 0
694 -760 0
696 -760 0
-698 -700 762 0
698 -762 0
700 -762 0
-702 -704 764 0
702 -764 0
704 -764 0
-706 -708 766 0
706 -766 0
708 -766 0
-710 -712 855 0
710 -855 0
712 -855 0
-713 -715 770 0
713 -770 0
715 -770 0
-717 -719 772 0
717 -772 0
719 -772 0
-722 -723 774 0
722 -774 0
723 -774 0
-725 -727 776 0
725 -776 0
727 -776 0
-728 -729 778 0
728 -778 0
729 -778 0
-731 -733 780 0
731 -780 0
733 -780 0
-735 -737 782 0
735 -782 0
737 -782 0
-738 -739 784 0
738 -784 0
739 -784 0
-741 -743 786 0
741 -786 0
743 -786 0
-745 -747 788 0
745 -788 0
747 -788 0
-749 -751 790 0
749 -790 0
751 -790 0
-753 -755 792 0
753 -792 0
755 -792 0
-757 -759 794 0
757 -794 0
759 -794 0
-761 -763 796 0
761 -796 0
763 -796 0
-765 -767 798 0
765 -798 0
767 -798 0
-768 -769 800 0
768 -800 0
769 -800 0
-720 -771 802 0
771 -802 0
720 -802 0
-721 -773 804 0
721 -804 0
773 -804 0
-775 -777 806 0
775 -806 0
777 -806 0
-779 -781 808 0
779 -808 0
781 -808 0
-783 -785 810 0
783 -810 0
785 -810 0
-787 -789 812 0
787 -812 0
789 -812 0
-791 -793 814 0
791 -814 0
793 -814 0
-795 -797 816 0
795 -816 0
797 -816 0
-799 -801 818 0
799 -818 0
801 -818 0
-803 -805 820 0
803 -820 0
805 -820 0
-807 -809 822 0
807 -822 0
809 -822 0
-811 -813 824 0
811 -824 0
813 -824 0
-815 -817 826 0
815 -826 0
817 -826 0
-819 -821 828 0
819 -828 0
821 -828 0
-823 -825 829 0
823 -829 0
825 -829 0
-63 -72 831 0
63 -831 0
72 -831 0
-81 -714 833 0
81 -833 0
714 -833 0
-716 -718 950 0
716 -950 0
718 -950 0
-724 -726 951 0
724 -951 0
726 -951 0
-730 -732 838 0
730 -838 0
732 -838 0
-734 -736 840 0
734 -840 0
736 -840 0
-740 -742 953 0
740 -953 0
742 -953 0
-744 -746 844 0
744 -844 0
746 -844 0
-748 -750 846 0
748 -846 0
750 -846 0
-752 -754 848 0
752 -848 0
754 -848 0
-756 -758 850 0
756 -850 0
758 -850 0
-760 -762 852 0
760 -852 0
762 -852 0
-764 -766 854 0
764 -854 0
766 -854 0
-770 -772 959 0
770 -959 0
772 -959 0
-774 -776 960 0
774 -960 0
776 -960 0
-778 -780 858 0
778 -858 0
780 -858 0
-782 -784 860 0
782 -860 0
784 -860 0
-786 -788 862 0
786 -862 0
788 -862 0
-790 -792 864 0
790 -864 0
792 -864 0
-794 -796 866 0
794 -866 0
796 -866 0
-798 -800 868 0
798 -868 0
800 -868 0
-802 -804 870 0
802 -870 0
804 -870 0
-806 -808 872 0
806 -872 0
808 -872 0
-810 -812 874 0
810 -874 0
812 -874 0
-814 -816 876 0
814 -876 0
816 -876 0
-818 -820 878 0
818 -878 0
820 -878 0
-822 -824 880 0
822 -880 0
824 -880 0
-826 -828 882 0
826 -882 0
828 -882 0
-827 -829 884 0
829 -884 0
827 -884 0
-830 -832 886 0
830 -886 0
832 -886 0
-834 -835 888 0
834 -888 0
835 -888 0
-837 -839 891 0
837 -891 0
839 -891 0
-841 -842 893 0
841 -893 0
842 -893 0
-843 -845 895 0
843 -895 0
845 -895 0
-847 -849 897 0
847 -897 0
849 -897 0
-851 -853 899 0
851 -899 0
853 -899 0
-855 -856 901 0
855 -901 0
856 -901 0
-857 -859 979 0
857 -979 0
859 -979 0
-861 -863 905 0
861 -905 0
863 -905 0
-865 -867 907 0
865 -907 0
867 -907 0
-869 -871 909 0
869 -909 0
871 -909 0
-873 -875 911 0
873 -911 0
875 -911 0
-877 -879 913 0
877 -913 0
879 -913 0
-881 -883 915 0
881 -915 0
883 -915 0
-885 -887 917 0
885 -917 0
887 -917 0
-836 -889 919 0
836 -919 0
889 -919 0
-890 -892 921 0
890 -921 0
892 -921 0
-894 -896 923 0
894 -923 0
896 -923 0
-898 -900 925 0
898 -925 0
900 -925 0
-902 -903 927 0
902 -927 0
903 -927 0
-904 -906 929 0
904 -929 0
906 -929 0
-908 -910 931 0
908 -931 0
910 -931 0
-912 -914 933 0
912 -933 0
914 -933 0
-916 -918 935 0
916 -935 0
918 -935 0
-920 -922 937 0
920 -937 0
922 -937 0
-924 -926 939 0
924 -939 0
926 -939 0
-928 -930 941 0
928 -941 0
930 -941 0
-932 -934 943 0
932 -943 0
934 -943 0
-936 -938 945 0
936 -945 0
938 -945 0
-940 -942 946 0
940 -946 0
942 -946 0
-73 -82 948 0
73 -948 0
82 -948 0
-831 -833 1066 0
831 -1066 0
833 -1066 0
-838 -840 1067 0
838 -1067 0
840 -1067 0
-844 -846 955 0
844 -955 0
846 -955 0
-848 -850 957 0
848 -957 0
850 -957 0
-852 -854 1069 0
852 -1069 0
854 -1069 0
-858 -860 1070 0
858 -1070 0
860 -1070 0
-862 -864 963 0
862 -963 0
864 -963 0
-866 -868 965 0
866 -965 0
868 -965 0
-870 -872 967 0
870 -967 0
872 -967 0
-874 -876 969 0
874 -969 0
876 -969 0
-878 -880 971 0
878 -971 0
880 -971 0
-882 -884 973 0
882 -973 0
884 -973 0
-886 -888 1076 0
886 -1076 0
888 -1076 0
-891 -893 975 0
891 -975 0
893 -975 0
-895 -897 977 0
895 -977 0
897 -977 0
-899 -901 1078 0
899 -1078 0
901 -1078 0
-905 -907 981 0
905 -981 0
907 -981 0
-909 -911 983 0
909 -983 0
911 -983 0
-913 -915 985 0
913 -985 0
915 -985 0
-917 -919 987 0
917 -987 0
919 -987 0
-921 -923 989 0
921 -989 0
923 -989 0
-925 -927 991 0
925 -991 0
927 -991 0
-929 -931 993 0
929 -993 0
931 -993 0
-933 -935 995 0
933 -995 0
935 -995 0
-937 -939 997 0
937 -997 0
939 -997 0
-941 -943 999 0
941 -999 0
943 -999 0
-945 -946 1001 0
945 -1001 0
946 -1001 0
-944 -947 1003 0
944 -1003 0
947 -1003 0
-949 -950 1089 0
949 -1089 0
950 -1089 0
-952 -953 1006 0
952 -1006 0
953 -1006 0
-954 -956 1008 0
954 -1008 0
956 -1008 0
-958 -959 1010 0
958 -1010 0
959 -1010 0
-960 -961 1012 0
960 -1012 0
961 -1012 0
-962 -964 1014 0
962 -1014 0
964 -1014 0
-966 -968 1016 0
966 -1016 0
968 -1016 0
-970 -972 1095 0
970 -1095 0
972 -1095 0
-974 -976 1020 0
974 -1020 0
976 -1020 0
-978 -979 1022 0
978 -1022 0
979 -1022 0
-980 -982 1024 0
980 -1024 0
982 -1024 0
-984 -986 1026 0
984 -1026 0
986 -1026 0
-988 -990 1028 0
988 -1028 0
990 -1028 0
-992 -994 1030 0
992 -1030 0
994 -1030 0
-996 -998 1032 0
996 -1032 0
998 -1032 0
-1000 -1002 1034 0
1000 -1034 0
1002 -1034 0
-951 -1004 1036 0
1004 -1036 0
951 -1036 0
-1005 -1007 1038 0
1005 -1038 0
1007 -1038 0
-1009 -1011 1040 0
1009 -1040 0
1011 -1040 0
-1013 -1015 1042 0
1013 -1042 0
1015 -1042 0
-1017 -1018 1044 0
1017 -1044 0
1018 -1044 0
-1019 -1021 1046 0
1019 -1046 0
1021 -1046 0
-1023 -1025 1048 0
1023 -1048 0
1025 -1048 0
-1027 -1029 1050 0
1027 -1050 0
1029 -1050 0
-1031 -1033 1052 0
1031 -1052 0
1033 -1052 0
-1035 -1037 1054 0
1035 -1054 0
1037 -1054 0
-1039 -1041 1056 0
1039 -1056 0
1041 -1056 0
-1043 -1045 1058 0
1043 -1058 0
1045 -1058 0
-1047 -1049 1060 0
1047 -1060 0
1049 -1060 0
-1051 -1053 1062 0
1051 -1062 0
1053 -1062 0
-1055 -1057 1064 0
1055 -1064 0
1057 -1064 0
-1059 -1061 1065 0
1059 -1065 0
1061 -1065 0
-83 -948 1186 0
83 -1186 0
948 -1186 0
-955 -957 1187 0
955 -1187 0
957 -1187 0
-963 -965 1188 0
963 -1188 0
965 -1188 0
-967 -969 1073 0
967 -1073 0
969 -1073 0
-971 -973 1075 0
971 -1075 0
973 -1075 0
-975 -977 1190 0
975 -1190 0
977 -1190 0
-981 -983 1191 0
981 -1191 0
983 -1191 0
-985 -987 1081 0
985 -1081 0
987 -1081 0
-989 -991 1083 0
989 -1083 0
991 -1083 0
-993 -995 1085 0
993 -1085 0
995 -1085 0
-997 -999 1087 0
997 -1087 0
999 -1087 0
-1001 -1003 1194 0
1001 -1194 0
1003 -1194 0
-1006 -1008 1091 0
1006 -1091 0
1008 -1091 0
-1010 -1012 1093 0
1010 -1093 0
1012 -1093 0
-1014 -1016 1196 0
1014 -1196 0
1016 -1196 0
-1020 -1022 1097 0
1020 -1097 0
1022 -1097 0
-1024 -1026 1099 0
1024 -1099 0
1026 -1099 0
-1028 -1030 1101 0
1028 -1101 0
1030 -1101 0
-1032 -1034 1103 0
1032 -1103 0
1034 -1103 0
-1036 -1038 1105 0
1036 -1105 0
1038 -1105 0
-1040 -1042 1107 0
1040 -1107 0
1042 -1107 0
-1044 -1046 1109 0
1044 -1109 0
1046 -1109 0
-1048 -1050 1111 0
1048 -1111 0
1050 -1111 0
-1052 -1054 1113 0
1052 -1113 0
1054 -1113 0
-1056 -1058 1115 0
1056 -1115 0
1058 -1115 0
-1060 -1062 1117 0
1060 -1117 0
1062 -1117 0
-1064 -1065 1119 0
1064 -1119 0
1065 -1119 0
-1067 -1068 1122 0
1067 -1122 0
1068 -1122 0
-1069 -1070 1124 0
1069 -1124 0
1070 -1124 0
-1071 -1072 1126 0
1071 -1126 0
1072 -1126 0
-1074 -1076 1128 0
1074 -1128 0
1076 -1128 0
-1077 -1078 1130 0
1077 -1130 0
1078 -1130 0
-1079 -1080 1132 0
1079 -1132 0
1080 -1132 0
-1082 -1084 1134 0
1082 -1134 0
1084 -1134 0
-1086 -1088 1136 0
1086 -1136 0
1088 -1136 0
-1089 -1090 1138 0
1089 -1138 0
1090 -1138 0
-1092 -1094 1140 0
1092 -1140 0
1094 -1140 0
-1095 -1096 1142 0
1095 -1142 0
1096 -1142 0
-1098 -1100 1144 0
1098 -1144 0
1100 -1144 0
-1102 -1104 1146 0
1102 -1146 0
1104 -1146 0
-1106 -1108 1148 0
1106 -1148 0
1108 -1148 0
-1110 -1112 1150 0
1110 -1150 0
1112 -1150 0
-1114 -1116 1152 0
1114 -1152 0
1116 -1152 0
-1118 -1120 1154 0
1118 -1154 0
1120 -1154 0
-1066 -1121 1156 0
1066 -1156 0
1121 -1156 0
-1123 -1125 1158 0
1123 -1158 0
1125 -1158 0
-1127 -1129 1160 0
1127 -1160 0
1129 -1160 0
-1131 -1133 1162 0
1131 -1162 0
1133 -1162 0
-1135 -1137 1164 0
1135 -1164 0
1137 -1164 0
-1139 -1141 1166 0
1139 -1166 0
1141 -1166 0
-1143 -1145 1168 0
1143 -1168 0
1145 -1168 0
-1147 -1149 1170 0
1147 -1170 0
1149 -1170 0
-1151 -1153 1172 0
1151 -1172 0
1153 -1172 0
-1155 -1157 1174 0
1155 -1174 0
1157 -1174 0
-1159 -1161 1176 0
1159 -1176 0
1161 -1176 0
-1163 -1165 1178 0
1163 -1178 0
1165 -1178 0
-1167 -1169 1180 0
1167 -1180 0
1169 -1180 0
-1171 -1173 1182 0
1171 -1182 0
1173 -1182 0
-1175 -1177 1184 0
1175 -1184 0
1177 -1184 0
-1179 -1181 1185 0
1179 -1185 0
1181 -1185 0
-1073 -1075 1387 0
1073 -1387 0
1075 -1387 0
-1081 -1083 1303 0
1081 -1303 0
1083 -1303 0
-1085 -1087 1304 0
1085 -1304 0
1087 -1304 0
-1091 -1093 1305 0
1091 -1305 0
1093 -1305 0
-1097 -1099 1198 0
1097 -1198 0
1099 -1198 0
-1101 -1103 1200 0
1101 -1200 0
1103 -1200 0
-1105 -1107 1202 0
1105 -1202 0
1107 -1202 0
-1109 -1111 1204 0
1109 -1204 0
1111 -1204 0
-1113 -1115 1206 0
1113 -1206 0
1115 -1206 0
-1117 -1119 1208 0
1117 -1208 0
1119 -1208 0
-1122 -1124 1311 0
1122 -1311 0
1124 -1311 0
-1126 -1128 1210 0
1126 -1210 0
1128 -1210 0
-1130 -1132 1212 0
1130 -1212 0
1132 -1212 0
-1134 -1136 1214 0
1134 -1214 0
1136 -1214 0
-1138 -1140 1216 0
1138 -1216 0
1140 -1216 0
-1142 -1144 1218 0
1142 -1218 0
1144 -1218 0
-1146 -1148 1220 0
1146 -1220 0
1148 -1220 0
-1150 -1152 1222 0
1150 -1222 0
1152 -1222 0
-1154 -1156 1224 0
1154 -1224 0
1156 -1224 0
-1158 -1160 1226 0
1158 -1226 0
1160 -1226 0
-1162 -1164 1228 0
1162 -1228 0
1164 -1228 0
-1166 -1168 1230 0
1166 -1230 0
1168 -1230 0
-1170 -1172 1232 0
1170 -1232 0
1172 -1232 0
-1174 -1176 1234 0
1174 -1234 0
1176 -1234 0
-1178 -1180 1236 0
1178 -1236 0
1180 -1236 0
-1182 -1184 1238 0
1182 -1238 0
1184 -1238 0
-1183 -1185 1240 0
1185 -1240 0
1183 -1240 0
-1187 -1188 1328 0
1187 -1328 0
1188 -1328 0
-1189 -1190 1243 0
1189 -1243 0
1190 -1243 0
-1191 -1192 1245 0
1191 -1245 0
1192 -1245 0
-1193 -1194 1247 0
1193 -1247 0
1194 -1247 0
-1195 -1196 1249 0
1195 -1249 0
1196 -1249 0
-1197 -1199 1251 0
1197 -1251 0
1199 -1251 0
-1201 -1203 1253 0
1201 -1253 0
1203 -1253 0
-1205 -1207 1334 0
1205 -1334 0
1207 -1334 0
-1209 -1211 1257 0
1209 -1257 0
1211 -1257 0
-1213 -1215 1259 0
1213 -1259 0
1215 -1259 0
-1217 -1219 1261 0
1217 -1261 0
1219 -1261 0
-1221 -1223 1263 0
1221 -1263 0
1223 -1263 0
-1225 -1227 1265 0
1225 -1265 0
1227 -1265 0
-1229 -1231 1267 0
1229 -1267 0
1231 -1267 0
-1233 -1235 1269 0
1233 -1269 0
1235 -1269 0
-1237 -1239 1271 0
1237 -1271 0
1239 -1271 0
-1186 -1241 1273 0
1186 -1273 0
1241 -1273 0
-1242 -1244 1275 0
1242 -1275 0
1244 -1275 0
-1246 -1248 1277 0
1246 -1277 0
1248 -1277 0
-1250 -1252 1279 0
1250 -1279 0
1252 -1279 0
-1254 -1255 1281 0
1254 -1281 0
1255 -1281 0
-1256 -1258 1283 0
1256 -1283 0
1258 -1283 0
-1260 -1262 1285 0
1260 -1285 0
1262 -1285 0
-1264 -1266 1287 0
1264 -1287 0
1266 -1287 0
-1268 -1270 1289 0
1268 -1289 0
1270 -1289 0
-1272 -1274 1291 0
1272 -1291 0
1274 -1291 0
-1276 -1278 1293 0
1276 -1293 0
1278 -1293 0
-1280 -1282 1295 0
1280 -1295 0
1282 -1295 0
-1284 -1286 1297 0
1284 -1297 0
1286 -1297 0
-1288 -1290 1299 0
1288 -1299 0
1290 -1299 0
-1292 -1294 1301 0
1292 -1301 0
1294 -1301 0
-1296 -1298 1302 0
1296 -1302 0
1298 -1302 0
-1198 -1200 1307 0
1198 -1307 0
1200 -1307 0
-1202 -1204 1309 0
1202 -1309 0
1204 -1309 0
-1206 -1208 1417 0
1206 -1417 0
1208 -1417 0
-1210 -1212 1313 0
1210 -1313 0
1212 -1313 0
-1214 -1216 1315 0
1214 -1315 0
1216 -1315 0
-1218 -1220 1317 0
1218 -1317 0
1220 -1317 0
-1222 -1224 1319 0
1222 -1319 0
1224 -1319 0
-1226 -1228 1321 0
1226 -1321 0
1228 -1321 0
-1230 -1232 1323 0
1230 -1323 0
1232 -1323 0
-1234 -1236 1325 0
1234 -1325 0
1236 -1325 0
-1238 -1240 1327 0
1238 -1327 0
1240 -1327 0
-1243 -1245 1424 0
1243 -1424 0
1245 -1424 0
-1247 -1249 1331 0
1247 -1331 0
1249 -1331 0
-1251 -1253 1333 0
1251 -1333 0
1253 -1333 0
-1257 -1259 1426 0
1257 -1426 0
1259 -1426 0
-1261 -1263 1337 0
1261 -1337 0
1263 -1337 0
-1265 -1267 1339 0
1265 -1339 0
1267 -1339 0
-1269 -1271 1341 0
1269 -1341 0
1271 -1341 0
-1273 -1275 1343 0
1273 -1343 0
1275 -1343 0
-1277 -1279 1345 0
1277 -1345 0
1279 -1345 0
-1281 -1283 1347 0
1281 -1347 0
1283 -1347 0
-1285 -1287 1349 0
1285 -1349 0
1287 -1349 0
-1289 -1291 1351 0
1289 -1351 0
1291 -1351 0
-1293 -1295 1353 0
1293 -1353 0
1295 -1353 0
-1297 -1299 1355 0
1297 -1355 0
1299 -1355 0
-1301 -1302 1436 0
1301 -1436 0
1302 -1436 0
-1303 -1304 1437 0
1303 -1437 0
1304 -1437 0
-1305 -1306 1359 0
1305 -1359 0
1306 -1359 0
-1308 -1310 1361 0
1308 -1361 0
1310 -1361 0
-1311 -1312 1363 0
1311 -1363 0
1312 -1363 0
-1314 -1316 1365 0
1314 -1365 0
1316 -1365 0
-1318 -1320 1367 0
1318 -1367 0
1320 -1367 0
-1322 -1324 1369 0
1322 -1369 0
1324 -1369 0
-1326 -1328 1371 0
1326 -1371 0
1328 -1371 0
-1329 -1330 1373 0
1329 -1373 0
1330 -1373 0
-1332 -1334 1375 0
1332 -1375 0
1334 -1375 0
-1335 -1336 1377 0
1335 -1377 0
1336 -1377 0
-1338 -1340 1379 0
1338 -1379 0
1340 -1379 0
-1342 -1344 1381 0
1342 -1381 0
1344 -1381 0
-1346 -1348 1383 0
1346 -1383 0
1348 -1383 0
-1350 -1352 1385 0
1350 -1385 0
1352 -1385 0
-1354 -1356 1451 0
1354 -1451 0
1356 -1451 0
-1357 -1358 1389 0
1357 -1389 0
1358 -1389 0
-1360 -1362 1391 0
1360 -1391 0
1362 -1391 0
-1364 -1366 1393 0
1364 -1393 0
1366 -1393 0
-1368 -1370 1395 0
1368 -1395 0
1370 -1395 0
-1372 -1374 1397 0
1372 -1397 0
1374 -1397 0
-1376 -1378 1399 0
1376 -1399 0
1378 -1399 0
-1380 -1382 1401 0
1380 -1401 0
1382 -1401 0
-1384 -1386 1403 0
1384 -1403 0
1386 -1403 0
-1387 -1388 1405 0
1387 -1405 0
1388 -1405 0
-1390 -1392 1407 0
1390 -1407 0
1392 -1407 0
-1394 -1396 1409 0
1394 -1409 0
1396 -1409 0
-1398 -1400 1411 0
1398 -1411 0
1400 -1411 0
-1402 -1404 1413 0
1402 -1413 0
1404 -1413 0
-1406 -1408 1415 0
1406 -1415 0
1408 -1415 0
-1410 -1412 1416 0
1410 -1416 0
1412 -1416 0
-1307 -1309 1524 0
1307 -1524 0
1309 -1524 0
-1313 -1315 1525 0
1313 -1525 0
1315 -1525 0
-1317 -1319 1420 0
1317 -1420 0
1319 -1420 0
-1321 -1323 1422 0
1321 -1422 0
1323 -1422 0
-1325 -1327 1527 0
1325 -1527 0
1327 -1527 0
-1331 -1333 1528 0
1331 -1528 0
1333 -1528 0
-1337 -1339 1428 0
1337 -1428 0
1339 -1428 0
-1341 -1343 1430 0
1341 -1430 0
1343 -1430 0
-1345 -1347 1432 0
1345 -1432 0
1347 -1432 0
-1349 -1351 1434 0
1349 -1434 0
1351 -1434 0
-1353 -1355 1533 0
1353 -1533 0
1355 -1533 0
-1359 -1361 1534 0
1359 -1534 0
1361 -1534 0
-1363 -1365 1440 0
1363 -1440 0
1365 -1440 0
-1367 -1369 1442 0
1367 -1442 0
1369 -1442 0
-1371 -1373 1444 0
1371 -1444 0
1373 -1444 0
-1375 -1377 1446 0
1375 -1446 0
1377 -1446 0
-1379 -1381 1448 0
1379 -1448 0
1381 -1448 0
-1383 -1385 1450 0
1383 -1450 0
1385 -1450 0
-1389 -1391 1540 0
1389 -1540 0
1391 -1540 0
-1393 -1395 1454 0
1393 -1454 0
1395 -1454 0
-1397 -1399 1456 0
1397 -1456 0
1399 -1456 0
-1401 -1403 1458 0
1401 -1458 0
1403 -1458 0
-1405 -1407 1460 0
1405 -1460 0
1407 -1460 0
-1409 -1411 1462 0
1409 -1462 0
1411 -1462 0
-1413 -1415 1464 0
1413 -1464 0
1415 -1464 0
-1414 -1416 1546 0
1416 -1546 0
1414 -1546 0
-1417 -1418 1547 0
1417 -1547 0
1418 -1547 0
-1419 -1421 1468 0
1419 -1468 0
1421 -1468 0
-1423 -1424 1470 0
1423 -1470 0
1424 -1470 0
-1425 -1426 1472 0
1425 -1472 0
1426 -1472 0
-1427 -1429 1474 0
1427 -1474 0
1429 -1474 0
-1431 -1433 1476 0
1431 -1476 0
1433 -1476 0
-1435 -1436 1478 0
1435 -1478 0
1436 -1478 0
-1437 -1438 1480 0
1437 -1480 0
1438 -1480 0
-1439 -1441 1482 0
1439 -1482 0
1441 -1482 0
-1443 -1445 1484 0
1443 -1484 0
1445 -1484 0
-1447 -1449 1486 0
1447 -1486 0
1449 -1486 0
-1451 -1452 1488 0
1451 -1488 0
1452 -1488 0
-1453 -1455 1490 0
1453 -1490 0
1455 -1490 0
-1457 -1459 1492 0
1457 -1492 0
1459 -1492 0
-1461 -1463 1494 0
1461 -1494 0
1463 -1494 0
-1465 -1466 1561 0
1465 -1561 0
1466 -1561 0
-1467 -1469 1498 0
1467 -1498 0
1469 -1498 0
-1471 -1473 1500 0
1471 -1500 0
1473 -1500 0
-1475 -1477 1502 0
1475 -1502 0
1477 -1502 0
-1479 -1481 1504 0
1479 -1504 0
1481 -1504 0
-1483 -1485 1506 0
1483 -1506 0
1485 -1506 0
-1487 -1489 1508 0
1487 -1508 0
1489 -1508 0
-1491 -1493 1510 0
1491 -1510 0
1493 -1510 0
-1495 -1496 1512 0
1495 -1512 0
1496 -1512 0
-1497 -1499 1514 0
1497 -1514 0
1499 -1514 0
-1501 -1503 1516 0
1501 -1516 0
1503 -1516 0
-1505 -1507 1518 0
1505 -1518 0
1507 -1518 0
-1509 -1511 1520 0
1509 -1520 0
1511 -1520 0
-1513 -1515 1522 0
1513 -1522 0
1515 -1522 0
-1517 -1519 1523 0
1517 -1523 0
1519 -1523 0
-1420 -1422 1637 0
1420 -1637 0
1422 -1637 0
-1428 -1430 1530 0
1428 -1530 0
1430 -1530 0
-1432 -1434 1532 0
1432 -1532 0
1434 -1532 0
-1440 -1442 1536 0
1440 -1536 0
1442 -1536 0
-1444 -1446 1538 0
1444 -1538 0
1446 -1538 0
-1448 -1450 1638 0
1448 -1638 0
1450 -1638 0
-1454 -1456 1542 0
1454 -1542 0
1456 -1542 0
-1458 -1460 1544 0
1458 -1544 0
1460 -1544 0
-1462 -1464 1640 0
1462 -1640 0
1464 -1640 0
-1468 -1470 1641 0
1468 -1641 0
1470 -1641 0
-1472 -1474 1550 0
1472 -1550 0
1474 -1550 0
-1476 -1478 1552 0
1476 -1552 0
1478 -1552 0
-1480 -1482 1554 0
1480 -1554 0
1482 -1554 0
-1484 -1486 1556 0
1484 -1556 0
1486 -1556 0
-1488 -1490 1558 0
1488 -1558 0
1490 -1558 0
-1492 -1494 1560 0
1492 -1560 0
1494 -1560 0
-1498 -1500 1647 0
1498 -1647 0
1500 -1647 0
-1502 -1504 1564 0
1502 -1564 0
1504 -1564 0
-1506 -1508 1566 0
1506 -1566 0
1508 -1566 0
-1510 -1512 1568 0
1510 -1568 0
1512 -1568 0
-1514 -1516 1570 0
1514 -1570 0
1516 -1570 0
-1518 -1520 1572 0
1518 -1572 0
1520 -1572 0
-1522 -1523 1574 0
1522 -1574 0
1523 -1574 0
-1524 -1525 1653 0
1524 -1653 0
1525 -1653 0
-1526 -1527 1577 0
1526 -1577 0
1527 -1577 0
-1528 -1529 1579 0
1528 -1579 0
1529 -1579 0
-1531 -1533 1581 0
1531 -1581 0
1533 -1581 0
-1534 -1535 1583 0
1534 -1583 0
1535 -1583 0
-1537 -1539 1585 0
1537 -1585 0
1539 -1585 0
-1540 -1541 1587 0
1540 -1587 0
1541 -1587 0
-1543 -1545 1589 0
1543 -1589 0
1545 -1589 0
-1546 -1547 1591 0
1546 -1591 0
1547 -1591 0
-1548 -1549 1593 0
1548 -1593 0
1549 -1593 0
-1551 -1553 1595 0
1551 -1595 0
1553 -1595 0
-1555 -1557 1597 0
1555 -1597 0
1557 -1597 0
-1559 -1561 1599 0
1559 -1599 0
1561 -1599 0
-1562 -1563 1601 0
1562 -1601 0
1563 -1601 0
-1565 -1567 1603 0
1565 -1603 0
1567 -1603 0
-1569 -1571 1605 0
1569 -1605 0
1571 -1605 0
-1521 -1573 1607 0
1573 -1607 0
1521 -1607 0
-1575 -1576 1609 0
1575 -1609 0
1576 -1609 0
-1578 -1580 1611 0
1578 -1611 0
1580 -1611 0
-1582 -1584 1613 0
1582 -1613 0
1584 -1613 0
-1586 -1588 1615 0
1586 -1615 0
1588 -1615 0
-1590 -1592 1617 0
1590 -1617 0
1592 -1617 0
-1594 -1596 1619 0
1594 -1619 0
1596 -1619 0
-1598 -1600 1621 0
1598 -1621 0
1600 -1621 0
-1602 -1604 1623 0
1602 -1623 0
1604 -1623 0
-1606 -1608 1625 0
1606 -1625 0
1608 -1625 0
-1610 -1612 1627 0
1610 -1627 0
1612 -1627 0
-1614 -1616 1629 0
1614 -1629 0
1616 -1629 0
-1618 -1620 1631 0
1618 -1631 0
1620 -1631 0
-1622 -1624 1633 0
1622 -1633 0
1624 -1633 0
-1626 -1628 1635 0
1626 -1635 0
1628 -1635 0
-1630 -1632 1636 0
1630 -1636 0
1632 -1636 0
-1530 -1532 1744 0
1530 -1744 0
1532 -1744 0
-1536 -1538 1745 0
1536 -1745 0
1538 -1745 0
-1542 -1544 1746 0
1542 -1746 0
1544 -1746 0
-1550 -1552 1643 0
1550 -1643 0
1552 -1643 0
-1554 -1556 1645 0
1554 -1645 0
1556 -1645 0
-1558 -1560 1748 0
1558 -1748 0
1560 -1748 0
-1564 -1566 1649 0
1564 -1649 0
1566 -1649 0
-1568 -1570 1651 0
1568 -1651 0
1570 -1651 0
-1572 -1574 1750 0
1572 -1750 0
1574 -1750 0
-1577 -1579 1655 0
1577 -1655 0
1579 -1655 0
-1581 -1583 1657 0
1581 -1657 0
1583 -1657 0
-1585 -1587 1659 0
1585 -1659 0
1587 -1659 0
-1589 -1591 1661 0
1589 -1661 0
1591 -1661 0
-1593 -1595 1663 0
1593 -1663 0
1595 -1663 0
-1597 -1599 1665 0
1597 -1665 0
1599 -1665 0
-1601 -1603 1667 0
1601 -1667 0
1603 -1667 0
-1605 -1607 1669 0
1605 -1669 0
1607 -1669 0
-1609 -1611 1671 0
1609 -1671 0
1611 -1671 0
-1613 -1615 1673 0
1613 -1673 0
1615 -1673 0
-1617 -1619 1675 0
1617 -1675 0
1619 -1675 0
-1621 -1623 1677 0
1621 -1677 0
1623 -1677 0
-1625 -1627 1679 0
1625 -1679 0
1627 -1679 0
-1629 -1631 1681 0
1629 -1681 0
1631 -1681 0
-1633 -1635 1683 0
1633 -1683 0
1635 -1683 0
-1634 -1636 1685 0
1636 -1685 0
1634 -1685 0
-1638 -1639 1765 0
1638 -1765 0
1639 -1765 0
-1640 -1641 1690 0
1640 -1690 0
1641 -1690 0
-1642 -1644 1692 0
1642 -1692 0
1644 -1692 0
-1646 -1647 1694 0
1646 -1694 0
1647 -1694 0
-1648 -1650 1696 0
1648 -1696 0
1650 -1696 0
-1652 -1653 1698 0
1652 -1698 0
1653 -1698 0
-1654 -1656 1700 0
1654 -1700 0
1656 -1700 0
-1658 -1660 1702 0
1658 -1702 0
1660 -1702 0
-1662 -1664 1704 0
1662 -1704 0
1664 -1704 0
-1666 -1668 1706 0
1666 -1706 0
1668 -1706 0
-1670 -1672 1708 0
1670 -1708 0
1672 -1708 0
-1674 -1676 1710 0
1674 -1710 0
1676 -1710 0
-1678 -1680 1712 0
1678 -1712 0
1680 -1712 0
-1682 -1684 1714 0
1682 -1714 0
1684 -1714 0
-1637 -1686 1716 0
1637 -1716 0
1686 -1716 0
-1687 -1688 1718 0
1687 -1718 0
1688 -1718 0
-1689 -1691 1720 0
1689 -1720 0
1691 -1720 0
-1693 -1695 1722 0
1693 -1722 0
1695 -1722 0
-1697 -1699 1724 0
1697 -1724 0
1699 -1724 0
-1701 -1703 1726 0
1701 -1726 0
1703 -1726 0
-1705 -1707 1728 0
1705 -1728 0
1707 -1728 0
-1709 -1711 1730 0
1709 -1730 0
1711 -1730 0
-1713 -1715 1732 0
1713 -1732 0
1715 -1732 0
-1717 -1719 1734 0
1717 -1734 0
1719 -1734 0
-1721 -1723 1736 0
1721 -1736 0
1723 -1736 0
-1725 -1727 1738 0
1725 -1738 0
1727 -1738 0
-1729 -1731 1740 0
1729 -1740 0
1731 -1740 0
-1733 -1735 1742 0
1733 -1742 0
1735 -1742 0
-1737 -1739 1743 0
1737 -1743 0
1739 -1743 0
-1643 -1645 1847 0
1643 -1847 0
1645 -1847 0
-1649 -1651 1848 0
1649 -1848 0
1651 -1848 0
-1655 -1657 1849 0
1655 -1849 0
1657 -1849 0
-1659 -1661 1753 0
1659 -1753 0
1661 -1753 0
-1663 -1665 1755 0
1663 -1755 0
1665 -1755 0
-1667 -1669 1757 0
1667 -1757 0
1669 -1757 0
-1671 -1673 1759 0
1671 -1759 0
1673 -1759 0
-1675 -1677 1761 0
1675 -1761 0
1677 -1761 0
-1679 -1681 1763 0
1679 -1763 0
1681 -1763 0
-1683 -1685 1855 0
1683 -1855 0
1685 -1855 0
-1690 -1692 1856 0
1690 -1856 0
1692 -1856 0
-1694 -1696 1768 0
1694 -1768 0
1696 -1768 0
-1698 -1700 1770 0
1698 -1770 0
1700 -1770 0
-1702 -1704 1772 0
1702 -1772 0
1704 -1772 0
-1706 -1708 1774 0
1706 -1774 0
1708 -1774 0
-1710 -1712 1776 0
1710 -1776 0
1712 -1776 0
-1714 -1716 1778 0
1714 -1778 0
1716 -1778 0
-1718 -1720 1780 0
1718 -1780 0
1720 -1780 0
-1722 -1724 1782 0
1722 -1782 0
1724 -1782 0
-1726 -1728 1784 0
1726 -1784 0
1728 -1784 0
-1730 -1732 1786 0
1730 -1786 0
1732 -1786 0
-1734 -1736 1788 0
1734 -1788 0
1736 -1788 0
-1738 -1740 1790 0
1738 -1790 0
1740 -1790 0
-1742 -1743 1869 0
1742 -1869 0
1743 -1869 0
-1744 -1745 1870 0
1744 -1870 0
1745 -1870 0
-1747 -1748 1794 0
1747 -1794 0
1748 -1794 0
-1749 -1750 1796 0
1749 -1796 0
1750 -1796 0
-1751 -1752 1798 0
1751 -1798 0
1752 -1798 0
-1754 -1756 1800 0
1754 -1800 0
1756 -1800 0
-1758 -1760 1802 0
1758 -1802 0
1760 -1802 0
-1762 -1764 1804 0
1762 -1804 0
1764 -1804 0
-1766 -1767 1876 0
1766 -1876 0
1767 -1876 0
-1769 -1771 1807 0
1769 -1807 0
1771 -1807 0
-1773 -1775 1809 0
1773 -1809 0
1775 -1809 0
-1777 -1779 1811 0
1777 -1811 0
1779 -1811 0
-1781 -1783 1813 0
1781 -1813 0
1783 -1813 0
-1785 -1787 1815 0
1785 -1815 0
1787 -1815 0
-1789 -1791 1817 0
1789 -1817 0
1791 -1817 0
-1741 -1792 1819 0
1741 -1819 0
1792 -1819 0
-1746 -1793 1821 0
1746 -1821 0
1793 -1821 0
-1795 -1797 1823 0
1795 -1823 0
1797 -1823 0
-1799 -1801 1825 0
1799 -1825 0
1801 -1825 0
-1765 -1803 1827 0
1803 -1827 0
1765 -1827 0
-1805 -1806 1829 0
1805 -1829 0
1806 -1829 0
-1808 -1810 1831 0
1808 -1831 0
1810 -1831 0
-1812 -1814 1833 0
1812 -1833 0
1814 -1833 0
-1816 -1818 1835 0
1816 -1835 0
1818 -1835 0
-1820 -1822 1837 0
1820 -1837 0
1822 -1837 0
-1824 -1826 1839 0
1824 -1839 0
1826 -1839 0
-1828 -1830 1841 0
1828 -1841 0
1830 -1841 0
-1832 -1834 1843 0
1832 -1843 0
1834 -1843 0
-1836 -1838 1845 0
1836 -1845 0
1838 -1845 0
-1840 -1842 1846 0
1840 -1846 0
1842 -1846 0
-1753 -1755 1954 0
1753 -1954 0
1755 -1954 0
-1757 -1759 1852 0
1757 -1852 0
1759 -1852 0
-1761 -1763 1854 0
1761 -1854 0
1763 -1854 0
-1768 -1770 1858 0
1768 -1858 0
1770 -1858 0
-1772 -1774 1860 0
1772 -1860 0
1774 -1860 0
-1776 -1778 1862 0
1776 -1862 0
1778 -1862 0
-1780 -1782 1864 0
1780 -1864 0
1782 -1864 0
-1784 -1786 1866 0
1784 -1866 0
1786 -1866 0
-1788 -1790 1868 0
1788 -1868 0
1790 -1868 0
-1794 -1796 1872 0
1794 -1872 0
1796 -1872 0
-1798 -1800 1874 0
1798 -1874 0
1800 -1874 0
-1802 -1804 1960 0
1802 -1960 0
1804 -1960 0
-1807 -1809 1878 0
1807 -1878 0
1809 -1878 0
-1811 -1813 1880 0
1811 -1880 0
1813 -1880 0
-1815 -1817 1882 0
1815 -1882 0
1817 -1882 0
-1819 -1821 1884 0
1819 -1884 0
1821 -1884 0
-1823 -1825 1886 0
1823 -1886 0
1825 -1886 0
-1827 -1829 1888 0
1827 -1888 0
1829 -1888 0
-1831 -1833 1890 0
1831 -1890 0
1833 -1890 0
-1835 -1837 1892 0
1835 -1892 0
1837 -1892 0
-1839 -1841 1894 0
1839 -1894 0
1841 -1894 0
-1843 -1845 1896 0
1843 -1896 0
1845 -1896 0
-1844 -1846 1970 0
1846 -1970 0
1844 -1970 0
-1847 -1848 1898 0
1847 -1898 0
1848 -1898 0
-1849 -1850 1900 0
1849 -1900 0
1850 -1900 0
-1851 -1853 1902 0
1851 -1902 0
1853 -1902 0
-1855 -1856 1904 0
1855 -1904 0
1856 -1904 0
-1857 -1859 1906 0
1857 -1906 0
1859 -1906 0
-1861 -1863 1908 0
1861 -1908 0
1863 -1908 0
-1865 -1867 1910 0
1865 -1910 0
1867 -1910 0
-1869 -1870 1912 0
1869 -1912 0
1870 -1912 0
-1871 -1873 1914 0
1871 -1914 0
1873 -1914 0
-1875 -1876 1916 0
1875 -1916 0
1876 -1916 0
-1877 -1879 1918 0
1877 -1918 0
1879 -1918 0
-1881 -1883 1920 0
1881 -1920 0
1883 -1920 0
-1885 -1887 1922 0
1885 -1922 0
1887 -1922 0
-1889 -1891 1924 0
1889 -1924 0
1891 -1924 0
-1893 -1895 1984 0
1893 -1984 0
1895 -1984 0
-1897 -1899 1928 0
1897 -1928 0
1899 -1928 0
-1901 -1903 1930 0
1901 -1930 0
1903 -1930 0
-1905 -1907 1932 0
1905 -1932 0
1907 -1932 0
-1909 -1911 1934 0
1909 -1934 0
1911 -1934 0
-1913 -1915 1936 0
1913 -1936 0
1915 -1936 0
-1917 -1919 1938 0
1917 -1938 0
1919 -1938 0
-1921 -1923 1940 0
1921 -1940 0
1923 -1940 0
-1925 -1926 1942 0
1925 -1942 0
1926 -1942 0
-1927 -1929 1944 0
1927 -1944 0
1929 -1944 0
-1931 -1933 1946 0
1931 -1946 0
1933 -1946 0
-1935 -1937 1948 0
1935 -1948 0
1937 -1948 0
-1939 -1941 1950 0
1939 -1950 0
1941 -1950 0
-1943 -1945 1952 0
1943 -1952 0
1945 -1952 0
-1947 -1949 1953 0
1947 -1953 0
1949 -1953 0
-1852 -1854 2051 0
1852 -2051 0
1854 -2051 0
-1858 -1860 2052 0
1858 -2052 0
1860 -2052 0
-1862 -1864 1957 0
1862 -1957 0
1864 -1957 0
-1866 -1868 1958 0
1866 -1958 0
1868 -1958 0
-1872 -1874 2054 0
1872 -2054 0
1874 -2054 0
-1878 -1880 2055 0
1878 -2055 0
1880 -2055 0
-1882 -1884 1963 0
1882 -1963 0
1884 -1963 0
-1886 -1888 1965 0
1886 -1965 0
1888 -1965 0
-1890 -1892 1967 0
1890 -1967 0
1892 -1967 0
-1894 -1896 1969 0
1894 -1969 0
1896 -1969 0
-1898 -1900 2060 0
1898 -2060 0
1900 -2060 0
-1902 -1904 1973 0
1902 -1973 0
1904 -1973 0
-1906 -1908 1975 0
1906 -1975 0
1908 -1975 0
-1910 -1912 1977 0
1910 -1977 0
1912 -1977 0
-1914 -1916 1979 0
1914 -1979 0
1916 -1979 0
-1918 -1920 1981 0
1918 -1981 0
1920 -1981 0
-1922 -1924 1983 0
1922 -1983 0
1924 -1983 0
-1928 -1930 2066 0
1928 -2066 0
1930 -2066 0
-1932 -1934 1987 0
1932 -1987 0
1934 -1987 0
-1936 -1938 1989 0
1936 -1989 0
1938 -1989 0
-1940 -1942 1991 0
1940 -1991 0
1942 -1991 0
-1944 -1946 1993 0
1944 -1993 0
1946 -1993 0
-1948 -1950 1995 0
1948 -1995 0
1950 -1995 0
-1952 -1953 1997 0
1952 -1997 0
1953 -1997 0
-1955 -1956 2072 0
1955 -2072 0
1956 -2072 0
-1959 -1960 2073 0
1959 -2073 0
1960 -2073 0
-1961 -1962 2003 0
1961 -2003 0
1962 -2003 0
-1964 -1966 2005 0
1964 -2005 0
1966 -2005 0
-1968 -1970 2007 0
1968 -2007 0
1970 -2007 0
-1971 -1972 2009 0
1971 -2009 0
1972 -2009 0
-1974 -1976 2011 0
1974 -2011 0
1976 -2011 0
-1978 -1980 2013 0
1978 -2013 0
1980 -2013 0
-1982 -1984 2015 0
1982 -2015 0
1984 -2015 0
-1985 -1986 2017 0
1985 -2017 0
1986 -2017 0
-1988 -1990 2019 0
1988 -2019 0
1990 -2019 0
-1992 -1994 2021 0
1992 -2021 0
1994 -2021 0
-1951 -1996 2023 0
1996 -2023 0
1951 -2023 0
-1954 -1998 2025 0
1954 -2025 0
1998 -2025 0
-1999 -2000 2027 0
1999 -2027 0
2000 -2027 0
-2001 -2002 2029 0
2001 -2029 0
2002 -2029 0
-2004 -2006 2031 0
2004 -2031 0
2006 -2031 0
-2008 -2010 2033 0
2008 -2033 0
2010 -2033 0
-2012 -2014 2035 0
2012 -2035 0
2014 -2035 0
-2016 -2018 2037 0
2016 -2037 0
2018 -2037 0
-2020 -2022 2039 0
2020 -2039 0
2022 -2039 0
-2024 -2026 2041 0
2024 -2041 0
2026 -2041 0
-2028 -2030 2043 0
2028 -2043 0
2030 -2043 0
-2032 -2034 2045 0
2032 -2045 0
2034 -2045 0
-2036 -2038 2047 0
2036 -2047 0
2038 -2047 0
-2040 -2042 2049 0
2040 -2049 0
2042 -2049 0
-2044 -2046 2050 0
2044 -2050 0
2046 -2050 0
-1957 -1958 2152 0
1957 -2152 0
1958 -2152 0
-1963 -1965 2057 0
1963 -2057 0
1965 -2057 0
-1967 -1969 2059 0
1967 -2059 0
1969 -2059 0
-1973 -1975 2154 0
1973 -2154 0
1975 -2154 0
-1977 -1979 2063 0
1977 -2063 0
1979 -2063 0
-1981 -1983 2065 0
1981 -2065 0
1983 -2065 0
-1987 -1989 2156 0
1987 -2156 0
1989 -2156 0
-1991 -1993 2069 0
1991 -2069 0
1993 -2069 0
-1995 -1997 2071 0
1995 -2071 0
1997 -2071 0
-2003 -2005 2157 0
2003 -2157 0
2005 -2157 0
-2007 -2009 2076 0
2007 -2076 0
2009 -2076 0
-2011 -2013 2078 0
2011 -2078 0
2013 -2078 0
-2015 -2017 2080 0
2015 -2080 0
2017 -2080 0
-2019 -2021 2082 0
2019 -2082 0
2021 -2082 0
-2023 -2025 2084 0
2023 -2084 0
2025 -2084 0
-2027 -2029 2086 0
2027 -2086 0
2029 -2086 0
-2031 -2033 2088 0
2031 -2088 0
2033 -2088 0
-2035 -2037 2090 0
2035 -2090 0
2037 -2090 0
-2039 -2041 2092 0
2039 -2092 0
2041 -2092 0
-2043 -2045 2094 0
2043 -2094 0
2045 -2094 0
-2047 -2049 2096 0
2047 -2096 0
2049 -2096 0
-2048 -2050 2098 0
2050 -2098 0
2048 -2098 0
-2052 -2053 2170 0
2052 -2170 0
2053 -2170 0
-2054 -2055 2101 0
2054 -2101 0
2055 -2101 0
-2056 -2058 2103 0
2056 -2103 0
2058 -2103 0
-2060 -2061 2105 0
2060 -2105 0
2061 -2105 0
-2062 -2064 2107 0
2062 -2107 0
2064 -2107 0
-2066 -2067 2109 0
2066 -2109 0
2067 -2109 0
-2068 -2070 2111 0
2068 -2111 0
2070 -2111 0
-2073 -2074 2176 0
2073 -2176 0
2074 -2176 0
-2075 -2077 2114 0
2075 -2114 0
2077 -2114 0
-2079 -2081 2116 0
2079 -2116 0
2081 -2116 0
-2083 -2085 2118 0
2083 -2118 0
2085 -2118 0
-2087 -2089 2120 0
2087 -2120 0
2089 -2120 0
-2091 -2093 2122 0
2091 -2122 0
2093 -2122 0
-2095 -2097 2124 0
2095 -2124 0
2097 -2124 0
-2051 -2099 2126 0
2051 -2126 0
2099 -2126 0
-2100 -2102 2128 0
2100 -2128 0
2102 -2128 0
-2104 -2106 2130 0
2104 -2130 0
2106 -2130 0
-2108 -2110 2132 0
2108 -2132 0
2110 -2132 0
-2072 -2112 2134 0
2072 -2134 0
2112 -2134 0
-2113 -2115 2136 0
2113 -2136 0
2115 -2136 0
-2117 -2119 2138 0
2117 -2138 0
2119 -2138 0
-2121 -2123 2140 0
2121 -2140 0
2123 -2140 0
-2125 -2127 2142 0
2125 -2142 0
2127 -2142 0
-2129 -2131 2144 0
2129 -2144 0
2131 -2144 0
-2133 -2135 2146 0
2133 -2146 0
2135 -2146 0
-2137 -2139 2148 0
2137 -2148 0
2139 -2148 0
-2141 -2143 2150 0
2141 -2150 0
2143 -2150 0
-2145 -2147 2151 0
2145 -2151 0
2147 -2151 0
-2057 -2059 2247 0
2057 -2247 0
2059 -2247 0
-2063 -2065 2248 0
2063 -2248 0
2065 -2248 0
-2069 -2071 2249 0
2069 -2249 0
2071 -2249 0
-2076 -2078 2159 0
2076 -2159 0
2078 -2159 0
-2080 -2082 2161 0
2080 -2161 0
2082 -2161 0
-2084 -2086 2163 0
2084 -2163 0
2086 -2163 0
-2088 -2090 2165 0
2088 -2165 0
2090 -2165 0
-2092 -2094 2167 0
2092 -2167 0
2094 -2167 0
-2096 -2098 2169 0
2096 -2169 0
2098 -2169 0
-2101 -2103 2254 0
2101 -2254 0
2103 -2254 0
-2105 -2107 2173 0
2105 -2173 0
2107 -2173 0
-2109 -2111 2175 0
2109 -2175 0
2111 -2175 0
-2114 -2116 2256 0
2114 -2256 0
2116 -2256 0
-2118 -2120 2179 0
2118 -2179 0
2120 -2179 0
-2122 -2124 2181 0
2122 -2181 0
2124 -2181 0
-2126 -2128 2183 0
2126 -2183 0
2128 -2183 0
-2130 -2132 2185 0
2130 -2185 0
2132 -2185 0
-2134 -2136 2187 0
2134 -2187 0
2136 -2187 0
-2138 -2140 2189 0
2138 -2189 0
2140 -2189 0
-2142 -2144 2191 0
2142 -2191 0
2144 -2191 0
-2146 -2148 2193 0
2146 -2193 0
2148 -2193 0
-2150 -2151 2263 0
2150 -2263 0
2151 -2263 0
-2153 -2154 2264 0
2153 -2264 0
2154 -2264 0
-2155 -2156 2265 0
2155 -2265 0
2156 -2265 0
-2157 -2158 2199 0
2157 -2199 0
2158 -2199 0
-2160 -2162 2201 0
2160 -2201 0
2162 -2201 0
-2164 -2166 2203 0
2164 -2203 0
2166 -2203 0
-2168 -2170 2205 0
2168 -2205 0
2170 -2205 0
-2171 -2172 2207 0
2171 -2207 0
2172 -2207 0
-2174 -2176 2209 0
2174 -2209 0
2176 -2209 0
-2177 -2178 2211 0
2177 -2211 0
2178 -2211 0
-2180 -2182 2213 0
2180 -2213 0
2182 -2213 0
-2184 -2186 2215 0
2184 -2215 0
2186 -2215 0
-2188 -2190 2217 0
2188 -2217 0
2190 -2217 0
-2192 -2194 2219 0
2192 -2219 0
2194 -2219 0
-2149 -2152 2221 0
2149 -2221 0
2152 -2221 0
-2195 -2196 2223 0
2195 -2223 0
2196 -2223 0
-2197 -2198 2225 0
2197 -2225 0
2198 -2225 0
-2200 -2202 2227 0
2200 -2227 0
2202 -2227 0
-2204 -2206 2229 0
2204 -2229 0
2206 -2229 0
-2208 -2210 2231 0
2208 -2231 0
2210 -2231 0
-2212 -2214 2233 0
2212 -2233 0
2214 -2233 0
-2216 -2218 2235 0
2216 -2235 0
2218 -2235 0
-2220 -2222 2237 0
2220 -2237 0
2222 -2237 0
-2224 -2226 2239 0
2224 -2239 0
2226 -2239 0
-2228 -2230 2241 0
2228 -2241 0
2230 -2241 0
-2232 -2234 2243 0
2232 -2243 0
2234 -2243 0
-2236 -2238 2245 0
2236 -2245 0
2238 -2245 0
-2240 -2242 2246 0
2240 -2246 0
2242 -2246 0
-2159 -2161 2344 0
2159 -2344 0
2161 -2344 0
-2163 -2165 2251 0
2163 -2251 0
2165 -2251 0
-2167 -2169 2253 0
2167 -2253 0
2169 -2253 0
-2173 -2175 2346 0
2173 -2346 0
2175 -2346 0
-2179 -2181 2347 0
2179 -2347 0
2181 -2347 0
-2183 -2185 2259 0
2183 -2259 0
2185 -2259 0
-2187 -2189 2261 0
2187 -2261 0
2189 -2261 0
-2191 -2193 2349 0
2191 -2349 0
2193 -2349 0
-2199 -2201 2267 0
2199 -2267 0
2201 -2267 0
-2203 -2205 2269 0
2203 -2269 0
2205 -2269 0
-2207 -2209 2271 0
2207 -2271 0
2209 -2271 0
-2211 -2213 2273 0
2211 -2273 0
2213 -2273 0
-2215 -2217 2275 0
2215 -2275 0
2217 -2275 0
-2219 -2221 2277 0
2219 -2277 0
2221 -2277 0
-2223 -2225 2279 0
2223 -2279 0
2225 -2279 0
-2227 -2229 2281 0
2227 -2281 0
2229 -2281 0
-2231 -2233 2283 0
2231 -2283 0
2233 -2283 0
-2235 -2237 2285 0
2235 -2285 0
2237 -2285 0
-2239 -2241 2287 0
2239 -2287 0
2241 -2287 0
-2243 -2245 2289 0
2243 -2289 0
2245 -2289 0
-2244 -2246 2360 0
2246 -2360 0
2244 -2360 0
-2248 -2249 2361 0
2248 -2361 0
2249 -2361 0
-2250 -2252 2294 0
2250 -2294 0
2252 -2294 0
-2254 -2255 2296 0
2254 -2296 0
2255 -2296 0
-2256 -2257 2298 0
2256 -2298 0
2257 -2298 0
-2258 -2260 2300 0
2258 -2300 0
2260 -2300 0
-2262 -2263 2302 0
2262 -2302 0
2263 -2302 0
-2264 -2265 2304 0
2264 -2304 0
2265 -2304 0
-2266 -2268 2306 0
2266 -2306 0
2268 -2306 0
-2270 -2272 2308 0
2270 -2308 0
2272 -2308 0
-2274 -2276 2310 0
2274 -2310 0
2276 -2310 0
-2278 -2280 2312 0
2278 -2312 0
2280 -2312 0
-2282 -2284 2314 0
2282 -2314 0
2284 -2314 0
-2286 -2288 2316 0
2286 -2316 0
2288 -2316 0
-2247 -2290 2318 0
2290 -2318 0
2247 -2318 0
-2291 -2292 2320 0
2291 -2320 0
2292 -2320 0
-2293 -2295 2322 0
2293 -2322 0
2295 -2322 0
-2297 -2299 2324 0
2297 -2324 0
2299 -2324 0
-2301 -2303 2326 0
2301 -2326 0
2303 -2326 0
-2305 -2307 2328 0
2305 -2328 0
2307 -2328 0
-2309 -2311 2330 0
2309 -2330 0
2311 -2330 0
-2313 -2315 2332 0
2313 -2332 0
2315 -2332 0
-2317 -2319 2334 0
2317 -2334 0
2319 -2334 0
-2321 -2323 2336 0
2321 -2336 0
2323 -2336 0
-2325 -2327 2338 0
2325 -2338 0
2327 -2338 0
-2329 -2331 2340 0
2329 -2340 0
2331 -2340 0
-2333 -2335 2342 0
2333 -2342 0
2335 -2342 0
-2337 -2339 2343 0
2337 -2343 0
2339 -2343 0
-2251 -2253 2437 0
2251 -2437 0
2253 -2437 0
-2259 -2261 2438 0
2259 -2438 0
2261 -2438 0
-2267 -2269 2439 0
2267 -2439 0
2269 -2439 0
-2271 -2273 2352 0
2271 -2352 0
2273 -2352 0
-2275 -2277 2354 0
2275 -2354 0
2277 -2354 0
-2279 -2281 2356 0
2279 -2356 0
2281 -2356 0
-2283 -2285 2358 0
2283 -2358 0
2285 -2358 0
-2287 -2289 2442 0
2287 -2442 0
2289 -2442 0
-2294 -2296 2443 0
2294 -2443 0
2296 -2443 0
-2298 -2300 2364 0
2298 -2364 0
2300 -2364 0
-2302 -2304 2366 0
2302 -2366 0
2304 -2366 0
-2306 -2308 2368 0
2306 -2368 0
2308 -2368 0
-2310 -2312 2370 0
2310 -2370 0
2312 -2370 0
-2314 -2316 2372 0
2314 -2372 0
2316 -2372 0
-2318 -2320 2374 0
2318 -2374 0
2320 -2374 0
-2322 -2324 2376 0
2322 -2376 0
2324 -2376 0
-2326 -2328 2378 0
2326 -2378 0
2328 -2378 0
-2330 -2332 2380 0
2330 -2380 0
2332 -2380 0
-2334 -2336 2382 0
2334 -2382 0
2336 -2382 0
-2338 -2340 2384 0
2338 -2384 0
2340 -2384 0
-2342 -2343 2386 0
2342 -2386 0
2343 -2386 0
-2345 -2346 2388 0
2345 -2388 0
2346 -2388 0
-2347 -2348 2390 0
2347 -2390 0
2348 -2390 0
-2350 -2351 2454 0
2350 -2454 0
2351 -2454 0
-2353 -2355 2393 0
2353 -2393 0
2355 -2393 0
-2357 -2359 2395 0
2357 -2395 0
2359 -2395 0
-2360 -2361 2397 0
2360 -2397 0
2361 -2397 0
-2362 -2363 2399 0
2362 -2399 0
2363 -2399 0
-2365 -2367 2401 0
2365 -2401 0
2367 -2401 0
-2369 -2371 2403 0
2369 -2403 0
2371 -2403 0
-2373 -2375 2405 0
2373 -2405 0
2375 -2405 0
-2377 -2379 2407 0
2377 -2407 0
2379 -2407 0
-2381 -2383 2409 0
2381 -2409 0
2383 -2409 0
-2341 -2385 2411 0
2385 -2411 0
2341 -2411 0
-2344 -2387 2413 0
2344 -2413 0
2387 -2413 0
-2349 -2389 2415 0
2389 -2415 0
2349 -2415 0
-2391 -2392 2417 0
2391 -2417 0
2392 -2417 0
-2394 -2396 2419 0
2394 -2419 0
2396 -2419 0
-2398 -2400 2421 0
2398 -2421 0
2400 -2421 0
-2402 -2404 2423 0
2402 -2423 0
2404 -2423 0
-2406 -2408 2425 0
2406 -2425 0
2408 -2425 0
-2410 -2412 2427 0
2410 -2427 0
2412 -2427 0
-2414 -2416 2429 0
2414 -2429 0
2416 -2429 0
-2418 -2420 2431 0
2418 -2431 0
2420 -2431 0
-2422 -2424 2433 0
2422 -2433 0
2424 -2433 0
-2426 -2428 2435 0
2426 -2435 0
2428 -2435 0
-2430 -2432 2436 0
2430 -2436 0
2432 -2436 0
-2352 -2354 2566 0
2352 -2566 0
2354 -2566 0
-2356 -2358 2528 0
2356 -2528 0
2358 -2528 0
-2364 -2366 2529 0
2364 -2529 0
2366 -2529 0
-2368 -2370 2446 0
2368 -2446 0
2370 -2446 0
-2372 -2374 2448 0
2372 -2448 0
2374 -2448 0
-2376 -2378 2450 0
2376 -2450 0
2378 -2450 0
-2380 -2382 2452 0
2380 -2452 0
2382 -2452 0
-2384 -2386 2532 0
2384 -2532 0
2386 -2532 0
-2388 -2390 2533 0
2388 -2533 0
2390 -2533 0
-2393 -2395 2456 0
2393 -2456 0
2395 -2456 0
-2397 -2399 2458 0
2397 -2458 0
2399 -2458 0
-2401 -2403 2460 0
2401 -2460 0
2403 -2460 0
-2405 -2407 2462 0
2405 -2462 0
2407 -2462 0
-2409 -2411 2464 0
2409 -2464 0
2411 -2464 0
-2413 -2415 2466 0
2413 -2466 0
2415 -2466 0
-2417 -2419 2468 0
2417 -2468 0
2419 -2468 0
-2421 -2423 2470 0
2421 -2470 0
2423 -2470 0
-2425 -2427 2472 0
2425 -2472 0
2427 -2472 0
-2429 -2431 2474 0
2429 -2474 0
2431 -2474 0
-2433 -2435 2476 0
2433 -2476 0
2435 -2476 0
-2434 -2436 2478 0
2436 -2478 0
2434 -2478 0
-2439 -2440 2480 0
2439 -2480 0
2440 -2480 0
-2441 -2442 2482 0
2441 -2482 0
2442 -2482 0
-2443 -2444 2484 0
2443 -2484 0
2444 -2484 0
-2445 -2447 2486 0
2445 -2486 0
2447 -2486 0
-2449 -2451 2547 0
2449 -2547 0
2451 -2547 0
-2453 -2454 2490 0
2453 -2490 0
2454 -2490 0
-2455 -2457 2492 0
2455 -2492 0
2457 -2492 0
-2459 -2461 2494 0
2459 -2494 0
2461 -2494 0
-2463 -2465 2496 0
2463 -2496 0
2465 -2496 0
-2467 -2469 2498 0
2467 -2498 0
2469 -2498 0
-2471 -2473 2500 0
2471 -2500 0
2473 -2500 0
-2475 -2477 2502 0
2475 -2502 0
2477 -2502 0
-2437 -2438 2504 0
2437 -2504 0
2438 -2504 0
-2479 -2481 2506 0
2479 -2506 0
2481 -2506 0
-2483 -2485 2508 0
2483 -2508 0
2485 -2508 0
-2487 -2488 2510 0
2487 -2510 0
2488 -2510 0
-2489 -2491 2512 0
2489 -2512 0
2491 -2512 0
-2493 -2495 2514 0
2493 -2514 0
2495 -2514 0
-2497 -2499 2516 0
2497 -2516 0
2499 -2516 0
-2501 -2503 2518 0
2501 -2518 0
2503 -2518 0
-2505 -2507 2520 0
2505 -2520 0
2507 -2520 0
-2509 -2511 2522 0
2509 -2522 0
2511 -2522 0
-2513 -2515 2524 0
2513 -2524 0
2515 -2524 0
-2517 -2519 2526 0
2517 -2526 0
2519 -2526 0
-2521 -2523 2527 0
2521 -2527 0
2523 -2527 0
-2446 -2448 2615 0
2446 -2615 0
2448 -2615 0
-2450 -2452 2616 0
2450 -2616 0
2452 -2616 0
-2456 -2458 2617 0
2456 -2617 0
2458 -2617 0
-2460 -2462 2536 0
2460 -2536 0
2462 -2536 0
-2464 -2466 2538 0
2464 -2538 0
2466 -2538 0
-2468 -2470 2540 0
2468 -2540 0
2470 -2540 0
-2472 -2474 2542 0
2472 -2542 0
2474 -2542 0
-2476 -2478 2620 0
2476 -2620 0
2478 -2620 0
-2480 -2482 2544 0
2480 -2544 0
2482 -2544 0
-2484 -2486 2546 0
2484 -2546 0
2486 -2546 0
-2490 -2492 2622 0
2490 -2622 0
2492 -2622 0
-2494 -2496 2550 0
2494 -2550 0
2496 -2550 0
-2498 -2500 2552 0
2498 -2552 0
2500 -2552 0
-2502 -2504 2554 0
2502 -2554 0
2504 -2554 0
-2506 -2508 2556 0
2506 -2556 0
2508 -2556 0
-2510 -2512 2558 0
2510 -2558 0
2512 -2558 0
-2514 -2516 2560 0
2514 -2560 0
2516 -2560 0
-2518 -2520 2562 0
2518 -2562 0
2520 -2562 0
-2522 -2524 2564 0
2522 -2564 0
2524 -2564 0
-2526 -2527 2631 0
2526 -2631 0
2527 -2631 0
-2528 -2529 2632 0
2528 -2632 0
2529 -2632 0
-2530 -2531 2569 0
2530 -2569 0
2531 -2569 0
-2532 -2533 2571 0
2532 -2571 0
2533 -2571 0
-2534 -2535 2573 0
2534 -2573 0
2535 -2573 0
-2537 -2539 2575 0
2537 -2575 0
2539 -2575 0
-2541 -2543 2637 0
2541 -2637 0
2543 -2637 0
-2545 -2547 2579 0
2545 -2579 0
2547 -2579 0
-2548 -2549 2581 0
2548 -2581 0
2549 -2581 0
-2551 -2553 2583 0
2551 -2583 0
2553 -2583 0
-2555 -2557 2585 0
2555 -2585 0
2557 -2585 0
-2559 -2561 2587 0
2559 -2587 0
2561 -2587 0
-2563 -2565 2589 0
2563 -2589 0
2565 -2589 0
-2525 -2566 2591 0
2525 -2591 0
2566 -2591 0
-2567 -2568 2593 0
2567 -2593 0
2568 -2593 0
-2570 -2572 2595 0
2570 -2595 0
2572 -2595 0
-2574 -2576 2597 0
2574 -2597 0
2576 -2597 0
-2577 -2578 2599 0
2577 -2599 0
2578 -2599 0
-2580 -2582 2601 0
2580 -2601 0
2582 -2601 0
-2584 -2586 2603 0
2584 -2603 0
2586 -2603 0
-2588 -2590 2605 0
2588 -2605 0
2590 -2605 0
-2592 -2594 2607 0
2592 -2607 0
2594 -2607 0
-2596 -2598 2609 0
2596 -2609 0
2598 -2609 0
-2600 -2602 2611 0
2600 -2611 0
2602 -2611 0
-2604 -2606 2613 0
2604 -2613 0
2606 -2613 0
-2608 -2610 2614 0
2608 -2614 0
2610 -2614 0
-2536 -2538 2741 0
2536 -2741 0
2538 -2741 0
-2540 -2542 2704 0
2540 -2704 0
2542 -2704 0
-2544 -2546 2705 0
2544 -2705 0
2546 -2705 0
-2550 -2552 2624 0
2550 -2624 0
2552 -2624 0
-2554 -2556 2626 0
2554 -2626 0
2556 -2626 0
-2558 -2560 2628 0
2558 -2628 0
2560 -2628 0
-2562 -2564 2630 0
2562 -2630 0
2564 -2630 0
-2569 -2571 2634 0
2569 -2634 0
2571 -2634 0
-2573 -2575 2636 0
2573 -2636 0
2575 -2636 0
-2579 -2581 2708 0
2579 -2708 0
2581 -2708 0
-2583 -2585 2640 0
2583 -2640 0
2585 -2640 0
-2587 -2589 2642 0
2587 -2642 0
2589 -2642 0
-2591 -2593 2644 0
2591 -2644 0
2593 -2644 0
-2595 -2597 2646 0
2595 -2646 0
2597 -2646 0
-2599 -2601 2648 0
2599 -2648 0
2601 -2648 0
-2603 -2605 2650 0
2603 -2650 0
2605 -2650 0
-2607 -2609 2652 0
2607 -2652 0
2609 -2652 0
-2611 -2613 2654 0
2611 -2654 0
2613 -2654 0
-2612 -2614 2717 0
2614 -2717 0
2612 -2717 0
-2615 -2616 2656 0
2615 -2656 0
2616 -2656 0
-2617 -2618 2658 0
2617 -2658 0
2618 -2658 0
-2619 -2620 2660 0
2619 -2660 0
2620 -2660 0
-2621 -2622 2662 0
2621 -2662 0
2622 -2662 0
-2623 -2625 2664 0
2623 -2664 0
2625 -2664 0
-2627 -2629 2666 0
2627 -2666 0
2629 -2666 0
-2631 -2632 2668 0
2631 -2668 0
2632 -2668 0
-2633 -2635 2670 0
2633 -2670 0
2635 -2670 0
-2637 -2638 2672 0
2637 -2672 0
2638 -2672 0
-2639 -2641 2674 0
2639 -2674 0
2641 -2674 0
-2643 -2645 2676 0
2643 -2676 0
2645 -2676 0
-2647 -2649 2678 0
2647 -2678 0
2649 -2678 0
-2651 -2653 2728 0
2651 -2728 0
2653 -2728 0
-2655 -2657 2682 0
2655 -2682 0
2657 -2682 0
-2659 -2661 2684 0
2659 -2684 0
2661 -2684 0
-2663 -2665 2686 0
2663 -2686 0
2665 -2686 0
-2667 -2669 2688 0
2667 -2688 0
2669 -2688 0
-2671 -2673 2690 0
2671 -2690 0
2673 -2690 0
-2675 -2677 2692 0
2675 -2692 0
2677 -2692 0
-2679 -2680 2694 0
2679 -2694 0
2680 -2694 0
-2681 -2683 2696 0
2681 -2696 0
2683 -2696 0
-2685 -2687 2698 0
2685 -2698 0
2687 -2698 0
-2689 -2691 2700 0
2689 -2700 0
2691 -2700 0
-2693 -2695 2702 0
2693 -2702 0
2695 -2702 0
-2697 -2699 2703 0
2697 -2703 0
2699 -2703 0
-2624 -2626 2789 0
2624 -2789 0
2626 -2789 0
-2628 -2630 2790 0
2628 -2790 0
2630 -2790 0
-2634 -2636 2791 0
2634 -2791 0
2636 -2791 0
-2640 -2642 2710 0
2640 -2710 0
2642 -2710 0
-2644 -2646 2712 0
2644 -2712 0
2646 -2712 0
-2648 -2650 2714 0
2648 -2714 0
2650 -2714 0
-2652 -2654 2716 0
2652 -2716 0
2654 -2716 0
-2656 -2658 2794 0
2656 -2794 0
2658 -2794 0
-2660 -2662 2720 0
2660 -2720 0
2662 -2720 0
-2664 -2666 2722 0
2664 -2722 0
2666 -2722 0
-2668 -2670 2724 0
2668 -2724 0
2670 -2724 0
-2672 -2674 2726 0
2672 -2726 0
2674 -2726 0
-2676 -2678 2799 0
2676 -2799 0
2678 -2799 0
-2682 -2684 2730 0
2682 -2730 0
2684 -2730 0
-2686 -2688 2732 0
2686 -2732 0
2688 -2732 0
-2690 -2692 2734 0
2690 -2734 0
2692 -2734 0
-2694 -2696 2736 0
2694 -2736 0
2696 -2736 0
-2698 -2700 2738 0
2698 -2738 0
2700 -2738 0
-2702 -2703 2740 0
2702 -2740 0
2703 -2740 0
-2704 -2705 2743 0
2704 -2743 0
2705 -2743 0
-2706 -2707 2745 0
2706 -2745 0
2707 -2745 0
-2708 -2709 2805 0
2708 -2805 0
2709 -2805 0
-2711 -2713 2749 0
2711 -2749 0
2713 -2749 0
-2715 -2717 2751 0
2715 -2751 0
2717 -2751 0
-2718 -2719 2753 0
2718 -2753 0
2719 -2753 0
-2721 -2723 2755 0
2721 -2755 0
2723 -2755 0
-2725 -2727 2757 0
2725 -2757 0
2727 -2757 0
-2728 -2729 2759 0
2728 -2759 0
2729 -2759 0
-2731 -2733 2761 0
2731 -2761 0
2733 -2761 0
-2735 -2737 2763 0
2735 -2763 0
2737 -2763 0
-2701 -2739 2765 0
2739 -2765 0
2701 -2765 0
-2741 -2742 2767 0
2741 -2767 0
2742 -2767 0
-2744 -2746 2769 0
2744 -2769 0
2746 -2769 0
-2747 -2748 2771 0
2747 -2771 0
2748 -2771 0
-2750 -2752 2773 0
2750 -2773 0
2752 -2773 0
-2754 -2756 2775 0
2754 -2775 0
2756 -2775 0
-2758 -2760 2777 0
2758 -2777 0
2760 -2777 0
-2762 -2764 2779 0
2762 -2779 0
2764 -2779 0
-2766 -2768 2781 0
2766 -2781 0
2768 -2781 0
-2770 -2772 2783 0
2770 -2783 0
2772 -2783 0
-2774 -2776 2785 0
2774 -2785 0
2776 -2785 0
-2778 -2780 2787 0
2778 -2787 0
2780 -2787 0
-2782 -2784 2788 0
2782 -2788 0
2784 -2788 0
-2710 -2712 2870 0
2710 -2870 0
2712 -2870 0
-2714 -2716 2871 0
2714 -2871 0
2716 -2871 0
-2720 -2722 2796 0
2720 -2796 0
2722 -2796 0
-2724 -2726 2798 0
2724 -2798 0
2726 -2798 0
-2730 -2732 2873 0
2730 -2873 0
2732 -2873 0
-2734 -2736 2802 0
2734 -2802 0
2736 -2802 0
-2738 -2740 2804 0
2738 -2804 0
2740 -2804 0
-2743 -2745 2875 0
2743 -2875 0
2745 -2875 0
-2749 -2751 2876 0
2749 -2876 0
2751 -2876 0
-2753 -2755 2808 0
2753 -2808 0
2755 -2808 0
-2757 -2759 2810 0
2757 -2810 0
2759 -2810 0
-2761 -2763 2812 0
2761 -2812 0
2763 -2812 0
-2765 -2767 2814 0
2765 -2814 0
2767 -2814 0
-2769 -2771 2816 0
2769 -2816 0
2771 -2816 0
-2773 -2775 2818 0
2773 -2818 0
2775 -2818 0
-2777 -2779 2820 0
2777 -2820 0
2779 -2820 0
-2781 -2783 2822 0
2781 -2822 0
2783 -2822 0
-2785 -2787 2824 0
2785 -2824 0
2787 -2824 0
-2786 -2788 2826 0
2788 -2826 0
2786 -2826 0
-2789 -2790 2886 0
2789 -2886 0
2790 -2886 0
-2791 -2792 2828 0
2791 -2828 0
2792 -2828 0
-2793 -2794 2830 0
2793 -2830 0
2794 -2830 0
-2795 -2797 2832 0
2795 -2832 0
2797 -2832 0
-2799 -2800 2834 0
2799 -2834 0
2800 -2834 0
-2801 -2803 2889 0
2801 -2889 0
2803 -2889 0
-2805 -2806 2838 0
2805 -2838 0
2806 -2838 0
-2807 -2809 2840 0
2807 -2840 0
2809 -2840 0
-2811 -2813 2842 0
2811 -2842 0
2813 -2842 0
-2815 -2817 2844 0
2815 -2844 0
2817 -2844 0
-2819 -2821 2846 0
2819 -2846 0
2821 -2846 0
-2823 -2825 2848 0
2823 -2848 0
2825 -2848 0
-2827 -2829 2895 0
2827 -2895 0
2829 -2895 0
-2831 -2833 2852 0
2831 -2852 0
2833 -2852 0
-2835 -2836 2854 0
2835 -2854 0
2836 -2854 0
-2837 -2839 2856 0
2837 -2856 0
2839 -2856 0
-2841 -2843 2858 0
2841 -2858 0
2843 -2858 0
-2845 -2847 2860 0
2845 -2860 0
2847 -2860 0
-2849 -2850 2862 0
2849 -2862 0
2850 -2862 0
-2851 -2853 2864 0
2851 -2864 0
2853 -2864 0
-2855 -2857 2866 0
2855 -2866 0
2857 -2866 0
-2859 -2861 2868 0
2859 -2868 0
2861 -2868 0
-2863 -2865 2869 0
2863 -2869 0
2865 -2869 0
-2796 -2798 2951 0
2796 -2951 0
2798 -2951 0
-2802 -2804 2952 0
2802 -2952 0
2804 -2952 0
-2808 -2810 2953 0
2808 -2953 0
2810 -2953 0
-2812 -2814 2879 0
2812 -2879 0
2814 -2879 0
-2816 -2818 2881 0
2816 -2881 0
2818 -2881 0
-2820 -2822 2883 0
2820 -2883 0
2822 -2883 0
-2824 -2826 2885 0
2824 -2885 0
2826 -2885 0
-2828 -2830 2956 0
2828 -2956 0
2830 -2956 0
-2832 -2834 2957 0
2832 -2957 0
2834 -2957 0
-2838 -2840 2891 0
2838 -2891 0
2840 -2891 0
-2842 -2844 2893 0
2842 -2893 0
2844 -2893 0
-2846 -2848 2959 0
2846 -2959 0
2848 -2959 0
-2852 -2854 2897 0
2852 -2897 0
2854 -2897 0
-2856 -2858 2899 0
2856 -2899 0
2858 -2899 0
-2860 -2862 2901 0
2860 -2901 0
2862 -2901 0
-2864 -2866 2903 0
2864 -2903 0
2866 -2903 0
-2868 -2869 2962 0
2868 -2962 0
2869 -2962 0
-2871 -2872 2963 0
2871 -2963 0
2872 -2963 0
-2873 -2874 2907 0
2873 -2907 0
2874 -2907 0
-2875 -2876 2909 0
2875 -2909 0
2876 -2909 0
-2877 -2878 2911 0
2877 -2911 0
2878 -2911 0
-2880 -2882 2913 0
2880 -2913 0
2882 -2913 0
-2884 -2886 2915 0
2884 -2915 0
2886 -2915 0
-2887 -2888 2917 0
2887 -2917 0
2888 -2917 0
-2889 -2890 2919 0
2889 -2919 0
2890 -2919 0
-2892 -2894 2921 0
2892 -2921 0
2894 -2921 0
-2895 -2896 2923 0
2895 -2923 0
2896 -2923 0
-2898 -2900 2925 0
2898 -2925 0
2900 -2925 0
-2902 -2904 2927 0
2902 -2927 0
2904 -2927 0
-2867 -2870 2929 0
2867 -2929 0
2870 -2929 0
-2905 -2906 2931 0
2905 -2931 0
2906 -2931 0
-2908 -2910 2933 0
2908 -2933 0
2910 -2933 0
-2912 -2914 2935 0
2912 -2935 0
2914 -2935 0
-2916 -2918 2937 0
2916 -2937 0
2918 -2937 0
-2920 -2922 2939 0
2920 -2939 0
2922 -2939 0
-2924 -2926 2941 0
2924 -2941 0
2926 -2941 0
-2928 -2930 2943 0
2928 -2943 0
2930 -2943 0
-2932 -2934 2945 0
2932 -2945 0
2934 -2945 0
-2936 -2938 2947 0
2936 -2947 0
2938 -2947 0
-2940 -2942 2949 0
2940 -2949 0
2942 -2949 0
-2944 -2946 2950 0
2944 -2950 0
2946 -2950 0
-2879 -2881 3030 0
2879 -3030 0
2881 -3030 0
-2883 -2885 3031 0
2883 -3031 0
2885 -3031 0
-2891 -2893 3032 0
2891 -3032 0
2893 -3032 0
-2897 -2899 3033 0
2897 -3033 0
2899 -3033 0
-2901 -2903 3034 0
2901 -3034 0
2903 -3034 0
-2907 -2909 3035 0
2907 -3035 0
2909 -3035 0
-2911 -2913 2966 0
2911 -2966 0
2913 -2966 0
-2915 -2917 2968 0
2915 -2968 0
2917 -2968 0
-2919 -2921 2970 0
2919 -2970 0
2921 -2970 0
-2923 -2925 2972 0
2923 -2972 0
2925 -2972 0
-2927 -2929 2974 0
2927 -2974 0
2929 -2974 0
-2931 -2933 2976 0
2931 -2976 0
2933 -2976 0
-2935 -2937 2978 0
2935 -2978 0
2937 -2978 0
-2939 -2941 2980 0
2939 -2980 0
2941 -2980 0
-2943 -2945 2982 0
2943 -2982 0
2945 -2982 0
-2947 -2949 2984 0
2947 -2984 0
2949 -2984 0
-2948 -2950 3045 0
2950 -3045 0
2948 -3045 0
-2951 -2952 2986 0
2951 -2986 0
2952 -2986 0
-2953 -2954 2988 0
2953 -2988 0
2954 -2988 0
-2955 -2956 2990 0
2955 -2990 0
2956 -2990 0
-2957 -2958 2992 0
2957 -2992 0
2958 -2992 0
-2959 -2960 2994 0
2959 -2994 0
2960 -2994 0
-2961 -2962 2996 0
2961 -2996 0
2962 -2996 0
-2963 -2964 2998 0
2963 -2998 0
2964 -2998 0
-2965 -2967 3000 0
2965 -3000 0
2967 -3000 0
-2969 -2971 3002 0
2969 -3002 0
2971 -3002 0
-2973 -2975 3004 0
2973 -3004 0
2975 -3004 0
-2977 -2979 3006 0
2977 -3006 0
2979 -3006 0
-2981 -2983 3008 0
2981 -3008 0
2983 -3008 0
-2985 -2987 3058 0
2985 -3058 0
2987 -3058 0
-2989 -2991 3012 0
2989 -3012 0
2991 -3012 0
-2993 -2995 3014 0
2993 -3014 0
2995 -3014 0
-2997 -2999 3016 0
2997 -3016 0
2999 -3016 0
-3001 -3003 3018 0
3001 -3018 0
3003 -3018 0
-3005 -3007 3020 0
3005 -3020 0
3007 -3020 0
-3009 -3010 3022 0
3009 -3022 0
3010 -3022 0
-3011 -3013 3024 0
3011 -3024 0
3013 -3024 0
-3015 -3017 3026 0
3015 -3026 0
3017 -3026 0
-3019 -3021 3028 0
3019 -3028 0
3021 -3028 0
-3023 -3025 3029 0
3023 -3029 0
3025 -3029 0
-2966 -2968 3037 0
2966 -3037 0
2968 -3037 0
-2970 -2972 3039 0
2970 -3039 0
2972 -3039 0
-2974 -2976 3041 0
2974 -3041 0
2976 -3041 0
-2978 -2980 3043 0
2978 -3043 0
2980 -3043 0
-2982 -2984 3117 0
2982 -3117 0
2984 -3117 0
-2986 -2988 3047 0
2986 -3047 0
2988 -3047 0
-2990 -2992 3049 0
2990 -3049 0
2992 -3049 0
-2994 -2996 3051 0
2994 -3051 0
2996 -3051 0
-2998 -3000 3053 0
2998 -3053 0
3000 -3053 0
-3002 -3004 3055 0
3002 -3055 0
3004 -3055 0
-3006 -3008 3057 0
3006 -3057 0
3008 -3057 0
-3012 -3014 3123 0
3012 -3123 0
3014 -3123 0
-3016 -3018 3061 0
3016 -3061 0
3018 -3061 0
-3020 -3022 3063 0
3020 -3063 0
3022 -3063 0
-3024 -3026 3065 0
3024 -3065 0
3026 -3065 0
-3028 -3029 3067 0
3028 -3067 0
3029 -3067 0
-3031 -3032 3069 0
3031 -3069 0
3032 -3069 0
-3033 -3034 3071 0
3033 -3071 0
3034 -3071 0
-3035 -3036 3073 0
3035 -3073 0
3036 -3073 0
-3038 -3040 3075 0
3038 -3075 0
3040 -3075 0
-3042 -3044 3077 0
3042 -3077 0
3044 -3077 0
-3045 -3046 3079 0
3045 -3079 0
3046 -3079 0
-3048 -3050 3081 0
3048 -3081 0
3050 -3081 0
-3052 -3054 3083 0
3052 -3083 0
3054 -3083 0
-3056 -3058 3085 0
3056 -3085 0
3058 -3085 0
-3059 -3060 3087 0
3059 -3087 0
3060 -3087 0
-3062 -3064 3089 0
3062 -3089 0
3064 -3089 0
-3027 -3066 3091 0
3066 -3091 0
3027 -3091 0
-3030 -3068 3093 0
3030 -3093 0
3068 -3093 0
-3070 -3072 3095 0
3070 -3095 0
3072 -3095 0
-3074 -3076 3097 0
3074 -3097 0
3076 -3097 0
-3078 -3080 3099 0
3078 -3099 0
3080 -3099 0
-3082 -3084 3101 0
3082 -3101 0
3084 -3101 0
-3086 -3088 3103 0
3086 -3103 0
3088 -3103 0
-3090 -3092 3105 0
3090 -3105 0
3092 -3105 0
-3094 -3096 3107 0
3094 -3107 0
3096 -3107 0
-3098 -3100 3109 0
3098 -3109 0
3100 -3109 0
-3102 -3104 3111 0
3102 -3111 0
3104 -3111 0
-3106 -3108 3112 0
3106 -3112 0
3108 -3112 0
-3037 -3039 3114 0
3037 -3114 0
3039 -3114 0
-3041 -3043 3116 0
3041 -3116 0
3043 -3116 0
-3047 -3049 3184 0
3047 -3184 0
3049 -3184 0
-3051 -3053 3120 0
3051 -3120 0
3053 -3120 0
-3055 -3057 3122 0
3055 -3122 0
3057 -3122 0
-3061 -3063 3186 0
3061 -3186 0
3063 -3186 0
-3065 -3067 3187 0
3065 -3187 0
3067 -3187 0
-3069 -3071 3126 0
3069 -3126 0
3071 -3126 0
-3073 -3075 3128 0
3073 -3128 0
3075 -3128 0
-3077 -3079 3130 0
3077 -3130 0
3079 -3130 0
-3081 -3083 3132 0
3081 -3132 0
3083 -3132 0
-3085 -3087 3134 0
3085 -3134 0
3087 -3134 0
-3089 -3091 3136 0
3089 -3136 0
3091 -3136 0
-3093 -3095 3138 0
3093 -3138 0
3095 -3138 0
-3097 -3099 3140 0
3097 -3140 0
3099 -3140 0
-3101 -3103 3142 0
3101 -3142 0
3103 -3142 0
-3105 -3107 3144 0
3105 -3144 0
3107 -3144 0
-3109 -3111 3146 0
3109 -3146 0
3111 -3146 0
-3110 -3112 3148 0
3112 -3148 0
3110 -3148 0
-3113 -3115 3150 0
3113 -3150 0
3115 -3150 0
-3117 -3118 3152 0
3117 -3152 0
3118 -3152 0
-3119 -3121 3154 0
3119 -3154 0
3121 -3154 0
-3123 -3124 3156 0
3123 -3156 0
3124 -3156 0
-3125 -3127 3201 0
3125 -3201 0
3127 -3201 0
-3129 -3131 3160 0
3129 -3160 0
3131 -3160 0
-3133 -3135 3162 0
3133 -3162 0
3135 -3162 0
-3137 -3139 3164 0
3137 -3164 0
3139 -3164 0
-3141 -3143 3166 0
3141 -3166 0
3143 -3166 0
-3145 -3147 3204 0
3145 -3204 0
3147 -3204 0
-3149 -3151 3168 0
3149 -3168 0
3151 -3168 0
-3153 -3155 3170 0
3153 -3170 0
3155 -3170 0
-3157 -3158 3172 0
3157 -3172 0
3158 -3172 0
-3159 -3161 3174 0
3159 -3174 0
3161 -3174 0
-3163 -3165 3209 0
3163 -3209 0
3165 -3209 0
-3167 -3169 3178 0
3167 -3178 0
3169 -3178 0
-3171 -3173 3180 0
3171 -3180 0
3173 -3180 0
-3175 -3176 3182 0
3175 -3182 0
3176 -3182 0
-3177 -3179 3183 0
3177 -3183 0
3179 -3183 0
-3114 -3116 3253 0
3114 -3253 0
3116 -3253 0
-3120 -3122 3254 0
3120 -3254 0
3122 -3254 0
-3126 -3128 3255 0
3126 -3255 0
3128 -3255 0
-3130 -3132 3190 0
3130 -3190 0
3132 -3190 0
-3134 -3136 3192 0
3134 -3192 0
3136 -3192 0
-3138 -3140 3194 0
3138 -3194 0
3140 -3194 0
-3142 -3144 3196 0
3142 -3196 0
3144 -3196 0
-3146 -3148 3260 0
3146 -3260 0
3148 -3260 0
-3150 -3152 3198 0
3150 -3198 0
3152 -3198 0
-3154 -3156 3200 0
3154 -3200 0
3156 -3200 0
-3160 -3162 3262 0
3160 -3262 0
3162 -3262 0
-3164 -3166 3263 0
3164 -3263 0
3166 -3263 0
-3168 -3170 3206 0
3168 -3206 0
3170 -3206 0
-3172 -3174 3208 0
3172 -3208 0
3174 -3208 0
-3178 -3180 3265 0
3178 -3265 0
3180 -3265 0
-3182 -3183 3266 0
3182 -3266 0
3183 -3266 0
-3184 -3185 3267 0
3184 -3267 0
3185 -3267 0
-3186 -3187 3215 0
3186 -3215 0
3187 -3215 0
-3188 -3189 3217 0
3188 -3217 0
3189 -3217 0
-3191 -3193 3219 0
3191 -3219 0
3193 -3219 0
-3195 -3197 3221 0
3195 -3221 0
3197 -3221 0
-3199 -3201 3272 0
3199 -3272 0
3201 -3272 0
-3202 -3203 3225 0
3202 -3225 0
3203 -3225 0
-3204 -3205 3227 0
3204 -3227 0
3205 -3227 0
-3207 -3209 3229 0
3207 -3229 0
3209 -3229 0
-3210 -3211 3231 0
3210 -3231 0
3211 -3231 0
-3181 -3212 3233 0
3181 -3233 0
3212 -3233 0
-3213 -3214 3235 0
3213 -3235 0
3214 -3235 0
-3216 -3218 3237 0
3216 -3237 0
3218 -3237 0
-3220 -3222 3239 0
3220 -3239 0
3222 -3239 0
-3223 -3224 3241 0
3223 -3241 0
3224 -3241 0
-3226 -3228 3243 0
3226 -3243 0
3228 -3243 0
-3230 -3232 3245 0
3230 -3245 0
3232 -3245 0
-3234 -3236 3247 0
3234 -3247 0
3236 -3247 0
-3238 -3240 3249 0
3238 -3249 0
3240 -3249 0
-3242 -3244 3251 0
3242 -3251 0
3244 -3251 0
-3246 -3248 3252 0
3246 -3252 0
3248 -3252 0
-3190 -3192 3257 0
3190 -3257 0
3192 -3257 0
-3194 -3196 3259 0
3194 -3259 0
3196 -3259 0
-3198 -3200 3330 0
3198 -3330 0
3200 -3330 0
-3206 -3208 3361 0
3206 -3361 0
3208 -3361 0
-3215 -3217 3269 0
3215 -3269 0
3217 -3269 0
-3219 -3221 3271 0
3219 -3271 0
3221 -3271 0
-3225 -3227 3332 0
3225 -3332 0
3227 -3332 0
-3229 -3231 3275 0
3229 -3275 0
3231 -3275 0
-3233 -3235 3277 0
3233 -3277 0
3235 -3277 0
-3237 -3239 3279 0
3237 -3279 0
3239 -3279 0
-3241 -3243 3281 0
3241 -3281 0
3243 -3281 0
-3245 -3247 3283 0
3245 -3283 0
3247 -3283 0
-3249 -3251 3285 0
3249 -3285 0
3251 -3285 0
-3250 -3252 3338 0
3252 -3338 0
3250 -3338 0
-3254 -3255 3288 0
3254 -3288 0
3255 -3288 0
-3256 -3258 3290 0
3256 -3290 0
3258 -3290 0
-3260 -3261 3292 0
3260 -3292 0
3261 -3292 0
-3262 -3263 3294 0
3262 -3294 0
3263 -3294 0
-3264 -3265 3296 0
3264 -3296 0
3265 -3296 0
-3266 -3267 3298 0
3266 -3298 0
3267 -3298 0
-3268 -3270 3300 0
3268 -3300 0
3270 -3300 0
-3272 -3273 3302 0
3272 -3302 0
3273 -3302 0
-3274 -3276 3304 0
3274 -3304 0
3276 -3304 0
-3278 -3280 3306 0
3278 -3306 0
3280 -3306 0
-3282 -3284 3308 0
3282 -3308 0
3284 -3308 0
-3253 -3286 3310 0
3286 -3310 0
3253 -3310 0
-3287 -3289 3312 0
3287 -3312 0
3289 -3312 0
-3291 -3293 3314 0
3291 -3314 0
3293 -3314 0
-3295 -3297 3316 0
3295 -3316 0
3297 -3316 0
-3299 -3301 3318 0
3299 -3318 0
3301 -3318 0
-3303 -3305 3320 0
3303 -3320 0
3305 -3320 0
-3307 -3309 3322 0
3307 -3322 0
3309 -3322 0
-3311 -3313 3324 0
3311 -3324 0
3313 -3324 0
-3315 -3317 3326 0
3315 -3326 0
3317 -3326 0
-3319 -3321 3328 0
3319 -3328 0
3321 -3328 0
-3323 -3325 3329 0
3323 -3329 0
3325 -3329 0
-3257 -3259 3399 0
3257 -3399 0
3259 -3399 0
-3269 -3271 3400 0
3269 -3400 0
3271 -3400 0
-3275 -3277 3401 0
3275 -3401 0
3277 -3401 0
-3279 -3281 3335 0
3279 -3335 0
3281 -3335 0
-3283 -3285 3337 0
3283 -3337 0
3285 -3337 0
-3288 -3290 3403 0
3288 -3403 0
3290 -3403 0
-3292 -3294 3341 0
3292 -3341 0
3294 -3341 0
-3296 -3298 3343 0
3296 -3343 0
3298 -3343 0
-3300 -3302 3345 0
3300 -3345 0
3302 -3345 0
-3304 -3306 3347 0
3304 -3347 0
3306 -3347 0
-3308 -3310 3349 0
3308 -3349 0
3310 -3349 0
-3312 -3314 3351 0
3312 -3351 0
3314 -3351 0
-3316 -3318 3353 0
3316 -3353 0
3318 -3353 0
-3320 -3322 3355 0
3320 -3355 0
3322 -3355 0
-3324 -3326 3357 0
3324 -3357 0
3326 -3357 0
-3328 -3329 3359 0
3328 -3359 0
3329 -3359 0
-3331 -3332 3363 0
3331 -3363 0
3332 -3363 0
-3333 -3334 3365 0
3333 -3365 0
3334 -3365 0
-3336 -3338 3367 0
3336 -3367 0
3338 -3367 0
-3339 -3340 3369 0
3339 -3369 0
3340 -3369 0
-3342 -3344 3371 0
3342 -3371 0
3344 -3371 0
-3346 -3348 3373 0
3346 -3373 0
3348 -3373 0
-3350 -3352 3375 0
3350 -3375 0
3352 -3375 0
-3354 -3356 3377 0
3354 -3377 0
3356 -3377 0
-3327 -3358 3379 0
3358 -3379 0
3327 -3379 0
-3330 -3360 3381 0
3360 -3381 0
3330 -3381 0
-3361 -3362 3383 0
3361 -3383 0
3362 -3383 0
-3364 -3366 3385 0
3364 -3385 0
3366 -3385 0
-3368 -3370 3387 0
3368 -3387 0
3370 -3387 0
-3372 -3374 3389 0
3372 -3389 0
3374 -3389 0
-3376 -3378 3391 0
3376 -3391 0
3378 -3391 0
-3380 -3382 3393 0
3380 -3393 0
3382 -3393 0
-3384 -3386 3395 0
3384 -3395 0
3386 -3395 0
-3388 -3390 3397 0
3388 -3397 0
3390 -3397 0
-3392 -3394 3398 0
3392 -3398 0
3394 -3398 0
-3335 -3337 3466 0
3335 -3466 0
3337 -3466 0
-3341 -3343 3467 0
3341 -3467 0
3343 -3467 0
-3345 -3347 3406 0
3345 -3406 0
3347 -3406 0
-3349 -3351 3408 0
3349 -3408 0
3351 -3408 0
-3353 -3355 3410 0
3353 -3410 0
3355 -3410 0
-3357 -3359 3412 0
3357 -3412 0
3359 -3412 0
-3363 -3365 3414 0
3363 -3414 0
3365 -3414 0
-3367 -3369 3416 0
3367 -3416 0
3369 -3416 0
-3371 -3373 3418 0
3371 -3418 0
3373 -3418 0
-3375 -3377 3420 0
3375 -3420 0
3377 -3420 0
-3379 -3381 3422 0
3379 -3422 0
3381 -3422 0
-3383 -3385 3424 0
3383 -3424 0
3385 -3424 0
-3387 -3389 3426 0
3387 -3426 0
3389 -3426 0
-3391 -3393 3428 0
3391 -3428 0
3393 -3428 0
-3395 -3397 3430 0
3395 -3430 0
3397 -3430 0
-3396 -3398 3432 0
3398 -3432 0
3396 -3432 0
-3401 -3402 3434 0
3401 -3434 0
3402 -3434 0
-3403 -3404 3436 0
3403 -3436 0
3404 -3436 0
-3405 -3407 3438 0
3405 -3438 0
3407 -3438 0
-3409 -3411 3440 0
3409 -3440 0
3411 -3440 0
-3413 -3415 3481 0
3413 -3481 0
3415 -3481 0
-3417 -3419 3442 0
3417 -3442 0
3419 -3442 0
-3421 -3423 3444 0
3421 -3444 0
3423 -3444 0
-3425 -3427 3446 0
3425 -3446 0
3427 -3446 0
-3429 -3431 3448 0
3429 -3448 0
3431 -3448 0
-3399 -3400 3450 0
3399 -3450 0
3400 -3450 0
-3433 -3435 3452 0
3433 -3452 0
3435 -3452 0
-3437 -3439 3487 0
3437 -3487 0
3439 -3487 0
-3441 -3443 3456 0
3441 -3456 0
3443 -3456 0
-3445 -3447 3458 0
3445 -3458 0
3447 -3458 0
-3449 -3451 3460 0
3449 -3460 0
3451 -3460 0
-3453 -3454 3462 0
3453 -3462 0
3454 -3462 0
-3455 -3457 3464 0
3455 -3464 0
3457 -3464 0
-3459 -3461 3465 0
3459 -3465 0
3461 -3465 0
-3406 -3408 3469 0
3406 -3469 0
3408 -3469 0
-3410 -3412 3470 0
3410 -3470 0
3412 -3470 0
-3414 -3416 3528 0
3414 -3528 0
3416 -3528 0
-3418 -3420 3473 0
3418 -3473 0
3420 -3473 0
-3422 -3424 3475 0
3422 -3475 0
3424 -3475 0
-3426 -3428 3477 0
3426 -3477 0
3428 -3477 0
-3430 -3432 3478 0
3430 -3478 0
3432 -3478 0
-3434 -3436 3533 0
3434 -3533 0
3436 -3533 0
-3438 -3440 3534 0
3438 -3534 0
3440 -3534 0
-3442 -3444 3483 0
3442 -3483 0
3444 -3483 0
-3446 -3448 3485 0
3446 -3485 0
3448 -3485 0
-3450 -3452 3536 0
3450 -3536 0
3452 -3536 0
-3456 -3458 3489 0
3456 -3489 0
3458 -3489 0
-3460 -3462 3491 0
3460 -3491 0
3462 -3491 0
-3464 -3465 3538 0
3464 -3538 0
3465 -3538 0
-3467 -3468 3539 0
3467 -3539 0
3468 -3539 0
-3471 -3472 3540 0
3471 -3540 0
3472 -3540 0
-3474 -3476 3541 0
3474 -3541 0
3476 -3541 0
-3479 -3480 3499 0
3479 -3499 0
3480 -3499 0
-3481 -3482 3501 0
3481 -3501 0
3482 -3501 0
-3484 -3486 3503 0
3484 -3503 0
3486 -3503 0
-3487 -3488 3505 0
3487 -3505 0
3488 -3505 0
-3490 -3492 3507 0
3490 -3507 0
3492 -3507 0
-3463 -3466 3509 0
3463 -3509 0
3466 -3509 0
-3493 -3494 3511 0
3493 -3511 0
3494 -3511 0
-3495 -3496 3513 0
3495 -3513 0
3496 -3513 0
-3497 -3498 3515 0
3497 -3515 0
3498 -3515 0
-3500 -3502 3517 0
3500 -3517 0
3502 -3517 0
-3504 -3506 3519 0
3504 -3519 0
3506 -3519 0
-3508 -3510 3521 0
3508 -3521 0
3510 -3521 0
-3512 -3514 3523 0
3512 -3523 0
3514 -3523 0
-3516 -3518 3525 0
3516 -3525 0
3518 -3525 0
-3520 -3522 3526 0
3520 -3526 0
3522 -3526 0
-3469 -3470 3592 0
3469 -3592 0
3470 -3592 0
-3473 -3475 3530 0
3473 -3530 0
3475 -3530 0
-3477 -3478 3532 0
3477 -3532 0
3478 -3532 0
-3483 -3485 3621 0
3483 -3621 0
3485 -3621 0
-3489 -3491 3594 0
3489 -3594 0
3491 -3594 0
-3499 -3501 3595 0
3499 -3595 0
3501 -3595 0
-3503 -3505 3544 0
3503 -3544 0
3505 -3544 0
-3507 -3509 3546 0
3507 -3546 0
3509 -3546 0
-3511 -3513 3548 0
3511 -3548 0
3513 -3548 0
-3515 -3517 3550 0
3515 -3550 0
3517 -3550 0
-3519 -3521 3552 0
3519 -3552 0
3521 -3552 0
-3523 -3525 3554 0
3523 -3554 0
3525 -3554 0
-3524 -3526 3601 0
3526 -3601 0
3524 -3601 0
-3527 -3528 3556 0
3527 -3556 0
3528 -3556 0
-3529 -3531 3558 0
3529 -3558 0
3531 -3558 0
-3533 -3534 3560 0
3533 -3560 0
3534 -3560 0
-3535 -3536 3562 0
3535 -3562 0
3536 -3562 0
-3537 -3538 3564 0
3537 -3564 0
3538 -3564 0
-3539 -3540 3566 0
3539 -3566 0
3540 -3566 0
-3541 -3542 3568 0
3541 -3568 0
3542 -3568 0
-3543 -3545 3570 0
3543 -3570 0
3545 -3570 0
-3547 -3549 3572 0
3547 -3572 0
3549 -3572 0
-3551 -3553 3574 0
3551 -3574 0
3553 -3574 0
-3555 -3557 3611 0
3555 -3611 0
3557 -3611 0
-3559 -3561 3578 0
3559 -3578 0
3561 -3578 0
-3563 -3565 3580 0
3563 -3580 0
3565 -3580 0
-3567 -3569 3582 0
3567 -3582 0
3569 -3582 0
-3571 -3573 3584 0
3571 -3584 0
3573 -3584 0
-3575 -3576 3586 0
3575 -3586 0
3576 -3586 0
-3577 -3579 3588 0
3577 -3588 0
3579 -3588 0
-3581 -3583 3590 0
3581 -3590 0
3583 -3590 0
-3585 -3587 3591 0
3585 -3591 0
3587 -3591 0
-3530 -3532 3655 0
3530 -3655 0
3532 -3655 0
-3544 -3546 3597 0
3544 -3597 0
3546 -3597 0
-3548 -3550 3599 0
3548 -3599 0
3550 -3599 0
-3552 -3554 3657 0
3552 -3657 0
3554 -3657 0
-3556 -3558 3603 0
3556 -3603 0
3558 -3603 0
-3560 -3562 3605 0
3560 -3605 0
3562 -3605 0
-3564 -3566 3607 0
3564 -3607 0
3566 -3607 0
-3568 -3570 3609 0
3568 -3609 0
3570 -3609 0
-3572 -3574 3662 0
3572 -3662 0
3574 -3662 0
-3578 -3580 3613 0
3578 -3613 0
3580 -3613 0
-3582 -3584 3615 0
3582 -3615 0
3584 -3615 0
-3586 -3588 3617 0
3586 -3617 0
3588 -3617 0
-3590 -3591 3619 0
3590 -3619 0
3591 -3619 0
-3592 -3593 3665 0
3592 -3665 0
3593 -3665 0
-3595 -3596 3623 0
3595 -3623 0
3596 -3623 0
-3598 -3600 3625 0
3598 -3625 0
3600 -3625 0
-3601 -3602 3627 0
3601 -3627 0
3602 -3627 0
-3604 -3606 3629 0
3604 -3629 0
3606 -3629 0
-3608 -3610 3631 0
3608 -3631 0
3610 -3631 0
-3611 -3612 3633 0
3611 -3633 0
3612 -3633 0
-3614 -3616 3635 0
3614 -3635 0
3616 -3635 0
-3589 -3618 3637 0
3618 -3637 0
3589 -3637 0
-3620 -3621 3639 0
3620 -3639 0
3621 -3639 0
-3594 -3622 3641 0
3594 -3641 0
3622 -3641 0
-3624 -3626 3643 0
3624 -3643 0
3626 -3643 0
-3628 -3630 3645 0
3628 -3645 0
3630 -3645 0
-3632 -3634 3647 0
3632 -3647 0
3634 -3647 0
-3636 -3638 3649 0
3636 -3649 0
3638 -3649 0
-3640 -3642 3651 0
3640 -3651 0
3642 -3651 0
-3644 -3646 3653 0
3644 -3653 0
3646 -3653 0
-3648 -3650 3654 0
3648 -3654 0
3650 -3654 0
-3597 -3599 3712 0
3597 -3712 0
3599 -3712 0
-3603 -3605 3659 0
3603 -3659 0
3605 -3659 0
-3607 -3609 3661 0
3607 -3661 0
3609 -3661 0
-3613 -3615 3714 0
3613 -3714 0
3615 -3714 0
-3617 -3619 3715 0
3617 -3715 0
3619 -3715 0
-3623 -3625 3716 0
3623 -3716 0
3625 -3716 0
-3627 -3629 3667 0
3627 -3667 0
3629 -3667 0
-3631 -3633 3669 0
3631 -3669 0
3633 -3669 0
-3635 -3637 3671 0
3635 -3671 0
3637 -3671 0
-3639 -3641 3673 0
3639 -3673 0
3641 -3673 0
-3643 -3645 3675 0
3643 -3675 0
3645 -3675 0
-3647 -3649 3677 0
3647 -3677 0
3649 -3677 0
-3651 -3653 3679 0
3651 -3679 0
3653 -3679 0
-3652 -3654 3681 0
3654 -3681 0
3652 -3681 0
-3656 -3657 3683 0
3656 -3683 0
3657 -3683 0
-3658 -3660 3685 0
3658 -3685 0
3660 -3685 0
-3662 -3663 3687 0
3662 -3687 0
3663 -3687 0
-3664 -3665 3689 0
3664 -3689 0
3665 -3689 0
-3666 -3668 3726 0
3666 -3726 0
3668 -3726 0
-3670 -3672 3693 0
3670 -3693 0
3672 -3693 0
-3674 -3676 3695 0
3674 -3695 0
3676 -3695 0
-3678 -3680 3728 0
3678 -3728 0
3680 -3728 0
-3682 -3684 3698 0
3682 -3698 0
3684 -3698 0
-3686 -3688 3700 0
3686 -3700 0
3688 -3700 0
-3690 -3691 3702 0
3690 -3702 0
3691 -3702 0
-3692 -3694 3704 0
3692 -3704 0
3694 -3704 0
-3655 -3696 3706 0
3696 -3706 0
3655 -3706 0
-3697 -3699 3708 0
3697 -3708 0
3699 -3708 0
-3701 -3703 3710 0
3701 -3710 0
3703 -3710 0
-3705 -3707 3711 0
3705 -3711 0
3707 -3711 0
-3659 -3661 3767 0
3659 -3767 0
3661 -3767 0
-3667 -3669 3768 0
3667 -3768 0
3669 -3768 0
-3671 -3673 3719 0
3671 -3719 0
3673 -3719 0
-3675 -3677 3721 0
3675 -3721 0
3677 -3721 0
-3679 -3681 3770 0
3679 -3770 0
3681 -3770 0
-3683 -3685 3723 0
3683 -3723 0
3685 -3723 0
-3687 -3689 3725 0
3687 -3725 0
3689 -3725 0
-3693 -3695 3772 0
3693 -3772 0
3695 -3772 0
-3698 -3700 3773 0
3698 -3773 0
3700 -3773 0
-3702 -3704 3731 0
3702 -3731 0
3704 -3731 0
-3706 -3708 3733 0
3706 -3733 0
3708 -3733 0
-3710 -3711 3775 0
3710 -3775 0
3711 -3775 0
-3713 -3714 3776 0
3713 -3776 0
3714 -3776 0
-3715 -3716 3737 0
3715 -3737 0
3716 -3737 0
-3717 -3718 3739 0
3717 -3739 0
3718 -3739 0
-3720 -3722 3778 0
3720 -3778 0
3722 -3778 0
-3724 -3726 3743 0
3724 -3743 0
3726 -3743 0
-3727 -3728 3745 0
3727 -3745 0
3728 -3745 0
-3729 -3730 3747 0
3729 -3747 0
3730 -3747 0
-3732 -3734 3749 0
3732 -3749 0
3734 -3749 0
-3709 -3712 3751 0
3709 -3751 0
3712 -3751 0
-3735 -3736 3753 0
3735 -3753 0
3736 -3753 0
-3738 -3740 3755 0
3738 -3755 0
3740 -3755 0
-3741 -3742 3757 0
3741 -3757 0
3742 -3757 0
-3744 -3746 3759 0
3744 -3759 0
3746 -3759 0
-3748 -3750 3761 0
3748 -3761 0
3750 -3761 0
-3752 -3754 3763 0
3752 -3763 0
3754 -3763 0
-3756 -3758 3765 0
3756 -3765 0
3758 -3765 0
-3760 -3762 3766 0
3760 -3766 0
3762 -3766 0
-3719 -3721 3824 0
3719 -3824 0
3721 -3824 0
-3723 -3725 3825 0
3723 -3825 0
3725 -3825 0
-3731 -3733 3826 0
3731 -3826 0
3733 -3826 0
-3737 -3739 3851 0
3737 -3851 0
3739 -3851 0
-3743 -3745 3780 0
3743 -3780 0
3745 -3780 0
-3747 -3749 3782 0
3747 -3782 0
3749 -3782 0
-3751 -3753 3784 0
3751 -3784 0
3753 -3784 0
-3755 -3757 3786 0
3755 -3786 0
3757 -3786 0
-3759 -3761 3788 0
3759 -3788 0
3761 -3788 0
-3763 -3765 3790 0
3763 -3790 0
3765 -3790 0
-3764 -3766 3832 0
3766 -3832 0
3764 -3832 0
-3769 -3770 3833 0
3769 -3833 0
3770 -3833 0
-3771 -3772 3794 0
3771 -3794 0
3772 -3794 0
-3773 -3774 3796 0
3773 -3796 0
3774 -3796 0
-3775 -3776 3798 0
3775 -3798 0
3776 -3798 0
-3777 -3778 3800 0
3777 -3800 0
3778 -3800 0
-3779 -3781 3802 0
3779 -3802 0
3781 -3802 0
-3783 -3785 3804 0
3783 -3804 0
3785 -3804 0
-3787 -3789 3806 0
3787 -3806 0
3789 -3806 0
-3767 -3791 3808 0
3791 -3808 0
3767 -3808 0
-3768 -3792 3810 0
3768 -3810 0
3792 -3810 0
-3793 -3795 3812 0
3793 -3812 0
3795 -3812 0
-3797 -3799 3814 0
3797 -3814 0
3799 -3814 0
-3801 -3803 3816 0
3801 -3816 0
3803 -3816 0
-3805 -3807 3818 0
3805 -3818 0
3807 -3818 0
-3809 -3811 3820 0
3809 -3820 0
3811 -3820 0
-3813 -3815 3822 0
3813 -3822 0
3815 -3822 0
-3817 -3819 3823 0
3817 -3823 0
3819 -3823 0
-3780 -3782 3917 0
3780 -3917 0
3782 -3917 0
-3784 -3786 3829 0
3784 -3829 0
3786 -3829 0
-3788 -3790 3831 0
3788 -3831 0
3790 -3831 0
-3794 -3796 3835 0
3794 -3835 0
3796 -3835 0
-3798 -3800 3837 0
3798 -3837 0
3800 -3837 0
-3802 -3804 3839 0
3802 -3839 0
3804 -3839 0
-3806 -3808 3841 0
3806 -3841 0
3808 -3841 0
-3810 -3812 3843 0
3810 -3843 0
3812 -3843 0
-3814 -3816 3845 0
3814 -3845 0
3816 -3845 0
-3818 -3820 3847 0
3818 -3847 0
3820 -3847 0
-3822 -3823 3849 0
3822 -3849 0
3823 -3849 0
-3825 -3826 3889 0
3825 -3889 0
3826 -3889 0
-3827 -3828 3853 0
3827 -3853 0
3828 -3853 0
-3830 -3832 3855 0
3830 -3855 0
3832 -3855 0
-3833 -3834 3857 0
3833 -3857 0
3834 -3857 0
-3836 -3838 3859 0
3836 -3859 0
3838 -3859 0
-3840 -3842 3861 0
3840 -3861 0
3842 -3861 0
-3844 -3846 3863 0
3844 -3863 0
3846 -3863 0
-3821 -3848 3865 0
3848 -3865 0
3821 -3865 0
-3824 -3850 3867 0
3824 -3867 0
3850 -3867 0
-3851 -3852 3869 0
3851 -3869 0
3852 -3869 0
-3854 -3856 3871 0
3854 -3871 0
3856 -3871 0
-3858 -3860 3873 0
3858 -3873 0
3860 -3873 0
-3862 -3864 3875 0
3862 -3875 0
3864 -3875 0
-3866 -3868 3877 0
3866 -3877 0
3868 -3877 0
-3870 -3872 3879 0
3870 -3879 0
3872 -3879 0
-3874 -3876 3880 0
3874 -3880 0
3876 -3880 0
-3829 -3831 3930 0
3829 -3930 0
3831 -3930 0
-3835 -3837 3882 0
3835 -3882 0
3837 -3882 0
-3839 -3841 3884 0
3839 -3884 0
3841 -3884 0
-3843 -3845 3886 0
3843 -3886 0
3845 -3886 0
-3847 -3849 3888 0
3847 -3888 0
3849 -3888 0
-3853 -3855 3891 0
3853 -3891 0
3855 -3891 0
-3857 -3859 3893 0
3857 -3893 0
3859 -3893 0
-3861 -3863 3895 0
3861 -3895 0
3863 -3895 0
-3865 -3867 3897 0
3865 -3897 0
3867 -3897 0
-3869 -3871 3899 0
3869 -3899 0
3871 -3899 0
-3873 -3875 3901 0
3873 -3901 0
3875 -3901 0
-3877 -3879 3903 0
3877 -3903 0
3879 -3903 0
-3878 -3880 3905 0
3880 -3905 0
3878 -3905 0
-3881 -3883 3939 0
3881 -3939 0
3883 -3939 0
-3885 -3887 3940 0
3885 -3940 0
3887 -3940 0
-3890 -3892 3910 0
3890 -3910 0
3892 -3910 0
-3894 -3896 3912 0
3894 -3912 0
3896 -3912 0
-3898 -3900 3914 0
3898 -3914 0
3900 -3914 0
-3902 -3904 3916 0
3902 -3916 0
3904 -3916 0
-3906 -3907 3943 0
3906 -3943 0
3907 -3943 0
-3889 -3908 3920 0
3908 -3920 0
3889 -3920 0
-3909 -3911 3922 0
3909 -3922 0
3911 -3922 0
-3913 -3915 3924 0
3913 -3924 0
3915 -3924 0
-3917 -3918 3926 0
3917 -3926 0
3918 -3926 0
-3919 -3921 3928 0
3919 -3928 0
3921 -3928 0
-3923 -3925 3929 0
3923 -3929 0
3925 -3929 0
-3882 -3884 3975 0
3882 -3975 0
3884 -3975 0
-3886 -3888 3976 0
3886 -3976 0
3888 -3976 0
-3891 -3893 3933 0
3891 -3933 0
3893 -3933 0
-3895 -3897 3935 0
3895 -3935 0
3897 -3935 0
-3899 -3901 3937 0
3899 -3937 0
3901 -3937 0
-3903 -3905 3938 0
3903 -3938 0
3905 -3938 0
-3910 -3912 3978 0
3910 -3978 0
3912 -3978 0
-3914 -3916 3979 0
3914 -3979 0
3916 -3979 0
-3920 -3922 3945 0
3920 -3945 0
3922 -3945 0
-3924 -3926 3947 0
3924 -3947 0
3926 -3947 0
-3928 -3929 3981 0
3928 -3981 0
3929 -3981 0
-3931 -3932 3982 0
3931 -3982 0
3932 -3982 0
-3934 -3936 3983 0
3934 -3983 0
3936 -3983 0
-3939 -3940 3984 0
3939 -3984 0
3940 -3984 0
-3941 -3942 3955 0
3941 -3955 0
3942 -3955 0
-3943 -3944 3957 0
3943 -3957 0
3944 -3957 0
-3946 -3948 3959 0
3946 -3959 0
3948 -3959 0
-3927 -3930 3961 0
3927 -3961 0
3930 -3961 0
-3949 -3950 3963 0
3949 -3963 0
3950 -3963 0
-3951 -3952 3965 0
3951 -3965 0
3952 -3965 0
-3953 -3954 3967 0
3953 -3967 0
3954 -3967 0
-3956 -3958 3969 0
3956 -3969 0
3958 -3969 0
-3960 -3962 3971 0
3960 -3971 0
3962 -3971 0
-3964 -3966 3973 0
3964 -3973 0
3966 -3973 0
-3968 -3970 3974 0
3968 -3974 0
3970 -3974 0
-3933 -3935 4024 0
3933 -4024 0
3935 -4024 0
-3937 -3938 4025 0
3937 -4025 0
3938 -4025 0
-3945 -3947 4026 0
3945 -4026 0
3947 -4026 0
-3955 -3957 4045 0
3955 -4045 0
3957 -4045 0
-3959 -3961 3987 0
3959 -3987 0
3961 -3987 0
-3963 -3965 3989 0
3963 -3989 0
3965 -3989 0
-3967 -3969 3991 0
3967 -3991 0
3969 -3991 0
-3971 -3973 3993 0
3971 -3993 0
3973 -3993 0
-3972 -3974 4029 0
3974 -4029 0
3972 -4029 0
-3976 -3977 4030 0
3976 -4030 0
3977 -4030 0
-3978 -3979 3998 0
3978 -3998 0
3979 -3998 0
-3980 -3981 4000 0
3980 -4000 0
3981 -4000 0
-3982 -3983 4002 0
3982 -4002 0
3983 -4002 0
-3984 -3985 4004 0
3984 -4004 0
3985 -4004 0
-3986 -3988 4006 0
3986 -4006 0
3988 -4006 0
-3990 -3992 4008 0
3990 -4008 0
3992 -4008 0
-3975 -3994 4010 0
3994 -4010 0
3975 -4010 0
-3995 -3996 4012 0
3995 -4012 0
3996 -4012 0
-3997 -3999 4014 0
3997 -4014 0
3999 -4014 0
-4001 -4003 4016 0
4001 -4016 0
4003 -4016 0
-4005 -4007 4018 0
4005 -4018 0
4007 -4018 0
-4009 -4011 4020 0
4009 -4020 0
4011 -4020 0
-4013 -4015 4022 0
4013 -4022 0
4015 -4022 0
-4017 -4019 4023 0
4017 -4023 0
4019 -4023 0
-3987 -3989 4091 0
3987 -4091 0
3989 -4091 0
-3991 -3993 4071 0
3991 -4071 0
3993 -4071 0
-3998 -4000 4072 0
3998 -4072 0
4000 -4072 0
-4002 -4004 4033 0
4002 -4033 0
4004 -4033 0
-4006 -4008 4035 0
4006 -4035 0
4008 -4035 0
-4010 -4012 4037 0
4010 -4037 0
4012 -4037 0
-4014 -4016 4039 0
4014 -4039 0
4016 -4039 0
-4018 -4020 4041 0
4018 -4041 0
4020 -4041 0
-4022 -4023 4043 0
4022 -4043 0
4023 -4043 0
-4024 -4025 4078 0
4024 -4078 0
4025 -4078 0
-4027 -4028 4047 0
4027 -4047 0
4028 -4047 0
-4029 -4030 4049 0
4029 -4049 0
4030 -4049 0
-4031 -4032 4051 0
4031 -4051 0
4032 -4051 0
-4034 -4036 4053 0
4034 -4053 0
4036 -4053 0
-4038 -4040 4055 0
4038 -4055 0
4040 -4055 0
-4021 -4042 4057 0
4042 -4057 0
4021 -4057 0
-4026 -4044 4059 0
4044 -4059 0
4026 -4059 0
-4045 -4046 4061 0
4045 -4061 0
4046 -4061 0
-4048 -4050 4063 0
4048 -4063 0
4050 -4063 0
-4052 -4054 4065 0
4052 -4065 0
4054 -4065 0
-4056 -4058 4067 0
4056 -4067 0
4058 -4067 0
-4060 -4062 4069 0
4060 -4069 0
4062 -4069 0
-4064 -4066 4070 0
4064 -4070 0
4066 -4070 0
-4033 -4035 4074 0
4033 -4074 0
4035 -4074 0
-4037 -4039 4076 0
4037 -4076 0
4039 -4076 0
-4041 -4043 4115 0
4041 -4115 0
4043 -4115 0
-4047 -4049 4116 0
4047 -4116 0
4049 -4116 0
-4051 -4053 4080 0
4051 -4080 0
4053 -4080 0
-4055 -4057 4082 0
4055 -4082 0
4057 -4082 0
-4059 -4061 4084 0
4059 -4084 0
4061 -4084 0
-4063 -4065 4086 0
4063 -4086 0
4065 -4086 0
-4067 -4069 4088 0
4067 -4088 0
4069 -4088 0
-4068 -4070 4090 0
4070 -4090 0
4068 -4090 0
-4071 -4072 4093 0
4071 -4093 0
4072 -4093 0
-4073 -4075 4095 0
4073 -4095 0
4075 -4095 0
-4077 -4078 4122 0
4077 -4122 0
4078 -4122 0
-4079 -4081 4099 0
4079 -4099 0
4081 -4099 0
-4083 -4085 4101 0
4083 -4101 0
4085 -4101 0
-4087 -4089 4124 0
4087 -4124 0
4089 -4124 0
-4092 -4094 4104 0
4092 -4104 0
4094 -4104 0
-4096 -4097 4106 0
4096 -4106 0
4097 -4106 0
-4098 -4100 4108 0
4098 -4108 0
4100 -4108 0
-4091 -4102 4110 0
4102 -4110 0
4091 -4110 0
-4103 -4105 4112 0
4103 -4112 0
4105 -4112 0
-4107 -4109 4113 0
4107 -4113 0
4109 -4113 0
-4074 -4076 4151 0
4074 -4151 0
4076 -4151 0
-4080 -4082 4118 0
4080 -4118 0
4082 -4118 0
-4084 -4086 4120 0
4084 -4120 0
4086 -4120 0
-4088 -4090 4152 0
4088 -4152 0
4090 -4152 0
-4093 -4095 4153 0
4093 -4153 0
4095 -4153 0
-4099 -4101 4154 0
4099 -4154 0
4101 -4154 0
-4104 -4106 4126 0
4104 -4126 0
4106 -4126 0
-4108 -4110 4128 0
4108 -4128 0
4110 -4128 0
-4112 -4113 4156 0
4112 -4156 0
4113 -4156 0
-4114 -4115 4157 0
4114 -4157 0
4115 -4157 0
-4116 -4117 4132 0
4116 -4132 0
4117 -4132 0
-4119 -4121 4134 0
4119 -4134 0
4121 -4134 0
-4122 -4123 4159 0
4122 -4159 0
4123 -4159 0
-4124 -4125 4138 0
4124 -4138 0
4125 -4138 0
-4127 -4129 4140 0
4127 -4140 0
4129 -4140 0
-4130 -4131 4161 0
4130 -4161 0
4131 -4161 0
-4133 -4135 4143 0
4133 -4143 0
4135 -4143 0
-4136 -4137 4145 0
4136 -4145 0
4137 -4145 0
-4111 -4139 4147 0
4139 -4147 0
4111 -4147 0
-4141 -4142 4149 0
4141 -4149 0
4142 -4149 0
-4144 -4146 4150 0
4144 -4150 0
4146 -4150 0
-4118 -4120 4192 0
4118 -4192 0
4120 -4192 0
-4126 -4128 4193 0
4126 -4193 0
4128 -4193 0
-4132 -4134 4194 0
4132 -4194 0
4134 -4194 0
-4138 -4140 4195 0
4138 -4195 0
4140 -4195 0
-4143 -4145 4163 0
4143 -4163 0
4145 -4163 0
-4147 -4149 4165 0
4147 -4165 0
4149 -4165 0
-4148 -4150 4197 0
4150 -4197 0
4148 -4197 0
-4152 -4153 4198 0
4152 -4198 0
4153 -4198 0
-4154 -4155 4170 0
4154 -4170 0
4155 -4170 0
-4156 -4157 4172 0
4156 -4172 0
4157 -4172 0
-4158 -4159 4174 0
4158 -4174 0
4159 -4174 0
-4160 -4161 4176 0
4160 -4176 0
4161 -4176 0
-4162 -4164 4178 0
4162 -4178 0
4164 -4178 0
-4151 -4166 4180 0
4166 -4180 0
4151 -4180 0
-4167 -4168 4182 0
4167 -4182 0
4168 -4182 0
-4169 -4171 4184 0
4169 -4184 0
4171 -4184 0
-4173 -4175 4186 0
4173 -4186 0
4175 -4186 0
-4177 -4179 4188 0
4177 -4188 0
4179 -4188 0
-4181 -4183 4190 0
4181 -4190 0
4183 -4190 0
-4185 -4187 4191 0
4185 -4191 0
4187 -4191 0
-4163 -4165 4250 0
4163 -4250 0
4165 -4250 0
-4170 -4172 4200 0
4170 -4200 0
4172 -4200 0
-4174 -4176 4202 0
4174 -4202 0
4176 -4202 0
-4178 -4180 4204 0
4178 -4204 0
4180 -4204 0
-4182 -4184 4206 0
4182 -4206 0
4184 -4206 0
-4186 -4188 4208 0
4186 -4208 0
4188 -4208 0
-4190 -4191 4210 0
4190 -4210 0
4191 -4210 0
-4194 -4195 4237 0
4194 -4237 0
4195 -4237 0
-4196 -4197 4213 0
4196 -4213 0
4197 -4213 0
-4198 -4199 4215 0
4198 -4215 0
4199 -4215 0
-4201 -4203 4217 0
4201 -4217 0
4203 -4217 0
-4205 -4207 4219 0
4205 -4219 0
4207 -4219 0
-4189 -4209 4221 0
4209 -4221 0
4189 -4221 0
-4192 -4193 4223 0
4192 -4223 0
4193 -4223 0
-4211 -4212 4225 0
4211 -4225 0
4212 -4225 0
-4214 -4216 4227 0
4214 -4227 0
4216 -4227 0
-4218 -4220 4229 0
4218 -4229 0
4220 -4229 0
-4222 -4224 4231 0
4222 -4231 0
4224 -4231 0
-4226 -4228 4232 0
4226 -4232 0
4228 -4232 0
-4200 -4202 4266 0
4200 -4266 0
4202 -4266 0
-4204 -4206 4234 0
4204 -4234 0
4206 -4234 0
-4208 -4210 4236 0
4208 -4236 0
4210 -4236 0
-4213 -4215 4239 0
4213 -4239 0
4215 -4239 0
-4217 -4219 4241 0
4217 -4241 0
4219 -4241 0
-4221 -4223 4243 0
4221 -4243 0
4223 -4243 0
-4225 -4227 4245 0
4225 -4245 0
4227 -4245 0
-4229 -4231 4247 0
4229 -4247 0
4231 -4247 0
-4230 -4232 4249 0
4232 -4249 0
4230 -4249 0
-4233 -4235 4271 0
4233 -4271 0
4235 -4271 0
-4238 -4240 4272 0
4238 -4272 0
4240 -4272 0
-4242 -4244 4255 0
4242 -4255 0
4244 -4255 0
-4246 -4248 4257 0
4246 -4257 0
4248 -4257 0
-4251 -4252 4274 0
4251 -4274 0
4252 -4274 0
-4237 -4253 4260 0
4237 -4260 0
4253 -4260 0
-4254 -4256 4262 0
4254 -4262 0
4256 -4262 0
-4250 -4258 4264 0
4250 -4264 0
4258 -4264 0
-4259 -4261 4265 0
4259 -4265 0
4261 -4265 0
-4234 -4236 4297 0
4234 -4297 0
4236 -4297 0
-4239 -4241 4298 0
4239 -4298 0
4241 -4298 0
-4243 -4245 4269 0
4243 -4269 0
4245 -4269 0
-4247 -4249 4270 0
4247 -4270 0
4249 -4270 0
-4255 -4257 4313 0
4255 -4313 0
4257 -4313 0
-4260 -4262 4300 0
4260 -4300 0
4262 -4300 0
-4264 -4265 4301 0
4264 -4301 0
4265 -4301 0
-4267 -4268 4302 0
4267 -4302 0
4268 -4302 0
-4271 -4272 4281 0
4271 -4281 0
4272 -4281 0
-4273 -4274 4283 0
4273 -4283 0
4274 -4283 0
-4275 -4276 4285 0
4275 -4285 0
4276 -4285 0
-4263 -4266 4287 0
4263 -4287 0
4266 -4287 0
-4277 -4278 4289 0
4277 -4289 0
4278 -4289 0
-4279 -4280 4291 0
4279 -4291 0
4280 -4291 0
-4282 -4284 4293 0
4282 -4293 0
4284 -4293 0
-4286 -4288 4295 0
4286 -4295 0
4288 -4295 0
-4290 -4292 4296 0
4290 -4296 0
4292 -4296 0
-4269 -4270 4352 0
4269 -4352 0
4270 -4352 0
-4281 -4283 4304 0
4281 -4304 0
4283 -4304 0
-4285 -4287 4306 0
4285 -4306 0
4287 -4306 0
-4289 -4291 4308 0
4289 -4308 0
4291 -4308 0
-4293 -4295 4310 0
4293 -4310 0
4295 -4310 0
-4294 -4296 4332 0
4296 -4332 0
4294 -4332 0
-4298 -4299 4333 0
4298 -4333 0
4299 -4333 0
-4300 -4301 4334 0
4300 -4334 0
4301 -4334 0
-4303 -4305 4316 0
4303 -4316 0
4305 -4316 0
-4307 -4309 4318 0
4307 -4318 0
4309 -4318 0
-4297 -4311 4320 0
4311 -4320 0
4297 -4320 0
-4312 -4313 4322 0
4312 -4322 0
4313 -4322 0
-4302 -4314 4324 0
4314 -4324 0
4302 -4324 0
-4315 -4317 4326 0
4315 -4326 0
4317 -4326 0
-4319 -4321 4328 0
4319 -4328 0
4321 -4328 0
-4323 -4325 4329 0
4323 -4329 0
4325 -4329 0
-4304 -4306 4359 0
4304 -4359 0
4306 -4359 0
-4308 -4310 4360 0
4308 -4360 0
4310 -4360 0
-4316 -4318 4336 0
4316 -4336 0
4318 -4336 0
-4320 -4322 4338 0
4320 -4338 0
4322 -4338 0
-4324 -4326 4340 0
4324 -4340 0
4326 -4340 0
-4328 -4329 4342 0
4328 -4342 0
4329 -4342 0
-4330 -4331 4361 0
4330 -4361 0
4331 -4361 0
-4332 -4333 4345 0
4332 -4345 0
4333 -4345 0
-4334 -4335 4347 0
4334 -4347 0
4335 -4347 0
-4337 -4339 4349 0
4337 -4349 0
4339 -4349 0
-4327 -4341 4351 0
4341 -4351 0
4327 -4351 0
-4343 -4344 4364 0
4343 -4364 0
4344 -4364 0
-4346 -4348 4355 0
4346 -4355 0
4348 -4355 0
-4350 -4352 4357 0
4350 -4357 0
4352 -4357 0
-4353 -4354 4358 0
4353 -4358 0
4354 -4358 0
-4336 -4338 4393 0
4336 -4393 0
4338 -4393 0
-4340 -4342 4384 0
4340 -4384 0
4342 -4384 0
-4345 -4347 4385 0
4345 -4385 0
4347 -4385 0
-4349 -4351 4386 0
4349 -4386 0
4351 -4386 0
-4355 -4357 4366 0
4355 -4366 0
4357 -4366 0
-4356 -4358 4368 0
4358 -4368 0
4356 -4368 0
-4359 -4360 4388 0
4359 -4388 0
4360 -4388 0
-4361 -4362 4372 0
4361 -4372 0
4362 -4372 0
-4363 -4364 4374 0
4363 -4374 0
4364 -4374 0
-4365 -4367 4390 0
4365 -4390 0
4367 -4390 0
-4369 -4370 4378 0
4369 -4378 0
4370 -4378 0
-4371 -4373 4380 0
4371 -4380 0
4373 -4380 0
-4375 -4376 4382 0
4375 -4382 0
4376 -4382 0
-4377 -4379 4383 0
4377 -4383 0
4379 -4383 0
-4366 -4368 4409 0
4366 -4409 0
4368 -4409 0
-4372 -4374 4410 0
4372 -4410 0
4374 -4410 0
-4378 -4380 4411 0
4378 -4411 0
4380 -4411 0
-4382 -4383 4412 0
4382 -4412 0
4383 -4412 0
-4384 -4385 4413 0
4384 -4413 0
4385 -4413 0
-4386 -4387 4414 0
4386 -4414 0
4387 -4414 0
-4389 -4390 4397 0
4389 -4397 0
4390 -4397 0
-4391 -4392 4399 0
4391 -4399 0
4392 -4399 0
-4381 -4393 4401 0
4381 -4401 0
4393 -4401 0
-4394 -4395 4403 0
4394 -4403 0
4395 -4403 0
-4388 -4396 4405 0
4388 -4405 0
4396 -4405 0
-4398 -4400 4407 0
4398 -4407 0
4400 -4407 0
-4402 -4404 4408 0
4402 -4408 0
4404 -4408 0
-4397 -4399 4443 0
4397 -4443 0
4399 -4443 0
-4401 -4403 4417 0
4401 -4417 0
4403 -4417 0
-4405 -4407 4419 0
4405 -4419 0
4407 -4419 0
-4406 -4408 4435 0
4408 -4435 0
4406 -4435 0
-4410 -4411 4436 0
4410 -4436 0
4411 -4436 0
-4412 -4413 4422 0
4412 -4422 0
4413 -4422 0
-4414 -4415 4424 0
4414 -4424 0
4415 -4424 0
-4416 -4418 4438 0
4416 -4438 0
4418 -4438 0
-4409 -4420 4428 0
4409 -4428 0
4420 -4428 0
-4421 -4423 4430 0
4421 -4430 0
4423 -4430 0
-4425 -4426 4432 0
4425 -4432 0
4426 -4432 0
-4427 -4429 4433 0
4427 -4433 0
4429 -4433 0
-4417 -4419 4469 0
4417 -4469 0
4419 -4469 0
-4422 -4424 4455 0
4422 -4455 0
4424 -4455 0
-4428 -4430 4440 0
4428 -4440 0
4430 -4440 0
-4432 -4433 4442 0
4432 -4442 0
4433 -4442 0
-4434 -4435 4457 0
4434 -4457 0
4435 -4457 0
-4436 -4437 4446 0
4436 -4446 0
4437 -4446 0
-4438 -4439 4448 0
4438 -4448 0
4439 -4448 0
-4431 -4441 4459 0
4441 -4459 0
4431 -4459 0
-4444 -4445 4451 0
4444 -4451 0
4445 -4451 0
-4447 -4449 4453 0
4447 -4453 0
4449 -4453 0
-4443 -4450 4454 0
4443 -4454 0
4450 -4454 0
-4440 -4442 4474 0
4440 -4474 0
4442 -4474 0
-4446 -4448 4479 0
4446 -4479 0
4448 -4479 0
-4451 -4453 4461 0
4451 -4461 0
4453 -4461 0
-4452 -4454 4463 0
4454 -4463 0
4452 -4463 0
-4455 -4456 4475 0
4455 -4475 0
4456 -4475 0
-4458 -4459 4466 0
4458 -4466 0
4459 -4466 0
-4460 -4462 4468 0
4460 -4468 0
4462 -4468 0
-4457 -4464 4477 0
4464 -4477 0
4457 -4477 0
-4465 -4467 4472 0
4465 -4472 0
4467 -4472 0
-4469 -4470 4473 0
4469 -4473 0
4470 -4473 0
-4461 -4463 4498 0
4461 -4498 0
4463 -4498 0
-4466 -4468 4491 0
4466 -4491 0
4468 -4491 0
-4472 -4473 4492 0
4472 -4492 0
4473 -4492 0
-4475 -4476 4493 0
4475 -4493 0
4476 -4493 0
-4477 -4478 4483 0
4477 -4483 0
4478 -4483 0
-4471 -4474 4485 0
4471 -4485 0
4474 -4485 0
-4479 -4480 4487 0
4479 -4487 0
4480 -4487 0
-4481 -4482 4489 0
4481 -4489 0
4482 -4489 0
-4484 -4486 4490 0
4484 -4490 0
4486 -4490 0
-4483 -4485 4495 0
4483 -4495 0
4485 -4495 0
-4487 -4489 4497 0
4487 -4497 0
4489 -4497 0
-4488 -4490 4506 0
4490 -4506 0
4488 -4506 0
-4491 -4492 4507 0
4491 -4507 0
4492 -4507 0
-4494 -4496 4508 0
4494 -4508 0
4496 -4508 0
-4498 -4499 4509 0
4498 -4509 0
4499 -4509 0
-4493 -4500 4504 0
4493 -4504 0
4500 -4504 0
-4501 -4502 4505 0
4501 -4505 0
4502 -4505 0
-4495 -4497 4526 0
4495 -4526 0
4497 -4526 0
-4504 -4505 4523 0
4504 -4523 0
4505 -4523 0
-4506 -4507 4519 0
4506 -4519 0
4507 -4519 0
-4508 -4509 4514 0
4508 -4514 0
4509 -4514 0
-4503 -4510 4516 0
4510 -4516 0
4503 -4516 0
-4512 -4513 4521 0
4512 -4521 0
4513 -4521 0
-4511 -4515 4518 0
4515 -4518 0
4511 -4518 0
-4514 -4516 4530 0
4514 -4530 0
4516 -4530 0
-4517 -4518 4531 0
4518 -4531 0
4517 -4531 0
-4519 -4520 4532 0
4519 -4532 0
4520 -4532 0
-4521 -4522 4533 0
4521 -4533 0
4522 -4533 0
-4523 -4524 4528 0
4523 -4528 0
4524 -4528 0
-4525 -4526 4529 0
4525 -4529 0
4526 -4529 0
-4528 -4529 4539 0
4528 -4539 0
4529 -4539 0
-4530 -4531 4540 0
4530 -4540 0
4531 -4540 0
-4533 -4534 4541 0
4533 -4541 0
4534 -4541 0
-4532 -4535 4542 0
4535 -4542 0
4532 -4542 0
-4527 -4536 4538 0
4536 -4538 0
4527 -4538 0
-4537 -4538 4551 0
4538 -4551 0
4537 -4551 0
-4539 -4540 4546 0
4539 -4546 0
4540 -4546 0
-4541 -4542 4547 0
4541 -4547 0
4542 -4547 0
-4543 -4544 4548 0
4543 -4548 0
4544 -4548 0
-4546 -4547 4557 0
4546 -4557 0
4547 -4557 0
-4545 -4548 4553 0
4548 -4553 0
4545 -4553 0
-4549 -4550 4552 0
4549 -4552 0
4550 -4552 0
-4551 -4552 4555 0
-4553 -4554 4556 0
4553 -4556 0
4554 -4556 0
-4556 -4557 0
-4555 0
-2 -9 -86 0
2 9 -86 0
-2 9 86 0
2 -9 86 0
-17 -25 -86 0
17 25 -86 0
-17 25 86 0
17 -25 86 0
-3 -10 -87 0
3 10 -87 0
-3 10 87 0
3 -10 87 0
-34 -85 -89 0
34 85 -89 0
-34 85 89 0
34 -85 89 0
-86 -87 -90 0
86 87 -90 0
-86 87 90 0
86 -87 90 0
-88 -89 -91 0
88 89 -91 0
-88 89 91 0
88 -89 91 0
-90 -91 -92 0
90 91 -92 0
-90 91 92 0
90 -91 92 0
-4 -11 -94 0
4 11 -94 0
-4 11 94 0
4 -11 94 0
-18 -26 -96 0
18 26 -96 0
-18 26 96 0
18 -26 96 0
-35 -44 -98 0
35 44 -98 0
-35 44 98 0
35 -44 98 0
-92 -93 -104 0
92 93 -104 0
92 -93 104 0
-92 93 104 0
-94 -96 -106 0
94 96 -106 0
-94 96 106 0
94 -96 106 0
-98 -100 -108 0
98 100 -108 0
-98 100 108 0
98 -100 108 0
-101 -102 -110 0
101 102 -110 0
-101 102 110 0
101 -102 110 0
-103 -104 -112 0
103 104 -112 0
-103 104 112 0
103 -104 112 0
-106 -108 -114 0
106 108 -114 0
-106 108 114 0
106 -108 114 0
-110 -112 114 0
110 112 114 0
-110 112 -114 0
110 -112 -114 0
-5 -12 -116 0
5 12 -116 0
-5 12 116 0
5 -12 116 0
-19 -27 -118 0
19 27 -118 0
-19 27 118 0
19 -27 118 0
-36 -45 -120 0
36 45 -120 0
-36 45 120 0
36 -45 120 0
-54 -95 -122 0
54 95 -122 0
-54 95 122 0
54 -95 122 0
-97 -99 -131 0
97 99 -131 0
-97 99 131 0
97 -99 131 0
-105 -107 -132 0
105 107 -132 0
-105 107 132 0
105 -107 132 0
-109 -111 -124 0
109 111 -124 0
-109 111 124 0
109 -111 124 0
-113 -115 -126 0
113 115 -126 0
-113 115 126 0
113 -115 126 0
-116 -118 -129 0
116 118 -129 0
-116 118 129 0
116 -118 129 0
-120 -122 -130 0
120 122 -130 0
-120 122 130 0
120 -122 130 0
-124 -126 -133 0
124 126 -133 0
-124 126 133 0
124 -126 133 0
-128 -129 -134 0
128 129 -134 0
-128 129 134 0
128 -129 134 0
-130 -131 -136 0
130 131 -136 0
-130 131 136 0
130 -131 136 0
-132 -133 -138 0
132 133 -138 0
-132 133 138 0
132 -133 138 0
-134 -136 -138 0
134 136 -138 0
-134 136 138 0
134 -136 138 0
-6 -13 -141 0
6 13 -141 0
-6 13 141 0
6 -13 141 0
-20 -28 -143 0
20 28 -143 0
-20 28 143 0
20 -28 143 0
-37 -46 -145 0
37 46 -145 0
-37 46 145 0
37 -46 145 0
-55 -64 -147 0
55 64 -147 0
-55 64 147 0
55 -64 147 0
-117 -119 -149 0
117 119 -149 0
-117 119 149 0
117 -119 149 0
-121 -123 -151 0
121 123 -151 0
-121 123 151 0
121 -123 151 0
-125 -127 -154 0
125 127 -154 0
-125 127 154 0
125 -127 154 0
-135 -137 -158 0
135 137 -158 0
-135 137 158 0
135 -137 158 0
-139 -140 -159 0
139 140 -159 0
-139 140 159 0
139 -140 159 0
-138 -141 -161 0
138 141 -161 0
-138 141 161 0
138 -141 161 0
-143 -145 -163 0
143 145 -163 0
-143 145 163 0
143 -145 163 0
-147 -149 -165 0
147 149 -165 0
-147 149 165 0
147 -149 165 0
-151 -152 -167 0
151 152 -167 0
-151 152 167 0
151 -152 167 0
-153 -154 -169 0
153 154 -169 0
-153 154 169 0
153 -154 169 0
-155 -156 -171 0
155 156 -171 0
-155 156 171 0
155 -156 171 0
-157 -158 -173 0
157 158 -173 0
-157 158 173 0
157 -158 173 0
-159 -161 -175 0
159 161 -175 0
-159 161 175 0
159 -161 175 0
-163 -165 -177 0
163 165 -177 0
-163 165 177 0
163 -165 177 0
-167 -169 -179 0
167 169 -179 0
-167 169 179 0
167 -169 179 0
-171 -173 -181 0
171 173 -181 0
-171 173 181 0
171 -173 181 0
-175 -177 -183 0
175 177 -183 0
-175 177 183 0
175 -177 183 0
-179 -181 183 0
179 181 183 0
-179 181 -183 0
179 -181 -183 0
-7 -14 -215 0
7 14 -215 0
-7 14 215 0
7 -14 215 0
-21 -29 -187 0
21 29 -187 0
-21 29 187 0
21 -29 187 0
-38 -47 -189 0
38 47 -189 0
-38 47 189 0
38 -47 189 0
-56 -65 -191 0
56 65 -191 0
-56 65 191 0
56 -65 191 0
-74 -142 -193 0
74 142 -193 0
-74 142 193 0
74 -142 193 0
-144 -146 -195 0
144 146 -195 0
-144 146 195 0
144 -146 195 0
-148 -150 -197 0
148 150 -197 0
-148 150 197 0
148 -150 197 0
-160 -162 -202 0
160 162 -202 0
-160 162 202 0
160 -162 202 0
-164 -166 -204 0
164 166 -204 0
-164 166 204 0
164 -166 204 0
-168 -170 -206 0
168 170 -206 0
-168 170 206 0
168 -170 206 0
-172 -174 -208 0
172 174 -208 0
-172 174 208 0
172 -174 208 0
-176 -178 -210 0
176 178 -210 0
-176 178 210 0
176 -178 210 0
-180 -182 -212 0
180 182 -212 0
-180 182 212 0
180 -182 212 0
-184 -185 -214 0
184 185 -214 0
-184 185 214 0
184 -185 214 0
-187 -189 -216 0
187 189 -216 0
-187 189 216 0
187 -189 216 0
-191 -193 -218 0
191 193 -218 0
-191 193 218 0
191 -193 218 0
-195 -197 -220 0
195 197 -220 0
-195 197 220 0
195 -197 220 0
-199 -200 -222 0
199 200 -222 0
-199 200 222 0
199 -200 222 0
-202 -204 -224 0
202 204 -224 0
-202 204 224 0
202 -204 224 0
-206 -208 -225 0
206 208 -225 0
-206 208 225 0
206 -208 225 0
-210 -212 -227 0
210 212 -227 0
-210 212 227 0
210 -212 227 0
-214 -215 -229 0
214 215 -229 0
-214 215 229 0
214 -215 229 0
-216 -218 -231 0
216 218 -231 0
-216 218 231 0
216 -218 231 0
-220 -222 -233 0
220 222 -233 0
-220 222 233 0
220 -222 233 0
-201 -224 -235 0
201 224 -235 0
-201 224 235 0
201 -224 235 0
-225 -227 -237 0
225 227 -237 0
-225 227 237 0
225 -227 237 0
-229 -231 -239 0
229 231 -239 0
-229 231 239 0
229 -231 239 0
-233 -235 -241 0
233 235 -241 0
-233 235 241 0
233 -235 241 0
-237 -239 -241 0
237 239 -241 0
-237 239 241 0
237 -239 241 0
-8 -15 -244 0
8 15 -244 0
-8 15 244 0
8 -15 244 0
-22 -30 -246 0
22 30 -246 0
-22 30 246 0
22 -30 246 0
-39 -48 -248 0
39 48 -248 0
-39 48 248 0
39 -48 248 0
-57 -66 -250 0
57 66 -250 0
-57 66 250 0
57 -66 250 0
-75 -186 -252 0
75 186 -252 0
-75 186 252 0
75 -186 252 0
-188 -190 -254 0
188 190 -254 0
-188 190 254 0
188 -190 254 0
-192 -194 -256 0
192 194 -256 0
-192 194 256 0
192 -194 256 0
-196 -198 -286 0
196 198 -286 0
-196 198 286 0
196 -198 286 0
-203 -205 -287 0
203 205 -287 0
-203 205 287 0
203 -205 287 0
-207 -209 -260 0
207 209 -260 0
-207 209 260 0
207 -209 260 0
-211 -213 -262 0
211 213 -262 0
-211 213 262 0
211 -213 262 0
-217 -219 -264 0
217 219 -264 0
-217 219 264 0
217 -219 264 0
-221 -223 -266 0
221 223 -266 0
-221 223 266 0
221 -223 266 0
-226 -228 -269 0
226 228 -269 0
-226 228 269 0
226 -228 269 0
-230 -232 -270 0
230 232 -270 0
-230 232 270 0
230 -232 270 0
-234 -236 -272 0
234 236 -272 0
-234 236 272 0
234 -236 272 0
-238 -240 -274 0
238 240 -274 0
-238 240 274 0
238 -240 274 0
-242 -243 -276 0
242 243 -276 0
-242 243 276 0
242 -243 276 0
-241 -244 -278 0
241 244 -278 0
-241 244 278 0
241 -244 278 0
-246 -248 -280 0
246 248 -280 0
-246 248 280 0
246 -248 280 0
-250 -252 -282 0
250 252 -282 0
-250 252 282 0
250 -252 282 0
-254 -256 -284 0
254 256 -284 0
-254 256 284 0
254 -256 284 0
-260 -262 -288 0
260 262 -288 0
-260 262 288 0
260 -262 288 0
-263 -264 -290 0
263 264 -290 0
-263 264 290 0
263 -264 290 0
-266 -268 -292 0
266 268 -292 0
-266 268 292 0
266 -268 292 0
-269 -270 -294 0
269 270 -294 0
-269 270 294 0
269 -270 294 0
-272 -274 -296 0
272 274 -296 0
-272 274 296 0
272 -274 296 0
-276 -278 -298 0
276 278 -298 0
-276 278 298 0
276 -278 298 0
-280 -282 -300 0
280 282 -300 0
-280 282 300 0
280 -282 300 0
-284 -286 -302 0
284 286 -302 0
-284 286 302 0
284 -286 302 0
-287 -288 -304 0
287 288 -304 0
-287 288 304 0
287 -288 304 0
-290 -292 -306 0
290 292 -306 0
-290 292 306 0
290 -292 306 0
-294 -296 -308 0
294 296 -308 0
-294 296 308 0
294 -296 308 0
-298 -300 -310 0
298 300 -310 0
-298 300 310 0
298 -300 310 0
-302 -304 -312 0
302 304 -312 0
-302 304 312 0
302 -304 312 0
-306 -308 -314 0
306 308 -314 0
-306 308 314 0
306 -308 314 0
-310 -312 -314 0
310 312 -314 0
-310 312 314 0
310 -312 314 0
-16 -23 -317 0
16 23 -317 0
-16 23 317 0
16 -23 317 0
-31 -40 -319 0
31 40 -319 0
-31 40 319 0
31 -40 319 0
-49 -58 -321 0
49 58 -321 0
-49 58 321 0
49 -58 321 0
-67 -76 -323 0
67 76 -323 0
-67 76 323 0
67 -76 323 0
-245 -247 -325 0
245 247 -325 0
-245 247 325 0
245 -247 325 0
-249 -251 -327 0
249 251 -327 0
-249 251 327 0
249 -251 327 0
-253 -255 -329 0
253 255 -329 0
-253 255 329 0
253 -255 329 0
-257 -258 -331 0
257 258 -331 0
-257 258 331 0
257 -258 331 0
-259 -261 -364 0
259 261 -364 0
-259 261 364 0
259 -261 364 0
-265 -267 -333 0
265 267 -333 0
-265 267 333 0
265 -267 333 0
-271 -273 -335 0
271 273 -335 0
-271 273 335 0
271 -273 335 0
-275 -277 -337 0
275 277 -337 0
-275 277 337 0
275 -277 337 0
-279 -281 -339 0
279 281 -339 0
-279 281 339 0
279 -281 339 0
-283 -285 -370 0
283 285 -370 0
-283 285 370 0
283 -285 370 0
-289 -291 -342 0
289 291 -342 0
-289 291 342 0
289 -291 342 0
-293 -295 -343 0
293 295 -343 0
-293 295 343 0
293 -295 343 0
-297 -299 -345 0
297 299 -345 0
-297 299 345 0
297 -299 345 0
-301 -303 -347 0
301 303 -347 0
-301 303 347 0
301 -303 347 0
-305 -307 -349 0
305 307 -349 0
-305 307 349 0
305 -307 349 0
-309 -311 -351 0
309 311 -351 0
-309 311 351 0
309 -311 351 0
-313 -315 -353 0
313 315 -353 0
-313 315 353 0
313 -315 353 0
-314 -316 -355 0
314 316 -355 0
314 -316 355 0
-314 316 355 0
-317 -319 -357 0
317 319 -357 0
-317 319 357 0
317 -319 357 0
-321 -323 -359 0
321 323 -359 0
-321 323 359 0
321 -323 359 0
-325 -327 -361 0
325 327 -361 0
-325 327 361 0
325 -327 361 0
-329 -331 -363 0
329 331 -363 0
-329 331 363 0
329 -331 363 0
-332 -333 -365 0
332 333 -365 0
-332 333 365 0
332 -333 365 0
-334 -335 -367 0
334 335 -367 0
-334 335 367 0
334 -335 367 0
-337 -339 -369 0
337 339 -369 0
-337 339 369 0
337 -339 369 0
-342 -343 -371 0
342 343 -371 0
-342 343 371 0
342 -343 371 0
-345 -347 -373 0
345 347 -373 0
-345 347 373 0
345 -347 373 0
-349 -351 -375 0
349 351 -375 0
-349 351 375 0
349 -351 375 0
-353 -355 -377 0
353 355 -377 0
-353 355 377 0
353 -355 377 0
-357 -359 -379 0
357 359 -379 0
-357 359 379 0
357 -359 379 0
-361 -363 -381 0
361 363 -381 0
-361 363 381 0
361 -363 381 0
-364 -365 -383 0
364 365 -383 0
-364 365 383 0
364 -365 383 0
-367 -369 -385 0
367 369 -385 0
-367 369 385 0
367 -369 385 0
-370 -371 -387 0
370 371 -387 0
-370 371 387 0
370 -371 387 0
-373 -375 -389 0
373 375 -389 0
-373 375 389 0
373 -375 389 0
-377 -379 -391 0
377 379 -391 0
-377 379 391 0
377 -379 391 0
-381 -383 -393 0
381 383 -393 0
-381 383 393 0
381 -383 393 0
-385 -387 -395 0
385 387 -395 0
-385 387 395 0
385 -387 395 0
-389 -391 -397 0
389 391 -397 0
-389 391 397 0
389 -391 397 0
-393 -395 397 0
393 395 397 0
-393 395 -397 0
393 -395 -397 0
-24 -32 -399 0
24 32 -399 0
-24 32 399 0
24 -32 399 0
-41 -50 -401 0
41 50 -401 0
-41 50 401 0
41 -50 401 0
-59 -68 -403 0
59 68 -403 0
-59 68 403 0
59 -68 403 0
-77 -318 -405 0
77 318 -405 0
-77 318 405 0
77 -318 405 0
-320 -322 -407 0
320 322 -407 0
-320 322 407 0
320 -322 407 0
-324 -326 -409 0
324 326 -409 0
-324 326 409 0
324 -326 409 0
-328 -330 -411 0
328 330 -411 0
-328 330 411 0
328 -330 411 0
-336 -338 -415 0
336 338 -415 0
-336 338 415 0
336 -338 415 0
-340 -341 -417 0
340 341 -417 0
-340 341 417 0
340 -341 417 0
-344 -346 -420 0
344 346 -420 0
-344 346 420 0
344 -346 420 0
-348 -350 -421 0
348 350 -421 0
-348 350 421 0
348 -350 421 0
-352 -354 -423 0
352 354 -423 0
-352 354 423 0
352 -354 423 0
-356 -358 -425 0
356 358 -425 0
-356 358 425 0
356 -358 425 0
-360 -362 -427 0
360 362 -427 0
-360 362 427 0
360 -362 427 0
-366 -368 -430 0
366 368 -430 0
-366 368 430 0
366 -368 430 0
-372 -374 -432 0
372 374 -432 0
-372 374 432 0
372 -374 432 0
-376 -378 -433 0
376 378 -433 0
-376 378 433 0
376 -378 433 0
-380 -382 -435 0
380 382 -435 0
-380 382 435 0
380 -382 435 0
-384 -386 -437 0
384 386 -437 0
-384 386 437 0
384 -386 437 0
-388 -390 -439 0
388 390 -439 0
-388 390 439 0
388 -390 439 0
-392 -394 -441 0
392 394 -441 0
-392 394 441 0
392 -394 441 0
-396 -398 -443 0
396 398 -443 0
-396 398 443 0
396 -398 443 0
-399 -401 -446 0
399 401 -446 0
-399 401 446 0
399 -401 446 0
-403 -405 -447 0
403 405 -447 0
-403 405 447 0
403 -405 447 0
-407 -409 -449 0
407 409 -449 0
-407 409 449 0
407 -409 449 0
-411 -412 -451 0
411 412 -451 0
-411 412 451 0
411 -412 451 0
-413 -414 -453 0
413 414 -453 0
-413 414 453 0
413 -414 453 0
-415 -417 -455 0
415 417 -455 0
-415 417 455 0
415 -417 455 0
-419 -420 -457 0
419 420 -457 0
-419 420 457 0
419 -420 457 0
-421 -423 -459 0
421 423 -459 0
-421 423 459 0
421 -423 459 0
-425 -427 -461 0
425 427 -461 0
-425 427 461 0
425 -427 461 0
-429 -430 -463 0
429 430 -463 0
-429 430 463 0
429 -430 463 0
-431 -432 -465 0
431 432 -465 0
-431 432 465 0
431 -432 465 0
-433 -435 -467 0
433 435 -467 0
-433 435 467 0
433 -435 467 0
-437 -439 -469 0
437 439 -469 0
-437 439 469 0
437 -439 469 0
-441 -443 -471 0
441 443 -471 0
-441 443 471 0
441 -443 471 0
-445 -446 -473 0
445 446 -473 0
-445 446 473 0
445 -446 473 0
-447 -449 -475 0
447 449 -475 0
-447 449 475 0
447 -449 475 0
-451 -453 -477 0
451 453 -477 0
-451 453 477 0
451 -453 477 0
-455 -457 -479 0
455 457 -479 0
-455 457 479 0
455 -457 479 0
-459 -461 -481 0
459 461 -481 0
-459 461 481 0
459 -461 481 0
-463 -465 -483 0
463 465 -483 0
-463 465 483 0
463 -465 483 0
-467 -469 -485 0
467 469 -485 0
-467 469 485 0
467 -469 485 0
-471 -473 -487 0
471 473 -487 0
-471 473 487 0
471 -473 487 0
-475 -477 -489 0
475 477 -489 0
-475 477 489 0
475 -477 489 0
-479 -481 -491 0
479 481 -491 0
-479 481 491 0
479 -481 491 0
-483 -485 -493 0
483 485 -493 0
-483 485 493 0
483 -485 493 0
-487 -489 -495 0
487 489 -495 0
-487 489 495 0
487 -489 495 0
-491 -493 495 0
491 493 495 0
-491 493 -495 0
491 -493 -495 0
-33 -42 -545 0
33 42 -545 0
-33 42 545 0
33 -42 545 0
-51 -60 -499 0
51 60 -499 0
-51 60 499 0
51 -60 499 0
-69 -78 -501 0
69 78 -501 0
-69 78 501 0
69 -78 501 0
-400 -402 -503 0
400 402 -503 0
-400 402 503 0
400 -402 503 0
-404 -406 -505 0
404 406 -505 0
-404 406 505 0
404 -406 505 0
-408 -410 -507 0
408 410 -507 0
-408 410 507 0
408 -410 507 0
-416 -418 -551 0
416 418 -551 0
-416 418 551 0
416 -418 551 0
-422 -424 -510 0
422 424 -510 0
-422 424 510 0
422 -424 510 0
-426 -428 -511 0
426 428 -511 0
-426 428 511 0
426 -428 511 0
-434 -436 -514 0
434 436 -514 0
-434 436 514 0
434 -436 514 0
-438 -440 -515 0
438 440 -515 0
-438 440 515 0
438 -440 515 0
-442 -444 -517 0
442 444 -517 0
-442 444 517 0
442 -444 517 0
-448 -450 -520 0
448 450 -520 0
-448 450 520 0
448 -450 520 0
-452 -454 -521 0
452 454 -521 0
-452 454 521 0
452 -454 521 0
-456 -458 -523 0
456 458 -523 0
-456 458 523 0
456 -458 523 0
-460 -462 -525 0
460 462 -525 0
-460 462 525 0
460 -462 525 0
-464 -466 -527 0
464 466 -527 0
-464 466 527 0
464 -466 527 0
-468 -470 -529 0
468 470 -529 0
-468 470 529 0
468 -470 529 0
-472 -474 -531 0
472 474 -531 0
-472 474 531 0
472 -474 531 0
-476 -478 -533 0
476 478 -533 0
-476 478 533 0
476 -478 533 0
-480 -482 -535 0
480 482 -535 0
-480 482 535 0
480 -482 535 0
-484 -486 -537 0
484 486 -537 0
-484 486 537 0
484 -486 537 0
-488 -490 -539 0
488 490 -539 0
-488 490 539 0
488 -490 539 0
-492 -494 -541 0
492 494 -541 0
-492 494 541 0
492 -494 541 0
-496 -497 -543 0
496 497 -543 0
-496 497 543 0
496 -497 543 0
-499 -501 -546 0
499 501 -546 0
-499 501 546 0
499 -501 546 0
-503 -505 -547 0
503 505 -547 0
-503 505 547 0
503 -505 547 0
-507 -508 -549 0
507 508 -549 0
-507 508 549 0
507 -508 549 0
-509 -510 -552 0
509 510 -552 0
-509 510 552 0
509 -510 552 0
-511 -512 -553 0
511 512 -553 0
-511 512 553 0
511 -512 553 0
-513 -514 -555 0
513 514 -555 0
-513 514 555 0
513 -514 555 0
-515 -517 -557 0
515 517 -557 0
-515 517 557 0
515 -517 557 0
-519 -520 -559 0
519 520 -559 0
-519 520 559 0
519 -520 559 0
-521 -523 -561 0
521 523 -561 0
-521 523 561 0
521 -523 561 0
-525 -527 -563 0
525 527 -563 0
-525 527 563 0
525 -527 563 0
-529 -531 -565 0
529 531 -565 0
-529 531 565 0
529 -531 565 0
-533 -535 -567 0
533 535 -567 0
-533 535 567 0
533 -535 567 0
-537 -539 -569 0
537 539 -569 0
-537 539 569 0
537 -539 569 0
-541 -543 -571 0
541 543 -571 0
-541 543 571 0
541 -543 571 0
-545 -546 -573 0
545 546 -573 0
-545 546 573 0
545 -546 573 0
-547 -549 -575 0
547 549 -575 0
-547 549 575 0
547 -549 575 0
-551 -552 -577 0
551 552 -577 0
-551 552 577 0
551 -552 577 0
-553 -555 -579 0
553 555 -579 0
-553 555 579 0
553 -555 579 0
-557 -559 -581 0
557 559 -581 0
-557 559 581 0
557 -559 581 0
-561 -563 -583 0
561 563 -583 0
-561 563 583 0
561 -563 583 0
-565 -567 -585 0
565 567 -585 0
-565 567 585 0
565 -567 585 0
-569 -571 -587 0
569 571 -587 0
-569 571 587 0
569 -571 587 0
-573 -575 -589 0
573 575 -589 0
-573 575 589 0
573 -575 589 0
-577 -579 -591 0
577 579 -591 0
-577 579 591 0
577 -579 591 0
-581 -583 -593 0
581 583 -593 0
-581 583 593 0
581 -583 593 0
-585 -587 -595 0
585 587 -595 0
-585 587 595 0
585 -587 595 0
-589 -591 -597 0
589 591 -597 0
-589 591 597 0
589 -591 597 0
-593 -595 597 0
593 595 597 0
-593 595 -597 0
593 -595 -597 0
-43 -52 -652 0
43 52 -652 0
-43 52 652 0
43 -52 652 0
-61 -70 -601 0
61 70 -601 0
-61 70 601 0
61 -70 601 0
-79 -498 -603 0
79 498 -603 0
-79 498 603 0
79 -498 603 0
-500 -502 -605 0
500 502 -605 0
-500 502 605 0
500 -502 605 0
-504 -506 -607 0
504 506 -607 0
-504 506 607 0
504 -506 607 0
-516 -518 -613 0
516 518 -613 0
-516 518 613 0
516 -518 613 0
-522 -524 -615 0
522 524 -615 0
-522 524 615 0
522 -524 615 0
-526 -528 -617 0
526 528 -617 0
-526 528 617 0
526 -528 617 0
-530 -532 -619 0
530 532 -619 0
-530 532 619 0
530 -532 619 0
-534 -536 -621 0
534 536 -621 0
-534 536 621 0
534 -536 621 0
-538 -540 -623 0
538 540 -623 0
-538 540 623 0
538 -540 623 0
-542 -544 -625 0
542 544 -625 0
-542 544 625 0
542 -544 625 0
-548 -550 -628 0
548 550 -628 0
-548 550 628 0
548 -550 628 0
-554 -556 -630 0
554 556 -630 0
-554 556 630 0
554 -556 630 0
-558 -560 -631 0
558 560 -631 0
-558 560 631 0
558 -560 631 0
-562 -564 -633 0
562 564 -633 0
-562 564 633 0
562 -564 633 0
-566 -568 -635 0
566 568 -635 0
-566 568 635 0
566 -568 635 0
-570 -572 -637 0
570 572 -637 0
-570 572 637 0
570 -572 637 0
-574 -576 -639 0
574 576 -639 0
-574 576 639 0
574 -576 639 0
-578 -580 -641 0
578 580 -641 0
-578 580 641 0
578 -580 641 0
-582 -584 -643 0
582 584 -643 0
-582 584 643 0
582 -584 643 0
-586 -588 -645 0
586 588 -645 0
-586 588 645 0
586 -588 645 0
-590 -592 -647 0
590 592 -647 0
-590 592 647 0
590 -592 647 0
-594 -596 -649 0
594 596 -649 0
-594 596 649 0
594 -596 649 0
-598 -599 -651 0
598 599 -651 0
-598 599 651 0
598 -599 651 0
-601 -603 -653 0
601 603 -653 0
-601 603 653 0
601 -603 653 0
-605 -607 -655 0
605 607 -655 0
-605 607 655 0
605 -607 655 0
-608 -609 -657 0
608 609 -657 0
-608 609 657 0
608 -609 657 0
-610 -611 -659 0
610 611 -659 0
-610 611 659 0
610 -611 659 0
-612 -613 -661 0
612 613 -661 0
-612 613 661 0
612 -613 661 0
-614 -615 -663 0
614 615 -663 0
-614 615 663 0
614 -615 663 0
-617 -619 -665 0
617 619 -665 0
-617 619 665 0
617 -619 665 0
-621 -623 -667 0
621 623 -667 0
-621 623 667 0
621 -623 667 0
-625 -627 -669 0
625 627 -669 0
-625 627 669 0
625 -627 669 0
-628 -629 -671 0
628 629 -671 0
-628 629 671 0
628 -629 671 0
-630 -631 -673 0
630 631 -673 0
-630 631 673 0
630 -631 673 0
-633 -635 -675 0
633 635 -675 0
-633 635 675 0
633 -635 675 0
-637 -639 -677 0
637 639 -677 0
-637 639 677 0
637 -639 677 0
-641 -643 -679 0
641 643 -679 0
-641 643 679 0
641 -643 679 0
-645 -647 -681 0
645 647 -681 0
-645 647 681 0
645 -647 681 0
-649 -651 -683 0
649 651 -683 0
-649 651 683 0
649 -651 683 0
-652 -653 -685 0
652 653 -685 0
-652 653 685 0
652 -653 685 0
-655 -657 -687 0
655 657 -687 0
-655 657 687 0
655 -657 687 0
-659 -661 -689 0
659 661 -689 0
-659 661 689 0
659 -661 689 0
-663 -665 -691 0
663 665 -691 0
-663 665 691 0
663 -665 691 0
-667 -669 -693 0
667 669 -693 0
-667 669 693 0
667 -669 693 0
-671 -673 -695 0
671 673 -695 0
-671 673 695 0
671 -673 695 0
-675 -677 -697 0
675 677 -697 0
-675 677 697 0
675 -677 697 0
-679 -681 -699 0
679 681 -699 0
-679 681 699 0
679 -681 699 0
-683 -685 -701 0
683 685 -701 0
-683 685 701 0
683 -685 701 0
-687 -689 -703 0
687 689 -703 0
-687 689 703 0
687 -689 703 0
-691 -693 -705 0
691 693 -705 0
-691 693 705 0
691 -693 705 0
-695 -697 -707 0
695 697 -707 0
-695 697 707 0
695 -697 707 0
-699 -701 -709 0
699 701 -709 0
-699 701 709 0
699 -701 709 0
-703 -705 -711 0
703 705 -711 0
-703 705 711 0
703 -705 711 0
-707 -709 711 0
707 709 711 0
-707 709 -711 0
707 -709 -711 0
-53 -62 -713 0
53 62 -713 0
-53 62 713 0
53 -62 713 0
-71 -80 -715 0
71 80 -715 0
-71 80 715 0
71 -80 715 0
-600 -602 -717 0
600 602 -717 0
-600 602 717 0
600 -602 717 0
-604 -606 -719 0
604 606 -719 0
-604 606 719 0
604 -606 719 0
-616 -618 -722 0
616 618 -722 0
-616 618 722 0
616 -618 722 0
-620 -622 -723 0
620 622 -723 0
-620 622 723 0
620 -622 723 0
-624 -626 -725 0
624 626 -725 0
-624 626 725 0
624 -626 725 0
-632 -634 -729 0
632 634 -729 0
-632 634 729 0
632 -634 729 0
-636 -638 -731 0
636 638 -731 0
-636 638 731 0
636 -638 731 0
-640 -642 -733 0
640 642 -733 0
-640 642 733 0
640 -642 733 0
-644 -646 -735 0
644 646 -735 0
-644 646 735 0
644 -646 735 0
-648 -650 -737 0
648 650 -737 0
-648 650 737 0
648 -650 737 0
-654 -656 -739 0
654 656 -739 0
-654 656 739 0
654 -656 739 0
-658 -660 -741 0
658 660 -741 0
-658 660 741 0
658 -660 741 0
-662 -664 -743 0
662 664 -743 0
-662 664 743 0
662 -664 743 0
-666 -668 -745 0
666 668 -745 0
-666 668 745 0
666 -668 745 0
-670 -672 -747 0
670 672 -747 0
-670 672 747 0
670 -672 747 0
-674 -676 -749 0
674 676 -749 0
-674 676 749 0
674 -676 749 0
-678 -680 -751 0
678 680 -751 0
-678 680 751 0
678 -680 751 0
-682 -684 -753 0
682 684 -753 0
-682 684 753 0
682 -684 753 0
-686 -688 -755 0
686 688 -755 0
-686 688 755 0
686 -688 755 0
-690 -692 -757 0
690 692 -757 0
-690 692 757 0
690 -692 757 0
-694 -696 -759 0
694 696 -759 0
-694 696 759 0
694 -696 759 0
-698 -700 -761 0
698 700 -761 0
-698 700 761 0
698 -700 761 0
-702 -704 -763 0
702 704 -763 0
-702 704 763 0
702 -704 763 0
-706 -708 -765 0
706 708 -765 0
-706 708 765 0
706 -708 765 0
-710 -712 -767 0
710 712 -767 0
-710 712 767 0
710 -712 767 0
-713 -715 -769 0
713 715 -769 0
-713 715 769 0
713 -715 769 0
-717 -719 -771 0
717 719 -771 0
-717 719 771 0
717 -719 771 0
-722 -723 -773 0
722 723 -773 0
-722 723 773 0
722 -723 773 0
-725 -727 -775 0
725 727 -775 0
-725 727 775 0
725 -727 775 0
-728 -729 -777 0
728 729 -777 0
-728 729 777 0
728 -729 777 0
-731 -733 -779 0
731 733 -779 0
-731 733 779 0
731 -733 779 0
-735 -737 -781 0
735 737 -781 0
-735 737 781 0
735 -737 781 0
-738 -739 -783 0
738 739 -783 0
-738 739 783 0
738 -739 783 0
-741 -743 -785 0
741 743 -785 0
-741 743 785 0
741 -743 785 0
-745 -747 -787 0
745 747 -787 0
-745 747 787 0
745 -747 787 0
-749 -751 -789 0
749 751 -789 0
-749 751 789 0
749 -751 789 0
-753 -755 -791 0
753 755 -791 0
-753 755 791 0
753 -755 791 0
-757 -759 -793 0
757 759 -793 0
-757 759 793 0
757 -759 793 0
-761 -763 -795 0
761 763 -795 0
-761 763 795 0
761 -763 795 0
-765 -767 -797 0
765 767 -797 0
-765 767 797 0
765 -767 797 0
-768 -769 -799 0
768 769 -799 0
-768 769 799 0
768 -769 799 0
-720 -771 -801 0
720 771 -801 0
720 -771 801 0
-720 771 801 0
-721 -773 -803 0
721 773 -803 0
-721 773 803 0
721 -773 803 0
-775 -777 -805 0
775 777 -805 0
-775 777 805 0
775 -777 805 0
-779 -781 -807 0
779 781 -807 0
-779 781 807 0
779 -781 807 0
-783 -785 -809 0
783 785 -809 0
-783 785 809 0
783 -785 809 0
-787 -789 -811 0
787 789 -811 0
-787 789 811 0
787 -789 811 0
-791 -793 -813 0
791 793 -813 0
-791 793 813 0
791 -793 813 0
-795 -797 -815 0
795 797 -815 0
-795 797 815 0
795 -797 815 0
-799 -801 -817 0
799 801 -817 0
-799 801 817 0
799 -801 817 0
-803 -805 -819 0
803 805 -819 0
-803 805 819 0
803 -805 819 0
-807 -809 -821 0
807 809 -821 0
-807 809 821 0
807 -809 821 0
-811 -813 -823 0
811 813 -823 0
-811 813 823 0
811 -813 823 0
-815 -817 -825 0
815 817 -825 0
-815 817 825 0
815 -817 825 0
-819 -821 -827 0
819 821 -827 0
-819 821 827 0
819 -821 827 0
-823 -825 -827 0
823 825 -827 0
-823 825 827 0
823 -825 827 0
-63 -72 -830 0
63 72 -830 0
-63 72 830 0
63 -72 830 0
-81 -714 -832 0
81 714 -832 0
-81 714 832 0
81 -714 832 0
-716 -718 -834 0
716 718 -834 0
-716 718 834 0
716 -718 834 0
-724 -726 -889 0
724 726 -889 0
-724 726 889 0
724 -726 889 0
-730 -732 -837 0
730 732 -837 0
-730 732 837 0
730 -732 837 0
-734 -736 -839 0
734 736 -839 0
-734 736 839 0
734 -736 839 0
-740 -742 -842 0
740 742 -842 0
-740 742 842 0
740 -742 842 0
-744 -746 -843 0
744 746 -843 0
-744 746 843 0
744 -746 843 0
-748 -750 -845 0
748 750 -845 0
-748 750 845 0
748 -750 845 0
-752 -754 -847 0
752 754 -847 0
-752 754 847 0
752 -754 847 0
-756 -758 -849 0
756 758 -849 0
-756 758 849 0
756 -758 849 0
-760 -762 -851 0
760 762 -851 0
-760 762 851 0
760 -762 851 0
-764 -766 -853 0
764 766 -853 0
-764 766 853 0
764 -766 853 0
-770 -772 -856 0
770 772 -856 0
-770 772 856 0
770 -772 856 0
-774 -776 -902 0
774 776 -902 0
-774 776 902 0
774 -776 902 0
-778 -780 -857 0
778 780 -857 0
-778 780 857 0
778 -780 857 0
-782 -784 -859 0
782 784 -859 0
-782 784 859 0
782 -784 859 0
-786 -788 -861 0
786 788 -861 0
-786 788 861 0
786 -788 861 0
-790 -792 -863 0
790 792 -863 0
-790 792 863 0
790 -792 863 0
-794 -796 -865 0
794 796 -865 0
-794 796 865 0
794 -796 865 0
-798 -800 -867 0
798 800 -867 0
-798 800 867 0
798 -800 867 0
-802 -804 -869 0
802 804 -869 0
-802 804 869 0
802 -804 869 0
-806 -808 -871 0
806 808 -871 0
-806 808 871 0
806 -808 871 0
-810 -812 -873 0
810 812 -873 0
-810 812 873 0
810 -812 873 0
-814 -816 -875 0
814 816 -875 0
-814 816 875 0
814 -816 875 0
-818 -820 -877 0
818 820 -877 0
-818 820 877 0
818 -820 877 0
-822 -824 -879 0
822 824 -879 0
-822 824 879 0
822 -824 879 0
-826 -828 -881 0
826 828 -881 0
-826 828 881 0
826 -828 881 0
-827 -829 -883 0
827 829 -883 0
827 -829 883 0
-827 829 883 0
-830 -832 -885 0
830 832 -885 0
-830 832 885 0
830 -832 885 0
-834 -835 -887 0
834 835 -887 0
-834 835 887 0
834 -835 887 0
-837 -839 -890 0
837 839 -890 0
-837 839 890 0
837 -839 890 0
-841 -842 -892 0
841 842 -892 0
-841 842 892 0
841 -842 892 0
-843 -845 -894 0
843 845 -894 0
-843 845 894 0
843 -845 894 0
-847 -849 -896 0
847 849 -896 0
-847 849 896 0
847 -849 896 0
-851 -853 -898 0
851 853 -898 0
-851 853 898 0
851 -853 898 0
-855 -856 -900 0
855 856 -900 0
-855 856 900 0
855 -856 900 0
-857 -859 -903 0
857 859 -903 0
-857 859 903 0
857 -859 903 0
-861 -863 -904 0
861 863 -904 0
-861 863 904 0
861 -863 904 0
-865 -867 -906 0
865 867 -906 0
-865 867 906 0
865 -867 906 0
-869 -871 -908 0
869 871 -908 0
-869 871 908 0
869 -871 908 0
-873 -875 -910 0
873 875 -910 0
-873 875 910 0
873 -875 910 0
-877 -879 -912 0
877 879 -912 0
-877 879 912 0
877 -879 912 0
-881 -883 -914 0
881 883 -914 0
-881 883 914 0
881 -883 914 0
-885 -887 -916 0
885 887 -916 0
-885 887 916 0
885 -887 916 0
-836 -889 -918 0
836 889 -918 0
-836 889 918 0
836 -889 918 0
-890 -892 -920 0
890 892 -920 0
-890 892 920 0
890 -892 920 0
-894 -896 -922 0
894 896 -922 0
-894 896 922 0
894 -896 922 0
-898 -900 -924 0
898 900 -924 0
-898 900 924 0
898 -900 924 0
-902 -903 -926 0
902 903 -926 0
-902 903 926 0
902 -903 926 0
-904 -906 -928 0
904 906 -928 0
-904 906 928 0
904 -906 928 0
-908 -910 -930 0
908 910 -930 0
-908 910 930 0
908 -910 930 0
-912 -914 -932 0
912 914 -932 0
-912 914 932 0
912 -914 932 0
-916 -918 -934 0
916 918 -934 0
-916 918 934 0
916 -918 934 0
-920 -922 -936 0
920 922 -936 0
-920 922 936 0
920 -922 936 0
-924 -926 -938 0
924 926 -938 0
-924 926 938 0
924 -926 938 0
-928 -930 -940 0
928 930 -940 0
-928 930 940 0
928 -930 940 0
-932 -934 -942 0
932 934 -942 0
-932 934 942 0
932 -934 942 0
-936 -938 -944 0
936 938 -944 0
-936 938 944 0
936 -938 944 0
-940 -942 -944 0
940 942 -944 0
-940 942 944 0
940 -942 944 0
-73 -82 -947 0
73 82 -947 0
-73 82 947 0
73 -82 947 0
-831 -833 -949 0
831 833 -949 0
-831 833 949 0
831 -833 949 0
-838 -840 -952 0
838 840 -952 0
-838 840 952 0
838 -840 952 0
-844 -846 -954 0
844 846 -954 0
-844 846 954 0
844 -846 954 0
-848 -850 -956 0
848 850 -956 0
-848 850 956 0
848 -850 956 0
-852 -854 -958 0
852 854 -958 0
-852 854 958 0
852 -854 958 0
-858 -860 -961 0
858 860 -961 0
-858 860 961 0
858 -860 961 0
-862 -864 -962 0
862 864 -962 0
-862 864 962 0
862 -864 962 0
-866 -868 -964 0
866 868 -964 0
-866 868 964 0
866 -868 964 0
-870 -872 -966 0
870 872 -966 0
-870 872 966 0
870 -872 966 0
-874 -876 -968 0
874 876 -968 0
-874 876 968 0
874 -876 968 0
-878 -880 -970 0
878 880 -970 0
-878 880 970 0
878 -880 970 0
-882 -884 -972 0
882 884 -972 0
-882 884 972 0
882 -884 972 0
-886 -888 -1018 0
886 888 -1018 0
-886 888 1018 0
886 -888 1018 0
-891 -893 -974 0
891 893 -974 0
-891 893 974 0
891 -893 974 0
-895 -897 -976 0
895 897 -976 0
-895 897 976 0
895 -897 976 0
-899 -901 -978 0
899 901 -978 0
-899 901 978 0
899 -901 978 0
-905 -907 -980 0
905 907 -980 0
-905 907 980 0
905 -907 980 0
-909 -911 -982 0
909 911 -982 0
-909 911 982 0
909 -911 982 0
-913 -915 -984 0
913 915 -984 0
-913 915 984 0
913 -915 984 0
-917 -919 -986 0
917 919 -986 0
-917 919 986 0
917 -919 986 0
-921 -923 -988 0
921 923 -988 0
-921 923 988 0
921 -923 988 0
-925 -927 -990 0
925 927 -990 0
-925 927 990 0
925 -927 990 0
-929 -931 -992 0
929 931 -992 0
-929 931 992 0
929 -931 992 0
-933 -935 -994 0
933 935 -994 0
-933 935 994 0
933 -935 994 0
-937 -939 -996 0
937 939 -996 0
-937 939 996 0
937 -939 996 0
-941 -943 -998 0
941 943 -998 0
-941 943 998 0
941 -943 998 0
-945 -946 -1000 0
945 946 -1000 0
-945 946 1000 0
945 -946 1000 0
-944 -947 -1002 0
944 947 -1002 0
-944 947 1002 0
944 -947 1002 0
-949 -950 -1004 0
949 950 -1004 0
-949 950 1004 0
949 -950 1004 0
-952 -953 -1005 0
952 953 -1005 0
-952 953 1005 0
952 -953 1005 0
-954 -956 -1007 0
954 956 -1007 0
-954 956 1007 0
954 -956 1007 0
-958 -959 -1009 0
958 959 -1009 0
-958 959 1009 0
958 -959 1009 0
-960 -961 -1011 0
960 961 -1011 0
-960 961 1011 0
960 -961 1011 0
-962 -964 -1013 0
962 964 -1013 0
-962 964 1013 0
962 -964 1013 0
-966 -968 -1015 0
966 968 -1015 0
-966 968 1015 0
966 -968 1015 0
-970 -972 -1017 0
970 972 -1017 0
-970 972 1017 0
970 -972 1017 0
-974 -976 -1019 0
974 976 -1019 0
-974 976 1019 0
974 -976 1019 0
-978 -979 -1021 0
978 979 -1021 0
-978 979 1021 0
978 -979 1021 0
-980 -982 -1023 0
980 982 -1023 0
-980 982 1023 0
980 -982 1023 0
-984 -986 -1025 0
984 986 -1025 0
-984 986 1025 0
984 -986 1025 0
-988 -990 -1027 0
988 990 -1027 0
-988 990 1027 0
988 -990 1027 0
-992 -994 -1029 0
992 994 -1029 0
-992 994 1029 0
992 -994 1029 0
-996 -998 -1031 0
996 998 -1031 0
-996 998 1031 0
996 -998 1031 0
-1000 -1002 -1033 0
1000 1002 -1033 0
-1000 1002 1033 0
1000 -1002 1033 0
-951 -1004 -1035 0
951 1004 -1035 0
951 -1004 1035 0
-951 1004 1035 0
-1005 -1007 -1037 0
1005 1007 -1037 0
-1005 1007 1037 0
1005 -1007 1037 0
-1009 -1011 -1039 0
1009 1011 -1039 0
-1009 1011 1039 0
1009 -1011 1039 0
-1013 -1015 -1041 0
1013 1015 -1041 0
-1013 1015 1041 0
1013 -1015 1041 0
-1017 -1018 -1043 0
1017 1018 -1043 0
-1017 1018 1043 0
1017 -1018 1043 0
-1019 -1021 -1045 0
1019 1021 -1045 0
-1019 1021 1045 0
1019 -1021 1045 0
-1023 -1025 -1047 0
1023 1025 -1047 0
-1023 1025 1047 0
1023 -1025 1047 0
-1027 -1029 -1049 0
1027 1029 -1049 0
-1027 1029 1049 0
1027 -1029 1049 0
-1031 -1033 -1051 0
1031 1033 -1051 0
-1031 1033 1051 0
1031 -1033 1051 0
-1035 -1037 -1053 0
1035 1037 -1053 0
-1035 1037 1053 0
1035 -1037 1053 0
-1039 -1041 -1055 0
1039 1041 -1055 0
-1039 1041 1055 0
1039 -1041 1055 0
-1043 -1045 -1057 0
1043 1045 -1057 0
-1043 1045 1057 0
1043 -1045 1057 0
-1047 -1049 -1059 0
1047 1049 -1059 0
-1047 1049 1059 0
1047 -1049 1059 0
-1051 -1053 -1061 0
1051 1053 -1061 0
-1051 1053 1061 0
1051 -1053 1061 0
-1055 -1057 -1063 0
1055 1057 -1063 0
-1055 1057 1063 0
1055 -1057 1063 0
-1059 -1061 1063 0
1059 1061 1063 0
-1059 1061 -1063 0
1059 -1061 -1063 0
-83 -948 -1120 0
83 948 -1120 0
-83 948 1120 0
83 -948 1120 0
-955 -957 -1068 0
955 957 -1068 0
-955 957 1068 0
955 -957 1068 0
-963 -965 -1071 0
963 965 -1071 0
-963 965 1071 0
963 -965 1071 0
-967 -969 -1072 0
967 969 -1072 0
-967 969 1072 0
967 -969 1072 0
-971 -973 -1074 0
971 973 -1074 0
-971 973 1074 0
971 -973 1074 0
-975 -977 -1077 0
975 977 -1077 0
-975 977 1077 0
975 -977 1077 0
-981 -983 -1079 0
981 983 -1079 0
-981 983 1079 0
981 -983 1079 0
-985 -987 -1080 0
985 987 -1080 0
-985 987 1080 0
985 -987 1080 0
-989 -991 -1082 0
989 991 -1082 0
-989 991 1082 0
989 -991 1082 0
-993 -995 -1084 0
993 995 -1084 0
-993 995 1084 0
993 -995 1084 0
-997 -999 -1086 0
997 999 -1086 0
-997 999 1086 0
997 -999 1086 0
-1001 -1003 -1088 0
1001 1003 -1088 0
-1001 1003 1088 0
1001 -1003 1088 0
-1006 -1008 -1090 0
1006 1008 -1090 0
-1006 1008 1090 0
1006 -1008 1090 0
-1010 -1012 -1092 0
1010 1012 -1092 0
-1010 1012 1092 0
1010 -1012 1092 0
-1014 -1016 -1094 0
1014 1016 -1094 0
-1014 1016 1094 0
1014 -1016 1094 0
-1020 -1022 -1096 0
1020 1022 -1096 0
-1020 1022 1096 0
1020 -1022 1096 0
-1024 -1026 -1098 0
1024 1026 -1098 0
-1024 1026 1098 0
1024 -1026 1098 0
-1028 -1030 -1100 0
1028 1030 -1100 0
-1028 1030 1100 0
1028 -1030 1100 0
-1032 -1034 -1102 0
1032 1034 -1102 0
-1032 1034 1102 0
1032 -1034 1102 0
-1036 -1038 -1104 0
1036 1038 -1104 0
-1036 1038 1104 0
1036 -1038 1104 0
-1040 -1042 -1106 0
1040 1042 -1106 0
-1040 1042 1106 0
1040 -1042 1106 0
-1044 -1046 -1108 0
1044 1046 -1108 0
-1044 1046 1108 0
1044 -1046 1108 0
-1048 -1050 -1110 0
1048 1050 -1110 0
-1048 1050 1110 0
1048 -1050 1110 0
-1052 -1054 -1112 0
1052 1054 -1112 0
-1052 1054 1112 0
1052 -1054 1112 0
-1056 -1058 -1114 0
1056 1058 -1114 0
-1056 1058 1114 0
1056 -1058 1114 0
-1060 -1062 -1116 0
1060 1062 -1116 0
-1060 1062 1116 0
1060 -1062 1116 0
-1064 -1065 -1118 0
1064 1065 -1118 0
-1064 1065 1118 0
1064 -1065 1118 0
-1067 -1068 -1121 0
1067 1068 -1121 0
-1067 1068 1121 0
1067 -1068 1121 0
-1069 -1070 -1123 0
1069 1070 -1123 0
-1069 1070 1123 0
1069 -1070 1123 0
-1071 -1072 -1125 0
1071 1072 -1125 0
-1071 1072 1125 0
1071 -1072 1125 0
-1074 -1076 -1127 0
1074 1076 -1127 0
-1074 1076 1127 0
1074 -1076 1127 0
-1077 -1078 -1129 0
1077 1078 -1129 0
-1077 1078 1129 0
1077 -1078 1129 0
-1079 -1080 -1131 0
1079 1080 -1131 0
-1079 1080 1131 0
1079 -1080 1131 0
-1082 -1084 -1133 0
1082 1084 -1133 0
-1082 1084 1133 0
1082 -1084 1133 0
-1086 -1088 -1135 0
1086 1088 -1135 0
-1086 1088 1135 0
1086 -1088 1135 0
-1089 -1090 -1137 0
1089 1090 -1137 0
-1089 1090 1137 0
1089 -1090 1137 0
-1092 -1094 -1139 0
1092 1094 -1139 0
-1092 1094 1139 0
1092 -1094 1139 0
-1095 -1096 -1141 0
1095 1096 -1141 0
-1095 1096 1141 0
1095 -1096 1141 0
-1098 -1100 -1143 0
1098 1100 -1143 0
-1098 1100 1143 0
1098 -1100 1143 0
-1102 -1104 -1145 0
1102 1104 -1145 0
-1102 1104 1145 0
1102 -1104 1145 0
-1106 -1108 -1147 0
1106 1108 -1147 0
-1106 1108 1147 0
1106 -1108 1147 0
-1110 -1112 -1149 0
1110 1112 -1149 0
-1110 1112 1149 0
1110 -1112 1149 0
-1114 -1116 -1151 0
1114 1116 -1151 0
-1114 1116 1151 0
1114 -1116 1151 0
-1118 -1120 -1153 0
1118 1120 -1153 0
-1118 1120 1153 0
1118 -1120 1153 0
-1066 -1121 -1155 0
1066 1121 -1155 0
-1066 1121 1155 0
1066 -1121 1155 0
-1123 -1125 -1157 0
1123 1125 -1157 0
-1123 1125 1157 0
1123 -1125 1157 0
-1127 -1129 -1159 0
1127 1129 -1159 0
-1127 1129 1159 0
1127 -1129 1159 0
-1131 -1133 -1161 0
1131 1133 -1161 0
-1131 1133 1161 0
1131 -1133 1161 0
-1135 -1137 -1163 0
1135 1137 -1163 0
-1135 1137 1163 0
1135 -1137 1163 0
-1139 -1141 -1165 0
1139 1141 -1165 0
-1139 1141 1165 0
1139 -1141 1165 0
-1143 -1145 -1167 0
1143 1145 -1167 0
-1143 1145 1167 0
1143 -1145 1167 0
-1147 -1149 -1169 0
1147 1149 -1169 0
-1147 1149 1169 0
1147 -1149 1169 0
-1151 -1153 -1171 0
1151 1153 -1171 0
-1151 1153 1171 0
1151 -1153 1171 0
-1155 -1157 -1173 0
1155 1157 -1173 0
-1155 1157 1173 0
1155 -1157 1173 0
-1159 -1161 -1175 0
1159 1161 -1175 0
-1159 1161 1175 0
1159 -1161 1175 0
-1163 -1165 -1177 0
1163 1165 -1177 0
-1163 1165 1177 0
1163 -1165 1177 0
-1167 -1169 -1179 0
1167 1169 -1179 0
-1167 1169 1179 0
1167 -1169 1179 0
-1171 -1173 -1181 0
1171 1173 -1181 0
-1171 1173 1181 0
1171 -1173 1181 0
-1175 -1177 -1183 0
1175 1177 -1183 0
-1175 1177 1183 0
1175 -1177 1183 0
-1179 -1181 -1183 0
1179 1181 -1183 0
-1179 1181 1183 0
1179 -1181 1183 0
-1073 -1075 -1189 0
1073 1075 -1189 0
-1073 1075 1189 0
1073 -1075 1189 0
-1081 -1083 -1192 0
1081 1083 -1192 0
-1081 1083 1192 0
1081 -1083 1192 0
-1085 -1087 -1193 0
1085 1087 -1193 0
-1085 1087 1193 0
1085 -1087 1193 0
-1091 -1093 -1195 0
1091 1093 -1195 0
-1091 1093 1195 0
1091 -1093 1195 0
-1097 -1099 -1197 0
1097 1099 -1197 0
-1097 1099 1197 0
1097 -1099 1197 0
-1101 -1103 -1199 0
1101 1103 -1199 0
-1101 1103 1199 0
1101 -1103 1199 0
-1105 -1107 -1201 0
1105 1107 -1201 0
-1105 1107 1201 0
1105 -1107 1201 0
-1109 -1111 -1203 0
1109 1111 -1203 0
-1109 1111 1203 0
1109 -1111 1203 0
-1113 -1115 -1205 0
1113 1115 -1205 0
-1113 1115 1205 0
1113 -1115 1205 0
-1117 -1119 -1207 0
1117 1119 -1207 0
-1117 1119 1207 0
1117 -1119 1207 0
-1122 -1124 -1255 0
1122 1124 -1255 0
-1122 1124 1255 0
1122 -1124 1255 0
-1126 -1128 -1209 0
1126 1128 -1209 0
-1126 1128 1209 0
1126 -1128 1209 0
-1130 -1132 -1211 0
1130 1132 -1211 0
-1130 1132 1211 0
1130 -1132 1211 0
-1134 -1136 -1213 0
1134 1136 -1213 0
-1134 1136 1213 0
1134 -1136 1213 0
-1138 -1140 -1215 0
1138 1140 -1215 0
-1138 1140 1215 0
1138 -1140 1215 0
-1142 -1144 -1217 0
1142 1144 -1217 0
-1142 1144 1217 0
1142 -1144 1217 0
-1146 -1148 -1219 0
1146 1148 -1219 0
-1146 1148 1219 0
1146 -1148 1219 0
-1150 -1152 -1221 0
1150 1152 -1221 0
-1150 1152 1221 0
1150 -1152 1221 0
-1154 -1156 -1223 0
1154 1156 -1223 0
-1154 1156 1223 0
1154 -1156 1223 0
-1158 -1160 -1225 0
1158 1160 -1225 0
-1158 1160 1225 0
1158 -1160 1225 0
-1162 -1164 -1227 0
1162 1164 -1227 0
-1162 1164 1227 0
1162 -1164 1227 0
-1166 -1168 -1229 0
1166 1168 -1229 0
-1166 1168 1229 0
1166 -1168 1229 0
-1170 -1172 -1231 0
1170 1172 -1231 0
-1170 1172 1231 0
1170 -1172 1231 0
-1174 -1176 -1233 0
1174 1176 -1233 0
-1174 1176 1233 0
1174 -1176 1233 0
-1178 -1180 -1235 0
1178 1180 -1235 0
-1178 1180 1235 0
1178 -1180 1235 0
-1182 -1184 -1237 0
1182 1184 -1237 0
-1182 1184 1237 0
1182 -1184 1237 0
-1183 -1185 -1239 0
1183 1185 -1239 0
1183 -1185 1239 0
-1183 1185 1239 0
-1187 -1188 -1241 0
1187 1188 -1241 0
-1187 1188 1241 0
1187 -1188 1241 0
-1189 -1190 -1242 0
1189 1190 -1242 0
-1189 1190 1242 0
1189 -1190 1242 0
-1191 -1192 -1244 0
1191 1192 -1244 0
-1191 1192 1244 0
1191 -1192 1244 0
-1193 -1194 -1246 0
1193 1194 -1246 0
-1193 1194 1246 0
1193 -1194 1246 0
-1195 -1196 -1248 0
1195 1196 -1248 0
-1195 1196 1248 0
1195 -1196 1248 0
-1197 -1199 -1250 0
1197 1199 -1250 0
-1197 1199 1250 0
1197 -1199 1250 0
-1201 -1203 -1252 0
1201 1203 -1252 0
-1201 1203 1252 0
1201 -1203 1252 0
-1205 -1207 -1254 0
1205 1207 -1254 0
-1205 1207 1254 0
1205 -1207 1254 0
-1209 -1211 -1256 0
1209 1211 -1256 0
-1209 1211 1256 0
1209 -1211 1256 0
-1213 -1215 -1258 0
1213 1215 -1258 0
-1213 1215 1258 0
1213 -1215 1258 0
-1217 -1219 -1260 0
1217 1219 -1260 0
-1217 1219 1260 0
1217 -1219 1260 0
-1221 -1223 -1262 0
1221 1223 -1262 0
-1221 1223 1262 0
1221 -1223 1262 0
-1225 -1227 -1264 0
1225 1227 -1264 0
-1225 1227 1264 0
1225 -1227 1264 0
-1229 -1231 -1266 0
1229 1231 -1266 0
-1229 1231 1266 0
1229 -1231 1266 0
-1233 -1235 -1268 0
1233 1235 -1268 0
-1233 1235 1268 0
1233 -1235 1268 0
-1237 -1239 -1270 0
1237 1239 -1270 0
-1237 1239 1270 0
1237 -1239 1270 0
-1186 -1241 -1272 0
1186 1241 -1272 0
-1186 1241 1272 0
1186 -1241 1272 0
-1242 -1244 -1274 0
1242 1244 -1274 0
-1242 1244 1274 0
1242 -1244 1274 0
-1246 -1248 -1276 0
1246 1248 -1276 0
-1246 1248 1276 0
1246 -1248 1276 0
-1250 -1252 -1278 0
1250 1252 -1278 0
-1250 1252 1278 0
1250 -1252 1278 0
-1254 -1255 -1280 0
1254 1255 -1280 0
-1254 1255 1280 0
1254 -1255 1280 0
-1256 -1258 -1282 0
1256 1258 -1282 0
-1256 1258 1282 0
1256 -1258 1282 0
-1260 -1262 -1284 0
1260 1262 -1284 0
-1260 1262 1284 0
1260 -1262 1284 0
-1264 -1266 -1286 0
1264 1266 -1286 0
-1264 1266 1286 0
1264 -1266 1286 0
-1268 -1270 -1288 0
1268 1270 -1288 0
-1268 1270 1288 0
1268 -1270 1288 0
-1272 -1274 -1290 0
1272 1274 -1290 0
-1272 1274 1290 0
1272 -1274 1290 0
-1276 -1278 -1292 0
1276 1278 -1292 0
-1276 1278 1292 0
1276 -1278 1292 0
-1280 -1282 -1294 0
1280 1282 -1294 0
-1280 1282 1294 0
1280 -1282 1294 0
-1284 -1286 -1296 0
1284 1286 -1296 0
-1284 1286 1296 0
1284 -1286 1296 0
-1288 -1290 -1298 0
1288 1290 -1298 0
-1288 1290 1298 0
1288 -1290 1298 0
-1292 -1294 -1300 0
1292 1294 -1300 0
-1292 1294 1300 0
1292 -1294 1300 0
-1296 -1298 1300 0
1296 1298 1300 0
-1296 1298 -1300 0
1296 -1298 -1300 0
-1198 -1200 -1306 0
1198 1200 -1306 0
-1198 1200 1306 0
1198 -1200 1306 0
-1202 -1204 -1308 0
1202 1204 -1308 0
-1202 1204 1308 0
1202 -1204 1308 0
-1206 -1208 -1310 0
1206 1208 -1310 0
-1206 1208 1310 0
1206 -1208 1310 0
-1210 -1212 -1312 0
1210 1212 -1312 0
-1210 1212 1312 0
1210 -1212 1312 0
-1214 -1216 -1314 0
1214 1216 -1314 0
-1214 1216 1314 0
1214 -1216 1314 0
-1218 -1220 -1316 0
1218 1220 -1316 0
-1218 1220 1316 0
1218 -1220 1316 0
-1222 -1224 -1318 0
1222 1224 -1318 0
-1222 1224 1318 0
1222 -1224 1318 0
-1226 -1228 -1320 0
1226 1228 -1320 0
-1226 1228 1320 0
1226 -1228 1320 0
-1230 -1232 -1322 0
1230 1232 -1322 0
-1230 1232 1322 0
1230 -1232 1322 0
-1234 -1236 -1324 0
1234 1236 -1324 0
-1234 1236 1324 0
1234 -1236 1324 0
-1238 -1240 -1326 0
1238 1240 -1326 0
-1238 1240 1326 0
1238 -1240 1326 0
-1243 -1245 -1329 0
1243 1245 -1329 0
-1243 1245 1329 0
1243 -1245 1329 0
-1247 -1249 -1330 0
1247 1249 -1330 0
-1247 1249 1330 0
1247 -1249 1330 0
-1251 -1253 -1332 0
1251 1253 -1332 0
-1251 1253 1332 0
1251 -1253 1332 0
-1257 -1259 -1335 0
1257 1259 -1335 0
-1257 1259 1335 0
1257 -1259 1335 0
-1261 -1263 -1336 0
1261 1263 -1336 0
-1261 1263 1336 0
1261 -1263 1336 0
-1265 -1267 -1338 0
1265 1267 -1338 0
-1265 1267 1338 0
1265 -1267 1338 0
-1269 -1271 -1340 0
1269 1271 -1340 0
-1269 1271 1340 0
1269 -1271 1340 0
-1273 -1275 -1342 0
1273 1275 -1342 0
-1273 1275 1342 0
1273 -1275 1342 0
-1277 -1279 -1344 0
1277 1279 -1344 0
-1277 1279 1344 0
1277 -1279 1344 0
-1281 -1283 -1346 0
1281 1283 -1346 0
-1281 1283 1346 0
1281 -1283 1346 0
-1285 -1287 -1348 0
1285 1287 -1348 0
-1285 1287 1348 0
1285 -1287 1348 0
-1289 -1291 -1350 0
1289 1291 -1350 0
-1289 1291 1350 0
1289 -1291 1350 0
-1293 -1295 -1352 0
1293 1295 -1352 0
-1293 1295 1352 0
1293 -1295 1352 0
-1297 -1299 -1354 0
1297 1299 -1354 0
-1297 1299 1354 0
1297 -1299 1354 0
-1301 -1302 -1356 0
1301 1302 -1356 0
-1301 1302 1356 0
1301 -1302 1356 0
-1303 -1304 -1357 0
1303 1304 -1357 0
-1303 1304 1357 0
1303 -1304 1357 0
-1305 -1306 -1358 0
1305 1306 -1358 0
-1305 1306 1358 0
1305 -1306 1358 0
-1308 -1310 -1360 0
1308 1310 -1360 0
-1308 1310 1360 0
1308 -1310 1360 0
-1311 -1312 -1362 0
1311 1312 -1362 0
-1311 1312 1362 0
1311 -1312 1362 0
-1314 -1316 -1364 0
1314 1316 -1364 0
-1314 1316 1364 0
1314 -1316 1364 0
-1318 -1320 -1366 0
1318 1320 -1366 0
-1318 1320 1366 0
1318 -1320 1366 0
-1322 -1324 -1368 0
1322 1324 -1368 0
-1322 1324 1368 0
1322 -1324 1368 0
-1326 -1328 -1370 0
1326 1328 -1370 0
-1326 1328 1370 0
1326 -1328 1370 0
-1329 -1330 -1372 0
1329 1330 -1372 0
-1329 1330 1372 0
1329 -1330 1372 0
-1332 -1334 -1374 0
1332 1334 -1374 0
-1332 1334 1374 0
1332 -1334 1374 0
-1335 -1336 -1376 0
1335 1336 -1376 0
-1335 1336 1376 0
1335 -1336 1376 0
-1338 -1340 -1378 0
1338 1340 -1378 0
-1338 1340 1378 0
1338 -1340 1378 0
-1342 -1344 -1380 0
1342 1344 -1380 0
-1342 1344 1380 0
1342 -1344 1380 0
-1346 -1348 -1382 0
1346 1348 -1382 0
-1346 1348 1382 0
1346 -1348 1382 0
-1350 -1352 -1384 0
1350 1352 -1384 0
-1350 1352 1384 0
1350 -1352 1384 0
-1354 -1356 -1386 0
1354 1356 -1386 0
-1354 1356 1386 0
1354 -1356 1386 0
-1357 -1358 -1388 0
1357 1358 -1388 0
-1357 1358 1388 0
1357 -1358 1388 0
-1360 -1362 -1390 0
1360 1362 -1390 0
-1360 1362 1390 0
1360 -1362 1390 0
-1364 -1366 -1392 0
1364 1366 -1392 0
-1364 1366 1392 0
1364 -1366 1392 0
-1368 -1370 -1394 0
1368 1370 -1394 0
-1368 1370 1394 0
1368 -1370 1394 0
-1372 -1374 -1396 0
1372 1374 -1396 0
-1372 1374 1396 0
1372 -1374 1396 0
-1376 -1378 -1398 0
1376 1378 -1398 0
-1376 1378 1398 0
1376 -1378 1398 0
-1380 -1382 -1400 0
1380 1382 -1400 0
-1380 1382 1400 0
1380 -1382 1400 0
-1384 -1386 -1402 0
1384 1386 -1402 0
-1384 1386 1402 0
1384 -1386 1402 0
-1387 -1388 -1404 0
1387 1388 -1404 0
-1387 1388 1404 0
1387 -1388 1404 0
-1390 -1392 -1406 0
1390 1392 -1406 0
-1390 1392 1406 0
1390 -1392 1406 0
-1394 -1396 -1408 0
1394 1396 -1408 0
-1394 1396 1408 0
1394 -1396 1408 0
-1398 -1400 -1410 0
1398 1400 -1410 0
-1398 1400 1410 0
1398 -1400 1410 0
-1402 -1404 -1412 0
1402 1404 -1412 0
-1402 1404 1412 0
1402 -1404 1412 0
-1406 -1408 -1414 0
1406 1408 -1414 0
-1406 1408 1414 0
1406 -1408 1414 0
-1410 -1412 -1414 0
1410 1412 -1414 0
-1410 1412 1414 0
1410 -1412 1414 0
-1307 -1309 -1465 0
1307 1309 -1465 0
-1307 1309 1465 0
1307 -1309 1465 0
-1313 -1315 -1418 0
1313 1315 -1418 0
-1313 1315 1418 0
1313 -1315 1418 0
-1317 -1319 -1419 0
1317 1319 -1419 0
-1317 1319 1419 0
1317 -1319 1419 0
-1321 -1323 -1421 0
1321 1323 -1421 0
-1321 1323 1421 0
1321 -1323 1421 0
-1325 -1327 -1423 0
1325 1327 -1423 0
-1325 1327 1423 0
1325 -1327 1423 0
-1331 -1333 -1425 0
1331 1333 -1425 0
-1331 1333 1425 0
1331 -1333 1425 0
-1337 -1339 -1427 0
1337 1339 -1427 0
-1337 1339 1427 0
1337 -1339 1427 0
-1341 -1343 -1429 0
1341 1343 -1429 0
-1341 1343 1429 0
1341 -1343 1429 0
-1345 -1347 -1431 0
1345 1347 -1431 0
-1345 1347 1431 0
1345 -1347 1431 0
-1349 -1351 -1433 0
1349 1351 -1433 0
-1349 1351 1433 0
1349 -1351 1433 0
-1353 -1355 -1435 0
1353 1355 -1435 0
-1353 1355 1435 0
1353 -1355 1435 0
-1359 -1361 -1438 0
1359 1361 -1438 0
-1359 1361 1438 0
1359 -1361 1438 0
-1363 -1365 -1439 0
1363 1365 -1439 0
-1363 1365 1439 0
1363 -1365 1439 0
-1367 -1369 -1441 0
1367 1369 -1441 0
-1367 1369 1441 0
1367 -1369 1441 0
-1371 -1373 -1443 0
1371 1373 -1443 0
-1371 1373 1443 0
1371 -1373 1443 0
-1375 -1377 -1445 0
1375 1377 -1445 0
-1375 1377 1445 0
1375 -1377 1445 0
-1379 -1381 -1447 0
1379 1381 -1447 0
-1379 1381 1447 0
1379 -1381 1447 0
-1383 -1385 -1449 0
1383 1385 -1449 0
-1383 1385 1449 0
1383 -1385 1449 0
-1389 -1391 -1452 0
1389 1391 -1452 0
-1389 1391 1452 0
1389 -1391 1452 0
-1393 -1395 -1453 0
1393 1395 -1453 0
-1393 1395 1453 0
1393 -1395 1453 0
-1397 -1399 -1455 0
1397 1399 -1455 0
-1397 1399 1455 0
1397 -1399 1455 0
-1401 -1403 -1457 0
1401 1403 -1457 0
-1401 1403 1457 0
1401 -1403 1457 0
-1405 -1407 -1459 0
1405 1407 -1459 0
-1405 1407 1459 0
1405 -1407 1459 0
-1409 -1411 -1461 0
1409 1411 -1461 0
-1409 1411 1461 0
1409 -1411 1461 0
-1413 -1415 -1463 0
1413 1415 -1463 0
-1413 1415 1463 0
1413 -1415 1463 0
-1414 -1416 -1495 0
1414 1416 -1495 0
1414 -1416 1495 0
-1414 1416 1495 0
-1417 -1418 -1466 0
1417 1418 -1466 0
-1417 1418 1466 0
1417 -1418 1466 0
-1419 -1421 -1467 0
1419 1421 -1467 0
-1419 1421 1467 0
1419 -1421 1467 0
-1423 -1424 -1469 0
1423 1424 -1469 0
-1423 1424 1469 0
1423 -1424 1469 0
-1425 -1426 -1471 0
1425 1426 -1471 0
-1425 1426 1471 0
1425 -1426 1471 0
-1427 -1429 -1473 0
1427 1429 -1473 0
-1427 1429 1473 0
1427 -1429 1473 0
-1431 -1433 -1475 0
1431 1433 -1475 0
-1431 1433 1475 0
1431 -1433 1475 0
-1435 -1436 -1477 0
1435 1436 -1477 0
-1435 1436 1477 0
1435 -1436 1477 0
-1437 -1438 -1479 0
1437 1438 -1479 0
-1437 1438 1479 0
1437 -1438 1479 0
-1439 -1441 -1481 0
1439 1441 -1481 0
-1439 1441 1481 0
1439 -1441 1481 0
-1443 -1445 -1483 0
1443 1445 -1483 0
-1443 1445 1483 0
1443 -1445 1483 0
-1447 -1449 -1485 0
1447 1449 -1485 0
-1447 1449 1485 0
1447 -1449 1485 0
-1451 -1452 -1487 0
1451 1452 -1487 0
-1451 1452 1487 0
1451 -1452 1487 0
-1453 -1455 -1489 0
1453 1455 -1489 0
-1453 1455 1489 0
1453 -1455 1489 0
-1457 -1459 -1491 0
1457 1459 -1491 0
-1457 1459 1491 0
1457 -1459 1491 0
-1461 -1463 -1493 0
1461 1463 -1493 0
-1461 1463 1493 0
1461 -1463 1493 0
-1465 -1466 -1496 0
1465 1466 -1496 0
-1465 1466 1496 0
1465 -1466 1496 0
-1467 -1469 -1497 0
1467 1469 -1497 0
-1467 1469 1497 0
1467 -1469 1497 0
-1471 -1473 -1499 0
1471 1473 -1499 0
-1471 1473 1499 0
1471 -1473 1499 0
-1475 -1477 -1501 0
1475 1477 -1501 0
-1475 1477 1501 0
1475 -1477 1501 0
-1479 -1481 -1503 0
1479 1481 -1503 0
-1479 1481 1503 0
1479 -1481 1503 0
-1483 -1485 -1505 0
1483 1485 -1505 0
-1483 1485 1505 0
1483 -1485 1505 0
-1487 -1489 -1507 0
1487 1489 -1507 0
-1487 1489 1507 0
1487 -1489 1507 0
-1491 -1493 -1509 0
1491 1493 -1509 0
-1491 1493 1509 0
1491 -1493 1509 0
-1495 -1496 -1511 0
1495 1496 -1511 0
-1495 1496 1511 0
1495 -1496 1511 0
-1497 -1499 -1513 0
1497 1499 -1513 0
-1497 1499 1513 0
1497 -1499 1513 0
-1501 -1503 -1515 0
1501 1503 -1515 0
-1501 1503 1515 0
1501 -1503 1515 0
-1505 -1507 -1517 0
1505 1507 -1517 0
-1505 1507 1517 0
1505 -1507 1517 0
-1509 -1511 -1519 0
1509 1511 -1519 0
-1509 1511 1519 0
1509 -1511 1519 0
-1513 -1515 -1521 0
1513 1515 -1521 0
-1513 1515 1521 0
1513 -1515 1521 0
-1517 -1519 -1521 0
1517 1519 -1521 0
-1517 1519 1521 0
1517 -1519 1521 0
-1420 -1422 -1526 0
1420 1422 -1526 0
-1420 1422 1526 0
1420 -1422 1526 0
-1428 -1430 -1529 0
1428 1430 -1529 0
-1428 1430 1529 0
1428 -1430 1529 0
-1432 -1434 -1531 0
1432 1434 -1531 0
-1432 1434 1531 0
1432 -1434 1531 0
-1440 -1442 -1535 0
1440 1442 -1535 0
-1440 1442 1535 0
1440 -1442 1535 0
-1444 -1446 -1537 0
1444 1446 -1537 0
-1444 1446 1537 0
1444 -1446 1537 0
-1448 -1450 -1539 0
1448 1450 -1539 0
-1448 1450 1539 0
1448 -1450 1539 0
-1454 -1456 -1541 0
1454 1456 -1541 0
-1454 1456 1541 0
1454 -1456 1541 0
-1458 -1460 -1543 0
1458 1460 -1543 0
-1458 1460 1543 0
1458 -1460 1543 0
-1462 -1464 -1545 0
1462 1464 -1545 0
-1462 1464 1545 0
1462 -1464 1545 0
-1468 -1470 -1548 0
1468 1470 -1548 0
-1468 1470 1548 0
1468 -1470 1548 0
-1472 -1474 -1549 0
1472 1474 -1549 0
-1472 1474 1549 0
1472 -1474 1549 0
-1476 -1478 -1551 0
1476 1478 -1551 0
-1476 1478 1551 0
1476 -1478 1551 0
-1480 -1482 -1553 0
1480 1482 -1553 0
-1480 1482 1553 0
1480 -1482 1553 0
-1484 -1486 -1555 0
1484 1486 -1555 0
-1484 1486 1555 0
1484 -1486 1555 0
-1488 -1490 -1557 0
1488 1490 -1557 0
-1488 1490 1557 0
1488 -1490 1557 0
-1492 -1494 -1559 0
1492 1494 -1559 0
-1492 1494 1559 0
1492 -1494 1559 0
-1498 -1500 -1562 0
1498 1500 -1562 0
-1498 1500 1562 0
1498 -1500 1562 0
-1502 -1504 -1563 0
1502 1504 -1563 0
-1502 1504 1563 0
1502 -1504 1563 0
-1506 -1508 -1565 0
1506 1508 -1565 0
-1506 1508 1565 0
1506 -1508 1565 0
-1510 -1512 -1567 0
1510 1512 -1567 0
-1510 1512 1567 0
1510 -1512 1567 0
-1514 -1516 -1569 0
1514 1516 -1569 0
-1514 1516 1569 0
1514 -1516 1569 0
-1518 -1520 -1571 0
1518 1520 -1571 0
-1518 1520 1571 0
1518 -1520 1571 0
-1522 -1523 -1573 0
1522 1523 -1573 0
-1522 1523 1573 0
1522 -1523 1573 0
-1524 -1525 -1575 0
1524 1525 -1575 0
-1524 1525 1575 0
1524 -1525 1575 0
-1526 -1527 -1576 0
1526 1527 -1576 0
-1526 1527 1576 0
1526 -1527 1576 0
-1528 -1529 -1578 0
1528 1529 -1578 0
-1528 1529 1578 0
1528 -1529 1578 0
-1531 -1533 -1580 0
1531 1533 -1580 0
-1531 1533 1580 0
1531 -1533 1580 0
-1534 -1535 -1582 0
1534 1535 -1582 0
-1534 1535 1582 0
1534 -1535 1582 0
-1537 -1539 -1584 0
1537 1539 -1584 0
-1537 1539 1584 0
1537 -1539 1584 0
-1540 -1541 -1586 0
1540 1541 -1586 0
-1540 1541 1586 0
1540 -1541 1586 0
-1543 -1545 -1588 0
1543 1545 -1588 0
-1543 1545 1588 0
1543 -1545 1588 0
-1546 -1547 -1590 0
1546 1547 -1590 0
-1546 1547 1590 0
1546 -1547 1590 0
-1548 -1549 -1592 0
1548 1549 -1592 0
-1548 1549 1592 0
1548 -1549 1592 0
-1551 -1553 -1594 0
1551 1553 -1594 0
-1551 1553 1594 0
1551 -1553 1594 0
-1555 -1557 -1596 0
1555 1557 -1596 0
-1555 1557 1596 0
1555 -1557 1596 0
-1559 -1561 -1598 0
1559 1561 -1598 0
-1559 1561 1598 0
1559 -1561 1598 0
-1562 -1563 -1600 0
1562 1563 -1600 0
-1562 1563 1600 0
1562 -1563 1600 0
-1565 -1567 -1602 0
1565 1567 -1602 0
-1565 1567 1602 0
1565 -1567 1602 0
-1569 -1571 -1604 0
1569 1571 -1604 0
-1569 1571 1604 0
1569 -1571 1604 0
-1521 -1573 -1606 0
1521 1573 -1606 0
1521 -1573 1606 0
-1521 1573 1606 0
-1575 -1576 -1608 0
1575 1576 -1608 0
-1575 1576 1608 0
1575 -1576 1608 0
-1578 -1580 -1610 0
1578 1580 -1610 0
-1578 1580 1610 0
1578 -1580 1610 0
-1582 -1584 -1612 0
1582 1584 -1612 0
-1582 1584 1612 0
1582 -1584 1612 0
-1586 -1588 -1614 0
1586 1588 -1614 0
-1586 1588 1614 0
1586 -1588 1614 0
-1590 -1592 -1616 0
1590 1592 -1616 0
-1590 1592 1616 0
1590 -1592 1616 0
-1594 -1596 -1618 0
1594 1596 -1618 0
-1594 1596 1618 0
1594 -1596 1618 0
-1598 -1600 -1620 0
1598 1600 -1620 0
-1598 1600 1620 0
1598 -1600 1620 0
-1602 -1604 -1622 0
1602 1604 -1622 0
-1602 1604 1622 0
1602 -1604 1622 0
-1606 -1608 -1624 0
1606 1608 -1624 0
-1606 1608 1624 0
1606 -1608 1624 0
-1610 -1612 -1626 0
1610 1612 -1626 0
-1610 1612 1626 0
1610 -1612 1626 0
-1614 -1616 -1628 0
1614 1616 -1628 0
-1614 1616 1628 0
1614 -1616 1628 0
-1618 -1620 -1630 0
1618 1620 -1630 0
-1618 1620 1630 0
1618 -1620 1630 0
-1622 -1624 -1632 0
1622 1624 -1632 0
-1622 1624 1632 0
1622 -1624 1632 0
-1626 -1628 -1634 0
1626 1628 -1634 0
-1626 1628 1634 0
1626 -1628 1634 0
-1630 -1632 -1634 0
1630 1632 -1634 0
-1630 1632 1634 0
1630 -1632 1634 0
-1530 -1532 -1686 0
1530 1532 -1686 0
-1530 1532 1686 0
1530 -1532 1686 0
-1536 -1538 -1687 0
1536 1538 -1687 0
-1536 1538 1687 0
1536 -1538 1687 0
-1542 -1544 -1639 0
1542 1544 -1639 0
-1542 1544 1639 0
1542 -1544 1639 0
-1550 -1552 -1642 0
1550 1552 -1642 0
-1550 1552 1642 0
1550 -1552 1642 0
-1554 -1556 -1644 0
1554 1556 -1644 0
-1554 1556 1644 0
1554 -1556 1644 0
-1558 -1560 -1646 0
1558 1560 -1646 0
-1558 1560 1646 0
1558 -1560 1646 0
-1564 -1566 -1648 0
1564 1566 -1648 0
-1564 1566 1648 0
1564 -1566 1648 0
-1568 -1570 -1650 0
1568 1570 -1650 0
-1568 1570 1650 0
1568 -1570 1650 0
-1572 -1574 -1652 0
1572 1574 -1652 0
-1572 1574 1652 0
1572 -1574 1652 0
-1577 -1579 -1654 0
1577 1579 -1654 0
-1577 1579 1654 0
1577 -1579 1654 0
-1581 -1583 -1656 0
1581 1583 -1656 0
-1581 1583 1656 0
1581 -1583 1656 0
-1585 -1587 -1658 0
1585 1587 -1658 0
-1585 1587 1658 0
1585 -1587 1658 0
-1589 -1591 -1660 0
1589 1591 -1660 0
-1589 1591 1660 0
1589 -1591 1660 0
-1593 -1595 -1662 0
1593 1595 -1662 0
-1593 1595 1662 0
1593 -1595 1662 0
-1597 -1599 -1664 0
1597 1599 -1664 0
-1597 1599 1664 0
1597 -1599 1664 0
-1601 -1603 -1666 0
1601 1603 -1666 0
-1601 1603 1666 0
1601 -1603 1666 0
-1605 -1607 -1668 0
1605 1607 -1668 0
-1605 1607 1668 0
1605 -1607 1668 0
-1609 -1611 -1670 0
1609 1611 -1670 0
-1609 1611 1670 0
1609 -1611 1670 0
-1613 -1615 -1672 0
1613 1615 -1672 0
-1613 1615 1672 0
1613 -1615 1672 0
-1617 -1619 -1674 0
1617 1619 -1674 0
-1617 1619 1674 0
1617 -1619 1674 0
-1621 -1623 -1676 0
1621 1623 -1676 0
-1621 1623 1676 0
1621 -1623 1676 0
-1625 -1627 -1678 0
1625 1627 -1678 0
-1625 1627 1678 0
1625 -1627 1678 0
-1629 -1631 -1680 0
1629 1631 -1680 0
-1629 1631 1680 0
1629 -1631 1680 0
-1633 -1635 -1682 0
1633 1635 -1682 0
-1633 1635 1682 0
1633 -1635 1682 0
-1634 -1636 -1684 0
1634 1636 -1684 0
1634 -1636 1684 0
-1634 1636 1684 0
-1638 -1639 -1688 0
1638 1639 -1688 0
-1638 1639 1688 0
1638 -1639 1688 0
-1640 -1641 -1689 0
1640 1641 -1689 0
-1640 1641 1689 0
1640 -1641 1689 0
-1642 -1644 -1691 0
1642 1644 -1691 0
-1642 1644 1691 0
1642 -1644 1691 0
-1646 -1647 -1693 0
1646 1647 -1693 0
-1646 1647 1693 0
1646 -1647 1693 0
-1648 -1650 -1695 0
1648 1650 -1695 0
-1648 1650 1695 0
1648 -1650 1695 0
-1652 -1653 -1697 0
1652 1653 -1697 0
-1652 1653 1697 0
1652 -1653 1697 0
-1654 -1656 -1699 0
1654 1656 -1699 0
-1654 1656 1699 0
1654 -1656 1699 0
-1658 -1660 -1701 0
1658 1660 -1701 0
-1658 1660 1701 0
1658 -1660 1701 0
-1662 -1664 -1703 0
1662 1664 -1703 0
-1662 1664 1703 0
1662 -1664 1703 0
-1666 -1668 -1705 0
1666 1668 -1705 0
-1666 1668 1705 0
1666 -1668 1705 0
-1670 -1672 -1707 0
1670 1672 -1707 0
-1670 1672 1707 0
1670 -1672 1707 0
-1674 -1676 -1709 0
1674 1676 -1709 0
-1674 1676 1709 0
1674 -1676 1709 0
-1678 -1680 -1711 0
1678 1680 -1711 0
-1678 1680 1711 0
1678 -1680 1711 0
-1682 -1684 -1713 0
1682 1684 -1713 0
-1682 1684 1713 0
1682 -1684 1713 0
-1637 -1686 -1715 0
1637 1686 -1715 0
-1637 1686 1715 0
1637 -1686 1715 0
-1687 -1688 -1717 0
1687 1688 -1717 0
-1687 1688 1717 0
1687 -1688 1717 0
-1689 -1691 -1719 0
1689 1691 -1719 0
-1689 1691 1719 0
1689 -1691 1719 0
-1693 -1695 -1721 0
1693 1695 -1721 0
-1693 1695 1721 0
1693 -1695 1721 0
-1697 -1699 -1723 0
1697 1699 -1723 0
-1697 1699 1723 0
1697 -1699 1723 0
-1701 -1703 -1725 0
1701 1703 -1725 0
-1701 1703 1725 0
1701 -1703 1725 0
-1705 -1707 -1727 0
1705 1707 -1727 0
-1705 1707 1727 0
1705 -1707 1727 0
-1709 -1711 -1729 0
1709 1711 -1729 0
-1709 1711 1729 0
1709 -1711 1729 0
-1713 -1715 -1731 0
1713 1715 -1731 0
-1713 1715 1731 0
1713 -1715 1731 0
-1717 -1719 -1733 0
1717 1719 -1733 0
-1717 1719 1733 0
1717 -1719 1733 0
-1721 -1723 -1735 0
1721 1723 -1735 0
-1721 1723 1735 0
1721 -1723 1735 0
-1725 -1727 -1737 0
1725 1727 -1737 0
-1725 1727 1737 0
1725 -1727 1737 0
-1729 -1731 -1739 0
1729 1731 -1739 0
-1729 1731 1739 0
1729 -1731 1739 0
-1733 -1735 -1741 0
1733 1735 -1741 0
-1733 1735 1741 0
1733 -1735 1741 0
-1737 -1739 -1741 0
1737 1739 -1741 0
-1737 1739 1741 0
1737 -1739 1741 0
-1643 -1645 -1747 0
1643 1645 -1747 0
-1643 1645 1747 0
1643 -1645 1747 0
-1649 -1651 -1749 0
1649 1651 -1749 0
-1649 1651 1749 0
1649 -1651 1749 0
-1655 -1657 -1751 0
1655 1657 -1751 0
-1655 1657 1751 0
1655 -1657 1751 0
-1659 -1661 -1752 0
1659 1661 -1752 0
-1659 1661 1752 0
1659 -1661 1752 0
-1663 -1665 -1754 0
1663 1665 -1754 0
-1663 1665 1754 0
1663 -1665 1754 0
-1667 -1669 -1756 0
1667 1669 -1756 0
-1667 1669 1756 0
1667 -1669 1756 0
-1671 -1673 -1758 0
1671 1673 -1758 0
-1671 1673 1758 0
1671 -1673 1758 0
-1675 -1677 -1760 0
1675 1677 -1760 0
-1675 1677 1760 0
1675 -1677 1760 0
-1679 -1681 -1762 0
1679 1681 -1762 0
-1679 1681 1762 0
1679 -1681 1762 0
-1683 -1685 -1764 0
1683 1685 -1764 0
-1683 1685 1764 0
1683 -1685 1764 0
-1690 -1692 -1766 0
1690 1692 -1766 0
-1690 1692 1766 0
1690 -1692 1766 0
-1694 -1696 -1767 0
1694 1696 -1767 0
-1694 1696 1767 0
1694 -1696 1767 0
-1698 -1700 -1769 0
1698 1700 -1769 0
-1698 1700 1769 0
1698 -1700 1769 0
-1702 -1704 -1771 0
1702 1704 -1771 0
-1702 1704 1771 0
1702 -1704 1771 0
-1706 -1708 -1773 0
1706 1708 -1773 0
-1706 1708 1773 0
1706 -1708 1773 0
-1710 -1712 -1775 0
1710 1712 -1775 0
-1710 1712 1775 0
1710 -1712 1775 0
-1714 -1716 -1777 0
1714 1716 -1777 0
-1714 1716 1777 0
1714 -1716 1777 0
-1718 -1720 -1779 0
1718 1720 -1779 0
-1718 1720 1779 0
1718 -1720 1779 0
-1722 -1724 -1781 0
1722 1724 -1781 0
-1722 1724 1781 0
1722 -1724 1781 0
-1726 -1728 -1783 0
1726 1728 -1783 0
-1726 1728 1783 0
1726 -1728 1783 0
-1730 -1732 -1785 0
1730 1732 -1785 0
-1730 1732 1785 0
1730 -1732 1785 0
-1734 -1736 -1787 0
1734 1736 -1787 0
-1734 1736 1787 0
1734 -1736 1787 0
-1738 -1740 -1789 0
1738 1740 -1789 0
-1738 1740 1789 0
1738 -1740 1789 0
-1742 -1743 -1791 0
1742 1743 -1791 0
-1742 1743 1791 0
1742 -1743 1791 0
-1744 -1745 -1792 0
1744 1745 -1792 0
-1744 1745 1792 0
1744 -1745 1792 0
-1747 -1748 -1793 0
1747 1748 -1793 0
-1747 1748 1793 0
1747 -1748 1793 0
-1749 -1750 -1795 0
1749 1750 -1795 0
-1749 1750 1795 0
1749 -1750 1795 0
-1751 -1752 -1797 0
1751 1752 -1797 0
-1751 1752 1797 0
1751 -1752 1797 0
-1754 -1756 -1799 0
1754 1756 -1799 0
-1754 1756 1799 0
1754 -1756 1799 0
-1758 -1760 -1801 0
1758 1760 -1801 0
-1758 1760 1801 0
1758 -1760 1801 0
-1762 -1764 -1803 0
1762 1764 -1803 0
-1762 1764 1803 0
1762 -1764 1803 0
-1766 -1767 -1805 0
1766 1767 -1805 0
-1766 1767 1805 0
1766 -1767 1805 0
-1769 -1771 -1806 0
1769 1771 -1806 0
-1769 1771 1806 0
1769 -1771 1806 0
-1773 -1775 -1808 0
1773 1775 -1808 0
-1773 1775 1808 0
1773 -1775 1808 0
-1777 -1779 -1810 0
1777 1779 -1810 0
-1777 1779 1810 0
1777 -1779 1810 0
-1781 -1783 -1812 0
1781 1783 -1812 0
-1781 1783 1812 0
1781 -1783 1812 0
-1785 -1787 -1814 0
1785 1787 -1814 0
-1785 1787 1814 0
1785 -1787 1814 0
-1789 -1791 -1816 0
1789 1791 -1816 0
-1789 1791 1816 0
1789 -1791 1816 0
-1741 -1792 -1818 0
1741 1792 -1818 0
-1741 1792 1818 0
1741 -1792 1818 0
-1746 -1793 -1820 0
1746 1793 -1820 0
-1746 1793 1820 0
1746 -1793 1820 0
-1795 -1797 -1822 0
1795 1797 -1822 0
-1795 1797 1822 0
1795 -1797 1822 0
-1799 -1801 -1824 0
1799 1801 -1824 0
-1799 1801 1824 0
1799 -1801 1824 0
-1765 -1803 -1826 0
1765 1803 -1826 0
1765 -1803 1826 0
-1765 1803 1826 0
-1805 -1806 -1828 0
1805 1806 -1828 0
-1805 1806 1828 0
1805 -1806 1828 0
-1808 -1810 -1830 0
1808 1810 -1830 0
-1808 1810 1830 0
1808 -1810 1830 0
-1812 -1814 -1832 0
1812 1814 -1832 0
-1812 1814 1832 0
1812 -1814 1832 0
-1816 -1818 -1834 0
1816 1818 -1834 0
-1816 1818 1834 0
1816 -1818 1834 0
-1820 -1822 -1836 0
1820 1822 -1836 0
-1820 1822 1836 0
1820 -1822 1836 0
-1824 -1826 -1838 0
1824 1826 -1838 0
-1824 1826 1838 0
1824 -1826 1838 0
-1828 -1830 -1840 0
1828 1830 -1840 0
-1828 1830 1840 0
1828 -1830 1840 0
-1832 -1834 -1842 0
1832 1834 -1842 0
-1832 1834 1842 0
1832 -1834 1842 0
-1836 -1838 -1844 0
1836 1838 -1844 0
-1836 1838 1844 0
1836 -1838 1844 0
-1840 -1842 -1844 0
1840 1842 -1844 0
-1840 1842 1844 0
1840 -1842 1844 0
-1753 -1755 -1850 0
1753 1755 -1850 0
-1753 1755 1850 0
1753 -1755 1850 0
-1757 -1759 -1851 0
1757 1759 -1851 0
-1757 1759 1851 0
1757 -1759 1851 0
-1761 -1763 -1853 0
1761 1763 -1853 0
-1761 1763 1853 0
1761 -1763 1853 0
-1768 -1770 -1857 0
1768 1770 -1857 0
-1768 1770 1857 0
1768 -1770 1857 0
-1772 -1774 -1859 0
1772 1774 -1859 0
-1772 1774 1859 0
1772 -1774 1859 0
-1776 -1778 -1861 0
1776 1778 -1861 0
-1776 1778 1861 0
1776 -1778 1861 0
-1780 -1782 -1863 0
1780 1782 -1863 0
-1780 1782 1863 0
1780 -1782 1863 0
-1784 -1786 -1865 0
1784 1786 -1865 0
-1784 1786 1865 0
1784 -1786 1865 0
-1788 -1790 -1867 0
1788 1790 -1867 0
-1788 1790 1867 0
1788 -1790 1867 0
-1794 -1796 -1871 0
1794 1796 -1871 0
-1794 1796 1871 0
1794 -1796 1871 0
-1798 -1800 -1873 0
1798 1800 -1873 0
-1798 1800 1873 0
1798 -1800 1873 0
-1802 -1804 -1875 0
1802 1804 -1875 0
-1802 1804 1875 0
1802 -1804 1875 0
-1807 -1809 -1877 0
1807 1809 -1877 0
-1807 1809 1877 0
1807 -1809 1877 0
-1811 -1813 -1879 0
1811 1813 -1879 0
-1811 1813 1879 0
1811 -1813 1879 0
-1815 -1817 -1881 0
1815 1817 -1881 0
-1815 1817 1881 0
1815 -1817 1881 0
-1819 -1821 -1883 0
1819 1821 -1883 0
-1819 1821 1883 0
1819 -1821 1883 0
-1823 -1825 -1885 0
1823 1825 -1885 0
-1823 1825 1885 0
1823 -1825 1885 0
-1827 -1829 -1887 0
1827 1829 -1887 0
-1827 1829 1887 0
1827 -1829 1887 0
-1831 -1833 -1889 0
1831 1833 -1889 0
-1831 1833 1889 0
1831 -1833 1889 0
-1835 -1837 -1891 0
1835 1837 -1891 0
-1835 1837 1891 0
1835 -1837 1891 0
-1839 -1841 -1893 0
1839 1841 -1893 0
-1839 1841 1893 0
1839 -1841 1893 0
-1843 -1845 -1895 0
1843 1845 -1895 0
-1843 1845 1895 0
1843 -1845 1895 0
-1844 -1846 -1926 0
1844 1846 -1926 0
1844 -1846 1926 0
-1844 1846 1926 0
-1847 -1848 -1897 0
1847 1848 -1897 0
-1847 1848 1897 0
1847 -1848 1897 0
-1849 -1850 -1899 0
1849 1850 -1899 0
-1849 1850 1899 0
1849 -1850 1899 0
-1851 -1853 -1901 0
1851 1853 -1901 0
-1851 1853 1901 0
1851 -1853 1901 0
-1855 -1856 -1903 0
1855 1856 -1903 0
-1855 1856 1903 0
1855 -1856 1903 0
-1857 -1859 -1905 0
1857 1859 -1905 0
-1857 1859 1905 0
1857 -1859 1905 0
-1861 -1863 -1907 0
1861 1863 -1907 0
-1861 1863 1907 0
1861 -1863 1907 0
-1865 -1867 -1909 0
1865 1867 -1909 0
-1865 1867 1909 0
1865 -1867 1909 0
-1869 -1870 -1911 0
1869 1870 -1911 0
-1869 1870 1911 0
1869 -1870 1911 0
-1871 -1873 -1913 0
1871 1873 -1913 0
-1871 1873 1913 0
1871 -1873 1913 0
-1875 -1876 -1915 0
1875 1876 -1915 0
-1875 1876 1915 0
1875 -1876 1915 0
-1877 -1879 -1917 0
1877 1879 -1917 0
-1877 1879 1917 0
1877 -1879 1917 0
-1881 -1883 -1919 0
1881 1883 -1919 0
-1881 1883 1919 0
1881 -1883 1919 0
-1885 -1887 -1921 0
1885 1887 -1921 0
-1885 1887 1921 0
1885 -1887 1921 0
-1889 -1891 -1923 0
1889 1891 -1923 0
-1889 1891 1923 0
1889 -1891 1923 0
-1893 -1895 -1925 0
1893 1895 -1925 0
-1893 1895 1925 0
1893 -1895 1925 0
-1897 -1899 -1927 0
1897 1899 -1927 0
-1897 1899 1927 0
1897 -1899 1927 0
-1901 -1903 -1929 0
1901 1903 -1929 0
-1901 1903 1929 0
1901 -1903 1929 0
-1905 -1907 -1931 0
1905 1907 -1931 0
-1905 1907 1931 0
1905 -1907 1931 0
-1909 -1911 -1933 0
1909 1911 -1933 0
-1909 1911 1933 0
1909 -1911 1933 0
-1913 -1915 -1935 0
1913 1915 -1935 0
-1913 1915 1935 0
1913 -1915 1935 0
-1917 -1919 -1937 0
1917 1919 -1937 0
-1917 1919 1937 0
1917 -1919 1937 0
-1921 -1923 -1939 0
1921 1923 -1939 0
-1921 1923 1939 0
1921 -1923 1939 0
-1925 -1926 -1941 0
1925 1926 -1941 0
-1925 1926 1941 0
1925 -1926 1941 0
-1927 -1929 -1943 0
1927 1929 -1943 0
-1927 1929 1943 0
1927 -1929 1943 0
-1931 -1933 -1945 0
1931 1933 -1945 0
-1931 1933 1945 0
1931 -1933 1945 0
-1935 -1937 -1947 0
1935 1937 -1947 0
-1935 1937 1947 0
1935 -1937 1947 0
-1939 -1941 -1949 0
1939 1941 -1949 0
-1939 1941 1949 0
1939 -1941 1949 0
-1943 -1945 -1951 0
1943 1945 -1951 0
-1943 1945 1951 0
1943 -1945 1951 0
-1947 -1949 -1951 0
1947 1949 -1951 0
-1947 1949 1951 0
1947 -1949 1951 0
-1852 -1854 -1998 0
1852 1854 -1998 0
-1852 1854 1998 0
1852 -1854 1998 0
-1858 -1860 -1955 0
1858 1860 -1955 0
-1858 1860 1955 0
1858 -1860 1955 0
-1862 -1864 -1956 0
1862 1864 -1956 0
-1862 1864 1956 0
1862 -1864 1956 0
-1866 -1868 -2000 0
1866 1868 -2000 0
-1866 1868 2000 0
1866 -1868 2000 0
-1872 -1874 -1959 0
1872 1874 -1959 0
-1872 1874 1959 0
1872 -1874 1959 0
-1878 -1880 -1961 0
1878 1880 -1961 0
-1878 1880 1961 0
1878 -1880 1961 0
-1882 -1884 -1962 0
1882 1884 -1962 0
-1882 1884 1962 0
1882 -1884 1962 0
-1886 -1888 -1964 0
1886 1888 -1964 0
-1886 1888 1964 0
1886 -1888 1964 0
-1890 -1892 -1966 0
1890 1892 -1966 0
-1890 1892 1966 0
1890 -1892 1966 0
-1894 -1896 -1968 0
1894 1896 -1968 0
-1894 1896 1968 0
1894 -1896 1968 0
-1898 -1900 -1971 0
1898 1900 -1971 0
-1898 1900 1971 0
1898 -1900 1971 0
-1902 -1904 -1972 0
1902 1904 -1972 0
-1902 1904 1972 0
1902 -1904 1972 0
-1906 -1908 -1974 0
1906 1908 -1974 0
-1906 1908 1974 0
1906 -1908 1974 0
-1910 -1912 -1976 0
1910 1912 -1976 0
-1910 1912 1976 0
1910 -1912 1976 0
-1914 -1916 -1978 0
1914 1916 -1978 0
-1914 1916 1978 0
1914 -1916 1978 0
-1918 -1920 -1980 0
1918 1920 -1980 0
-1918 1920 1980 0
1918 -1920 1980 0
-1922 -1924 -1982 0
1922 1924 -1982 0
-1922 1924 1982 0
1922 -1924 1982 0
-1928 -1930 -1985 0
1928 1930 -1985 0
-1928 1930 1985 0
1928 -1930 1985 0
-1932 -1934 -1986 0
1932 1934 -1986 0
-1932 1934 1986 0
1932 -1934 1986 0
-1936 -1938 -1988 0
1936 1938 -1988 0
-1936 1938 1988 0
1936 -1938 1988 0
-1940 -1942 -1990 0
1940 1942 -1990 0
-1940 1942 1990 0
1940 -1942 1990 0
-1944 -1946 -1992 0
1944 1946 -1992 0
-1944 1946 1992 0
1944 -1946 1992 0
-1948 -1950 -1994 0
1948 1950 -1994 0
-1948 1950 1994 0
1948 -1950 1994 0
-1952 -1953 -1996 0
1952 1953 -1996 0
-1952 1953 1996 0
1952 -1953 1996 0
-1955 -1956 -1999 0
1955 1956 -1999 0
-1955 1956 1999 0
1955 -1956 1999 0
-1959 -1960 -2001 0
1959 1960 -2001 0
-1959 1960 2001 0
1959 -1960 2001 0
-1961 -1962 -2002 0
1961 1962 -2002 0
-1961 1962 2002 0
1961 -1962 2002 0
-1964 -1966 -2004 0
1964 1966 -2004 0
-1964 1966 2004 0
1964 -1966 2004 0
-1968 -1970 -2006 0
1968 1970 -2006 0
-1968 1970 2006 0
1968 -1970 2006 0
-1971 -1972 -2008 0
1971 1972 -2008 0
-1971 1972 2008 0
1971 -1972 2008 0
-1974 -1976 -2010 0
1974 1976 -2010 0
-1974 1976 2010 0
1974 -1976 2010 0
-1978 -1980 -2012 0
1978 1980 -2012 0
-1978 1980 2012 0
1978 -1980 2012 0
-1982 -1984 -2014 0
1982 1984 -2014 0
-1982 1984 2014 0
1982 -1984 2014 0
-1985 -1986 -2016 0
1985 1986 -2016 0
-1985 1986 2016 0
1985 -1986 2016 0
-1988 -1990 -2018 0
1988 1990 -2018 0
-1988 1990 2018 0
1988 -1990 2018 0
-1992 -1994 -2020 0
1992 1994 -2020 0
-1992 1994 2020 0
1992 -1994 2020 0
-1951 -1996 -2022 0
1951 1996 -2022 0
1951 -1996 2022 0
-1951 1996 2022 0
-1954 -1998 -2024 0
1954 1998 -2024 0
-1954 1998 2024 0
1954 -1998 2024 0
-1999 -2000 -2026 0
1999 2000 -2026 0
-1999 2000 2026 0
1999 -2000 2026 0
-2001 -2002 -2028 0
2001 2002 -2028 0
-2001 2002 2028 0
2001 -2002 2028 0
-2004 -2006 -2030 0
2004 2006 -2030 0
-2004 2006 2030 0
2004 -2006 2030 0
-2008 -2010 -2032 0
2008 2010 -2032 0
-2008 2010 2032 0
2008 -2010 2032 0
-2012 -2014 -2034 0
2012 2014 -2034 0
-2012 2014 2034 0
2012 -2014 2034 0
-2016 -2018 -2036 0
2016 2018 -2036 0
-2016 2018 2036 0
2016 -2018 2036 0
-2020 -2022 -2038 0
2020 2022 -2038 0
-2020 2022 2038 0
2020 -2022 2038 0
-2024 -2026 -2040 0
2024 2026 -2040 0
-2024 2026 2040 0
2024 -2026 2040 0
-2028 -2030 -2042 0
2028 2030 -2042 0
-2028 2030 2042 0
2028 -2030 2042 0
-2032 -2034 -2044 0
2032 2034 -2044 0
-2032 2034 2044 0
2032 -2034 2044 0
-2036 -2038 -2046 0
2036 2038 -2046 0
-2036 2038 2046 0
2036 -2038 2046 0
-2040 -2042 -2048 0
2040 2042 -2048 0
-2040 2042 2048 0
2040 -2042 2048 0
-2044 -2046 -2048 0
2044 2046 -2048 0
-2044 2046 2048 0
2044 -2046 2048 0
-1957 -1958 -2053 0
1957 1958 -2053 0
-1957 1958 2053 0
1957 -1958 2053 0
-1963 -1965 -2056 0
1963 1965 -2056 0
-1963 1965 2056 0
1963 -1965 2056 0
-1967 -1969 -2058 0
1967 1969 -2058 0
-1967 1969 2058 0
1967 -1969 2058 0
-1973 -1975 -2061 0
1973 1975 -2061 0
-1973 1975 2061 0
1973 -1975 2061 0
-1977 -1979 -2062 0
1977 1979 -2062 0
-1977 1979 2062 0
1977 -1979 2062 0
-1981 -1983 -2064 0
1981 1983 -2064 0
-1981 1983 2064 0
1981 -1983 2064 0
-1987 -1989 -2067 0
1987 1989 -2067 0
-1987 1989 2067 0
1987 -1989 2067 0
-1991 -1993 -2068 0
1991 1993 -2068 0
-1991 1993 2068 0
1991 -1993 2068 0
-1995 -1997 -2070 0
1995 1997 -2070 0
-1995 1997 2070 0
1995 -1997 2070 0
-2003 -2005 -2074 0
2003 2005 -2074 0
-2003 2005 2074 0
2003 -2005 2074 0
-2007 -2009 -2075 0
2007 2009 -2075 0
-2007 2009 2075 0
2007 -2009 2075 0
-2011 -2013 -2077 0
2011 2013 -2077 0
-2011 2013 2077 0
2011 -2013 2077 0
-2015 -2017 -2079 0
2015 2017 -2079 0
-2015 2017 2079 0
2015 -2017 2079 0
-2019 -2021 -2081 0
2019 2021 -2081 0
-2019 2021 2081 0
2019 -2021 2081 0
-2023 -2025 -2083 0
2023 2025 -2083 0
-2023 2025 2083 0
2023 -2025 2083 0
-2027 -2029 -2085 0
2027 2029 -2085 0
-2027 2029 2085 0
2027 -2029 2085 0
-2031 -2033 -2087 0
2031 2033 -2087 0
-2031 2033 2087 0
2031 -2033 2087 0
-2035 -2037 -2089 0
2035 2037 -2089 0
-2035 2037 2089 0
2035 -2037 2089 0
-2039 -2041 -2091 0
2039 2041 -2091 0
-2039 2041 2091 0
2039 -2041 2091 0
-2043 -2045 -2093 0
2043 2045 -2093 0
-2043 2045 2093 0
2043 -2045 2093 0
-2047 -2049 -2095 0
2047 2049 -2095 0
-2047 2049 2095 0
2047 -2049 2095 0
-2048 -2050 -2097 0
2048 2050 -2097 0
2048 -2050 2097 0
-2048 2050 2097 0
-2052 -2053 -2099 0
2052 2053 -2099 0
-2052 2053 2099 0
2052 -2053 2099 0
-2054 -2055 -2100 0
2054 2055 -2100 0
-2054 2055 2100 0
2054 -2055 2100 0
-2056 -2058 -2102 0
2056 2058 -2102 0
-2056 2058 2102 0
2056 -2058 2102 0
-2060 -2061 -2104 0
2060 2061 -2104 0
-2060 2061 2104 0
2060 -2061 2104 0
-2062 -2064 -2106 0
2062 2064 -2106 0
-2062 2064 2106 0
2062 -2064 2106 0
-2066 -2067 -2108 0
2066 2067 -2108 0
-2066 2067 2108 0
2066 -2067 2108 0
-2068 -2070 -2110 0
2068 2070 -2110 0
-2068 2070 2110 0
2068 -2070 2110 0
-2073 -2074 -2112 0
2073 2074 -2112 0
-2073 2074 2112 0
2073 -2074 2112 0
-2075 -2077 -2113 0
2075 2077 -2113 0
-2075 2077 2113 0
2075 -2077 2113 0
-2079 -2081 -2115 0
2079 2081 -2115 0
-2079 2081 2115 0
2079 -2081 2115 0
-2083 -2085 -2117 0
2083 2085 -2117 0
-2083 2085 2117 0
2083 -2085 2117 0
-2087 -2089 -2119 0
2087 2089 -2119 0
-2087 2089 2119 0
2087 -2089 2119 0
-2091 -2093 -2121 0
2091 2093 -2121 0
-2091 2093 2121 0
2091 -2093 2121 0
-2095 -2097 -2123 0
2095 2097 -2123 0
-2095 2097 2123 0
2095 -2097 2123 0
-2051 -2099 -2125 0
2051 2099 -2125 0
-2051 2099 2125 0
2051 -2099 2125 0
-2100 -2102 -2127 0
2100 2102 -2127 0
-2100 2102 2127 0
2100 -2102 2127 0
-2104 -2106 -2129 0
2104 2106 -2129 0
-2104 2106 2129 0
2104 -2106 2129 0
-2108 -2110 -2131 0
2108 2110 -2131 0
-2108 2110 2131 0
2108 -2110 2131 0
-2072 -2112 -2133 0
2072 2112 -2133 0
-2072 2112 2133 0
2072 -2112 2133 0
-2113 -2115 -2135 0
2113 2115 -2135 0
-2113 2115 2135 0
2113 -2115 2135 0
-2117 -2119 -2137 0
2117 2119 -2137 0
-2117 2119 2137 0
2117 -2119 2137 0
-2121 -2123 -2139 0
2121 2123 -2139 0
-2121 2123 2139 0
2121 -2123 2139 0
-2125 -2127 -2141 0
2125 2127 -2141 0
-2125 2127 2141 0
2125 -2127 2141 0
-2129 -2131 -2143 0
2129 2131 -2143 0
-2129 2131 2143 0
2129 -2131 2143 0
-2133 -2135 -2145 0
2133 2135 -2145 0
-2133 2135 2145 0
2133 -2135 2145 0
-2137 -2139 -2147 0
2137 2139 -2147 0
-2137 2139 2147 0
2137 -2139 2147 0
-2141 -2143 -2149 0
2141 2143 -2149 0
-2141 2143 2149 0
2141 -2143 2149 0
-2145 -2147 -2149 0
2145 2147 -2149 0
-2145 2147 2149 0
2145 -2147 2149 0
-2057 -2059 -2153 0
2057 2059 -2153 0
-2057 2059 2153 0
2057 -2059 2153 0
-2063 -2065 -2155 0
2063 2065 -2155 0
-2063 2065 2155 0
2063 -2065 2155 0
-2069 -2071 -2197 0
2069 2071 -2197 0
-2069 2071 2197 0
2069 -2071 2197 0
-2076 -2078 -2158 0
2076 2078 -2158 0
-2076 2078 2158 0
2076 -2078 2158 0
-2080 -2082 -2160 0
2080 2082 -2160 0
-2080 2082 2160 0
2080 -2082 2160 0
-2084 -2086 -2162 0
2084 2086 -2162 0
-2084 2086 2162 0
2084 -2086 2162 0
-2088 -2090 -2164 0
2088 2090 -2164 0
-2088 2090 2164 0
2088 -2090 2164 0
-2092 -2094 -2166 0
2092 2094 -2166 0
-2092 2094 2166 0
2092 -2094 2166 0
-2096 -2098 -2168 0
2096 2098 -2168 0
-2096 2098 2168 0
2096 -2098 2168 0
-2101 -2103 -2171 0
2101 2103 -2171 0
-2101 2103 2171 0
2101 -2103 2171 0
-2105 -2107 -2172 0
2105 2107 -2172 0
-2105 2107 2172 0
2105 -2107 2172 0
-2109 -2111 -2174 0
2109 2111 -2174 0
-2109 2111 2174 0
2109 -2111 2174 0
-2114 -2116 -2177 0
2114 2116 -2177 0
-2114 2116 2177 0
2114 -2116 2177 0
-2118 -2120 -2178 0
2118 2120 -2178 0
-2118 2120 2178 0
2118 -2120 2178 0
-2122 -2124 -2180 0
2122 2124 -2180 0
-2122 2124 2180 0
2122 -2124 2180 0
-2126 -2128 -2182 0
2126 2128 -2182 0
-2126 2128 2182 0
2126 -2128 2182 0
-2130 -2132 -2184 0
2130 2132 -2184 0
-2130 2132 2184 0
2130 -2132 2184 0
-2134 -2136 -2186 0
2134 2136 -2186 0
-2134 2136 2186 0
2134 -2136 2186 0
-2138 -2140 -2188 0
2138 2140 -2188 0
-2138 2140 2188 0
2138 -2140 2188 0
-2142 -2144 -2190 0
2142 2144 -2190 0
-2142 2144 2190 0
2142 -2144 2190 0
-2146 -2148 -2192 0
2146 2148 -2192 0
-2146 2148 2192 0
2146 -2148 2192 0
-2150 -2151 -2194 0
2150 2151 -2194 0
-2150 2151 2194 0
2150 -2151 2194 0
-2153 -2154 -2195 0
2153 2154 -2195 0
-2153 2154 2195 0
2153 -2154 2195 0
-2155 -2156 -2196 0
2155 2156 -2196 0
-2155 2156 2196 0
2155 -2156 2196 0
-2157 -2158 -2198 0
2157 2158 -2198 0
-2157 2158 2198 0
2157 -2158 2198 0
-2160 -2162 -2200 0
2160 2162 -2200 0
-2160 2162 2200 0
2160 -2162 2200 0
-2164 -2166 -2202 0
2164 2166 -2202 0
-2164 2166 2202 0
2164 -2166 2202 0
-2168 -2170 -2204 0
2168 2170 -2204 0
-2168 2170 2204 0
2168 -2170 2204 0
-2171 -2172 -2206 0
2171 2172 -2206 0
-2171 2172 2206 0
2171 -2172 2206 0
-2174 -2176 -2208 0
2174 2176 -2208 0
-2174 2176 2208 0
2174 -2176 2208 0
-2177 -2178 -2210 0
2177 2178 -2210 0
-2177 2178 2210 0
2177 -2178 2210 0
-2180 -2182 -2212 0
2180 2182 -2212 0
-2180 2182 2212 0
2180 -2182 2212 0
-2184 -2186 -2214 0
2184 2186 -2214 0
-2184 2186 2214 0
2184 -2186 2214 0
-2188 -2190 -2216 0
2188 2190 -2216 0
-2188 2190 2216 0
2188 -2190 2216 0
-2192 -2194 -2218 0
2192 2194 -2218 0
-2192 2194 2218 0
2192 -2194 2218 0
-2149 -2152 -2220 0
2149 2152 -2220 0
-2149 2152 2220 0
2149 -2152 2220 0
-2195 -2196 -2222 0
2195 2196 -2222 0
-2195 2196 2222 0
2195 -2196 2222 0
-2197 -2198 -2224 0
2197 2198 -2224 0
-2197 2198 2224 0
2197 -2198 2224 0
-2200 -2202 -2226 0
2200 2202 -2226 0
-2200 2202 2226 0
2200 -2202 2226 0
-2204 -2206 -2228 0
2204 2206 -2228 0
-2204 2206 2228 0
2204 -2206 2228 0
-2208 -2210 -2230 0
2208 2210 -2230 0
-2208 2210 2230 0
2208 -2210 2230 0
-2212 -2214 -2232 0
2212 2214 -2232 0
-2212 2214 2232 0
2212 -2214 2232 0
-2216 -2218 -2234 0
2216 2218 -2234 0
-2216 2218 2234 0
2216 -2218 2234 0
-2220 -2222 -2236 0
2220 2222 -2236 0
-2220 2222 2236 0
2220 -2222 2236 0
-2224 -2226 -2238 0
2224 2226 -2238 0
-2224 2226 2238 0
2224 -2226 2238 0
-2228 -2230 -2240 0
2228 2230 -2240 0
-2228 2230 2240 0
2228 -2230 2240 0
-2232 -2234 -2242 0
2232 2234 -2242 0
-2232 2234 2242 0
2232 -2234 2242 0
-2236 -2238 -2244 0
2236 2238 -2244 0
-2236 2238 2244 0
2236 -2238 2244 0
-2240 -2242 -2244 0
2240 2242 -2244 0
-2240 2242 2244 0
2240 -2242 2244 0
-2159 -2161 -2292 0
2159 2161 -2292 0
-2159 2161 2292 0
2159 -2161 2292 0
-2163 -2165 -2250 0
2163 2165 -2250 0
-2163 2165 2250 0
2163 -2165 2250 0
-2167 -2169 -2252 0
2167 2169 -2252 0
-2167 2169 2252 0
2167 -2169 2252 0
-2173 -2175 -2255 0
2173 2175 -2255 0
-2173 2175 2255 0
2173 -2175 2255 0
-2179 -2181 -2257 0
2179 2181 -2257 0
-2179 2181 2257 0
2179 -2181 2257 0
-2183 -2185 -2258 0
2183 2185 -2258 0
-2183 2185 2258 0
2183 -2185 2258 0
-2187 -2189 -2260 0
2187 2189 -2260 0
-2187 2189 2260 0
2187 -2189 2260 0
-2191 -2193 -2262 0
2191 2193 -2262 0
-2191 2193 2262 0
2191 -2193 2262 0
-2199 -2201 -2266 0
2199 2201 -2266 0
-2199 2201 2266 0
2199 -2201 2266 0
-2203 -2205 -2268 0
2203 2205 -2268 0
-2203 2205 2268 0
2203 -2205 2268 0
-2207 -2209 -2270 0
2207 2209 -2270 0
-2207 2209 2270 0
2207 -2209 2270 0
-2211 -2213 -2272 0
2211 2213 -2272 0
-2211 2213 2272 0
2211 -2213 2272 0
-2215 -2217 -2274 0
2215 2217 -2274 0
-2215 2217 2274 0
2215 -2217 2274 0
-2219 -2221 -2276 0
2219 2221 -2276 0
-2219 2221 2276 0
2219 -2221 2276 0
-2223 -2225 -2278 0
2223 2225 -2278 0
-2223 2225 2278 0
2223 -2225 2278 0
-2227 -2229 -2280 0
2227 2229 -2280 0
-2227 2229 2280 0
2227 -2229 2280 0
-2231 -2233 -2282 0
2231 2233 -2282 0
-2231 2233 2282 0
2231 -2233 2282 0
-2235 -2237 -2284 0
2235 2237 -2284 0
-2235 2237 2284 0
2235 -2237 2284 0
-2239 -2241 -2286 0
2239 2241 -2286 0
-2239 2241 2286 0
2239 -2241 2286 0
-2243 -2245 -2288 0
2243 2245 -2288 0
-2243 2245 2288 0
2243 -2245 2288 0
-2244 -2246 -2290 0
2244 2246 -2290 0
2244 -2246 2290 0
-2244 2246 2290 0
-2248 -2249 -2291 0
2248 2249 -2291 0
-2248 2249 2291 0
2248 -2249 2291 0
-2250 -2252 -2293 0
2250 2252 -2293 0
-2250 2252 2293 0
2250 -2252 2293 0
-2254 -2255 -2295 0
2254 2255 -2295 0
-2254 2255 2295 0
2254 -2255 2295 0
-2256 -2257 -2297 0
2256 2257 -2297 0
-2256 2257 2297 0
2256 -2257 2297 0
-2258 -2260 -2299 0
2258 2260 -2299 0
-2258 2260 2299 0
2258 -2260 2299 0
-2262 -2263 -2301 0
2262 2263 -2301 0
-2262 2263 2301 0
2262 -2263 2301 0
-2264 -2265 -2303 0
2264 2265 -2303 0
-2264 2265 2303 0
2264 -2265 2303 0
-2266 -2268 -2305 0
2266 2268 -2305 0
-2266 2268 2305 0
2266 -2268 2305 0
-2270 -2272 -2307 0
2270 2272 -2307 0
-2270 2272 2307 0
2270 -2272 2307 0
-2274 -2276 -2309 0
2274 2276 -2309 0
-2274 2276 2309 0
2274 -2276 2309 0
-2278 -2280 -2311 0
2278 2280 -2311 0
-2278 2280 2311 0
2278 -2280 2311 0
-2282 -2284 -2313 0
2282 2284 -2313 0
-2282 2284 2313 0
2282 -2284 2313 0
-2286 -2288 -2315 0
2286 2288 -2315 0
-2286 2288 2315 0
2286 -2288 2315 0
-2247 -2290 -2317 0
2247 2290 -2317 0
2247 -2290 2317 0
-2247 2290 2317 0
-2291 -2292 -2319 0
2291 2292 -2319 0
-2291 2292 2319 0
2291 -2292 2319 0
-2293 -2295 -2321 0
2293 2295 -2321 0
-2293 2295 2321 0
2293 -2295 2321 0
-2297 -2299 -2323 0
2297 2299 -2323 0
-2297 2299 2323 0
2297 -2299 2323 0
-2301 -2303 -2325 0
2301 2303 -2325 0
-2301 2303 2325 0
2301 -2303 2325 0
-2305 -2307 -2327 0
2305 2307 -2327 0
-2305 2307 2327 0
2305 -2307 2327 0
-2309 -2311 -2329 0
2309 2311 -2329 0
-2309 2311 2329 0
2309 -2311 2329 0
-2313 -2315 -2331 0
2313 2315 -2331 0
-2313 2315 2331 0
2313 -2315 2331 0
-2317 -2319 -2333 0
2317 2319 -2333 0
-2317 2319 2333 0
2317 -2319 2333 0
-2321 -2323 -2335 0
2321 2323 -2335 0
-2321 2323 2335 0
2321 -2323 2335 0
-2325 -2327 -2337 0
2325 2327 -2337 0
-2325 2327 2337 0
2325 -2327 2337 0
-2329 -2331 -2339 0
2329 2331 -2339 0
-2329 2331 2339 0
2329 -2331 2339 0
-2333 -2335 -2341 0
2333 2335 -2341 0
-2333 2335 2341 0
2333 -2335 2341 0
-2337 -2339 -2341 0
2337 2339 -2341 0
-2337 2339 2341 0
2337 -2339 2341 0
-2251 -2253 -2345 0
2251 2253 -2345 0
-2251 2253 2345 0
2251 -2253 2345 0
-2259 -2261 -2348 0
2259 2261 -2348 0
-2259 2261 2348 0
2259 -2261 2348 0
-2267 -2269 -2350 0
2267 2269 -2350 0
-2267 2269 2350 0
2267 -2269 2350 0
-2271 -2273 -2351 0
2271 2273 -2351 0
-2271 2273 2351 0
2271 -2273 2351 0
-2275 -2277 -2353 0
2275 2277 -2353 0
-2275 2277 2353 0
2275 -2277 2353 0
-2279 -2281 -2355 0
2279 2281 -2355 0
-2279 2281 2355 0
2279 -2281 2355 0
-2283 -2285 -2357 0
2283 2285 -2357 0
-2283 2285 2357 0
2283 -2285 2357 0
-2287 -2289 -2359 0
2287 2289 -2359 0
-2287 2289 2359 0
2287 -2289 2359 0
-2294 -2296 -2362 0
2294 2296 -2362 0
-2294 2296 2362 0
2294 -2296 2362 0
-2298 -2300 -2363 0
2298 2300 -2363 0
-2298 2300 2363 0
2298 -2300 2363 0
-2302 -2304 -2365 0
2302 2304 -2365 0
-2302 2304 2365 0
2302 -2304 2365 0
-2306 -2308 -2367 0
2306 2308 -2367 0
-2306 2308 2367 0
2306 -2308 2367 0
-2310 -2312 -2369 0
2310 2312 -2369 0
-2310 2312 2369 0
2310 -2312 2369 0
-2314 -2316 -2371 0
2314 2316 -2371 0
-2314 2316 2371 0
2314 -2316 2371 0
-2318 -2320 -2373 0
2318 2320 -2373 0
-2318 2320 2373 0
2318 -2320 2373 0
-2322 -2324 -2375 0
2322 2324 -2375 0
-2322 2324 2375 0
2322 -2324 2375 0
-2326 -2328 -2377 0
2326 2328 -2377 0
-2326 2328 2377 0
2326 -2328 2377 0
-2330 -2332 -2379 0
2330 2332 -2379 0
-2330 2332 2379 0
2330 -2332 2379 0
-2334 -2336 -2381 0
2334 2336 -2381 0
-2334 2336 2381 0
2334 -2336 2381 0
-2338 -2340 -2383 0
2338 2340 -2383 0
-2338 2340 2383 0
2338 -2340 2383 0
-2342 -2343 -2385 0
2342 2343 -2385 0
-2342 2343 2385 0
2342 -2343 2385 0
-2345 -2346 -2387 0
2345 2346 -2387 0
-2345 2346 2387 0
2345 -2346 2387 0
-2347 -2348 -2389 0
2347 2348 -2389 0
-2347 2348 2389 0
2347 -2348 2389 0
-2350 -2351 -2391 0
2350 2351 -2391 0
-2350 2351 2391 0
2350 -2351 2391 0
-2353 -2355 -2392 0
2353 2355 -2392 0
-2353 2355 2392 0
2353 -2355 2392 0
-2357 -2359 -2394 0
2357 2359 -2394 0
-2357 2359 2394 0
2357 -2359 2394 0
-2360 -2361 -2396 0
2360 2361 -2396 0
-2360 2361 2396 0
2360 -2361 2396 0
-2362 -2363 -2398 0
2362 2363 -2398 0
-2362 2363 2398 0
2362 -2363 2398 0
-2365 -2367 -2400 0
2365 2367 -2400 0
-2365 2367 2400 0
2365 -2367 2400 0
-2369 -2371 -2402 0
2369 2371 -2402 0
-2369 2371 2402 0
2369 -2371 2402 0
-2373 -2375 -2404 0
2373 2375 -2404 0
-2373 2375 2404 0
2373 -2375 2404 0
-2377 -2379 -2406 0
2377 2379 -2406 0
-2377 2379 2406 0
2377 -2379 2406 0
-2381 -2383 -2408 0
2381 2383 -2408 0
-2381 2383 2408 0
2381 -2383 2408 0
-2341 -2385 -2410 0
2341 2385 -2410 0
2341 -2385 2410 0
-2341 2385 2410 0
-2344 -2387 -2412 0
2344 2387 -2412 0
-2344 2387 2412 0
2344 -2387 2412 0
-2349 -2389 -2414 0
2349 2389 -2414 0
2349 -2389 2414 0
-2349 2389 2414 0
-2391 -2392 -2416 0
2391 2392 -2416 0
-2391 2392 2416 0
2391 -2392 2416 0
-2394 -2396 -2418 0
2394 2396 -2418 0
-2394 2396 2418 0
2394 -2396 2418 0
-2398 -2400 -2420 0
2398 2400 -2420 0
-2398 2400 2420 0
2398 -2400 2420 0
-2402 -2404 -2422 0
2402 2404 -2422 0
-2402 2404 2422 0
2402 -2404 2422 0
-2406 -2408 -2424 0
2406 2408 -2424 0
-2406 2408 2424 0
2406 -2408 2424 0
-2410 -2412 -2426 0
2410 2412 -2426 0
-2410 2412 2426 0
2410 -2412 2426 0
-2414 -2416 -2428 0
2414 2416 -2428 0
-2414 2416 2428 0
2414 -2416 2428 0
-2418 -2420 -2430 0
2418 2420 -2430 0
-2418 2420 2430 0
2418 -2420 2430 0
-2422 -2424 -2432 0
2422 2424 -2432 0
-2422 2424 2432 0
2422 -2424 2432 0
-2426 -2428 -2434 0
2426 2428 -2434 0
-2426 2428 2434 0
2426 -2428 2434 0
-2430 -2432 -2434 0
2430 2432 -2434 0
-2430 2432 2434 0
2430 -2432 2434 0
-2352 -2354 -2440 0
2352 2354 -2440 0
-2352 2354 2440 0
2352 -2354 2440 0
-2356 -2358 -2441 0
2356 2358 -2441 0
-2356 2358 2441 0
2356 -2358 2441 0
-2364 -2366 -2444 0
2364 2366 -2444 0
-2364 2366 2444 0
2364 -2366 2444 0
-2368 -2370 -2445 0
2368 2370 -2445 0
-2368 2370 2445 0
2368 -2370 2445 0
-2372 -2374 -2447 0
2372 2374 -2447 0
-2372 2374 2447 0
2372 -2374 2447 0
-2376 -2378 -2449 0
2376 2378 -2449 0
-2376 2378 2449 0
2376 -2378 2449 0
-2380 -2382 -2451 0
2380 2382 -2451 0
-2380 2382 2451 0
2380 -2382 2451 0
-2384 -2386 -2488 0
2384 2386 -2488 0
-2384 2386 2488 0
2384 -2386 2488 0
-2388 -2390 -2453 0
2388 2390 -2453 0
-2388 2390 2453 0
2388 -2390 2453 0
-2393 -2395 -2455 0
2393 2395 -2455 0
-2393 2395 2455 0
2393 -2395 2455 0
-2397 -2399 -2457 0
2397 2399 -2457 0
-2397 2399 2457 0
2397 -2399 2457 0
-2401 -2403 -2459 0
2401 2403 -2459 0
-2401 2403 2459 0
2401 -2403 2459 0
-2405 -2407 -2461 0
2405 2407 -2461 0
-2405 2407 2461 0
2405 -2407 2461 0
-2409 -2411 -2463 0
2409 2411 -2463 0
-2409 2411 2463 0
2409 -2411 2463 0
-2413 -2415 -2465 0
2413 2415 -2465 0
-2413 2415 2465 0
2413 -2415 2465 0
-2417 -2419 -2467 0
2417 2419 -2467 0
-2417 2419 2467 0
2417 -2419 2467 0
-2421 -2423 -2469 0
2421 2423 -2469 0
-2421 2423 2469 0
2421 -2423 2469 0
-2425 -2427 -2471 0
2425 2427 -2471 0
-2425 2427 2471 0
2425 -2427 2471 0
-2429 -2431 -2473 0
2429 2431 -2473 0
-2429 2431 2473 0
2429 -2431 2473 0
-2433 -2435 -2475 0
2433 2435 -2475 0
-2433 2435 2475 0
2433 -2435 2475 0
-2434 -2436 -2477 0
2434 2436 -2477 0
2434 -2436 2477 0
-2434 2436 2477 0
-2439 -2440 -2479 0
2439 2440 -2479 0
-2439 2440 2479 0
2439 -2440 2479 0
-2441 -2442 -2481 0
2441 2442 -2481 0
-2441 2442 2481 0
2441 -2442 2481 0
-2443 -2444 -2483 0
2443 2444 -2483 0
-2443 2444 2483 0
2443 -2444 2483 0
-2445 -2447 -2485 0
2445 2447 -2485 0
-2445 2447 2485 0
2445 -2447 2485 0
-2449 -2451 -2487 0
2449 2451 -2487 0
-2449 2451 2487 0
2449 -2451 2487 0
-2453 -2454 -2489 0
2453 2454 -2489 0
-2453 2454 2489 0
2453 -2454 2489 0
-2455 -2457 -2491 0
2455 2457 -2491 0
-2455 2457 2491 0
2455 -2457 2491 0
-2459 -2461 -2493 0
2459 2461 -2493 0
-2459 2461 2493 0
2459 -2461 2493 0
-2463 -2465 -2495 0
2463 2465 -2495 0
-2463 2465 2495 0
2463 -2465 2495 0
-2467 -2469 -2497 0
2467 2469 -2497 0
-2467 2469 2497 0
2467 -2469 2497 0
-2471 -2473 -2499 0
2471 2473 -2499 0
-2471 2473 2499 0
2471 -2473 2499 0
-2475 -2477 -2501 0
2475 2477 -2501 0
-2475 2477 2501 0
2475 -2477 2501 0
-2437 -2438 -2503 0
2437 2438 -2503 0
-2437 2438 2503 0
2437 -2438 2503 0
-2479 -2481 -2505 0
2479 2481 -2505 0
-2479 2481 2505 0
2479 -2481 2505 0
-2483 -2485 -2507 0
2483 2485 -2507 0
-2483 2485 2507 0
2483 -2485 2507 0
-2487 -2488 -2509 0
2487 2488 -2509 0
-2487 2488 2509 0
2487 -2488 2509 0
-2489 -2491 -2511 0
2489 2491 -2511 0
-2489 2491 2511 0
2489 -2491 2511 0
-2493 -2495 -2513 0
2493 2495 -2513 0
-2493 2495 2513 0
2493 -2495 2513 0
-2497 -2499 -2515 0
2497 2499 -2515 0
-2497 2499 2515 0
2497 -2499 2515 0
-2501 -2503 -2517 0
2501 2503 -2517 0
-2501 2503 2517 0
2501 -2503 2517 0
-2505 -2507 -2519 0
2505 2507 -2519 0
-2505 2507 2519 0
2505 -2507 2519 0
-2509 -2511 -2521 0
2509 2511 -2521 0
-2509 2511 2521 0
2509 -2511 2521 0
-2513 -2515 -2523 0
2513 2515 -2523 0
-2513 2515 2523 0
2513 -2515 2523 0
-2517 -2519 -2525 0
2517 2519 -2525 0
-2517 2519 2525 0
2517 -2519 2525 0
-2521 -2523 -2525 0
2521 2523 -2525 0
-2521 2523 2525 0
2521 -2523 2525 0
-2446 -2448 -2530 0
2446 2448 -2530 0
-2446 2448 2530 0
2446 -2448 2530 0
-2450 -2452 -2531 0
2450 2452 -2531 0
-2450 2452 2531 0
2450 -2452 2531 0
-2456 -2458 -2534 0
2456 2458 -2534 0
-2456 2458 2534 0
2456 -2458 2534 0
-2460 -2462 -2535 0
2460 2462 -2535 0
-2460 2462 2535 0
2460 -2462 2535 0
-2464 -2466 -2537 0
2464 2466 -2537 0
-2464 2466 2537 0
2464 -2466 2537 0
-2468 -2470 -2539 0
2468 2470 -2539 0
-2468 2470 2539 0
2468 -2470 2539 0
-2472 -2474 -2541 0
2472 2474 -2541 0
-2472 2474 2541 0
2472 -2474 2541 0
-2476 -2478 -2543 0
2476 2478 -2543 0
-2476 2478 2543 0
2476 -2478 2543 0
-2480 -2482 -2577 0
2480 2482 -2577 0
-2480 2482 2577 0
2480 -2482 2577 0
-2484 -2486 -2545 0
2484 2486 -2545 0
-2484 2486 2545 0
2484 -2486 2545 0
-2490 -2492 -2548 0
2490 2492 -2548 0
-2490 2492 2548 0
2490 -2492 2548 0
-2494 -2496 -2549 0
2494 2496 -2549 0
-2494 2496 2549 0
2494 -2496 2549 0
-2498 -2500 -2551 0
2498 2500 -2551 0
-2498 2500 2551 0
2498 -2500 2551 0
-2502 -2504 -2553 0
2502 2504 -2553 0
-2502 2504 2553 0
2502 -2504 2553 0
-2506 -2508 -2555 0
2506 2508 -2555 0
-2506 2508 2555 0
2506 -2508 2555 0
-2510 -2512 -2557 0
2510 2512 -2557 0
-2510 2512 2557 0
2510 -2512 2557 0
-2514 -2516 -2559 0
2514 2516 -2559 0
-2514 2516 2559 0
2514 -2516 2559 0
-2518 -2520 -2561 0
2518 2520 -2561 0
-2518 2520 2561 0
2518 -2520 2561 0
-2522 -2524 -2563 0
2522 2524 -2563 0
-2522 2524 2563 0
2522 -2524 2563 0
-2526 -2527 -2565 0
2526 2527 -2565 0
-2526 2527 2565 0
2526 -2527 2565 0
-2528 -2529 -2567 0
2528 2529 -2567 0
-2528 2529 2567 0
2528 -2529 2567 0
-2530 -2531 -2568 0
2530 2531 -2568 0
-2530 2531 2568 0
2530 -2531 2568 0
-2532 -2533 -2570 0
2532 2533 -2570 0
-2532 2533 2570 0
2532 -2533 2570 0
-2534 -2535 -2572 0
2534 2535 -2572 0
-2534 2535 2572 0
2534 -2535 2572 0
-2537 -2539 -2574 0
2537 2539 -2574 0
-2537 2539 2574 0
2537 -2539 2574 0
-2541 -2543 -2576 0
2541 2543 -2576 0
-2541 2543 2576 0
2541 -2543 2576 0
-2545 -2547 -2578 0
2545 2547 -2578 0
-2545 2547 2578 0
2545 -2547 2578 0
-2548 -2549 -2580 0
2548 2549 -2580 0
-2548 2549 2580 0
2548 -2549 2580 0
-2551 -2553 -2582 0
2551 2553 -2582 0
-2551 2553 2582 0
2551 -2553 2582 0
-2555 -2557 -2584 0
2555 2557 -2584 0
-2555 2557 2584 0
2555 -2557 2584 0
-2559 -2561 -2586 0
2559 2561 -2586 0
-2559 2561 2586 0
2559 -2561 2586 0
-2563 -2565 -2588 0
2563 2565 -2588 0
-2563 2565 2588 0
2563 -2565 2588 0
-2525 -2566 -2590 0
2525 2566 -2590 0
-2525 2566 2590 0
2525 -2566 2590 0
-2567 -2568 -2592 0
2567 2568 -2592 0
-2567 2568 2592 0
2567 -2568 2592 0
-2570 -2572 -2594 0
2570 2572 -2594 0
-2570 2572 2594 0
2570 -2572 2594 0
-2574 -2576 -2596 0
2574 2576 -2596 0
-2574 2576 2596 0
2574 -2576 2596 0
-2577 -2578 -2598 0
2577 2578 -2598 0
-2577 2578 2598 0
2577 -2578 2598 0
-2580 -2582 -2600 0
2580 2582 -2600 0
-2580 2582 2600 0
2580 -2582 2600 0
-2584 -2586 -2602 0
2584 2586 -2602 0
-2584 2586 2602 0
2584 -2586 2602 0
-2588 -2590 -2604 0
2588 2590 -2604 0
-2588 2590 2604 0
2588 -2590 2604 0
-2592 -2594 -2606 0
2592 2594 -2606 0
-2592 2594 2606 0
2592 -2594 2606 0
-2596 -2598 -2608 0
2596 2598 -2608 0
-2596 2598 2608 0
2596 -2598 2608 0
-2600 -2602 -2610 0
2600 2602 -2610 0
-2600 2602 2610 0
2600 -2602 2610 0
-2604 -2606 -2612 0
2604 2606 -2612 0
-2604 2606 2612 0
2604 -2606 2612 0
-2608 -2610 -2612 0
2608 2610 -2612 0
-2608 2610 2612 0
2608 -2610 2612 0
-2536 -2538 -2618 0
2536 2538 -2618 0
-2536 2538 2618 0
2536 -2538 2618 0
-2540 -2542 -2619 0
2540 2542 -2619 0
-2540 2542 2619 0
2540 -2542 2619 0
-2544 -2546 -2621 0
2544 2546 -2621 0
-2544 2546 2621 0
2544 -2546 2621 0
-2550 -2552 -2623 0
2550 2552 -2623 0
-2550 2552 2623 0
2550 -2552 2623 0
-2554 -2556 -2625 0
2554 2556 -2625 0
-2554 2556 2625 0
2554 -2556 2625 0
-2558 -2560 -2627 0
2558 2560 -2627 0
-2558 2560 2627 0
2558 -2560 2627 0
-2562 -2564 -2629 0
2562 2564 -2629 0
-2562 2564 2629 0
2562 -2564 2629 0
-2569 -2571 -2633 0
2569 2571 -2633 0
-2569 2571 2633 0
2569 -2571 2633 0
-2573 -2575 -2635 0
2573 2575 -2635 0
-2573 2575 2635 0
2573 -2575 2635 0
-2579 -2581 -2638 0
2579 2581 -2638 0
-2579 2581 2638 0
2579 -2581 2638 0
-2583 -2585 -2639 0
2583 2585 -2639 0
-2583 2585 2639 0
2583 -2585 2639 0
-2587 -2589 -2641 0
2587 2589 -2641 0
-2587 2589 2641 0
2587 -2589 2641 0
-2591 -2593 -2643 0
2591 2593 -2643 0
-2591 2593 2643 0
2591 -2593 2643 0
-2595 -2597 -2645 0
2595 2597 -2645 0
-2595 2597 2645 0
2595 -2597 2645 0
-2599 -2601 -2647 0
2599 2601 -2647 0
-2599 2601 2647 0
2599 -2601 2647 0
-2603 -2605 -2649 0
2603 2605 -2649 0
-2603 2605 2649 0
2603 -2605 2649 0
-2607 -2609 -2651 0
2607 2609 -2651 0
-2607 2609 2651 0
2607 -2609 2651 0
-2611 -2613 -2653 0
2611 2613 -2653 0
-2611 2613 2653 0
2611 -2613 2653 0
-2612 -2614 -2680 0
2612 2614 -2680 0
2612 -2614 2680 0
-2612 2614 2680 0
-2615 -2616 -2655 0
2615 2616 -2655 0
-2615 2616 2655 0
2615 -2616 2655 0
-2617 -2618 -2657 0
2617 2618 -2657 0
-2617 2618 2657 0
2617 -2618 2657 0
-2619 -2620 -2659 0
2619 2620 -2659 0
-2619 2620 2659 0
2619 -2620 2659 0
-2621 -2622 -2661 0
2621 2622 -2661 0
-2621 2622 2661 0
2621 -2622 2661 0
-2623 -2625 -2663 0
2623 2625 -2663 0
-2623 2625 2663 0
2623 -2625 2663 0
-2627 -2629 -2665 0
2627 2629 -2665 0
-2627 2629 2665 0
2627 -2629 2665 0
-2631 -2632 -2667 0
2631 2632 -2667 0
-2631 2632 2667 0
2631 -2632 2667 0
-2633 -2635 -2669 0
2633 2635 -2669 0
-2633 2635 2669 0
2633 -2635 2669 0
-2637 -2638 -2671 0
2637 2638 -2671 0
-2637 2638 2671 0
2637 -2638 2671 0
-2639 -2641 -2673 0
2639 2641 -2673 0
-2639 2641 2673 0
2639 -2641 2673 0
-2643 -2645 -2675 0
2643 2645 -2675 0
-2643 2645 2675 0
2643 -2645 2675 0
-2647 -2649 -2677 0
2647 2649 -2677 0
-2647 2649 2677 0
2647 -2649 2677 0
-2651 -2653 -2679 0
2651 2653 -2679 0
-2651 2653 2679 0
2651 -2653 2679 0
-2655 -2657 -2681 0
2655 2657 -2681 0
-2655 2657 2681 0
2655 -2657 2681 0
-2659 -2661 -2683 0
2659 2661 -2683 0
-2659 2661 2683 0
2659 -2661 2683 0
-2663 -2665 -2685 0
2663 2665 -2685 0
-2663 2665 2685 0
2663 -2665 2685 0
-2667 -2669 -2687 0
2667 2669 -2687 0
-2667 2669 2687 0
2667 -2669 2687 0
-2671 -2673 -2689 0
2671 2673 -2689 0
-2671 2673 2689 0
2671 -2673 2689 0
-2675 -2677 -2691 0
2675 2677 -2691 0
-2675 2677 2691 0
2675 -2677 2691 0
-2679 -2680 -2693 0
2679 2680 -2693 0
-2679 2680 2693 0
2679 -2680 2693 0
-2681 -2683 -2695 0
2681 2683 -2695 0
-2681 2683 2695 0
2681 -2683 2695 0
-2685 -2687 -2697 0
2685 2687 -2697 0
-2685 2687 2697 0
2685 -2687 2697 0
-2689 -2691 -2699 0
2689 2691 -2699 0
-2689 2691 2699 0
2689 -2691 2699 0
-2693 -2695 -2701 0
2693 2695 -2701 0
-2693 2695 2701 0
2693 -2695 2701 0
-2697 -2699 -2701 0
2697 2699 -2701 0
-2697 2699 2701 0
2697 -2699 2701 0
-2624 -2626 -2706 0
2624 2626 -2706 0
-2624 2626 2706 0
2624 -2626 2706 0
-2628 -2630 -2707 0
2628 2630 -2707 0
-2628 2630 2707 0
2628 -2630 2707 0
-2634 -2636 -2746 0
2634 2636 -2746 0
-2634 2636 2746 0
2634 -2636 2746 0
-2640 -2642 -2709 0
2640 2642 -2709 0
-2640 2642 2709 0
2640 -2642 2709 0
-2644 -2646 -2711 0
2644 2646 -2711 0
-2644 2646 2711 0
2644 -2646 2711 0
-2648 -2650 -2713 0
2648 2650 -2713 0
-2648 2650 2713 0
2648 -2650 2713 0
-2652 -2654 -2715 0
2652 2654 -2715 0
-2652 2654 2715 0
2652 -2654 2715 0
-2656 -2658 -2718 0
2656 2658 -2718 0
-2656 2658 2718 0
2656 -2658 2718 0
-2660 -2662 -2719 0
2660 2662 -2719 0
-2660 2662 2719 0
2660 -2662 2719 0
-2664 -2666 -2721 0
2664 2666 -2721 0
-2664 2666 2721 0
2664 -2666 2721 0
-2668 -2670 -2723 0
2668 2670 -2723 0
-2668 2670 2723 0
2668 -2670 2723 0
-2672 -2674 -2725 0
2672 2674 -2725 0
-2672 2674 2725 0
2672 -2674 2725 0
-2676 -2678 -2727 0
2676 2678 -2727 0
-2676 2678 2727 0
2676 -2678 2727 0
-2682 -2684 -2729 0
2682 2684 -2729 0
-2682 2684 2729 0
2682 -2684 2729 0
-2686 -2688 -2731 0
2686 2688 -2731 0
-2686 2688 2731 0
2686 -2688 2731 0
-2690 -2692 -2733 0
2690 2692 -2733 0
-2690 2692 2733 0
2690 -2692 2733 0
-2694 -2696 -2735 0
2694 2696 -2735 0
-2694 2696 2735 0
2694 -2696 2735 0
-2698 -2700 -2737 0
2698 2700 -2737 0
-2698 2700 2737 0
2698 -2700 2737 0
-2702 -2703 -2739 0
2702 2703 -2739 0
-2702 2703 2739 0
2702 -2703 2739 0
-2704 -2705 -2742 0
2704 2705 -2742 0
-2704 2705 2742 0
2704 -2705 2742 0
-2706 -2707 -2744 0
2706 2707 -2744 0
-2706 2707 2744 0
2706 -2707 2744 0
-2708 -2709 -2747 0
2708 2709 -2747 0
-2708 2709 2747 0
2708 -2709 2747 0
-2711 -2713 -2748 0
2711 2713 -2748 0
-2711 2713 2748 0
2711 -2713 2748 0
-2715 -2717 -2750 0
2715 2717 -2750 0
-2715 2717 2750 0
2715 -2717 2750 0
-2718 -2719 -2752 0
2718 2719 -2752 0
-2718 2719 2752 0
2718 -2719 2752 0
-2721 -2723 -2754 0
2721 2723 -2754 0
-2721 2723 2754 0
2721 -2723 2754 0
-2725 -2727 -2756 0
2725 2727 -2756 0
-2725 2727 2756 0
2725 -2727 2756 0
-2728 -2729 -2758 0
2728 2729 -2758 0
-2728 2729 2758 0
2728 -2729 2758 0
-2731 -2733 -2760 0
2731 2733 -2760 0
-2731 2733 2760 0
2731 -2733 2760 0
-2735 -2737 -2762 0
2735 2737 -2762 0
-2735 2737 2762 0
2735 -2737 2762 0
-2701 -2739 -2764 0
2701 2739 -2764 0
2701 -2739 2764 0
-2701 2739 2764 0
-2741 -2742 -2766 0
2741 2742 -2766 0
-2741 2742 2766 0
2741 -2742 2766 0
-2744 -2746 -2768 0
2744 2746 -2768 0
-2744 2746 2768 0
2744 -2746 2768 0
-2747 -2748 -2770 0
2747 2748 -2770 0
-2747 2748 2770 0
2747 -2748 2770 0
-2750 -2752 -2772 0
2750 2752 -2772 0
-2750 2752 2772 0
2750 -2752 2772 0
-2754 -2756 -2774 0
2754 2756 -2774 0
-2754 2756 2774 0
2754 -2756 2774 0
-2758 -2760 -2776 0
2758 2760 -2776 0
-2758 2760 2776 0
2758 -2760 2776 0
-2762 -2764 -2778 0
2762 2764 -2778 0
-2762 2764 2778 0
2762 -2764 2778 0
-2766 -2768 -2780 0
2766 2768 -2780 0
-2766 2768 2780 0
2766 -2768 2780 0
-2770 -2772 -2782 0
2770 2772 -2782 0
-2770 2772 2782 0
2770 -2772 2782 0
-2774 -2776 -2784 0
2774 2776 -2784 0
-2774 2776 2784 0
2774 -2776 2784 0
-2778 -2780 -2786 0
2778 2780 -2786 0
-2778 2780 2786 0
2778 -2780 2786 0
-2782 -2784 -2786 0
2782 2784 -2786 0
-2782 2784 2786 0
2782 -2784 2786 0
-2710 -2712 -2792 0
2710 2712 -2792 0
-2710 2712 2792 0
2710 -2712 2792 0
-2714 -2716 -2793 0
2714 2716 -2793 0
-2714 2716 2793 0
2714 -2716 2793 0
-2720 -2722 -2795 0
2720 2722 -2795 0
-2720 2722 2795 0
2720 -2722 2795 0
-2724 -2726 -2797 0
2724 2726 -2797 0
-2724 2726 2797 0
2724 -2726 2797 0
-2730 -2732 -2800 0
2730 2732 -2800 0
-2730 2732 2800 0
2730 -2732 2800 0
-2734 -2736 -2801 0
2734 2736 -2801 0
-2734 2736 2801 0
2734 -2736 2801 0
-2738 -2740 -2803 0
2738 2740 -2803 0
-2738 2740 2803 0
2738 -2740 2803 0
-2743 -2745 -2836 0
2743 2745 -2836 0
-2743 2745 2836 0
2743 -2745 2836 0
-2749 -2751 -2806 0
2749 2751 -2806 0
-2749 2751 2806 0
2749 -2751 2806 0
-2753 -2755 -2807 0
2753 2755 -2807 0
-2753 2755 2807 0
2753 -2755 2807 0
-2757 -2759 -2809 0
2757 2759 -2809 0
-2757 2759 2809 0
2757 -2759 2809 0
-2761 -2763 -2811 0
2761 2763 -2811 0
-2761 2763 2811 0
2761 -2763 2811 0
-2765 -2767 -2813 0
2765 2767 -2813 0
-2765 2767 2813 0
2765 -2767 2813 0
-2769 -2771 -2815 0
2769 2771 -2815 0
-2769 2771 2815 0
2769 -2771 2815 0
-2773 -2775 -2817 0
2773 2775 -2817 0
-2773 2775 2817 0
2773 -2775 2817 0
-2777 -2779 -2819 0
2777 2779 -2819 0
-2777 2779 2819 0
2777 -2779 2819 0
-2781 -2783 -2821 0
2781 2783 -2821 0
-2781 2783 2821 0
2781 -2783 2821 0
-2785 -2787 -2823 0
2785 2787 -2823 0
-2785 2787 2823 0
2785 -2787 2823 0
-2786 -2788 -2825 0
2786 2788 -2825 0
2786 -2788 2825 0
-2786 2788 2825 0
-2789 -2790 -2849 0
2789 2790 -2849 0
-2789 2790 2849 0
2789 -2790 2849 0
-2791 -2792 -2827 0
2791 2792 -2827 0
-2791 2792 2827 0
2791 -2792 2827 0
-2793 -2794 -2829 0
2793 2794 -2829 0
-2793 2794 2829 0
2793 -2794 2829 0
-2795 -2797 -2831 0
2795 2797 -2831 0
-2795 2797 2831 0
2795 -2797 2831 0
-2799 -2800 -2833 0
2799 2800 -2833 0
-2799 2800 2833 0
2799 -2800 2833 0
-2801 -2803 -2835 0
2801 2803 -2835 0
-2801 2803 2835 0
2801 -2803 2835 0
-2805 -2806 -2837 0
2805 2806 -2837 0
-2805 2806 2837 0
2805 -2806 2837 0
-2807 -2809 -2839 0
2807 2809 -2839 0
-2807 2809 2839 0
2807 -2809 2839 0
-2811 -2813 -2841 0
2811 2813 -2841 0
-2811 2813 2841 0
2811 -2813 2841 0
-2815 -2817 -2843 0
2815 2817 -2843 0
-2815 2817 2843 0
2815 -2817 2843 0
-2819 -2821 -2845 0
2819 2821 -2845 0
-2819 2821 2845 0
2819 -2821 2845 0
-2823 -2825 -2847 0
2823 2825 -2847 0
-2823 2825 2847 0
2823 -2825 2847 0
-2827 -2829 -2850 0
2827 2829 -2850 0
-2827 2829 2850 0
2827 -2829 2850 0
-2831 -2833 -2851 0
2831 2833 -2851 0
-2831 2833 2851 0
2831 -2833 2851 0
-2835 -2836 -2853 0
2835 2836 -2853 0
-2835 2836 2853 0
2835 -2836 2853 0
-2837 -2839 -2855 0
2837 2839 -2855 0
-2837 2839 2855 0
2837 -2839 2855 0
-2841 -2843 -2857 0
2841 2843 -2857 0
-2841 2843 2857 0
2841 -2843 2857 0
-2845 -2847 -2859 0
2845 2847 -2859 0
-2845 2847 2859 0
2845 -2847 2859 0
-2849 -2850 -2861 0
2849 2850 -2861 0
-2849 2850 2861 0
2849 -2850 2861 0
-2851 -2853 -2863 0
2851 2853 -2863 0
-2851 2853 2863 0
2851 -2853 2863 0
-2855 -2857 -2865 0
2855 2857 -2865 0
-2855 2857 2865 0
2855 -2857 2865 0
-2859 -2861 -2867 0
2859 2861 -2867 0
-2859 2861 2867 0
2859 -2861 2867 0
-2863 -2865 -2867 0
2863 2865 -2867 0
-2863 2865 2867 0
2863 -2865 2867 0
-2796 -2798 -2872 0
2796 2798 -2872 0
-2796 2798 2872 0
2796 -2798 2872 0
-2802 -2804 -2874 0
2802 2804 -2874 0
-2802 2804 2874 0
2802 -2804 2874 0
-2808 -2810 -2877 0
2808 2810 -2877 0
-2808 2810 2877 0
2808 -2810 2877 0
-2812 -2814 -2878 0
2812 2814 -2878 0
-2812 2814 2878 0
2812 -2814 2878 0
-2816 -2818 -2880 0
2816 2818 -2880 0
-2816 2818 2880 0
2816 -2818 2880 0
-2820 -2822 -2882 0
2820 2822 -2882 0
-2820 2822 2882 0
2820 -2822 2882 0
-2824 -2826 -2884 0
2824 2826 -2884 0
-2824 2826 2884 0
2824 -2826 2884 0
-2828 -2830 -2887 0
2828 2830 -2887 0
-2828 2830 2887 0
2828 -2830 2887 0
-2832 -2834 -2888 0
2832 2834 -2888 0
-2832 2834 2888 0
2832 -2834 2888 0
-2838 -2840 -2890 0
2838 2840 -2890 0
-2838 2840 2890 0
2838 -2840 2890 0
-2842 -2844 -2892 0
2842 2844 -2892 0
-2842 2844 2892 0
2842 -2844 2892 0
-2846 -2848 -2894 0
2846 2848 -2894 0
-2846 2848 2894 0
2846 -2848 2894 0
-2852 -2854 -2896 0
2852 2854 -2896 0
-2852 2854 2896 0
2852 -2854 2896 0
-2856 -2858 -2898 0
2856 2858 -2898 0
-2856 2858 2898 0
2856 -2858 2898 0
-2860 -2862 -2900 0
2860 2862 -2900 0
-2860 2862 2900 0
2860 -2862 2900 0
-2864 -2866 -2902 0
2864 2866 -2902 0
-2864 2866 2902 0
2864 -2866 2902 0
-2868 -2869 -2904 0
2868 2869 -2904 0
-2868 2869 2904 0
2868 -2869 2904 0
-2871 -2872 -2905 0
2871 2872 -2905 0
-2871 2872 2905 0
2871 -2872 2905 0
-2873 -2874 -2906 0
2873 2874 -2906 0
-2873 2874 2906 0
2873 -2874 2906 0
-2875 -2876 -2908 0
2875 2876 -2908 0
-2875 2876 2908 0
2875 -2876 2908 0
-2877 -2878 -2910 0
2877 2878 -2910 0
-2877 2878 2910 0
2877 -2878 2910 0
-2880 -2882 -2912 0
2880 2882 -2912 0
-2880 2882 2912 0
2880 -2882 2912 0
-2884 -2886 -2914 0
2884 2886 -2914 0
-2884 2886 2914 0
2884 -2886 2914 0
-2887 -2888 -2916 0
2887 2888 -2916 0
-2887 2888 2916 0
2887 -2888 2916 0
-2889 -2890 -2918 0
2889 2890 -2918 0
-2889 2890 2918 0
2889 -2890 2918 0
-2892 -2894 -2920 0
2892 2894 -2920 0
-2892 2894 2920 0
2892 -2894 2920 0
-2895 -2896 -2922 0
2895 2896 -2922 0
-2895 2896 2922 0
2895 -2896 2922 0
-2898 -2900 -2924 0
2898 2900 -2924 0
-2898 2900 2924 0
2898 -2900 2924 0
-2902 -2904 -2926 0
2902 2904 -2926 0
-2902 2904 2926 0
2902 -2904 2926 0
-2867 -2870 -2928 0
2867 2870 -2928 0
-2867 2870 2928 0
2867 -2870 2928 0
-2905 -2906 -2930 0
2905 2906 -2930 0
-2905 2906 2930 0
2905 -2906 2930 0
-2908 -2910 -2932 0
2908 2910 -2932 0
-2908 2910 2932 0
2908 -2910 2932 0
-2912 -2914 -2934 0
2912 2914 -2934 0
-2912 2914 2934 0
2912 -2914 2934 0
-2916 -2918 -2936 0
2916 2918 -2936 0
-2916 2918 2936 0
2916 -2918 2936 0
-2920 -2922 -2938 0
2920 2922 -2938 0
-2920 2922 2938 0
2920 -2922 2938 0
-2924 -2926 -2940 0
2924 2926 -2940 0
-2924 2926 2940 0
2924 -2926 2940 0
-2928 -2930 -2942 0
2928 2930 -2942 0
-2928 2930 2942 0
2928 -2930 2942 0
-2932 -2934 -2944 0
2932 2934 -2944 0
-2932 2934 2944 0
2932 -2934 2944 0
-2936 -2938 -2946 0
2936 2938 -2946 0
-2936 2938 2946 0
2936 -2938 2946 0
-2940 -2942 -2948 0
2940 2942 -2948 0
-2940 2942 2948 0
2940 -2942 2948 0
-2944 -2946 -2948 0
2944 2946 -2948 0
-2944 2946 2948 0
2944 -2946 2948 0
-2879 -2881 -2954 0
2879 2881 -2954 0
-2879 2881 2954 0
2879 -2881 2954 0
-2883 -2885 -2955 0
2883 2885 -2955 0
-2883 2885 2955 0
2883 -2885 2955 0
-2891 -2893 -2958 0
2891 2893 -2958 0
-2891 2893 2958 0
2891 -2893 2958 0
-2897 -2899 -2960 0
2897 2899 -2960 0
-2897 2899 2960 0
2897 -2899 2960 0
-2901 -2903 -2961 0
2901 2903 -2961 0
-2901 2903 2961 0
2901 -2903 2961 0
-2907 -2909 -2964 0
2907 2909 -2964 0
-2907 2909 2964 0
2907 -2909 2964 0
-2911 -2913 -2965 0
2911 2913 -2965 0
-2911 2913 2965 0
2911 -2913 2965 0
-2915 -2917 -2967 0
2915 2917 -2967 0
-2915 2917 2967 0
2915 -2917 2967 0
-2919 -2921 -2969 0
2919 2921 -2969 0
-2919 2921 2969 0
2919 -2921 2969 0
-2923 -2925 -2971 0
2923 2925 -2971 0
-2923 2925 2971 0
2923 -2925 2971 0
-2927 -2929 -2973 0
2927 2929 -2973 0
-2927 2929 2973 0
2927 -2929 2973 0
-2931 -2933 -2975 0
2931 2933 -2975 0
-2931 2933 2975 0
2931 -2933 2975 0
-2935 -2937 -2977 0
2935 2937 -2977 0
-2935 2937 2977 0
2935 -2937 2977 0
-2939 -2941 -2979 0
2939 2941 -2979 0
-2939 2941 2979 0
2939 -2941 2979 0
-2943 -2945 -2981 0
2943 2945 -2981 0
-2943 2945 2981 0
2943 -2945 2981 0
-2947 -2949 -2983 0
2947 2949 -2983 0
-2947 2949 2983 0
2947 -2949 2983 0
-2948 -2950 -3009 0
2948 2950 -3009 0
2948 -2950 3009 0
-2948 2950 3009 0
-2951 -2952 -2985 0
2951 2952 -2985 0
-2951 2952 2985 0
2951 -2952 2985 0
-2953 -2954 -2987 0
2953 2954 -2987 0
-2953 2954 2987 0
2953 -2954 2987 0
-2955 -2956 -2989 0
2955 2956 -2989 0
-2955 2956 2989 0
2955 -2956 2989 0
-2957 -2958 -2991 0
2957 2958 -2991 0
-2957 2958 2991 0
2957 -2958 2991 0
-2959 -2960 -2993 0
2959 2960 -2993 0
-2959 2960 2993 0
2959 -2960 2993 0
-2961 -2962 -2995 0
2961 2962 -2995 0
-2961 2962 2995 0
2961 -2962 2995 0
-2963 -2964 -2997 0
2963 2964 -2997 0
-2963 2964 2997 0
2963 -2964 2997 0
-2965 -2967 -2999 0
2965 2967 -2999 0
-2965 2967 2999 0
2965 -2967 2999 0
-2969 -2971 -3001 0
2969 2971 -3001 0
-2969 2971 3001 0
2969 -2971 3001 0
-2973 -2975 -3003 0
2973 2975 -3003 0
-2973 2975 3003 0
2973 -2975 3003 0
-2977 -2979 -3005 0
2977 2979 -3005 0
-2977 2979 3005 0
2977 -2979 3005 0
-2981 -2983 -3007 0
2981 2983 -3007 0
-2981 2983 3007 0
2981 -2983 3007 0
-2985 -2987 -3010 0
2985 2987 -3010 0
-2985 2987 3010 0
2985 -2987 3010 0
-2989 -2991 -3011 0
2989 2991 -3011 0
-2989 2991 3011 0
2989 -2991 3011 0
-2993 -2995 -3013 0
2993 2995 -3013 0
-2993 2995 3013 0
2993 -2995 3013 0
-2997 -2999 -3015 0
2997 2999 -3015 0
-2997 2999 3015 0
2997 -2999 3015 0
-3001 -3003 -3017 0
3001 3003 -3017 0
-3001 3003 3017 0
3001 -3003 3017 0
-3005 -3007 -3019 0
3005 3007 -3019 0
-3005 3007 3019 0
3005 -3007 3019 0
-3009 -3010 -3021 0
3009 3010 -3021 0
-3009 3010 3021 0
3009 -3010 3021 0
-3011 -3013 -3023 0
3011 3013 -3023 0
-3011 3013 3023 0
3011 -3013 3023 0
-3015 -3017 -3025 0
3015 3017 -3025 0
-3015 3017 3025 0
3015 -3017 3025 0
-3019 -3021 -3027 0
3019 3021 -3027 0
-3019 3021 3027 0
3019 -3021 3027 0
-3023 -3025 -3027 0
3023 3025 -3027 0
-3023 3025 3027 0
3023 -3025 3027 0
-2966 -2968 -3036 0
2966 2968 -3036 0
-2966 2968 3036 0
2966 -2968 3036 0
-2970 -2972 -3038 0
2970 2972 -3038 0
-2970 2972 3038 0
2970 -2972 3038 0
-2974 -2976 -3040 0
2974 2976 -3040 0
-2974 2976 3040 0
2974 -2976 3040 0
-2978 -2980 -3042 0
2978 2980 -3042 0
-2978 2980 3042 0
2978 -2980 3042 0
-2982 -2984 -3044 0
2982 2984 -3044 0
-2982 2984 3044 0
2982 -2984 3044 0
-2986 -2988 -3046 0
2986 2988 -3046 0
-2986 2988 3046 0
2986 -2988 3046 0
-2990 -2992 -3048 0
2990 2992 -3048 0
-2990 2992 3048 0
2990 -2992 3048 0
-2994 -2996 -3050 0
2994 2996 -3050 0
-2994 2996 3050 0
2994 -2996 3050 0
-2998 -3000 -3052 0
2998 3000 -3052 0
-2998 3000 3052 0
2998 -3000 3052 0
-3002 -3004 -3054 0
3002 3004 -3054 0
-3002 3004 3054 0
3002 -3004 3054 0
-3006 -3008 -3056 0
3006 3008 -3056 0
-3006 3008 3056 0
3006 -3008 3056 0
-3012 -3014 -3059 0
3012 3014 -3059 0
-3012 3014 3059 0
3012 -3014 3059 0
-3016 -3018 -3060 0
3016 3018 -3060 0
-3016 3018 3060 0
3016 -3018 3060 0
-3020 -3022 -3062 0
3020 3022 -3062 0
-3020 3022 3062 0
3020 -3022 3062 0
-3024 -3026 -3064 0
3024 3026 -3064 0
-3024 3026 3064 0
3024 -3026 3064 0
-3028 -3029 -3066 0
3028 3029 -3066 0
-3028 3029 3066 0
3028 -3029 3066 0
-3031 -3032 -3068 0
3031 3032 -3068 0
-3031 3032 3068 0
3031 -3032 3068 0
-3033 -3034 -3070 0
3033 3034 -3070 0
-3033 3034 3070 0
3033 -3034 3070 0
-3035 -3036 -3072 0
3035 3036 -3072 0
-3035 3036 3072 0
3035 -3036 3072 0
-3038 -3040 -3074 0
3038 3040 -3074 0
-3038 3040 3074 0
3038 -3040 3074 0
-3042 -3044 -3076 0
3042 3044 -3076 0
-3042 3044 3076 0
3042 -3044 3076 0
-3045 -3046 -3078 0
3045 3046 -3078 0
-3045 3046 3078 0
3045 -3046 3078 0
-3048 -3050 -3080 0
3048 3050 -3080 0
-3048 3050 3080 0
3048 -3050 3080 0
-3052 -3054 -3082 0
3052 3054 -3082 0
-3052 3054 3082 0
3052 -3054 3082 0
-3056 -3058 -3084 0
3056 3058 -3084 0
-3056 3058 3084 0
3056 -3058 3084 0
-3059 -3060 -3086 0
3059 3060 -3086 0
-3059 3060 3086 0
3059 -3060 3086 0
-3062 -3064 -3088 0
3062 3064 -3088 0
-3062 3064 3088 0
3062 -3064 3088 0
-3027 -3066 -3090 0
3027 3066 -3090 0
3027 -3066 3090 0
-3027 3066 3090 0
-3030 -3068 -3092 0
3030 3068 -3092 0
-3030 3068 3092 0
3030 -3068 3092 0
-3070 -3072 -3094 0
3070 3072 -3094 0
-3070 3072 3094 0
3070 -3072 3094 0
-3074 -3076 -3096 0
3074 3076 -3096 0
-3074 3076 3096 0
3074 -3076 3096 0
-3078 -3080 -3098 0
3078 3080 -3098 0
-3078 3080 3098 0
3078 -3080 3098 0
-3082 -3084 -3100 0
3082 3084 -3100 0
-3082 3084 3100 0
3082 -3084 3100 0
-3086 -3088 -3102 0
3086 3088 -3102 0
-3086 3088 3102 0
3086 -3088 3102 0
-3090 -3092 -3104 0
3090 3092 -3104 0
-3090 3092 3104 0
3090 -3092 3104 0
-3094 -3096 -3106 0
3094 3096 -3106 0
-3094 3096 3106 0
3094 -3096 3106 0
-3098 -3100 -3108 0
3098 3100 -3108 0
-3098 3100 3108 0
3098 -3100 3108 0
-3102 -3104 -3110 0
3102 3104 -3110 0
-3102 3104 3110 0
3102 -3104 3110 0
-3106 -3108 -3110 0
3106 3108 -3110 0
-3106 3108 3110 0
3106 -3108 3110 0
-3037 -3039 -3113 0
3037 3039 -3113 0
-3037 3039 3113 0
3037 -3039 3113 0
-3041 -3043 -3115 0
3041 3043 -3115 0
-3041 3043 3115 0
3041 -3043 3115 0
-3047 -3049 -3118 0
3047 3049 -3118 0
-3047 3049 3118 0
3047 -3049 3118 0
-3051 -3053 -3119 0
3051 3053 -3119 0
-3051 3053 3119 0
3051 -3053 3119 0
-3055 -3057 -3121 0
3055 3057 -3121 0
-3055 3057 3121 0
3055 -3057 3121 0
-3061 -3063 -3124 0
3061 3063 -3124 0
-3061 3063 3124 0
3061 -3063 3124 0
-3065 -3067 -3157 0
3065 3067 -3157 0
-3065 3067 3157 0
3065 -3067 3157 0
-3069 -3071 -3125 0
3069 3071 -3125 0
-3069 3071 3125 0
3069 -3071 3125 0
-3073 -3075 -3127 0
3073 3075 -3127 0
-3073 3075 3127 0
3073 -3075 3127 0
-3077 -3079 -3129 0
3077 3079 -3129 0
-3077 3079 3129 0
3077 -3079 3129 0
-3081 -3083 -3131 0
3081 3083 -3131 0
-3081 3083 3131 0
3081 -3083 3131 0
-3085 -3087 -3133 0
3085 3087 -3133 0
-3085 3087 3133 0
3085 -3087 3133 0
-3089 -3091 -3135 0
3089 3091 -3135 0
-3089 3091 3135 0
3089 -3091 3135 0
-3093 -3095 -3137 0
3093 3095 -3137 0
-3093 3095 3137 0
3093 -3095 3137 0
-3097 -3099 -3139 0
3097 3099 -3139 0
-3097 3099 3139 0
3097 -3099 3139 0
-3101 -3103 -3141 0
3101 3103 -3141 0
-3101 3103 3141 0
3101 -3103 3141 0
-3105 -3107 -3143 0
3105 3107 -3143 0
-3105 3107 3143 0
3105 -3107 3143 0
-3109 -3111 -3145 0
3109 3111 -3145 0
-3109 3111 3145 0
3109 -3111 3145 0
-3110 -3112 -3147 0
3110 3112 -3147 0
3110 -3112 3147 0
-3110 3112 3147 0
-3113 -3115 -3149 0
3113 3115 -3149 0
-3113 3115 3149 0
3113 -3115 3149 0
-3117 -3118 -3151 0
3117 3118 -3151 0
-3117 3118 3151 0
3117 -3118 3151 0
-3119 -3121 -3153 0
3119 3121 -3153 0
-3119 3121 3153 0
3119 -3121 3153 0
-3123 -3124 -3155 0
3123 3124 -3155 0
-3123 3124 3155 0
3123 -3124 3155 0
-3125 -3127 -3158 0
3125 3127 -3158 0
-3125 3127 3158 0
3125 -3127 3158 0
-3129 -3131 -3159 0
3129 3131 -3159 0
-3129 3131 3159 0
3129 -3131 3159 0
-3133 -3135 -3161 0
3133 3135 -3161 0
-3133 3135 3161 0
3133 -3135 3161 0
-3137 -3139 -3163 0
3137 3139 -3163 0
-3137 3139 3163 0
3137 -3139 3163 0
-3141 -3143 -3165 0
3141 3143 -3165 0
-3141 3143 3165 0
3141 -3143 3165 0
-3145 -3147 -3176 0
3145 3147 -3176 0
-3145 3147 3176 0
3145 -3147 3176 0
-3149 -3151 -3167 0
3149 3151 -3167 0
-3149 3151 3167 0
3149 -3151 3167 0
-3153 -3155 -3169 0
3153 3155 -3169 0
-3153 3155 3169 0
3153 -3155 3169 0
-3157 -3158 -3171 0
3157 3158 -3171 0
-3157 3158 3171 0
3157 -3158 3171 0
-3159 -3161 -3173 0
3159 3161 -3173 0
-3159 3161 3173 0
3159 -3161 3173 0
-3163 -3165 -3175 0
3163 3165 -3175 0
-3163 3165 3175 0
3163 -3165 3175 0
-3167 -3169 -3177 0
3167 3169 -3177 0
-3167 3169 3177 0
3167 -3169 3177 0
-3171 -3173 -3179 0
3171 3173 -3179 0
-3171 3173 3179 0
3171 -3173 3179 0
-3175 -3176 -3181 0
3175 3176 -3181 0
-3175 3176 3181 0
3175 -3176 3181 0
-3177 -3179 -3181 0
3177 3179 -3181 0
-3177 3179 3181 0
3177 -3179 3181 0
-3114 -3116 -3212 0
3114 3116 -3212 0
-3114 3116 3212 0
3114 -3116 3212 0
-3120 -3122 -3185 0
3120 3122 -3185 0
-3120 3122 3185 0
3120 -3122 3185 0
-3126 -3128 -3188 0
3126 3128 -3188 0
-3126 3128 3188 0
3126 -3128 3188 0
-3130 -3132 -3189 0
3130 3132 -3189 0
-3130 3132 3189 0
3130 -3132 3189 0
-3134 -3136 -3191 0
3134 3136 -3191 0
-3134 3136 3191 0
3134 -3136 3191 0
-3138 -3140 -3193 0
3138 3140 -3193 0
-3138 3140 3193 0
3138 -3140 3193 0
-3142 -3144 -3195 0
3142 3144 -3195 0
-3142 3144 3195 0
3142 -3144 3195 0
-3146 -3148 -3197 0
3146 3148 -3197 0
-3146 3148 3197 0
3146 -3148 3197 0
-3150 -3152 -3222 0
3150 3152 -3222 0
-3150 3152 3222 0
3150 -3152 3222 0
-3154 -3156 -3199 0
3154 3156 -3199 0
-3154 3156 3199 0
3154 -3156 3199 0
-3160 -3162 -3202 0
3160 3162 -3202 0
-3160 3162 3202 0
3160 -3162 3202 0
-3164 -3166 -3203 0
3164 3166 -3203 0
-3164 3166 3203 0
3164 -3166 3203 0
-3168 -3170 -3205 0
3168 3170 -3205 0
-3168 3170 3205 0
3168 -3170 3205 0
-3172 -3174 -3207 0
3172 3174 -3207 0
-3172 3174 3207 0
3172 -3174 3207 0
-3178 -3180 -3210 0
3178 3180 -3210 0
-3178 3180 3210 0
3178 -3180 3210 0
-3182 -3183 -3211 0
3182 3183 -3211 0
-3182 3183 3211 0
3182 -3183 3211 0
-3184 -3185 -3213 0
3184 3185 -3213 0
-3184 3185 3213 0
3184 -3185 3213 0
-3186 -3187 -3214 0
3186 3187 -3214 0
-3186 3187 3214 0
3186 -3187 3214 0
-3188 -3189 -3216 0
3188 3189 -3216 0
-3188 3189 3216 0
3188 -3189 3216 0
-3191 -3193 -3218 0
3191 3193 -3218 0
-3191 3193 3218 0
3191 -3193 3218 0
-3195 -3197 -3220 0
3195 3197 -3220 0
-3195 3197 3220 0
3195 -3197 3220 0
-3199 -3201 -3223 0
3199 3201 -3223 0
-3199 3201 3223 0
3199 -3201 3223 0
-3202 -3203 -3224 0
3202 3203 -3224 0
-3202 3203 3224 0
3202 -3203 3224 0
-3204 -3205 -3226 0
3204 3205 -3226 0
-3204 3205 3226 0
3204 -3205 3226 0
-3207 -3209 -3228 0
3207 3209 -3228 0
-3207 3209 3228 0
3207 -3209 3228 0
-3210 -3211 -3230 0
3210 3211 -3230 0
-3210 3211 3230 0
3210 -3211 3230 0
-3181 -3212 -3232 0
3181 3212 -3232 0
-3181 3212 3232 0
3181 -3212 3232 0
-3213 -3214 -3234 0
3213 3214 -3234 0
-3213 3214 3234 0
3213 -3214 3234 0
-3216 -3218 -3236 0
3216 3218 -3236 0
-3216 3218 3236 0
3216 -3218 3236 0
-3220 -3222 -3238 0
3220 3222 -3238 0
-3220 3222 3238 0
3220 -3222 3238 0
-3223 -3224 -3240 0
3223 3224 -3240 0
-3223 3224 3240 0
3223 -3224 3240 0
-3226 -3228 -3242 0
3226 3228 -3242 0
-3226 3228 3242 0
3226 -3228 3242 0
-3230 -3232 -3244 0
3230 3232 -3244 0
-3230 3232 3244 0
3230 -3232 3244 0
-3234 -3236 -3246 0
3234 3236 -3246 0
-3234 3236 3246 0
3234 -3236 3246 0
-3238 -3240 -3248 0
3238 3240 -3248 0
-3238 3240 3248 0
3238 -3240 3248 0
-3242 -3244 -3250 0
3242 3244 -3250 0
-3242 3244 3250 0
3242 -3244 3250 0
-3246 -3248 -3250 0
3246 3248 -3250 0
-3246 3248 3250 0
3246 -3248 3250 0
-3190 -3192 -3256 0
3190 3192 -3256 0
-3190 3192 3256 0
3190 -3192 3256 0
-3194 -3196 -3258 0
3194 3196 -3258 0
-3194 3196 3258 0
3194 -3196 3258 0
-3198 -3200 -3261 0
3198 3200 -3261 0
-3198 3200 3261 0
3198 -3200 3261 0
-3206 -3208 -3264 0
3206 3208 -3264 0
-3206 3208 3264 0
3206 -3208 3264 0
-3215 -3217 -3268 0
3215 3217 -3268 0
-3215 3217 3268 0
3215 -3217 3268 0
-3219 -3221 -3270 0
3219 3221 -3270 0
-3219 3221 3270 0
3219 -3221 3270 0
-3225 -3227 -3273 0
3225 3227 -3273 0
-3225 3227 3273 0
3225 -3227 3273 0
-3229 -3231 -3274 0
3229 3231 -3274 0
-3229 3231 3274 0
3229 -3231 3274 0
-3233 -3235 -3276 0
3233 3235 -3276 0
-3233 3235 3276 0
3233 -3235 3276 0
-3237 -3239 -3278 0
3237 3239 -3278 0
-3237 3239 3278 0
3237 -3239 3278 0
-3241 -3243 -3280 0
3241 3243 -3280 0
-3241 3243 3280 0
3241 -3243 3280 0
-3245 -3247 -3282 0
3245 3247 -3282 0
-3245 3247 3282 0
3245 -3247 3282 0
-3249 -3251 -3284 0
3249 3251 -3284 0
-3249 3251 3284 0
3249 -3251 3284 0
-3250 -3252 -3286 0
3250 3252 -3286 0
3250 -3252 3286 0
-3250 3252 3286 0
-3254 -3255 -3287 0
3254 3255 -3287 0
-3254 3255 3287 0
3254 -3255 3287 0
-3256 -3258 -3289 0
3256 3258 -3289 0
-3256 3258 3289 0
3256 -3258 3289 0
-3260 -3261 -3291 0
3260 3261 -3291 0
-3260 3261 3291 0
3260 -3261 3291 0
-3262 -3263 -3293 0
3262 3263 -3293 0
-3262 3263 3293 0
3262 -3263 3293 0
-3264 -3265 -3295 0
3264 3265 -3295 0
-3264 3265 3295 0
3264 -3265 3295 0
-3266 -3267 -3297 0
3266 3267 -3297 0
-3266 3267 3297 0
3266 -3267 3297 0
-3268 -3270 -3299 0
3268 3270 -3299 0
-3268 3270 3299 0
3268 -3270 3299 0
-3272 -3273 -3301 0
3272 3273 -3301 0
-3272 3273 3301 0
3272 -3273 3301 0
-3274 -3276 -3303 0
3274 3276 -3303 0
-3274 3276 3303 0
3274 -3276 3303 0
-3278 -3280 -3305 0
3278 3280 -3305 0
-3278 3280 3305 0
3278 -3280 3305 0
-3282 -3284 -3307 0
3282 3284 -3307 0
-3282 3284 3307 0
3282 -3284 3307 0
-3253 -3286 -3309 0
3253 3286 -3309 0
3253 -3286 3309 0
-3253 3286 3309 0
-3287 -3289 -3311 0
3287 3289 -3311 0
-3287 3289 3311 0
3287 -3289 3311 0
-3291 -3293 -3313 0
3291 3293 -3313 0
-3291 3293 3313 0
3291 -3293 3313 0
-3295 -3297 -3315 0
3295 3297 -3315 0
-3295 3297 3315 0
3295 -3297 3315 0
-3299 -3301 -3317 0
3299 3301 -3317 0
-3299 3301 3317 0
3299 -3301 3317 0
-3303 -3305 -3319 0
3303 3305 -3319 0
-3303 3305 3319 0
3303 -3305 3319 0
-3307 -3309 -3321 0
3307 3309 -3321 0
-3307 3309 3321 0
3307 -3309 3321 0
-3311 -3313 -3323 0
3311 3313 -3323 0
-3311 3313 3323 0
3311 -3313 3323 0
-3315 -3317 -3325 0
3315 3317 -3325 0
-3315 3317 3325 0
3315 -3317 3325 0
-3319 -3321 -3327 0
3319 3321 -3327 0
-3319 3321 3327 0
3319 -3321 3327 0
-3323 -3325 -3327 0
3323 3325 -3327 0
-3323 3325 3327 0
3323 -3325 3327 0
-3257 -3259 -3360 0
3257 3259 -3360 0
-3257 3259 3360 0
3257 -3259 3360 0
-3269 -3271 -3331 0
3269 3271 -3331 0
-3269 3271 3331 0
3269 -3271 3331 0
-3275 -3277 -3333 0
3275 3277 -3333 0
-3275 3277 3333 0
3275 -3277 3333 0
-3279 -3281 -3334 0
3279 3281 -3334 0
-3279 3281 3334 0
3279 -3281 3334 0
-3283 -3285 -3336 0
3283 3285 -3336 0
-3283 3285 3336 0
3283 -3285 3336 0
-3288 -3290 -3339 0
3288 3290 -3339 0
-3288 3290 3339 0
3288 -3290 3339 0
-3292 -3294 -3340 0
3292 3294 -3340 0
-3292 3294 3340 0
3292 -3294 3340 0
-3296 -3298 -3342 0
3296 3298 -3342 0
-3296 3298 3342 0
3296 -3298 3342 0
-3300 -3302 -3344 0
3300 3302 -3344 0
-3300 3302 3344 0
3300 -3302 3344 0
-3304 -3306 -3346 0
3304 3306 -3346 0
-3304 3306 3346 0
3304 -3306 3346 0
-3308 -3310 -3348 0
3308 3310 -3348 0
-3308 3310 3348 0
3308 -3310 3348 0
-3312 -3314 -3350 0
3312 3314 -3350 0
-3312 3314 3350 0
3312 -3314 3350 0
-3316 -3318 -3352 0
3316 3318 -3352 0
-3316 3318 3352 0
3316 -3318 3352 0
-3320 -3322 -3354 0
3320 3322 -3354 0
-3320 3322 3354 0
3320 -3322 3354 0
-3324 -3326 -3356 0
3324 3326 -3356 0
-3324 3326 3356 0
3324 -3326 3356 0
-3328 -3329 -3358 0
3328 3329 -3358 0
-3328 3329 3358 0
3328 -3329 3358 0
-3331 -3332 -3362 0
3331 3332 -3362 0
-3331 3332 3362 0
3331 -3332 3362 0
-3333 -3334 -3364 0
3333 3334 -3364 0
-3333 3334 3364 0
3333 -3334 3364 0
-3336 -3338 -3366 0
3336 3338 -3366 0
-3336 3338 3366 0
3336 -3338 3366 0
-3339 -3340 -3368 0
3339 3340 -3368 0
-3339 3340 3368 0
3339 -3340 3368 0
-3342 -3344 -3370 0
3342 3344 -3370 0
-3342 3344 3370 0
3342 -3344 3370 0
-3346 -3348 -3372 0
3346 3348 -3372 0
-3346 3348 3372 0
3346 -3348 3372 0
-3350 -3352 -3374 0
3350 3352 -3374 0
-3350 3352 3374 0
3350 -3352 3374 0
-3354 -3356 -3376 0
3354 3356 -3376 0
-3354 3356 3376 0
3354 -3356 3376 0
-3327 -3358 -3378 0
3327 3358 -3378 0
3327 -3358 3378 0
-3327 3358 3378 0
-3330 -3360 -3380 0
3330 3360 -3380 0
3330 -3360 3380 0
-3330 3360 3380 0
-3361 -3362 -3382 0
3361 3362 -3382 0
-3361 3362 3382 0
3361 -3362 3382 0
-3364 -3366 -3384 0
3364 3366 -3384 0
-3364 3366 3384 0
3364 -3366 3384 0
-3368 -3370 -3386 0
3368 3370 -3386 0
-3368 3370 3386 0
3368 -3370 3386 0
-3372 -3374 -3388 0
3372 3374 -3388 0
-3372 3374 3388 0
3372 -3374 3388 0
-3376 -3378 -3390 0
3376 3378 -3390 0
-3376 3378 3390 0
3376 -3378 3390 0
-3380 -3382 -3392 0
3380 3382 -3392 0
-3380 3382 3392 0
3380 -3382 3392 0
-3384 -3386 -3394 0
3384 3386 -3394 0
-3384 3386 3394 0
3384 -3386 3394 0
-3388 -3390 -3396 0
3388 3390 -3396 0
-3388 3390 3396 0
3388 -3390 3396 0
-3392 -3394 -3396 0
3392 3394 -3396 0
-3392 3394 3396 0
3392 -3394 3396 0
-3335 -3337 -3402 0
3335 3337 -3402 0
-3335 3337 3402 0
3335 -3337 3402 0
-3341 -3343 -3404 0
3341 3343 -3404 0
-3341 3343 3404 0
3341 -3343 3404 0
-3345 -3347 -3405 0
3345 3347 -3405 0
-3345 3347 3405 0
3345 -3347 3405 0
-3349 -3351 -3407 0
3349 3351 -3407 0
-3349 3351 3407 0
3349 -3351 3407 0
-3353 -3355 -3409 0
3353 3355 -3409 0
-3353 3355 3409 0
3353 -3355 3409 0
-3357 -3359 -3411 0
3357 3359 -3411 0
-3357 3359 3411 0
3357 -3359 3411 0
-3363 -3365 -3413 0
3363 3365 -3413 0
-3363 3365 3413 0
3363 -3365 3413 0
-3367 -3369 -3415 0
3367 3369 -3415 0
-3367 3369 3415 0
3367 -3369 3415 0
-3371 -3373 -3417 0
3371 3373 -3417 0
-3371 3373 3417 0
3371 -3373 3417 0
-3375 -3377 -3419 0
3375 3377 -3419 0
-3375 3377 3419 0
3375 -3377 3419 0
-3379 -3381 -3421 0
3379 3381 -3421 0
-3379 3381 3421 0
3379 -3381 3421 0
-3383 -3385 -3423 0
3383 3385 -3423 0
-3383 3385 3423 0
3383 -3385 3423 0
-3387 -3389 -3425 0
3387 3389 -3425 0
-3387 3389 3425 0
3387 -3389 3425 0
-3391 -3393 -3427 0
3391 3393 -3427 0
-3391 3393 3427 0
3391 -3393 3427 0
-3395 -3397 -3429 0
3395 3397 -3429 0
-3395 3397 3429 0
3395 -3397 3429 0
-3396 -3398 -3431 0
3396 3398 -3431 0
3396 -3398 3431 0
-3396 3398 3431 0
-3401 -3402 -3433 0
3401 3402 -3433 0
-3401 3402 3433 0
3401 -3402 3433 0
-3403 -3404 -3435 0
3403 3404 -3435 0
-3403 3404 3435 0
3403 -3404 3435 0
-3405 -3407 -3437 0
3405 3407 -3437 0
-3405 3407 3437 0
3405 -3407 3437 0
-3409 -3411 -3439 0
3409 3411 -3439 0
-3409 3411 3439 0
3409 -3411 3439 0
-3413 -3415 -3454 0
3413 3415 -3454 0
-3413 3415 3454 0
3413 -3415 3454 0
-3417 -3419 -3441 0
3417 3419 -3441 0
-3417 3419 3441 0
3417 -3419 3441 0
-3421 -3423 -3443 0
3421 3423 -3443 0
-3421 3423 3443 0
3421 -3423 3443 0
-3425 -3427 -3445 0
3425 3427 -3445 0
-3425 3427 3445 0
3425 -3427 3445 0
-3429 -3431 -3447 0
3429 3431 -3447 0
-3429 3431 3447 0
3429 -3431 3447 0
-3399 -3400 -3449 0
3399 3400 -3449 0
-3399 3400 3449 0
3399 -3400 3449 0
-3433 -3435 -3451 0
3433 3435 -3451 0
-3433 3435 3451 0
3433 -3435 3451 0
-3437 -3439 -3453 0
3437 3439 -3453 0
-3437 3439 3453 0
3437 -3439 3453 0
-3441 -3443 -3455 0
3441 3443 -3455 0
-3441 3443 3455 0
3441 -3443 3455 0
-3445 -3447 -3457 0
3445 3447 -3457 0
-3445 3447 3457 0
3445 -3447 3457 0
-3449 -3451 -3459 0
3449 3451 -3459 0
-3449 3451 3459 0
3449 -3451 3459 0
-3453 -3454 -3461 0
3453 3454 -3461 0
-3453 3454 3461 0
3453 -3454 3461 0
-3455 -3457 -3463 0
3455 3457 -3463 0
-3455 3457 3463 0
3455 -3457 3463 0
-3459 -3461 -3463 0
3459 3461 -3463 0
-3459 3461 3463 0
3459 -3461 3463 0
-3406 -3408 -3468 0
3406 3408 -3468 0
-3406 3408 3468 0
3406 -3408 3468 0
-3410 -3412 -3494 0
3410 3412 -3494 0
-3410 3412 3494 0
3410 -3412 3494 0
-3414 -3416 -3471 0
3414 3416 -3471 0
-3414 3416 3471 0
3414 -3416 3471 0
-3418 -3420 -3472 0
3418 3420 -3472 0
-3418 3420 3472 0
3418 -3420 3472 0
-3422 -3424 -3474 0
3422 3424 -3474 0
-3422 3424 3474 0
3422 -3424 3474 0
-3426 -3428 -3476 0
3426 3428 -3476 0
-3426 3428 3476 0
3426 -3428 3476 0
-3430 -3432 -3497 0
3430 3432 -3497 0
-3430 3432 3497 0
3430 -3432 3497 0
-3434 -3436 -3479 0
3434 3436 -3479 0
-3434 3436 3479 0
3434 -3436 3479 0
-3438 -3440 -3480 0
3438 3440 -3480 0
-3438 3440 3480 0
3438 -3440 3480 0
-3442 -3444 -3482 0
3442 3444 -3482 0
-3442 3444 3482 0
3442 -3444 3482 0
-3446 -3448 -3484 0
3446 3448 -3484 0
-3446 3448 3484 0
3446 -3448 3484 0
-3450 -3452 -3486 0
3450 3452 -3486 0
-3450 3452 3486 0
3450 -3452 3486 0
-3456 -3458 -3488 0
3456 3458 -3488 0
-3456 3458 3488 0
3456 -3458 3488 0
-3460 -3462 -3490 0
3460 3462 -3490 0
-3460 3462 3490 0
3460 -3462 3490 0
-3464 -3465 -3492 0
3464 3465 -3492 0
-3464 3465 3492 0
3464 -3465 3492 0
-3467 -3468 -3493 0
3467 3468 -3493 0
-3467 3468 3493 0
3467 -3468 3493 0
-3471 -3472 -3495 0
3471 3472 -3495 0
-3471 3472 3495 0
3471 -3472 3495 0
-3474 -3476 -3496 0
3474 3476 -3496 0
-3474 3476 3496 0
3474 -3476 3496 0
-3479 -3480 -3498 0
3479 3480 -3498 0
-3479 3480 3498 0
3479 -3480 3498 0
-3481 -3482 -3500 0
3481 3482 -3500 0
-3481 3482 3500 0
3481 -3482 3500 0
-3484 -3486 -3502 0
3484 3486 -3502 0
-3484 3486 3502 0
3484 -3486 3502 0
-3487 -3488 -3504 0
3487 3488 -3504 0
-3487 3488 3504 0
3487 -3488 3504 0
-3490 -3492 -3506 0
3490 3492 -3506 0
-3490 3492 3506 0
3490 -3492 3506 0
-3463 -3466 -3508 0
3463 3466 -3508 0
-3463 3466 3508 0
3463 -3466 3508 0
-3493 -3494 -3510 0
3493 3494 -3510 0
-3493 3494 3510 0
3493 -3494 3510 0
-3495 -3496 -3512 0
3495 3496 -3512 0
-3495 3496 3512 0
3495 -3496 3512 0
-3497 -3498 -3514 0
3497 3498 -3514 0
-3497 3498 3514 0
3497 -3498 3514 0
-3500 -3502 -3516 0
3500 3502 -3516 0
-3500 3502 3516 0
3500 -3502 3516 0
-3504 -3506 -3518 0
3504 3506 -3518 0
-3504 3506 3518 0
3504 -3506 3518 0
-3508 -3510 -3520 0
3508 3510 -3520 0
-3508 3510 3520 0
3508 -3510 3520 0
-3512 -3514 -3522 0
3512 3514 -3522 0
-3512 3514 3522 0
3512 -3514 3522 0
-3516 -3518 -3524 0
3516 3518 -3524 0
-3516 3518 3524 0
3516 -3518 3524 0
-3520 -3522 -3524 0
3520 3522 -3524 0
-3520 3522 3524 0
3520 -3522 3524 0
-3469 -3470 -3527 0
3469 3470 -3527 0
-3469 3470 3527 0
3469 -3470 3527 0
-3473 -3475 -3529 0
3473 3475 -3529 0
-3473 3475 3529 0
3473 -3475 3529 0
-3477 -3478 -3531 0
3477 3478 -3531 0
-3477 3478 3531 0
3477 -3478 3531 0
-3483 -3485 -3535 0
3483 3485 -3535 0
-3483 3485 3535 0
3483 -3485 3535 0
-3489 -3491 -3537 0
3489 3491 -3537 0
-3489 3491 3537 0
3489 -3491 3537 0
-3499 -3501 -3542 0
3499 3501 -3542 0
-3499 3501 3542 0
3499 -3501 3542 0
-3503 -3505 -3543 0
3503 3505 -3543 0
-3503 3505 3543 0
3503 -3505 3543 0
-3507 -3509 -3545 0
3507 3509 -3545 0
-3507 3509 3545 0
3507 -3509 3545 0
-3511 -3513 -3547 0
3511 3513 -3547 0
-3511 3513 3547 0
3511 -3513 3547 0
-3515 -3517 -3549 0
3515 3517 -3549 0
-3515 3517 3549 0
3515 -3517 3549 0
-3519 -3521 -3551 0
3519 3521 -3551 0
-3519 3521 3551 0
3519 -3521 3551 0
-3523 -3525 -3553 0
3523 3525 -3553 0
-3523 3525 3553 0
3523 -3525 3553 0
-3524 -3526 -3575 0
3524 3526 -3575 0
3524 -3526 3575 0
-3524 3526 3575 0
-3527 -3528 -3555 0
3527 3528 -3555 0
-3527 3528 3555 0
3527 -3528 3555 0
-3529 -3531 -3557 0
3529 3531 -3557 0
-3529 3531 3557 0
3529 -3531 3557 0
-3533 -3534 -3559 0
3533 3534 -3559 0
-3533 3534 3559 0
3533 -3534 3559 0
-3535 -3536 -3561 0
3535 3536 -3561 0
-3535 3536 3561 0
3535 -3536 3561 0
-3537 -3538 -3563 0
3537 3538 -3563 0
-3537 3538 3563 0
3537 -3538 3563 0
-3539 -3540 -3565 0
3539 3540 -3565 0
-3539 3540 3565 0
3539 -3540 3565 0
-3541 -3542 -3567 0
3541 3542 -3567 0
-3541 3542 3567 0
3541 -3542 3567 0
-3543 -3545 -3569 0
3543 3545 -3569 0
-3543 3545 3569 0
3543 -3545 3569 0
-3547 -3549 -3571 0
3547 3549 -3571 0
-3547 3549 3571 0
3547 -3549 3571 0
-3551 -3553 -3573 0
3551 3553 -3573 0
-3551 3553 3573 0
3551 -3553 3573 0
-3555 -3557 -3576 0
3555 3557 -3576 0
-3555 3557 3576 0
3555 -3557 3576 0
-3559 -3561 -3577 0
3559 3561 -3577 0
-3559 3561 3577 0
3559 -3561 3577 0
-3563 -3565 -3579 0
3563 3565 -3579 0
-3563 3565 3579 0
3563 -3565 3579 0
-3567 -3569 -3581 0
3567 3569 -3581 0
-3567 3569 3581 0
3567 -3569 3581 0
-3571 -3573 -3583 0
3571 3573 -3583 0
-3571 3573 3583 0
3571 -3573 3583 0
-3575 -3576 -3585 0
3575 3576 -3585 0
-3575 3576 3585 0
3575 -3576 3585 0
-3577 -3579 -3587 0
3577 3579 -3587 0
-3577 3579 3587 0
3577 -3579 3587 0
-3581 -3583 -3589 0
3581 3583 -3589 0
-3581 3583 3589 0
3581 -3583 3589 0
-3585 -3587 -3589 0
3585 3587 -3589 0
-3585 3587 3589 0
3585 -3587 3589 0
-3530 -3532 -3593 0
3530 3532 -3593 0
-3530 3532 3593 0
3530 -3532 3593 0
-3544 -3546 -3596 0
3544 3546 -3596 0
-3544 3546 3596 0
3544 -3546 3596 0
-3548 -3550 -3598 0
3548 3550 -3598 0
-3548 3550 3598 0
3548 -3550 3598 0
-3552 -3554 -3600 0
3552 3554 -3600 0
-3552 3554 3600 0
3552 -3554 3600 0
-3556 -3558 -3602 0
3556 3558 -3602 0
-3556 3558 3602 0
3556 -3558 3602 0
-3560 -3562 -3604 0
3560 3562 -3604 0
-3560 3562 3604 0
3560 -3562 3604 0
-3564 -3566 -3606 0
3564 3566 -3606 0
-3564 3566 3606 0
3564 -3566 3606 0
-3568 -3570 -3608 0
3568 3570 -3608 0
-3568 3570 3608 0
3568 -3570 3608 0
-3572 -3574 -3610 0
3572 3574 -3610 0
-3572 3574 3610 0
3572 -3574 3610 0
-3578 -3580 -3612 0
3578 3580 -3612 0
-3578 3580 3612 0
3578 -3580 3612 0
-3582 -3584 -3614 0
3582 3584 -3614 0
-3582 3584 3614 0
3582 -3584 3614 0
-3586 -3588 -3616 0
3586 3588 -3616 0
-3586 3588 3616 0
3586 -3588 3616 0
-3590 -3591 -3618 0
3590 3591 -3618 0
-3590 3591 3618 0
3590 -3591 3618 0
-3592 -3593 -3620 0
3592 3593 -3620 0
-3592 3593 3620 0
3592 -3593 3620 0
-3595 -3596 -3622 0
3595 3596 -3622 0
-3595 3596 3622 0
3595 -3596 3622 0
-3598 -3600 -3624 0
3598 3600 -3624 0
-3598 3600 3624 0
3598 -3600 3624 0
-3601 -3602 -3626 0
3601 3602 -3626 0
-3601 3602 3626 0
3601 -3602 3626 0
-3604 -3606 -3628 0
3604 3606 -3628 0
-3604 3606 3628 0
3604 -3606 3628 0
-3608 -3610 -3630 0
3608 3610 -3630 0
-3608 3610 3630 0
3608 -3610 3630 0
-3611 -3612 -3632 0
3611 3612 -3632 0
-3611 3612 3632 0
3611 -3612 3632 0
-3614 -3616 -3634 0
3614 3616 -3634 0
-3614 3616 3634 0
3614 -3616 3634 0
-3589 -3618 -3636 0
3589 3618 -3636 0
3589 -3618 3636 0
-3589 3618 3636 0
-3620 -3621 -3638 0
3620 3621 -3638 0
-3620 3621 3638 0
3620 -3621 3638 0
-3594 -3622 -3640 0
3594 3622 -3640 0
-3594 3622 3640 0
3594 -3622 3640 0
-3624 -3626 -3642 0
3624 3626 -3642 0
-3624 3626 3642 0
3624 -3626 3642 0
-3628 -3630 -3644 0
3628 3630 -3644 0
-3628 3630 3644 0
3628 -3630 3644 0
-3632 -3634 -3646 0
3632 3634 -3646 0
-3632 3634 3646 0
3632 -3634 3646 0
-3636 -3638 -3648 0
3636 3638 -3648 0
-3636 3638 3648 0
3636 -3638 3648 0
-3640 -3642 -3650 0
3640 3642 -3650 0
-3640 3642 3650 0
3640 -3642 3650 0
-3644 -3646 -3652 0
3644 3646 -3652 0
-3644 3646 3652 0
3644 -3646 3652 0
-3648 -3650 -3652 0
3648 3650 -3652 0
-3648 3650 3652 0
3648 -3650 3652 0
-3597 -3599 -3656 0
3597 3599 -3656 0
-3597 3599 3656 0
3597 -3599 3656 0
-3603 -3605 -3658 0
3603 3605 -3658 0
-3603 3605 3658 0
3603 -3605 3658 0
-3607 -3609 -3660 0
3607 3609 -3660 0
-3607 3609 3660 0
3607 -3609 3660 0
-3613 -3615 -3663 0
3613 3615 -3663 0
-3613 3615 3663 0
3613 -3615 3663 0
-3617 -3619 -3664 0
3617 3619 -3664 0
-3617 3619 3664 0
3617 -3619 3664 0
-3623 -3625 -3690 0
3623 3625 -3690 0
-3623 3625 3690 0
3623 -3625 3690 0
-3627 -3629 -3666 0
3627 3629 -3666 0
-3627 3629 3666 0
3627 -3629 3666 0
-3631 -3633 -3668 0
3631 3633 -3668 0
-3631 3633 3668 0
3631 -3633 3668 0
-3635 -3637 -3670 0
3635 3637 -3670 0
-3635 3637 3670 0
3635 -3637 3670 0
-3639 -3641 -3672 0
3639 3641 -3672 0
-3639 3641 3672 0
3639 -3641 3672 0
-3643 -3645 -3674 0
3643 3645 -3674 0
-3643 3645 3674 0
3643 -3645 3674 0
-3647 -3649 -3676 0
3647 3649 -3676 0
-3647 3649 3676 0
3647 -3649 3676 0
-3651 -3653 -3678 0
3651 3653 -3678 0
-3651 3653 3678 0
3651 -3653 3678 0
-3652 -3654 -3680 0
3652 3654 -3680 0
3652 -3654 3680 0
-3652 3654 3680 0
-3656 -3657 -3682 0
3656 3657 -3682 0
-3656 3657 3682 0
3656 -3657 3682 0
-3658 -3660 -3684 0
3658 3660 -3684 0
-3658 3660 3684 0
3658 -3660 3684 0
-3662 -3663 -3686 0
3662 3663 -3686 0
-3662 3663 3686 0
3662 -3663 3686 0
-3664 -3665 -3688 0
3664 3665 -3688 0
-3664 3665 3688 0
3664 -3665 3688 0
-3666 -3668 -3691 0
3666 3668 -3691 0
-3666 3668 3691 0
3666 -3668 3691 0
-3670 -3672 -3692 0
3670 3672 -3692 0
-3670 3672 3692 0
3670 -3672 3692 0
-3674 -3676 -3694 0
3674 3676 -3694 0
-3674 3676 3694 0
3674 -3676 3694 0
-3678 -3680 -3696 0
3678 3680 -3696 0
-3678 3680 3696 0
3678 -3680 3696 0
-3682 -3684 -3697 0
3682 3684 -3697 0
-3682 3684 3697 0
3682 -3684 3697 0
-3686 -3688 -3699 0
3686 3688 -3699 0
-3686 3688 3699 0
3686 -3688 3699 0
-3690 -3691 -3701 0
3690 3691 -3701 0
-3690 3691 3701 0
3690 -3691 3701 0
-3692 -3694 -3703 0
3692 3694 -3703 0
-3692 3694 3703 0
3692 -3694 3703 0
-3655 -3696 -3705 0
3655 3696 -3705 0
3655 -3696 3705 0
-3655 3696 3705 0
-3697 -3699 -3707 0
3697 3699 -3707 0
-3697 3699 3707 0
3697 -3699 3707 0
-3701 -3703 -3709 0
3701 3703 -3709 0
-3701 3703 3709 0
3701 -3703 3709 0
-3705 -3707 -3709 0
3705 3707 -3709 0
-3705 3707 3709 0
3705 -3707 3709 0
-3659 -3661 -3713 0
3659 3661 -3713 0
-3659 3661 3713 0
3659 -3661 3713 0
-3667 -3669 -3717 0
3667 3669 -3717 0
-3667 3669 3717 0
3667 -3669 3717 0
-3671 -3673 -3718 0
3671 3673 -3718 0
-3671 3673 3718 0
3671 -3673 3718 0
-3675 -3677 -3720 0
3675 3677 -3720 0
-3675 3677 3720 0
3675 -3677 3720 0
-3679 -3681 -3722 0
3679 3681 -3722 0
-3679 3681 3722 0
3679 -3681 3722 0
-3683 -3685 -3741 0
3683 3685 -3741 0
-3683 3685 3741 0
3683 -3685 3741 0
-3687 -3689 -3724 0
3687 3689 -3724 0
-3687 3689 3724 0
3687 -3689 3724 0
-3693 -3695 -3727 0
3693 3695 -3727 0
-3693 3695 3727 0
3693 -3695 3727 0
-3698 -3700 -3729 0
3698 3700 -3729 0
-3698 3700 3729 0
3698 -3700 3729 0
-3702 -3704 -3730 0
3702 3704 -3730 0
-3702 3704 3730 0
3702 -3704 3730 0
-3706 -3708 -3732 0
3706 3708 -3732 0
-3706 3708 3732 0
3706 -3708 3732 0
-3710 -3711 -3734 0
3710 3711 -3734 0
-3710 3711 3734 0
3710 -3711 3734 0
-3713 -3714 -3735 0
3713 3714 -3735 0
-3713 3714 3735 0
3713 -3714 3735 0
-3715 -3716 -3736 0
3715 3716 -3736 0
-3715 3716 3736 0
3715 -3716 3736 0
-3717 -3718 -3738 0
3717 3718 -3738 0
-3717 3718 3738 0
3717 -3718 3738 0
-3720 -3722 -3740 0
3720 3722 -3740 0
-3720 3722 3740 0
3720 -3722 3740 0
-3724 -3726 -3742 0
3724 3726 -3742 0
-3724 3726 3742 0
3724 -3726 3742 0
-3727 -3728 -3744 0
3727 3728 -3744 0
-3727 3728 3744 0
3727 -3728 3744 0
-3729 -3730 -3746 0
3729 3730 -3746 0
-3729 3730 3746 0
3729 -3730 3746 0
-3732 -3734 -3748 0
3732 3734 -3748 0
-3732 3734 3748 0
3732 -3734 3748 0
-3709 -3712 -3750 0
3709 3712 -3750 0
-3709 3712 3750 0
3709 -3712 3750 0
-3735 -3736 -3752 0
3735 3736 -3752 0
-3735 3736 3752 0
3735 -3736 3752 0
-3738 -3740 -3754 0
3738 3740 -3754 0
-3738 3740 3754 0
3738 -3740 3754 0
-3741 -3742 -3756 0
3741 3742 -3756 0
-3741 3742 3756 0
3741 -3742 3756 0
-3744 -3746 -3758 0
3744 3746 -3758 0
-3744 3746 3758 0
3744 -3746 3758 0
-3748 -3750 -3760 0
3748 3750 -3760 0
-3748 3750 3760 0
3748 -3750 3760 0
-3752 -3754 -3762 0
3752 3754 -3762 0
-3752 3754 3762 0
3752 -3754 3762 0
-3756 -3758 -3764 0
3756 3758 -3764 0
-3756 3758 3764 0
3756 -3758 3764 0
-3760 -3762 -3764 0
3760 3762 -3764 0
-3760 3762 3764 0
3760 -3762 3764 0
-3719 -3721 -3769 0
3719 3721 -3769 0
-3719 3721 3769 0
3719 -3721 3769 0
-3723 -3725 -3771 0
3723 3725 -3771 0
-3723 3725 3771 0
3723 -3725 3771 0
-3731 -3733 -3774 0
3731 3733 -3774 0
-3731 3733 3774 0
3731 -3733 3774 0
-3737 -3739 -3777 0
3737 3739 -3777 0
-3737 3739 3777 0
3737 -3739 3777 0
-3743 -3745 -3779 0
3743 3745 -3779 0
-3743 3745 3779 0
3743 -3745 3779 0
-3747 -3749 -3781 0
3747 3749 -3781 0
-3747 3749 3781 0
3747 -3749 3781 0
-3751 -3753 -3783 0
3751 3753 -3783 0
-3751 3753 3783 0
3751 -3753 3783 0
-3755 -3757 -3785 0
3755 3757 -3785 0
-3755 3757 3785 0
3755 -3757 3785 0
-3759 -3761 -3787 0
3759 3761 -3787 0
-3759 3761 3787 0
3759 -3761 3787 0
-3763 -3765 -3789 0
3763 3765 -3789 0
-3763 3765 3789 0
3763 -3765 3789 0
-3764 -3766 -3791 0
3764 3766 -3791 0
3764 -3766 3791 0
-3764 3766 3791 0
-3769 -3770 -3792 0
3769 3770 -3792 0
-3769 3770 3792 0
3769 -3770 3792 0
-3771 -3772 -3793 0
3771 3772 -3793 0
-3771 3772 3793 0
3771 -3772 3793 0
-3773 -3774 -3795 0
3773 3774 -3795 0
-3773 3774 3795 0
3773 -3774 3795 0
-3775 -3776 -3797 0
3775 3776 -3797 0
-3775 3776 3797 0
3775 -3776 3797 0
-3777 -3778 -3799 0
3777 3778 -3799 0
-3777 3778 3799 0
3777 -3778 3799 0
-3779 -3781 -3801 0
3779 3781 -3801 0
-3779 3781 3801 0
3779 -3781 3801 0
-3783 -3785 -3803 0
3783 3785 -3803 0
-3783 3785 3803 0
3783 -3785 3803 0
-3787 -3789 -3805 0
3787 3789 -3805 0
-3787 3789 3805 0
3787 -3789 3805 0
-3767 -3791 -3807 0
3767 3791 -3807 0
3767 -3791 3807 0
-3767 3791 3807 0
-3768 -3792 -3809 0
3768 3792 -3809 0
-3768 3792 3809 0
3768 -3792 3809 0
-3793 -3795 -3811 0
3793 3795 -3811 0
-3793 3795 3811 0
3793 -3795 3811 0
-3797 -3799 -3813 0
3797 3799 -3813 0
-3797 3799 3813 0
3797 -3799 3813 0
-3801 -3803 -3815 0
3801 3803 -3815 0
-3801 3803 3815 0
3801 -3803 3815 0
-3805 -3807 -3817 0
3805 3807 -3817 0
-3805 3807 3817 0
3805 -3807 3817 0
-3809 -3811 -3819 0
3809 3811 -3819 0
-3809 3811 3819 0
3809 -3811 3819 0
-3813 -3815 -3821 0
3813 3815 -3821 0
-3813 3815 3821 0
3813 -3815 3821 0
-3817 -3819 -3821 0
3817 3819 -3821 0
-3817 3819 3821 0
3817 -3819 3821 0
-3780 -3782 -3827 0
3780 3782 -3827 0
-3780 3782 3827 0
3780 -3782 3827 0
-3784 -3786 -3828 0
3784 3786 -3828 0
-3784 3786 3828 0
3784 -3786 3828 0
-3788 -3790 -3830 0
3788 3790 -3830 0
-3788 3790 3830 0
3788 -3790 3830 0
-3794 -3796 -3834 0
3794 3796 -3834 0
-3794 3796 3834 0
3794 -3796 3834 0
-3798 -3800 -3836 0
3798 3800 -3836 0
-3798 3800 3836 0
3798 -3800 3836 0
-3802 -3804 -3838 0
3802 3804 -3838 0
-3802 3804 3838 0
3802 -3804 3838 0
-3806 -3808 -3840 0
3806 3808 -3840 0
-3806 3808 3840 0
3806 -3808 3840 0
-3810 -3812 -3842 0
3810 3812 -3842 0
-3810 3812 3842 0
3810 -3812 3842 0
-3814 -3816 -3844 0
3814 3816 -3844 0
-3814 3816 3844 0
3814 -3816 3844 0
-3818 -3820 -3846 0
3818 3820 -3846 0
-3818 3820 3846 0
3818 -3820 3846 0
-3822 -3823 -3848 0
3822 3823 -3848 0
-3822 3823 3848 0
3822 -3823 3848 0
-3825 -3826 -3850 0
3825 3826 -3850 0
-3825 3826 3850 0
3825 -3826 3850 0
-3827 -3828 -3852 0
3827 3828 -3852 0
-3827 3828 3852 0
3827 -3828 3852 0
-3830 -3832 -3854 0
3830 3832 -3854 0
-3830 3832 3854 0
3830 -3832 3854 0
-3833 -3834 -3856 0
3833 3834 -3856 0
-3833 3834 3856 0
3833 -3834 3856 0
-3836 -3838 -3858 0
3836 3838 -3858 0
-3836 3838 3858 0
3836 -3838 3858 0
-3840 -3842 -3860 0
3840 3842 -3860 0
-3840 3842 3860 0
3840 -3842 3860 0
-3844 -3846 -3862 0
3844 3846 -3862 0
-3844 3846 3862 0
3844 -3846 3862 0
-3821 -3848 -3864 0
3821 3848 -3864 0
3821 -3848 3864 0
-3821 3848 3864 0
-3824 -3850 -3866 0
3824 3850 -3866 0
-3824 3850 3866 0
3824 -3850 3866 0
-3851 -3852 -3868 0
3851 3852 -3868 0
-3851 3852 3868 0
3851 -3852 3868 0
-3854 -3856 -3870 0
3854 3856 -3870 0
-3854 3856 3870 0
3854 -3856 3870 0
-3858 -3860 -3872 0
3858 3860 -3872 0
-3858 3860 3872 0
3858 -3860 3872 0
-3862 -3864 -3874 0
3862 3864 -3874 0
-3862 3864 3874 0
3862 -3864 3874 0
-3866 -3868 -3876 0
3866 3868 -3876 0
-3866 3868 3876 0
3866 -3868 3876 0
-3870 -3872 -3878 0
3870 3872 -3878 0
-3870 3872 3878 0
3870 -3872 3878 0
-3874 -3876 -3878 0
3874 3876 -3878 0
-3874 3876 3878 0
3874 -3876 3878 0
-3829 -3831 -3906 0
3829 3831 -3906 0
-3829 3831 3906 0
3829 -3831 3906 0
-3835 -3837 -3881 0
3835 3837 -3881 0
-3835 3837 3881 0
3835 -3837 3881 0
-3839 -3841 -3883 0
3839 3841 -3883 0
-3839 3841 3883 0
3839 -3841 3883 0
-3843 -3845 -3885 0
3843 3845 -3885 0
-3843 3845 3885 0
3843 -3845 3885 0
-3847 -3849 -3887 0
3847 3849 -3887 0
-3847 3849 3887 0
3847 -3849 3887 0
-3853 -3855 -3890 0
3853 3855 -3890 0
-3853 3855 3890 0
3853 -3855 3890 0
-3857 -3859 -3892 0
3857 3859 -3892 0
-3857 3859 3892 0
3857 -3859 3892 0
-3861 -3863 -3894 0
3861 3863 -3894 0
-3861 3863 3894 0
3861 -3863 3894 0
-3865 -3867 -3896 0
3865 3867 -3896 0
-3865 3867 3896 0
3865 -3867 3896 0
-3869 -3871 -3898 0
3869 3871 -3898 0
-3869 3871 3898 0
3869 -3871 3898 0
-3873 -3875 -3900 0
3873 3875 -3900 0
-3873 3875 3900 0
3873 -3875 3900 0
-3877 -3879 -3902 0
3877 3879 -3902 0
-3877 3879 3902 0
3877 -3879 3902 0
-3878 -3880 -3904 0
3878 3880 -3904 0
3878 -3880 3904 0
-3878 3880 3904 0
-3881 -3883 -3907 0
3881 3883 -3907 0
-3881 3883 3907 0
3881 -3883 3907 0
-3885 -3887 -3908 0
3885 3887 -3908 0
-3885 3887 3908 0
3885 -3887 3908 0
-3890 -3892 -3909 0
3890 3892 -3909 0
-3890 3892 3909 0
3890 -3892 3909 0
-3894 -3896 -3911 0
3894 3896 -3911 0
-3894 3896 3911 0
3894 -3896 3911 0
-3898 -3900 -3913 0
3898 3900 -3913 0
-3898 3900 3913 0
3898 -3900 3913 0
-3902 -3904 -3915 0
3902 3904 -3915 0
-3902 3904 3915 0
3902 -3904 3915 0
-3906 -3907 -3918 0
3906 3907 -3918 0
-3906 3907 3918 0
3906 -3907 3918 0
-3889 -3908 -3919 0
3889 3908 -3919 0
3889 -3908 3919 0
-3889 3908 3919 0
-3909 -3911 -3921 0
3909 3911 -3921 0
-3909 3911 3921 0
3909 -3911 3921 0
-3913 -3915 -3923 0
3913 3915 -3923 0
-3913 3915 3923 0
3913 -3915 3923 0
-3917 -3918 -3925 0
3917 3918 -3925 0
-3917 3918 3925 0
3917 -3918 3925 0
-3919 -3921 -3927 0
3919 3921 -3927 0
-3919 3921 3927 0
3919 -3921 3927 0
-3923 -3925 -3927 0
3923 3925 -3927 0
-3923 3925 3927 0
3923 -3925 3927 0
-3882 -3884 -3931 0
3882 3884 -3931 0
-3882 3884 3931 0
3882 -3884 3931 0
-3886 -3888 -3932 0
3886 3888 -3932 0
-3886 3888 3932 0
3886 -3888 3932 0
-3891 -3893 -3950 0
3891 3893 -3950 0
-3891 3893 3950 0
3891 -3893 3950 0
-3895 -3897 -3934 0
3895 3897 -3934 0
-3895 3897 3934 0
3895 -3897 3934 0
-3899 -3901 -3936 0
3899 3901 -3936 0
-3899 3901 3936 0
3899 -3901 3936 0
-3903 -3905 -3952 0
3903 3905 -3952 0
-3903 3905 3952 0
3903 -3905 3952 0
-3910 -3912 -3941 0
3910 3912 -3941 0
-3910 3912 3941 0
3910 -3912 3941 0
-3914 -3916 -3942 0
3914 3916 -3942 0
-3914 3916 3942 0
3914 -3916 3942 0
-3920 -3922 -3944 0
3920 3922 -3944 0
-3920 3922 3944 0
3920 -3922 3944 0
-3924 -3926 -3946 0
3924 3926 -3946 0
-3924 3926 3946 0
3924 -3926 3946 0
-3928 -3929 -3948 0
3928 3929 -3948 0
-3928 3929 3948 0
3928 -3929 3948 0
-3931 -3932 -3949 0
3931 3932 -3949 0
-3931 3932 3949 0
3931 -3932 3949 0
-3934 -3936 -3951 0
3934 3936 -3951 0
-3934 3936 3951 0
3934 -3936 3951 0
-3939 -3940 -3953 0
3939 3940 -3953 0
-3939 3940 3953 0
3939 -3940 3953 0
-3941 -3942 -3954 0
3941 3942 -3954 0
-3941 3942 3954 0
3941 -3942 3954 0
-3943 -3944 -3956 0
3943 3944 -3956 0
-3943 3944 3956 0
3943 -3944 3956 0
-3946 -3948 -3958 0
3946 3948 -3958 0
-3946 3948 3958 0
3946 -3948 3958 0
-3927 -3930 -3960 0
3927 3930 -3960 0
-3927 3930 3960 0
3927 -3930 3960 0
-3949 -3950 -3962 0
3949 3950 -3962 0
-3949 3950 3962 0
3949 -3950 3962 0
-3951 -3952 -3964 0
3951 3952 -3964 0
-3951 3952 3964 0
3951 -3952 3964 0
-3953 -3954 -3966 0
3953 3954 -3966 0
-3953 3954 3966 0
3953 -3954 3966 0
-3956 -3958 -3968 0
3956 3958 -3968 0
-3956 3958 3968 0
3956 -3958 3968 0
-3960 -3962 -3970 0
3960 3962 -3970 0
-3960 3962 3970 0
3960 -3962 3970 0
-3964 -3966 -3972 0
3964 3966 -3972 0
-3964 3966 3972 0
3964 -3966 3972 0
-3968 -3970 -3972 0
3968 3970 -3972 0
-3968 3970 3972 0
3968 -3970 3972 0
-3933 -3935 -3977 0
3933 3935 -3977 0
-3933 3935 3977 0
3933 -3935 3977 0
-3937 -3938 -3996 0
3937 3938 -3996 0
-3937 3938 3996 0
3937 -3938 3996 0
-3945 -3947 -3980 0
3945 3947 -3980 0
-3945 3947 3980 0
3945 -3947 3980 0
-3955 -3957 -3985 0
3955 3957 -3985 0
-3955 3957 3985 0
3955 -3957 3985 0
-3959 -3961 -3986 0
3959 3961 -3986 0
-3959 3961 3986 0
3959 -3961 3986 0
-3963 -3965 -3988 0
3963 3965 -3988 0
-3963 3965 3988 0
3963 -3965 3988 0
-3967 -3969 -3990 0
3967 3969 -3990 0
-3967 3969 3990 0
3967 -3969 3990 0
-3971 -3973 -3992 0
3971 3973 -3992 0
-3971 3973 3992 0
3971 -3973 3992 0
-3972 -3974 -3994 0
3972 3974 -3994 0
3972 -3974 3994 0
-3972 3974 3994 0
-3976 -3977 -3995 0
3976 3977 -3995 0
-3976 3977 3995 0
3976 -3977 3995 0
-3978 -3979 -3997 0
3978 3979 -3997 0
-3978 3979 3997 0
3978 -3979 3997 0
-3980 -3981 -3999 0
3980 3981 -3999 0
-3980 3981 3999 0
3980 -3981 3999 0
-3982 -3983 -4001 0
3982 3983 -4001 0
-3982 3983 4001 0
3982 -3983 4001 0
-3984 -3985 -4003 0
3984 3985 -4003 0
-3984 3985 4003 0
3984 -3985 4003 0
-3986 -3988 -4005 0
3986 3988 -4005 0
-3986 3988 4005 0
3986 -3988 4005 0
-3990 -3992 -4007 0
3990 3992 -4007 0
-3990 3992 4007 0
3990 -3992 4007 0
-3975 -3994 -4009 0
3975 3994 -4009 0
3975 -3994 4009 0
-3975 3994 4009 0
-3995 -3996 -4011 0
3995 3996 -4011 0
-3995 3996 4011 0
3995 -3996 4011 0
-3997 -3999 -4013 0
3997 3999 -4013 0
-3997 3999 4013 0
3997 -3999 4013 0
-4001 -4003 -4015 0
4001 4003 -4015 0
-4001 4003 4015 0
4001 -4003 4015 0
-4005 -4007 -4017 0
4005 4007 -4017 0
-4005 4007 4017 0
4005 -4007 4017 0
-4009 -4011 -4019 0
4009 4011 -4019 0
-4009 4011 4019 0
4009 -4011 4019 0
-4013 -4015 -4021 0
4013 4015 -4021 0
-4013 4015 4021 0
4013 -4015 4021 0
-4017 -4019 -4021 0
4017 4019 -4021 0
-4017 4019 4021 0
4017 -4019 4021 0
-3987 -3989 -4027 0
3987 3989 -4027 0
-3987 3989 4027 0
3987 -3989 4027 0
-3991 -3993 -4028 0
3991 3993 -4028 0
-3991 3993 4028 0
3991 -3993 4028 0
-3998 -4000 -4031 0
3998 4000 -4031 0
-3998 4000 4031 0
3998 -4000 4031 0
-4002 -4004 -4032 0
4002 4004 -4032 0
-4002 4004 4032 0
4002 -4004 4032 0
-4006 -4008 -4034 0
4006 4008 -4034 0
-4006 4008 4034 0
4006 -4008 4034 0
-4010 -4012 -4036 0
4010 4012 -4036 0
-4010 4012 4036 0
4010 -4012 4036 0
-4014 -4016 -4038 0
4014 4016 -4038 0
-4014 4016 4038 0
4014 -4016 4038 0
-4018 -4020 -4040 0
4018 4020 -4040 0
-4018 4020 4040 0
4018 -4020 4040 0
-4022 -4023 -4042 0
4022 4023 -4042 0
-4022 4023 4042 0
4022 -4023 4042 0
-4024 -4025 -4044 0
4024 4025 -4044 0
-4024 4025 4044 0
4024 -4025 4044 0
-4027 -4028 -4046 0
4027 4028 -4046 0
-4027 4028 4046 0
4027 -4028 4046 0
-4029 -4030 -4048 0
4029 4030 -4048 0
-4029 4030 4048 0
4029 -4030 4048 0
-4031 -4032 -4050 0
4031 4032 -4050 0
-4031 4032 4050 0
4031 -4032 4050 0
-4034 -4036 -4052 0
4034 4036 -4052 0
-4034 4036 4052 0
4034 -4036 4052 0
-4038 -4040 -4054 0
4038 4040 -4054 0
-4038 4040 4054 0
4038 -4040 4054 0
-4021 -4042 -4056 0
4021 4042 -4056 0
4021 -4042 4056 0
-4021 4042 4056 0
-4026 -4044 -4058 0
4026 4044 -4058 0
4026 -4044 4058 0
-4026 4044 4058 0
-4045 -4046 -4060 0
4045 4046 -4060 0
-4045 4046 4060 0
4045 -4046 4060 0
-4048 -4050 -4062 0
4048 4050 -4062 0
-4048 4050 4062 0
4048 -4050 4062 0
-4052 -4054 -4064 0
4052 4054 -4064 0
-4052 4054 4064 0
4052 -4054 4064 0
-4056 -4058 -4066 0
4056 4058 -4066 0
-4056 4058 4066 0
4056 -4058 4066 0
-4060 -4062 -4068 0
4060 4062 -4068 0
-4060 4062 4068 0
4060 -4062 4068 0
-4064 -4066 -4068 0
4064 4066 -4068 0
-4064 4066 4068 0
4064 -4066 4068 0
-4033 -4035 -4073 0
4033 4035 -4073 0
-4033 4035 4073 0
4033 -4035 4073 0
-4037 -4039 -4075 0
4037 4039 -4075 0
-4037 4039 4075 0
4037 -4039 4075 0
-4041 -4043 -4077 0
4041 4043 -4077 0
-4041 4043 4077 0
4041 -4043 4077 0
-4047 -4049 -4097 0
4047 4049 -4097 0
-4047 4049 4097 0
4047 -4049 4097 0
-4051 -4053 -4079 0
4051 4053 -4079 0
-4051 4053 4079 0
4051 -4053 4079 0
-4055 -4057 -4081 0
4055 4057 -4081 0
-4055 4057 4081 0
4055 -4057 4081 0
-4059 -4061 -4083 0
4059 4061 -4083 0
-4059 4061 4083 0
4059 -4061 4083 0
-4063 -4065 -4085 0
4063 4065 -4085 0
-4063 4065 4085 0
4063 -4065 4085 0
-4067 -4069 -4087 0
4067 4069 -4087 0
-4067 4069 4087 0
4067 -4069 4087 0
-4068 -4070 -4089 0
4068 4070 -4089 0
4068 -4070 4089 0
-4068 4070 4089 0
-4071 -4072 -4092 0
4071 4072 -4092 0
-4071 4072 4092 0
4071 -4072 4092 0
-4073 -4075 -4094 0
4073 4075 -4094 0
-4073 4075 4094 0
4073 -4075 4094 0
-4077 -4078 -4096 0
4077 4078 -4096 0
-4077 4078 4096 0
4077 -4078 4096 0
-4079 -4081 -4098 0
4079 4081 -4098 0
-4079 4081 4098 0
4079 -4081 4098 0
-4083 -4085 -4100 0
4083 4085 -4100 0
-4083 4085 4100 0
4083 -4085 4100 0
-4087 -4089 -4102 0
4087 4089 -4102 0
-4087 4089 4102 0
4087 -4089 4102 0
-4092 -4094 -4103 0
4092 4094 -4103 0
-4092 4094 4103 0
4092 -4094 4103 0
-4096 -4097 -4105 0
4096 4097 -4105 0
-4096 4097 4105 0
4096 -4097 4105 0
-4098 -4100 -4107 0
4098 4100 -4107 0
-4098 4100 4107 0
4098 -4100 4107 0
-4091 -4102 -4109 0
4091 4102 -4109 0
4091 -4102 4109 0
-4091 4102 4109 0
-4103 -4105 -4111 0
4103 4105 -4111 0
-4103 4105 4111 0
4103 -4105 4111 0
-4107 -4109 -4111 0
4107 4109 -4111 0
-4107 4109 4111 0
4107 -4109 4111 0
-4074 -4076 -4114 0
4074 4076 -4114 0
-4074 4076 4114 0
4074 -4076 4114 0
-4080 -4082 -4117 0
4080 4082 -4117 0
-4080 4082 4117 0
4080 -4082 4117 0
-4084 -4086 -4119 0
4084 4086 -4119 0
-4084 4086 4119 0
4084 -4086 4119 0
-4088 -4090 -4121 0
4088 4090 -4121 0
-4088 4090 4121 0
4088 -4090 4121 0
-4093 -4095 -4135 0
4093 4095 -4135 0
-4093 4095 4135 0
4093 -4095 4135 0
-4099 -4101 -4123 0
4099 4101 -4123 0
-4099 4101 4123 0
4099 -4101 4123 0
-4104 -4106 -4125 0
4104 4106 -4125 0
-4104 4106 4125 0
4104 -4106 4125 0
-4108 -4110 -4127 0
4108 4110 -4127 0
-4108 4110 4127 0
4108 -4110 4127 0
-4112 -4113 -4129 0
4112 4113 -4129 0
-4112 4113 4129 0
4112 -4113 4129 0
-4114 -4115 -4130 0
4114 4115 -4130 0
-4114 4115 4130 0
4114 -4115 4130 0
-4116 -4117 -4131 0
4116 4117 -4131 0
-4116 4117 4131 0
4116 -4117 4131 0
-4119 -4121 -4133 0
4119 4121 -4133 0
-4119 4121 4133 0
4119 -4121 4133 0
-4122 -4123 -4136 0
4122 4123 -4136 0
-4122 4123 4136 0
4122 -4123 4136 0
-4124 -4125 -4137 0
4124 4125 -4137 0
-4124 4125 4137 0
4124 -4125 4137 0
-4127 -4129 -4139 0
4127 4129 -4139 0
-4127 4129 4139 0
4127 -4129 4139 0
-4130 -4131 -4141 0
4130 4131 -4141 0
-4130 4131 4141 0
4130 -4131 4141 0
-4133 -4135 -4142 0
4133 4135 -4142 0
-4133 4135 4142 0
4133 -4135 4142 0
-4136 -4137 -4144 0
4136 4137 -4144 0
-4136 4137 4144 0
4136 -4137 4144 0
-4111 -4139 -4146 0
4111 4139 -4146 0
4111 -4139 4146 0
-4111 4139 4146 0
-4141 -4142 -4148 0
4141 4142 -4148 0
-4141 4142 4148 0
4141 -4142 4148 0
-4144 -4146 -4148 0
4144 4146 -4148 0
-4144 4146 4148 0
4144 -4146 4148 0
-4118 -4120 -4167 0
4118 4120 -4167 0
-4118 4120 4167 0
4118 -4120 4167 0
-4126 -4128 -4155 0
4126 4128 -4155 0
-4126 4128 4155 0
4126 -4128 4155 0
-4132 -4134 -4158 0
4132 4134 -4158 0
-4132 4134 4158 0
4132 -4134 4158 0
-4138 -4140 -4160 0
4138 4140 -4160 0
-4138 4140 4160 0
4138 -4140 4160 0
-4143 -4145 -4162 0
4143 4145 -4162 0
-4143 4145 4162 0
4143 -4145 4162 0
-4147 -4149 -4164 0
4147 4149 -4164 0
-4147 4149 4164 0
4147 -4149 4164 0
-4148 -4150 -4166 0
4148 4150 -4166 0
4148 -4150 4166 0
-4148 4150 4166 0
-4152 -4153 -4168 0
4152 4153 -4168 0
-4152 4153 4168 0
4152 -4153 4168 0
-4154 -4155 -4169 0
4154 4155 -4169 0
-4154 4155 4169 0
4154 -4155 4169 0
-4156 -4157 -4171 0
4156 4157 -4171 0
-4156 4157 4171 0
4156 -4157 4171 0
-4158 -4159 -4173 0
4158 4159 -4173 0
-4158 4159 4173 0
4158 -4159 4173 0
-4160 -4161 -4175 0
4160 4161 -4175 0
-4160 4161 4175 0
4160 -4161 4175 0
-4162 -4164 -4177 0
4162 4164 -4177 0
-4162 4164 4177 0
4162 -4164 4177 0
-4151 -4166 -4179 0
4151 4166 -4179 0
4151 -4166 4179 0
-4151 4166 4179 0
-4167 -4168 -4181 0
4167 4168 -4181 0
-4167 4168 4181 0
4167 -4168 4181 0
-4169 -4171 -4183 0
4169 4171 -4183 0
-4169 4171 4183 0
4169 -4171 4183 0
-4173 -4175 -4185 0
4173 4175 -4185 0
-4173 4175 4185 0
4173 -4175 4185 0
-4177 -4179 -4187 0
4177 4179 -4187 0
-4177 4179 4187 0
4177 -4179 4187 0
-4181 -4183 -4189 0
4181 4183 -4189 0
-4181 4183 4189 0
4181 -4183 4189 0
-4185 -4187 -4189 0
4185 4187 -4189 0
-4185 4187 4189 0
4185 -4187 4189 0
-4163 -4165 -4196 0
4163 4165 -4196 0
-4163 4165 4196 0
4163 -4165 4196 0
-4170 -4172 -4199 0
4170 4172 -4199 0
-4170 4172 4199 0
4170 -4172 4199 0
-4174 -4176 -4201 0
4174 4176 -4201 0
-4174 4176 4201 0
4174 -4176 4201 0
-4178 -4180 -4203 0
4178 4180 -4203 0
-4178 4180 4203 0
4178 -4180 4203 0
-4182 -4184 -4205 0
4182 4184 -4205 0
-4182 4184 4205 0
4182 -4184 4205 0
-4186 -4188 -4207 0
4186 4188 -4207 0
-4186 4188 4207 0
4186 -4188 4207 0
-4190 -4191 -4209 0
4190 4191 -4209 0
-4190 4191 4209 0
4190 -4191 4209 0
-4194 -4195 -4211 0
4194 4195 -4211 0
-4194 4195 4211 0
4194 -4195 4211 0
-4196 -4197 -4212 0
4196 4197 -4212 0
-4196 4197 4212 0
4196 -4197 4212 0
-4198 -4199 -4214 0
4198 4199 -4214 0
-4198 4199 4214 0
4198 -4199 4214 0
-4201 -4203 -4216 0
4201 4203 -4216 0
-4201 4203 4216 0
4201 -4203 4216 0
-4205 -4207 -4218 0
4205 4207 -4218 0
-4205 4207 4218 0
4205 -4207 4218 0
-4189 -4209 -4220 0
4189 4209 -4220 0
4189 -4209 4220 0
-4189 4209 4220 0
-4192 -4193 -4222 0
4192 4193 -4222 0
-4192 4193 4222 0
4192 -4193 4222 0
-4211 -4212 -4224 0
4211 4212 -4224 0
-4211 4212 4224 0
4211 -4212 4224 0
-4214 -4216 -4226 0
4214 4216 -4226 0
-4214 4216 4226 0
4214 -4216 4226 0
-4218 -4220 -4228 0
4218 4220 -4228 0
-4218 4220 4228 0
4218 -4220 4228 0
-4222 -4224 -4230 0
4222 4224 -4230 0
-4222 4224 4230 0
4222 -4224 4230 0
-4226 -4228 -4230 0
4226 4228 -4230 0
-4226 4228 4230 0
4226 -4228 4230 0
-4200 -4202 -4251 0
4200 4202 -4251 0
-4200 4202 4251 0
4200 -4202 4251 0
-4204 -4206 -4233 0
4204 4206 -4233 0
-4204 4206 4233 0
4204 -4206 4233 0
-4208 -4210 -4235 0
4208 4210 -4235 0
-4208 4210 4235 0
4208 -4210 4235 0
-4213 -4215 -4238 0
4213 4215 -4238 0
-4213 4215 4238 0
4213 -4215 4238 0
-4217 -4219 -4240 0
4217 4219 -4240 0
-4217 4219 4240 0
4217 -4219 4240 0
-4221 -4223 -4242 0
4221 4223 -4242 0
-4221 4223 4242 0
4221 -4223 4242 0
-4225 -4227 -4244 0
4225 4227 -4244 0
-4225 4227 4244 0
4225 -4227 4244 0
-4229 -4231 -4246 0
4229 4231 -4246 0
-4229 4231 4246 0
4229 -4231 4246 0
-4230 -4232 -4248 0
4230 4232 -4248 0
4230 -4232 4248 0
-4230 4232 4248 0
-4233 -4235 -4252 0
4233 4235 -4252 0
-4233 4235 4252 0
4233 -4235 4252 0
-4238 -4240 -4253 0
4238 4240 -4253 0
-4238 4240 4253 0
4238 -4240 4253 0
-4242 -4244 -4254 0
4242 4244 -4254 0
-4242 4244 4254 0
4242 -4244 4254 0
-4246 -4248 -4256 0
4246 4248 -4256 0
-4246 4248 4256 0
4246 -4248 4256 0
-4251 -4252 -4258 0
4251 4252 -4258 0
-4251 4252 4258 0
4251 -4252 4258 0
-4237 -4253 -4259 0
4237 4253 -4259 0
-4237 4253 4259 0
4237 -4253 4259 0
-4254 -4256 -4261 0
4254 4256 -4261 0
-4254 4256 4261 0
4254 -4256 4261 0
-4250 -4258 -4263 0
4250 4258 -4263 0
-4250 4258 4263 0
4250 -4258 4263 0
-4259 -4261 -4263 0
4259 4261 -4263 0
-4259 4261 4263 0
4259 -4261 4263 0
-4234 -4236 -4277 0
4234 4236 -4277 0
-4234 4236 4277 0
4234 -4236 4277 0
-4239 -4241 -4267 0
4239 4241 -4267 0
-4239 4241 4267 0
4239 -4241 4267 0
-4243 -4245 -4268 0
4243 4245 -4268 0
-4243 4245 4268 0
4243 -4245 4268 0
-4247 -4249 -4279 0
4247 4249 -4279 0
-4247 4249 4279 0
4247 -4249 4279 0
-4255 -4257 -4273 0
4255 4257 -4273 0
-4255 4257 4273 0
4255 -4257 4273 0
-4260 -4262 -4275 0
4260 4262 -4275 0
-4260 4262 4275 0
4260 -4262 4275 0
-4264 -4265 -4276 0
4264 4265 -4276 0
-4264 4265 4276 0
4264 -4265 4276 0
-4267 -4268 -4278 0
4267 4268 -4278 0
-4267 4268 4278 0
4267 -4268 4278 0
-4271 -4272 -4280 0
4271 4272 -4280 0
-4271 4272 4280 0
4271 -4272 4280 0
-4273 -4274 -4282 0
4273 4274 -4282 0
-4273 4274 4282 0
4273 -4274 4282 0
-4275 -4276 -4284 0
4275 4276 -4284 0
-4275 4276 4284 0
4275 -4276 4284 0
-4263 -4266 -4286 0
4263 4266 -4286 0
-4263 4266 4286 0
4263 -4266 4286 0
-4277 -4278 -4288 0
4277 4278 -4288 0
-4277 4278 4288 0
4277 -4278 4288 0
-4279 -4280 -4290 0
4279 4280 -4290 0
-4279 4280 4290 0
4279 -4280 4290 0
-4282 -4284 -4292 0
4282 4284 -4292 0
-4282 4284 4292 0
4282 -4284 4292 0
-4286 -4288 -4294 0
4286 4288 -4294 0
-4286 4288 4294 0
4286 -4288 4294 0
-4290 -4292 -4294 0
4290 4292 -4294 0
-4290 4292 4294 0
4290 -4292 4294 0
-4269 -4270 -4299 0
4269 4270 -4299 0
-4269 4270 4299 0
4269 -4270 4299 0
-4281 -4283 -4303 0
4281 4283 -4303 0
-4281 4283 4303 0
4281 -4283 4303 0
-4285 -4287 -4305 0
4285 4287 -4305 0
-4285 4287 4305 0
4285 -4287 4305 0
-4289 -4291 -4307 0
4289 4291 -4307 0
-4289 4291 4307 0
4289 -4291 4307 0
-4293 -4295 -4309 0
4293 4295 -4309 0
-4293 4295 4309 0
4293 -4295 4309 0
-4294 -4296 -4311 0
4294 4296 -4311 0
4294 -4296 4311 0
-4294 4296 4311 0
-4298 -4299 -4312 0
4298 4299 -4312 0
-4298 4299 4312 0
4298 -4299 4312 0
-4300 -4301 -4314 0
4300 4301 -4314 0
-4300 4301 4314 0
4300 -4301 4314 0
-4303 -4305 -4315 0
4303 4305 -4315 0
-4303 4305 4315 0
4303 -4305 4315 0
-4307 -4309 -4317 0
4307 4309 -4317 0
-4307 4309 4317 0
4307 -4309 4317 0
-4297 -4311 -4319 0
4297 4311 -4319 0
4297 -4311 4319 0
-4297 4311 4319 0
-4312 -4313 -4321 0
4312 4313 -4321 0
-4312 4313 4321 0
4312 -4313 4321 0
-4302 -4314 -4323 0
4302 4314 -4323 0
4302 -4314 4323 0
-4302 4314 4323 0
-4315 -4317 -4325 0
4315 4317 -4325 0
-4315 4317 4325 0
4315 -4317 4325 0
-4319 -4321 -4327 0
4319 4321 -4327 0
-4319 4321 4327 0
4319 -4321 4327 0
-4323 -4325 -4327 0
4323 4325 -4327 0
-4323 4325 4327 0
4323 -4325 4327 0
-4304 -4306 -4330 0
4304 4306 -4330 0
-4304 4306 4330 0
4304 -4306 4330 0
-4308 -4310 -4331 0
4308 4310 -4331 0
-4308 4310 4331 0
4308 -4310 4331 0
-4316 -4318 -4335 0
4316 4318 -4335 0
-4316 4318 4335 0
4316 -4318 4335 0
-4320 -4322 -4337 0
4320 4322 -4337 0
-4320 4322 4337 0
4320 -4322 4337 0
-4324 -4326 -4339 0
4324 4326 -4339 0
-4324 4326 4339 0
4324 -4326 4339 0
-4328 -4329 -4341 0
4328 4329 -4341 0
-4328 4329 4341 0
4328 -4329 4341 0
-4330 -4331 -4343 0
4330 4331 -4343 0
-4330 4331 4343 0
4330 -4331 4343 0
-4332 -4333 -4344 0
4332 4333 -4344 0
-4332 4333 4344 0
4332 -4333 4344 0
-4334 -4335 -4346 0
4334 4335 -4346 0
-4334 4335 4346 0
4334 -4335 4346 0
-4337 -4339 -4348 0
4337 4339 -4348 0
-4337 4339 4348 0
4337 -4339 4348 0
-4327 -4341 -4350 0
4327 4341 -4350 0
4327 -4341 4350 0
-4327 4341 4350 0
-4343 -4344 -4353 0
4343 4344 -4353 0
-4343 4344 4353 0
4343 -4344 4353 0
-4346 -4348 -4354 0
4346 4348 -4354 0
-4346 4348 4354 0
4346 -4348 4354 0
-4350 -4352 -4356 0
4350 4352 -4356 0
-4350 4352 4356 0
4350 -4352 4356 0
-4353 -4354 -4356 0
4353 4354 -4356 0
-4353 4354 4356 0
4353 -4354 4356 0
-4336 -4338 -4369 0
4336 4338 -4369 0
-4336 4338 4369 0
4336 -4338 4369 0
-4340 -4342 -4370 0
4340 4342 -4370 0
-4340 4342 4370 0
4340 -4342 4370 0
-4345 -4347 -4362 0
4345 4347 -4362 0
-4345 4347 4362 0
4345 -4347 4362 0
-4349 -4351 -4363 0
4349 4351 -4363 0
-4349 4351 4363 0
4349 -4351 4363 0
-4355 -4357 -4365 0
4355 4357 -4365 0
-4355 4357 4365 0
4355 -4357 4365 0
-4356 -4358 -4367 0
4356 4358 -4367 0
4356 -4358 4367 0
-4356 4358 4367 0
-4359 -4360 -4376 0
4359 4360 -4376 0
-4359 4360 4376 0
4359 -4360 4376 0
-4361 -4362 -4371 0
4361 4362 -4371 0
-4361 4362 4371 0
4361 -4362 4371 0
-4363 -4364 -4373 0
4363 4364 -4373 0
-4363 4364 4373 0
4363 -4364 4373 0
-4365 -4367 -4375 0
4365 4367 -4375 0
-4365 4367 4375 0
4365 -4367 4375 0
-4369 -4370 -4377 0
4369 4370 -4377 0
-4369 4370 4377 0
4369 -4370 4377 0
-4371 -4373 -4379 0
4371 4373 -4379 0
-4371 4373 4379 0
4371 -4373 4379 0
-4375 -4376 -4381 0
4375 4376 -4381 0
-4375 4376 4381 0
4375 -4376 4381 0
-4377 -4379 -4381 0
4377 4379 -4381 0
-4377 4379 4381 0
4377 -4379 4381 0
-4366 -4368 -4387 0
4366 4368 -4387 0
-4366 4368 4387 0
4366 -4368 4387 0
-4372 -4374 -4389 0
4372 4374 -4389 0
-4372 4374 4389 0
4372 -4374 4389 0
-4378 -4380 -4391 0
4378 4380 -4391 0
-4378 4380 4391 0
4378 -4380 4391 0
-4382 -4383 -4392 0
4382 4383 -4392 0
-4382 4383 4392 0
4382 -4383 4392 0
-4384 -4385 -4394 0
4384 4385 -4394 0
-4384 4385 4394 0
4384 -4385 4394 0
-4386 -4387 -4395 0
4386 4387 -4395 0
-4386 4387 4395 0
4386 -4387 4395 0
-4389 -4390 -4396 0
4389 4390 -4396 0
-4389 4390 4396 0
4389 -4390 4396 0
-4391 -4392 -4398 0
4391 4392 -4398 0
-4391 4392 4398 0
4391 -4392 4398 0
-4381 -4393 -4400 0
4381 4393 -4400 0
-4381 4393 4400 0
4381 -4393 4400 0
-4394 -4395 -4402 0
4394 4395 -4402 0
-4394 4395 4402 0
4394 -4395 4402 0
-4388 -4396 -4404 0
4388 4396 -4404 0
-4388 4396 4404 0
4388 -4396 4404 0
-4398 -4400 -4406 0
4398 4400 -4406 0
-4398 4400 4406 0
4398 -4400 4406 0
-4402 -4404 -4406 0
4402 4404 -4406 0
-4402 4404 4406 0
4402 -4404 4406 0
-4397 -4399 -4415 0
4397 4399 -4415 0
-4397 4399 4415 0
4397 -4399 4415 0
-4401 -4403 -4416 0
4401 4403 -4416 0
-4401 4403 4416 0
4401 -4403 4416 0
-4405 -4407 -4418 0
4405 4407 -4418 0
-4405 4407 4418 0
4405 -4407 4418 0
-4406 -4408 -4426 0
4406 4408 -4426 0
4406 -4408 4426 0
-4406 4408 4426 0
-4410 -4411 -4420 0
4410 4411 -4420 0
-4410 4411 4420 0
4410 -4411 4420 0
-4412 -4413 -4421 0
4412 4413 -4421 0
-4412 4413 4421 0
4412 -4413 4421 0
-4414 -4415 -4423 0
4414 4415 -4423 0
-4414 4415 4423 0
4414 -4415 4423 0
-4416 -4418 -4425 0
4416 4418 -4425 0
-4416 4418 4425 0
4416 -4418 4425 0
-4409 -4420 -4427 0
4409 4420 -4427 0
-4409 4420 4427 0
4409 -4420 4427 0
-4421 -4423 -4429 0
4421 4423 -4429 0
-4421 4423 4429 0
4421 -4423 4429 0
-4425 -4426 -4431 0
4425 4426 -4431 0
-4425 4426 4431 0
4425 -4426 4431 0
-4427 -4429 -4431 0
4427 4429 -4431 0
-4427 4429 4431 0
4427 -4429 4431 0
-4417 -4419 -4434 0
4417 4419 -4434 0
-4417 4419 4434 0
4417 -4419 4434 0
-4422 -4424 -4437 0
4422 4424 -4437 0
-4422 4424 4437 0
4422 -4424 4437 0
-4428 -4430 -4439 0
4428 4430 -4439 0
-4428 4430 4439 0
4428 -4430 4439 0
-4432 -4433 -4441 0
4432 4433 -4441 0
-4432 4433 4441 0
4432 -4433 4441 0
-4434 -4435 -4444 0
4434 4435 -4444 0
-4434 4435 4444 0
4434 -4435 4444 0
-4436 -4437 -4445 0
4436 4437 -4445 0
-4436 4437 4445 0
4436 -4437 4445 0
-4438 -4439 -4447 0
4438 4439 -4447 0
-4438 4439 4447 0
4438 -4439 4447 0
-4431 -4441 -4449 0
4431 4441 -4449 0
4431 -4441 4449 0
-4431 4441 4449 0
-4444 -4445 -4450 0
4444 4445 -4450 0
-4444 4445 4450 0
4444 -4445 4450 0
-4447 -4449 -4452 0
4447 4449 -4452 0
-4447 4449 4452 0
4447 -4449 4452 0
-4443 -4450 -4452 0
4443 4450 -4452 0
-4443 4450 4452 0
4443 -4450 4452 0
-4440 -4442 -4456 0
4440 4442 -4456 0
-4440 4442 4456 0
4440 -4442 4456 0
-4446 -4448 -4458 0
4446 4448 -4458 0
-4446 4448 4458 0
4446 -4448 4458 0
-4451 -4453 -4460 0
4451 4453 -4460 0
-4451 4453 4460 0
4451 -4453 4460 0
-4452 -4454 -4462 0
4452 4454 -4462 0
4452 -4454 4462 0
-4452 4454 4462 0
-4455 -4456 -4464 0
4455 4456 -4464 0
-4455 4456 4464 0
4455 -4456 4464 0
-4458 -4459 -4465 0
4458 4459 -4465 0
-4458 4459 4465 0
4458 -4459 4465 0
-4460 -4462 -4467 0
4460 4462 -4467 0
-4460 4462 4467 0
4460 -4462 4467 0
-4457 -4464 -4470 0
4457 4464 -4470 0
4457 -4464 4470 0
-4457 4464 4470 0
-4465 -4467 -4471 0
4465 4467 -4471 0
-4465 4467 4471 0
4465 -4467 4471 0
-4469 -4470 -4471 0
4469 4470 -4471 0
-4469 4470 4471 0
4469 -4470 4471 0
-4461 -4463 -4480 0
4461 4463 -4480 0
-4461 4463 4480 0
4461 -4463 4480 0
-4466 -4468 -4476 0
4466 4468 -4476 0
-4466 4468 4476 0
4466 -4468 4476 0
-4472 -4473 -4478 0
4472 4473 -4478 0
-4472 4473 4478 0
4472 -4473 4478 0
-4475 -4476 -4481 0
4475 4476 -4481 0
-4475 4476 4481 0
4475 -4476 4481 0
-4477 -4478 -4482 0
4477 4478 -4482 0
-4477 4478 4482 0
4477 -4478 4482 0
-4471 -4474 -4484 0
4471 4474 -4484 0
-4471 4474 4484 0
4471 -4474 4484 0
-4479 -4480 -4486 0
4479 4480 -4486 0
-4479 4480 4486 0
4479 -4480 4486 0
-4481 -4482 -4488 0
4481 4482 -4488 0
-4481 4482 4488 0
4481 -4482 4488 0
-4484 -4486 -4488 0
4484 4486 -4488 0
-4484 4486 4488 0
4484 -4486 4488 0
-4483 -4485 -4494 0
4483 4485 -4494 0
-4483 4485 4494 0
4483 -4485 4494 0
-4487 -4489 -4496 0
4487 4489 -4496 0
-4487 4489 4496 0
4487 -4489 4496 0
-4488 -4490 -4501 0
4488 4490 -4501 0
4488 -4490 4501 0
-4488 4490 4501 0
-4491 -4492 -4499 0
4491 4492 -4499 0
-4491 4492 4499 0
4491 -4492 4499 0
-4494 -4496 -4500 0
4494 4496 -4500 0
-4494 4496 4500 0
4494 -4496 4500 0
-4498 -4499 -4502 0
4498 4499 -4502 0
-4498 4499 4502 0
4498 -4499 4502 0
-4493 -4500 -4503 0
4493 4500 -4503 0
-4493 4500 4503 0
4493 -4500 4503 0
-4501 -4502 -4503 0
4501 4502 -4503 0
-4501 4502 4503 0
4501 -4502 4503 0
-4495 -4497 -4511 0
4495 4497 -4511 0
-4495 4497 4511 0
4495 -4497 4511 0
-4504 -4505 -4510 0
4504 4505 -4510 0
-4504 4505 4510 0
4504 -4505 4510 0
-4506 -4507 -4512 0
4506 4507 -4512 0
-4506 4507 4512 0
4506 -4507 4512 0
-4508 -4509 -4513 0
4508 4509 -4513 0
-4508 4509 4513 0
4508 -4509 4513 0
-4503 -4510 -4515 0
4503 4510 -4515 0
4503 -4510 4515 0
-4503 4510 4515 0
-4512 -4513 -4517 0
4512 4513 -4517 0
-4512 4513 4517 0
4512 -4513 4517 0
-4511 -4515 -4517 0
4511 4515 -4517 0
4511 -4515 4517 0
-4511 4515 4517 0
-4514 -4516 -4520 0
4514 4516 -4520 0
-4514 4516 4520 0
4514 -4516 4520 0
-4517 -4518 -4522 0
4517 4518 -4522 0
4517 -4518 4522 0
-4517 4518 4522 0
-4519 -4520 -4524 0
4519 4520 -4524 0
-4519 4520 4524 0
4519 -4520 4524 0
-4521 -4522 -4525 0
4521 4522 -4525 0
-4521 4522 4525 0
4521 -4522 4525 0
-4523 -4524 -4527 0
4523 4524 -4527 0
-4523 4524 4527 0
4523 -4524 4527 0
-4525 -4526 -4527 0
4525 4526 -4527 0
-4525 4526 4527 0
4525 -4526 4527 0
-4528 -4529 -4534 0
4528 4529 -4534 0
-4528 4529 4534 0
4528 -4529 4534 0
-4530 -4531 -4535 0
4530 4531 -4535 0
-4530 4531 4535 0
4530 -4531 4535 0
-4533 -4534 -4536 0
4533 4534 -4536 0
-4533 4534 4536 0
4533 -4534 4536 0
-4532 -4535 -4537 0
4532 4535 -4537 0
4532 -4535 4537 0
-4532 4535 4537 0
-4527 -4536 -4537 0
4527 4536 -4537 0
4527 -4536 4537 0
-4527 4536 4537 0
-4537 -4538 -4544 0
4537 4538 -4544 0
4537 -4538 4544 0
-4537 4538 4544 0
-4539 -4540 -4545 0
4539 4540 -4545 0
-4539 4540 4545 0
4539 -4540 4545 0
-4541 -4542 -4543 0
4541 4542 -4543 0
-4541 4542 4543 0
4541 -4542 4543 0
-4543 -4544 -4545 0
4543 4544 -4545 0
-4543 4544 4545 0
4543 -4544 4545 0
-4546 -4547 -4549 0
4546 4547 -4549 0
-4546 4547 4549 0
4546 -4547 4549 0
-4545 -4548 -4550 0
4545 4548 -4550 0
4545 -4548 4550 0
-4545 4548 4550 0
-4549 -4550 -4551 0
4549 4550 -4551 0
-4549 4550 4551 0
4549 -4550 4551 0
-4551 -4552 -4554 0
4551 4552 -4554 0
4551 -4552 4554 0
-4551 4552 4554 0
-4553 -4554 -4557 0
4553 4554 -4557 0
-4553 4554 4557 0
4553 -4554 4557 0
4555 -4556 4557 0
4555 4556 -4557 0
