c Factorization SAT instance #23: N = 467839 = 587 x 797
c p = 587 (10 bits), q = 797 (10 bits)
c N = 467839 (19 bits)
c Generator: generate_instances.py  d=3, k=50, seed=None
p cnf 5595 19769
1 9 -94 0
-1 -9 0
-9 94 0
1 -2 10 0
-1 -10 0
2 -10 0
1 -3 11 0
-1 -11 0
3 -11 0
1 -4 12 0
-1 -12 0
4 -12 0
1 -5 13 0
-1 -13 0
5 -13 0
1 -6 14 0
-1 -14 0
6 -14 0
1 -7 15 0
-1 -15 0
7 -15 0
1 -8 16 0
-1 -16 0
8 -16 0
-1 17 94 0
-17 -94 0
1 -17 0
-2 18 94 0
-18 -94 0
2 -18 0
-3 19 94 0
-19 -94 0
3 -19 0
-4 20 94 0
-20 -94 0
4 -20 0
-5 21 94 0
-21 -94 0
5 -21 0
-6 22 94 0
-22 -94 0
6 -22 0
-7 23 94 0
-23 -94 0
7 -23 0
-8 24 94 0
-24 -94 0
8 -24 0
-1 -25 97 0
25 -97 0
1 -97 0
-25 26 -94 0
25 -26 0
-26 94 0
-2 -25 27 0
25 -27 0
2 -27 0
-3 -25 28 0
25 -28 0
3 -28 0
-4 -25 29 0
25 -29 0
4 -29 0
-5 -25 30 0
25 -30 0
5 -30 0
-6 -25 31 0
25 -31 0
6 -31 0
-7 -25 32 0
25 -32 0
7 -32 0
-8 -25 33 0
25 -33 0
8 -33 0
-1 -34 35 0
34 -35 0
1 -35 0
-34 36 -94 0
34 -36 0
-36 94 0
-2 -34 37 0
34 -37 0
2 -37 0
-3 -34 38 0
34 -38 0
3 -38 0
-4 -34 39 0
34 -39 0
4 -39 0
-5 -34 40 0
34 -40 0
5 -40 0
-6 -34 41 0
34 -41 0
6 -41 0
-7 -34 42 0
34 -42 0
7 -42 0
-8 -34 43 0
34 -43 0
8 -43 0
-1 -44 45 0
44 -45 0
1 -45 0
-44 46 -94 0
44 -46 0
-46 94 0
-2 -44 47 0
44 -47 0
2 -47 0
-3 -44 48 0
44 -48 0
3 -48 0
-4 -44 49 0
44 -49 0
4 -49 0
-5 -44 50 0
44 -50 0
5 -50 0
-6 -44 51 0
44 -51 0
6 -51 0
-7 -44 52 0
44 -52 0
7 -52 0
-8 -44 53 0
44 -53 0
8 -53 0
-1 -54 55 0
54 -55 0
1 -55 0
-54 56 -94 0
54 -56 0
-56 94 0
-2 -54 57 0
54 -57 0
2 -57 0
-3 -54 58 0
54 -58 0
3 -58 0
-4 -54 59 0
54 -59 0
4 -59 0
-5 -54 60 0
54 -60 0
5 -60 0
-6 -54 61 0
54 -61 0
6 -61 0
-7 -54 62 0
54 -62 0
7 -62 0
-8 -54 63 0
54 -63 0
8 -63 0
-1 -64 65 0
64 -65 0
1 -65 0
-64 66 -94 0
64 -66 0
-66 94 0
-2 -64 67 0
64 -67 0
2 -67 0
-3 -64 68 0
64 -68 0
3 -68 0
-4 -64 69 0
64 -69 0
4 -69 0
-5 -64 70 0
64 -70 0
5 -70 0
-6 -64 71 0
64 -71 0
6 -71 0
-7 -64 72 0
64 -72 0
7 -72 0
-8 -64 73 0
64 -73 0
8 -73 0
-1 -74 75 0
74 -75 0
1 -75 0
-74 76 -94 0
74 -76 0
-76 94 0
-2 -74 77 0
74 -77 0
2 -77 0
-3 -74 78 0
74 -78 0
3 -78 0
-4 -74 79 0
74 -79 0
4 -79 0
-5 -74 80 0
74 -80 0
5 -80 0
-6 -74 81 0
74 -81 0
6 -81 0
-7 -74 82 0
74 -82 0
7 -82 0
-8 -74 83 0
74 -83 0
8 -83 0
-1 -84 85 0
84 -85 0
1 -85 0
-84 86 -94 0
84 -86 0
-86 94 0
-2 -84 87 0
84 -87 0
2 -87 0
-3 -84 88 0
84 -88 0
3 -88 0
-4 -84 89 0
84 -89 0
4 -89 0
-5 -84 90 0
84 -90 0
5 -90 0
-6 -84 91 0
84 -91 0
6 -91 0
-7 -84 92 0
84 -92 0
7 -92 0
-8 -84 93 0
84 -93 0
8 -93 0
-2 -9 95 0
2 -95 0
9 -95 0
-17 -25 101 0
17 -101 0
25 -101 0
-3 -10 108 0
3 -108 0
10 -108 0
-34 -95 109 0
34 -109 0
95 -109 0
-97 -98 110 0
97 -110 0
98 -110 0
-99 -100 111 0
99 -111 0
100 -111 0
-4 -11 103 0
4 -103 0
11 -103 0
-18 -26 105 0
18 -105 0
26 -105 0
-35 -44 107 0
35 -107 0
44 -107 0
-102 -104 126 0
102 -126 0
104 -126 0
-106 -108 127 0
106 -127 0
108 -127 0
-110 -111 115 0
110 -115 0
111 -115 0
-112 -113 117 0
112 -117 0
113 -117 0
-109 -114 129 0
109 -129 0
114 -129 0
-5 -12 119 0
5 -119 0
12 -119 0
-19 -27 121 0
19 -121 0
27 -121 0
-36 -45 123 0
36 -123 0
45 -123 0
-54 -103 125 0
54 -125 0
103 -125 0
-105 -107 151 0
105 -151 0
107 -151 0
-115 -117 163 0
115 -163 0
117 -163 0
-118 -120 152 0
118 -152 0
120 -152 0
-122 -124 153 0
122 -153 0
124 -153 0
-127 -128 154 0
127 -154 0
128 -154 0
-129 -130 135 0
129 -135 0
130 -135 0
-131 -132 137 0
131 -137 0
132 -137 0
-126 -133 139 0
126 -139 0
133 -139 0
-134 -136 140 0
134 -140 0
136 -140 0
-6 -13 141 0
6 -141 0
13 -141 0
-20 -28 143 0
20 -143 0
28 -143 0
-37 -46 145 0
37 -145 0
46 -145 0
-55 -64 147 0
55 -147 0
64 -147 0
-119 -121 149 0
119 -149 0
121 -149 0
-123 -125 192 0
123 -192 0
125 -192 0
-135 -137 193 0
135 -193 0
137 -193 0
-139 -140 194 0
139 -194 0
140 -194 0
-142 -144 159 0
142 -159 0
144 -159 0
-146 -148 161 0
146 -161 0
148 -161 0
-150 -151 196 0
150 -196 0
151 -196 0
-152 -153 165 0
152 -165 0
153 -165 0
-154 -155 167 0
154 -167 0
155 -167 0
-156 -157 169 0
156 -169 0
157 -169 0
-158 -160 171 0
158 -171 0
160 -171 0
-162 -163 173 0
162 -173 0
163 -173 0
-164 -166 175 0
164 -175 0
166 -175 0
-168 -170 177 0
168 -177 0
170 -177 0
-172 -174 178 0
172 -178 0
174 -178 0
-7 -14 180 0
7 -180 0
14 -180 0
-21 -29 182 0
21 -182 0
29 -182 0
-38 -47 184 0
38 -184 0
47 -184 0
-56 -65 186 0
56 -186 0
65 -186 0
-74 -141 188 0
74 -188 0
141 -188 0
-143 -145 190 0
143 -190 0
145 -190 0
-147 -149 248 0
147 -248 0
149 -248 0
-159 -161 249 0
159 -249 0
161 -249 0
-165 -167 198 0
165 -198 0
167 -198 0
-169 -171 200 0
169 -200 0
171 -200 0
-173 -175 202 0
173 -202 0
175 -202 0
-177 -178 204 0
177 -204 0
178 -204 0
-176 -179 206 0
176 -206 0
179 -206 0
-181 -183 208 0
181 -208 0
183 -208 0
-185 -187 210 0
185 -210 0
187 -210 0
-189 -191 212 0
189 -212 0
191 -212 0
-194 -195 214 0
194 -214 0
195 -214 0
-196 -197 216 0
196 -216 0
197 -216 0
-199 -201 218 0
199 -218 0
201 -218 0
-203 -205 220 0
203 -220 0
205 -220 0
-207 -209 222 0
207 -222 0
209 -222 0
-192 -211 224 0
211 -224 0
192 -224 0
-193 -213 226 0
193 -226 0
213 -226 0
-215 -217 228 0
215 -228 0
217 -228 0
-219 -221 230 0
219 -230 0
221 -230 0
-223 -225 232 0
223 -232 0
225 -232 0
-227 -229 264 0
227 -264 0
229 -264 0
-8 -15 234 0
8 -234 0
15 -234 0
-22 -30 236 0
22 -236 0
30 -236 0
-39 -48 238 0
39 -238 0
48 -238 0
-57 -66 240 0
57 -240 0
66 -240 0
-75 -84 242 0
75 -242 0
84 -242 0
-180 -182 244 0
180 -244 0
182 -244 0
-184 -186 246 0
184 -246 0
186 -246 0
-188 -190 315 0
188 -315 0
190 -315 0
-198 -200 316 0
198 -316 0
200 -316 0
-202 -204 252 0
202 -252 0
204 -252 0
-206 -208 254 0
206 -254 0
208 -254 0
-210 -212 318 0
210 -318 0
212 -318 0
-214 -216 256 0
214 -256 0
216 -256 0
-218 -220 258 0
218 -258 0
220 -258 0
-222 -224 260 0
222 -260 0
224 -260 0
-226 -228 262 0
226 -262 0
228 -262 0
-230 -232 321 0
230 -321 0
232 -321 0
-233 -235 266 0
233 -266 0
235 -266 0
-237 -239 268 0
237 -268 0
239 -268 0
-241 -243 270 0
241 -270 0
243 -270 0
-245 -247 272 0
245 -272 0
247 -272 0
-250 -251 274 0
250 -274 0
251 -274 0
-253 -255 276 0
253 -276 0
255 -276 0
-257 -259 326 0
257 -326 0
259 -326 0
-261 -263 280 0
261 -280 0
263 -280 0
-264 -265 282 0
264 -282 0
265 -282 0
-267 -269 284 0
267 -284 0
269 -284 0
-248 -271 286 0
271 -286 0
248 -286 0
-249 -273 288 0
249 -288 0
273 -288 0
-275 -277 290 0
275 -290 0
277 -290 0
-278 -279 292 0
278 -292 0
279 -292 0
-281 -283 294 0
281 -294 0
283 -294 0
-285 -287 296 0
285 -296 0
287 -296 0
-289 -291 298 0
289 -298 0
291 -298 0
-293 -295 336 0
293 -336 0
295 -336 0
-16 -23 300 0
16 -300 0
23 -300 0
-31 -40 302 0
31 -302 0
40 -302 0
-49 -58 304 0
49 -304 0
58 -304 0
-67 -76 306 0
67 -306 0
76 -306 0
-85 -234 308 0
85 -308 0
234 -308 0
-236 -238 310 0
236 -310 0
238 -310 0
-240 -242 312 0
240 -312 0
242 -312 0
-244 -246 314 0
244 -314 0
246 -314 0
-252 -254 394 0
252 -394 0
254 -394 0
-256 -258 395 0
256 -395 0
258 -395 0
-260 -262 396 0
260 -396 0
262 -396 0
-266 -268 323 0
266 -323 0
268 -323 0
-270 -272 325 0
270 -325 0
272 -325 0
-274 -276 398 0
274 -398 0
276 -398 0
-280 -282 399 0
280 -399 0
282 -399 0
-284 -286 329 0
284 -329 0
286 -329 0
-288 -290 331 0
288 -331 0
290 -331 0
-292 -294 333 0
292 -333 0
294 -333 0
-296 -298 335 0
296 -335 0
298 -335 0
-299 -301 404 0
299 -404 0
301 -404 0
-303 -305 339 0
303 -339 0
305 -339 0
-307 -309 341 0
307 -341 0
309 -341 0
-311 -313 406 0
311 -406 0
313 -406 0
-316 -317 344 0
316 -344 0
317 -344 0
-318 -319 346 0
318 -346 0
319 -346 0
-320 -321 348 0
320 -348 0
321 -348 0
-322 -324 350 0
322 -350 0
324 -350 0
-326 -327 409 0
326 -409 0
327 -409 0
-328 -330 354 0
328 -354 0
330 -354 0
-332 -334 356 0
332 -356 0
334 -356 0
-336 -337 358 0
336 -358 0
337 -358 0
-338 -340 360 0
338 -360 0
340 -360 0
-315 -342 362 0
342 -362 0
315 -362 0
-343 -345 364 0
343 -364 0
345 -364 0
-347 -349 366 0
347 -366 0
349 -366 0
-351 -352 368 0
351 -368 0
352 -368 0
-353 -355 370 0
353 -370 0
355 -370 0
-357 -359 372 0
357 -372 0
359 -372 0
-361 -363 374 0
361 -374 0
363 -374 0
-365 -367 376 0
365 -376 0
367 -376 0
-369 -371 378 0
369 -378 0
371 -378 0
-373 -375 379 0
373 -379 0
375 -379 0
-24 -32 381 0
24 -381 0
32 -381 0
-41 -50 383 0
41 -383 0
50 -383 0
-59 -68 385 0
59 -385 0
68 -385 0
-77 -86 387 0
77 -387 0
86 -387 0
-300 -302 389 0
300 -389 0
302 -389 0
-304 -306 391 0
304 -391 0
306 -391 0
-308 -310 393 0
308 -393 0
310 -393 0
-312 -314 492 0
312 -492 0
314 -492 0
-323 -325 493 0
323 -493 0
325 -493 0
-329 -331 401 0
329 -401 0
331 -401 0
-333 -335 403 0
333 -403 0
335 -403 0
-339 -341 495 0
339 -495 0
341 -495 0
-344 -346 496 0
344 -496 0
346 -496 0
-348 -350 497 0
348 -497 0
350 -497 0
-354 -356 411 0
354 -411 0
356 -411 0
-358 -360 413 0
358 -413 0
360 -413 0
-362 -364 415 0
362 -415 0
364 -415 0
-366 -368 417 0
366 -417 0
368 -417 0
-370 -372 419 0
370 -419 0
372 -419 0
-374 -376 421 0
374 -421 0
376 -421 0
-378 -379 423 0
378 -423 0
379 -423 0
-377 -380 425 0
377 -425 0
380 -425 0
-382 -384 427 0
382 -427 0
384 -427 0
-386 -388 429 0
386 -429 0
388 -429 0
-390 -392 507 0
390 -507 0
392 -507 0
-394 -395 433 0
394 -433 0
395 -433 0
-396 -397 435 0
396 -435 0
397 -435 0
-398 -399 437 0
398 -437 0
399 -437 0
-400 -402 439 0
400 -439 0
402 -439 0
-404 -405 441 0
404 -441 0
405 -441 0
-406 -407 443 0
406 -443 0
407 -443 0
-408 -409 445 0
408 -445 0
409 -445 0
-410 -412 447 0
410 -447 0
412 -447 0
-414 -416 449 0
414 -449 0
416 -449 0
-418 -420 451 0
418 -451 0
420 -451 0
-422 -424 453 0
422 -453 0
424 -453 0
-426 -428 455 0
426 -455 0
428 -455 0
-430 -431 457 0
430 -457 0
431 -457 0
-432 -434 459 0
432 -459 0
434 -459 0
-436 -438 461 0
436 -461 0
438 -461 0
-440 -442 463 0
440 -463 0
442 -463 0
-444 -446 465 0
444 -465 0
446 -465 0
-448 -450 467 0
448 -467 0
450 -467 0
-452 -454 469 0
452 -469 0
454 -469 0
-456 -458 471 0
456 -471 0
458 -471 0
-460 -462 473 0
460 -473 0
462 -473 0
-464 -466 475 0
464 -475 0
466 -475 0
-468 -470 477 0
468 -477 0
470 -477 0
-472 -474 478 0
472 -478 0
474 -478 0
-33 -42 480 0
33 -480 0
42 -480 0
-51 -60 482 0
51 -482 0
60 -482 0
-69 -78 484 0
69 -484 0
78 -484 0
-87 -381 486 0
87 -486 0
381 -486 0
-383 -385 488 0
383 -488 0
385 -488 0
-387 -389 490 0
387 -490 0
389 -490 0
-391 -393 599 0
391 -599 0
393 -599 0
-401 -403 600 0
401 -600 0
403 -600 0
-411 -413 601 0
411 -601 0
413 -601 0
-415 -417 500 0
415 -500 0
417 -500 0
-419 -421 502 0
419 -502 0
421 -502 0
-423 -425 504 0
423 -504 0
425 -504 0
-427 -429 506 0
427 -506 0
429 -506 0
-433 -435 606 0
433 -606 0
435 -606 0
-437 -439 510 0
437 -510 0
439 -510 0
-441 -443 512 0
441 -512 0
443 -512 0
-445 -447 514 0
445 -514 0
447 -514 0
-449 -451 516 0
449 -516 0
451 -516 0
-453 -455 518 0
453 -518 0
455 -518 0
-457 -459 520 0
457 -520 0
459 -520 0
-461 -463 522 0
461 -522 0
463 -522 0
-465 -467 524 0
465 -524 0
467 -524 0
-469 -471 526 0
469 -526 0
471 -526 0
-473 -475 528 0
473 -528 0
475 -528 0
-477 -478 530 0
477 -530 0
478 -530 0
-476 -479 532 0
476 -532 0
479 -532 0
-481 -483 534 0
481 -534 0
483 -534 0
-485 -487 536 0
485 -536 0
487 -536 0
-489 -491 620 0
489 -620 0
491 -620 0
-494 -495 621 0
494 -621 0
495 -621 0
-496 -497 540 0
496 -540 0
497 -540 0
-498 -499 542 0
498 -542 0
499 -542 0
-501 -503 544 0
501 -544 0
503 -544 0
-505 -507 546 0
505 -546 0
507 -546 0
-508 -509 548 0
508 -548 0
509 -548 0
-511 -513 550 0
511 -550 0
513 -550 0
-515 -517 552 0
515 -552 0
517 -552 0
-519 -521 554 0
519 -554 0
521 -554 0
-523 -525 556 0
523 -556 0
525 -556 0
-527 -529 558 0
527 -558 0
529 -558 0
-531 -533 560 0
531 -560 0
533 -560 0
-535 -537 562 0
535 -562 0
537 -562 0
-492 -493 564 0
492 -564 0
493 -564 0
-538 -539 566 0
538 -566 0
539 -566 0
-541 -543 568 0
541 -568 0
543 -568 0
-545 -547 570 0
545 -570 0
547 -570 0
-549 -551 572 0
549 -572 0
551 -572 0
-553 -555 574 0
553 -574 0
555 -574 0
-557 -559 576 0
557 -576 0
559 -576 0
-561 -563 578 0
561 -578 0
563 -578 0
-565 -567 580 0
565 -580 0
567 -580 0
-569 -571 582 0
569 -582 0
571 -582 0
-573 -575 584 0
573 -584 0
575 -584 0
-577 -579 586 0
577 -586 0
579 -586 0
-581 -583 587 0
581 -587 0
583 -587 0
-43 -52 589 0
43 -589 0
52 -589 0
-61 -70 591 0
61 -591 0
70 -591 0
-79 -88 593 0
79 -593 0
88 -593 0
-480 -482 595 0
480 -595 0
482 -595 0
-484 -486 597 0
484 -597 0
486 -597 0
-488 -490 719 0
488 -719 0
490 -719 0
-500 -502 603 0
500 -603 0
502 -603 0
-504 -506 605 0
504 -605 0
506 -605 0
-510 -512 721 0
510 -721 0
512 -721 0
-514 -516 609 0
514 -609 0
516 -609 0
-518 -520 611 0
518 -611 0
520 -611 0
-522 -524 613 0
522 -613 0
524 -613 0
-526 -528 615 0
526 -615 0
528 -615 0
-530 -532 617 0
530 -617 0
532 -617 0
-534 -536 619 0
534 -619 0
536 -619 0
-540 -542 623 0
540 -623 0
542 -623 0
-544 -546 625 0
544 -625 0
546 -625 0
-548 -550 627 0
548 -627 0
550 -627 0
-552 -554 629 0
552 -629 0
554 -629 0
-556 -558 631 0
556 -631 0
558 -631 0
-560 -562 633 0
560 -633 0
562 -633 0
-564 -566 635 0
564 -635 0
566 -635 0
-568 -570 637 0
568 -637 0
570 -637 0
-572 -574 639 0
572 -639 0
574 -639 0
-576 -578 641 0
576 -641 0
578 -641 0
-580 -582 643 0
580 -643 0
582 -643 0
-584 -586 645 0
584 -645 0
586 -645 0
-585 -587 647 0
587 -647 0
585 -647 0
-588 -590 649 0
588 -649 0
590 -649 0
-592 -594 651 0
592 -651 0
594 -651 0
-596 -598 653 0
596 -653 0
598 -653 0
-601 -602 655 0
601 -655 0
602 -655 0
-604 -606 657 0
604 -657 0
606 -657 0
-607 -608 659 0
607 -659 0
608 -659 0
-610 -612 661 0
610 -661 0
612 -661 0
-614 -616 663 0
614 -663 0
616 -663 0
-618 -620 665 0
618 -665 0
620 -665 0
-621 -622 667 0
621 -667 0
622 -667 0
-624 -626 669 0
624 -669 0
626 -669 0
-628 -630 671 0
628 -671 0
630 -671 0
-632 -634 673 0
632 -673 0
634 -673 0
-636 -638 675 0
636 -675 0
638 -675 0
-640 -642 677 0
640 -677 0
642 -677 0
-644 -646 679 0
644 -679 0
646 -679 0
-648 -650 681 0
648 -681 0
650 -681 0
-599 -652 683 0
652 -683 0
599 -683 0
-600 -654 685 0
600 -685 0
654 -685 0
-656 -658 687 0
656 -687 0
658 -687 0
-660 -662 689 0
660 -689 0
662 -689 0
-664 -666 691 0
664 -691 0
666 -691 0
-668 -670 693 0
668 -693 0
670 -693 0
-672 -674 695 0
672 -695 0
674 -695 0
-676 -678 697 0
676 -697 0
678 -697 0
-680 -682 699 0
680 -699 0
682 -699 0
-684 -686 701 0
684 -701 0
686 -701 0
-688 -690 703 0
688 -703 0
690 -703 0
-692 -694 705 0
692 -705 0
694 -705 0
-696 -698 707 0
696 -707 0
698 -707 0
-700 -702 709 0
700 -709 0
702 -709 0
-704 -706 767 0
704 -767 0
706 -767 0
-53 -62 711 0
53 -711 0
62 -711 0
-71 -80 713 0
71 -713 0
80 -713 0
-89 -589 715 0
89 -715 0
589 -715 0
-591 -593 717 0
591 -717 0
593 -717 0
-595 -597 836 0
595 -836 0
597 -836 0
-603 -605 892 0
603 -892 0
605 -892 0
-609 -611 723 0
609 -723 0
611 -723 0
-613 -615 725 0
613 -725 0
615 -725 0
-617 -619 838 0
617 -838 0
619 -838 0
-623 -625 727 0
623 -727 0
625 -727 0
-627 -629 729 0
627 -729 0
629 -729 0
-631 -633 731 0
631 -731 0
633 -731 0
-635 -637 733 0
635 -733 0
637 -733 0
-639 -641 735 0
639 -735 0
641 -735 0
-643 -645 737 0
643 -737 0
645 -737 0
-647 -649 739 0
647 -739 0
649 -739 0
-651 -653 741 0
651 -741 0
653 -741 0
-655 -657 847 0
655 -847 0
657 -847 0
-659 -661 743 0
659 -743 0
661 -743 0
-663 -665 745 0
663 -745 0
665 -745 0
-667 -669 747 0
667 -747 0
669 -747 0
-671 -673 749 0
671 -749 0
673 -749 0
-675 -677 751 0
675 -751 0
677 -751 0
-679 -681 753 0
679 -753 0
681 -753 0
-683 -685 755 0
683 -755 0
685 -755 0
-687 -689 757 0
687 -757 0
689 -757 0
-691 -693 759 0
691 -759 0
693 -759 0
-695 -697 761 0
695 -761 0
697 -761 0
-699 -701 763 0
699 -763 0
701 -763 0
-703 -705 765 0
703 -765 0
705 -765 0
-707 -709 858 0
707 -858 0
709 -858 0
-710 -712 769 0
710 -769 0
712 -769 0
-714 -716 771 0
714 -771 0
716 -771 0
-718 -719 860 0
718 -860 0
719 -860 0
-720 -721 773 0
720 -773 0
721 -773 0
-722 -724 775 0
722 -775 0
724 -775 0
-726 -728 862 0
726 -862 0
728 -862 0
-730 -732 779 0
730 -779 0
732 -779 0
-734 -736 781 0
734 -781 0
736 -781 0
-738 -740 864 0
738 -864 0
740 -864 0
-742 -744 785 0
742 -785 0
744 -785 0
-746 -748 787 0
746 -787 0
748 -787 0
-750 -752 789 0
750 -789 0
752 -789 0
-754 -756 791 0
754 -791 0
756 -791 0
-758 -760 793 0
758 -793 0
760 -793 0
-762 -764 795 0
762 -795 0
764 -795 0
-766 -767 797 0
766 -797 0
767 -797 0
-768 -770 799 0
768 -799 0
770 -799 0
-772 -774 873 0
772 -873 0
774 -873 0
-776 -777 803 0
776 -803 0
777 -803 0
-778 -780 805 0
778 -805 0
780 -805 0
-782 -783 807 0
782 -807 0
783 -807 0
-784 -786 809 0
784 -809 0
786 -809 0
-788 -790 811 0
788 -811 0
790 -811 0
-792 -794 813 0
792 -813 0
794 -813 0
-796 -798 815 0
796 -815 0
798 -815 0
-800 -801 817 0
800 -817 0
801 -817 0
-802 -804 819 0
802 -819 0
804 -819 0
-806 -808 821 0
806 -821 0
808 -821 0
-810 -812 823 0
810 -823 0
812 -823 0
-814 -816 825 0
814 -825 0
816 -825 0
-818 -820 827 0
818 -827 0
820 -827 0
-822 -824 828 0
822 -828 0
824 -828 0
-63 -72 830 0
63 -830 0
72 -830 0
-81 -90 832 0
81 -832 0
90 -832 0
-711 -713 834 0
711 -834 0
713 -834 0
-715 -717 965 0
715 -965 0
717 -965 0
-723 -725 966 0
723 -966 0
725 -966 0
-727 -729 840 0
727 -840 0
729 -840 0
-731 -733 842 0
731 -842 0
733 -842 0
-735 -737 844 0
735 -844 0
737 -844 0
-739 -741 846 0
739 -846 0
741 -846 0
-743 -745 971 0
743 -971 0
745 -971 0
-747 -749 850 0
747 -850 0
749 -850 0
-751 -753 852 0
751 -852 0
753 -852 0
-755 -757 854 0
755 -854 0
757 -854 0
-759 -761 856 0
759 -856 0
761 -856 0
-763 -765 974 0
763 -974 0
765 -974 0
-769 -771 975 0
769 -975 0
771 -975 0
-773 -775 976 0
773 -976 0
775 -976 0
-779 -781 977 0
779 -977 0
781 -977 0
-785 -787 866 0
785 -866 0
787 -866 0
-789 -791 868 0
789 -868 0
791 -868 0
-793 -795 870 0
793 -870 0
795 -870 0
-797 -799 872 0
797 -872 0
799 -872 0
-803 -805 980 0
803 -980 0
805 -980 0
-807 -809 876 0
807 -876 0
809 -876 0
-811 -813 878 0
811 -878 0
813 -878 0
-815 -817 880 0
815 -880 0
817 -880 0
-819 -821 882 0
819 -882 0
821 -882 0
-823 -825 884 0
823 -884 0
825 -884 0
-827 -828 886 0
827 -886 0
828 -886 0
-826 -829 888 0
826 -888 0
829 -888 0
-831 -833 890 0
831 -890 0
833 -890 0
-835 -836 989 0
835 -989 0
836 -989 0
-837 -838 894 0
837 -894 0
838 -894 0
-839 -841 896 0
839 -896 0
841 -896 0
-843 -845 898 0
843 -898 0
845 -898 0
-847 -848 900 0
847 -900 0
848 -900 0
-849 -851 902 0
849 -902 0
851 -902 0
-853 -855 904 0
853 -904 0
855 -904 0
-857 -858 906 0
857 -906 0
858 -906 0
-859 -860 908 0
859 -908 0
860 -908 0
-861 -862 910 0
861 -910 0
862 -910 0
-863 -864 912 0
863 -912 0
864 -912 0
-865 -867 914 0
865 -914 0
867 -914 0
-869 -871 916 0
869 -916 0
871 -916 0
-873 -874 918 0
873 -918 0
874 -918 0
-875 -877 920 0
875 -920 0
877 -920 0
-879 -881 922 0
879 -922 0
881 -922 0
-883 -885 924 0
883 -924 0
885 -924 0
-887 -889 926 0
887 -926 0
889 -926 0
-891 -892 928 0
891 -928 0
892 -928 0
-893 -895 930 0
893 -930 0
895 -930 0
-897 -899 932 0
897 -932 0
899 -932 0
-901 -903 934 0
901 -934 0
903 -934 0
-905 -907 936 0
905 -936 0
907 -936 0
-909 -911 938 0
909 -938 0
911 -938 0
-913 -915 940 0
913 -940 0
915 -940 0
-917 -919 942 0
917 -942 0
919 -942 0
-921 -923 944 0
921 -944 0
923 -944 0
-925 -927 946 0
925 -946 0
927 -946 0
-929 -931 948 0
929 -948 0
931 -948 0
-933 -935 950 0
933 -950 0
935 -950 0
-937 -939 952 0
937 -952 0
939 -952 0
-941 -943 954 0
941 -954 0
943 -954 0
-945 -947 956 0
945 -956 0
947 -956 0
-949 -951 958 0
949 -958 0
951 -958 0
-953 -955 959 0
953 -959 0
955 -959 0
-73 -82 961 0
73 -961 0
82 -961 0
-91 -830 963 0
91 -963 0
830 -963 0
-832 -834 1099 0
832 -1099 0
834 -1099 0
-840 -842 968 0
840 -968 0
842 -968 0
-844 -846 970 0
844 -970 0
846 -970 0
-850 -852 1101 0
850 -1101 0
852 -1101 0
-854 -856 1102 0
854 -1102 0
856 -1102 0
-866 -868 1103 0
866 -1103 0
868 -1103 0
-870 -872 1104 0
870 -1104 0
872 -1104 0
-876 -878 982 0
876 -982 0
878 -982 0
-880 -882 984 0
880 -984 0
882 -984 0
-884 -886 986 0
884 -986 0
886 -986 0
-888 -890 988 0
888 -988 0
890 -988 0
-894 -896 1107 0
894 -1107 0
896 -1107 0
-898 -900 992 0
898 -992 0
900 -992 0
-902 -904 994 0
902 -994 0
904 -994 0
-906 -908 996 0
906 -996 0
908 -996 0
-910 -912 998 0
910 -998 0
912 -998 0
-914 -916 1000 0
914 -1000 0
916 -1000 0
-918 -920 1002 0
918 -1002 0
920 -1002 0
-922 -924 1004 0
922 -1004 0
924 -1004 0
-926 -928 1006 0
926 -1006 0
928 -1006 0
-930 -932 1008 0
930 -1008 0
932 -1008 0
-934 -936 1010 0
934 -1010 0
936 -1010 0
-938 -940 1012 0
938 -1012 0
940 -1012 0
-942 -944 1014 0
942 -1014 0
944 -1014 0
-946 -948 1016 0
946 -1016 0
948 -1016 0
-950 -952 1018 0
950 -1018 0
952 -1018 0
-954 -956 1020 0
954 -1020 0
956 -1020 0
-958 -959 1022 0
958 -1022 0
959 -1022 0
-957 -960 1024 0
957 -1024 0
960 -1024 0
-962 -964 1026 0
962 -1026 0
964 -1026 0
-966 -967 1125 0
966 -1125 0
967 -1125 0
-969 -971 1029 0
969 -1029 0
971 -1029 0
-972 -973 1031 0
972 -1031 0
973 -1031 0
-974 -975 1033 0
974 -1033 0
975 -1033 0
-976 -977 1035 0
976 -1035 0
977 -1035 0
-978 -979 1037 0
978 -1037 0
979 -1037 0
-980 -981 1039 0
980 -1039 0
981 -1039 0
-983 -985 1041 0
983 -1041 0
985 -1041 0
-987 -989 1043 0
987 -1043 0
989 -1043 0
-990 -991 1045 0
990 -1045 0
991 -1045 0
-993 -995 1047 0
993 -1047 0
995 -1047 0
-997 -999 1049 0
997 -1049 0
999 -1049 0
-1001 -1003 1051 0
1001 -1051 0
1003 -1051 0
-1005 -1007 1053 0
1005 -1053 0
1007 -1053 0
-1009 -1011 1055 0
1009 -1055 0
1011 -1055 0
-1013 -1015 1057 0
1013 -1057 0
1015 -1057 0
-1017 -1019 1059 0
1017 -1059 0
1019 -1059 0
-1021 -1023 1061 0
1021 -1061 0
1023 -1061 0
-965 -1025 1063 0
1025 -1063 0
965 -1063 0
-1027 -1028 1065 0
1027 -1065 0
1028 -1065 0
-1030 -1032 1067 0
1030 -1067 0
1032 -1067 0
-1034 -1036 1069 0
1034 -1069 0
1036 -1069 0
-1038 -1040 1071 0
1038 -1071 0
1040 -1071 0
-1042 -1044 1073 0
1042 -1073 0
1044 -1073 0
-1046 -1048 1075 0
1046 -1075 0
1048 -1075 0
-1050 -1052 1077 0
1050 -1077 0
1052 -1077 0
-1054 -1056 1079 0
1054 -1079 0
1056 -1079 0
-1058 -1060 1081 0
1058 -1081 0
1060 -1081 0
-1062 -1064 1083 0
1062 -1083 0
1064 -1083 0
-1066 -1068 1085 0
1066 -1085 0
1068 -1085 0
-1070 -1072 1087 0
1070 -1087 0
1072 -1087 0
-1074 -1076 1089 0
1074 -1089 0
1076 -1089 0
-1078 -1080 1091 0
1078 -1091 0
1080 -1091 0
-1082 -1084 1093 0
1082 -1093 0
1084 -1093 0
-1086 -1088 1095 0
1086 -1095 0
1088 -1095 0
-1090 -1092 1159 0
1090 -1159 0
1092 -1159 0
-83 -92 1097 0
83 -1097 0
92 -1097 0
-961 -963 1231 0
961 -1231 0
963 -1231 0
-968 -970 1232 0
968 -1232 0
970 -1232 0
-982 -984 1233 0
982 -1233 0
984 -1233 0
-986 -988 1234 0
986 -1234 0
988 -1234 0
-992 -994 1109 0
992 -1109 0
994 -1109 0
-996 -998 1111 0
996 -1111 0
998 -1111 0
-1000 -1002 1113 0
1000 -1113 0
1002 -1113 0
-1004 -1006 1115 0
1004 -1115 0
1006 -1115 0
-1008 -1010 1117 0
1008 -1117 0
1010 -1117 0
-1012 -1014 1119 0
1012 -1119 0
1014 -1119 0
-1016 -1018 1121 0
1016 -1121 0
1018 -1121 0
-1020 -1022 1123 0
1020 -1123 0
1022 -1123 0
-1024 -1026 1241 0
1024 -1241 0
1026 -1241 0
-1029 -1031 1127 0
1029 -1127 0
1031 -1127 0
-1033 -1035 1129 0
1033 -1129 0
1035 -1129 0
-1037 -1039 1131 0
1037 -1131 0
1039 -1131 0
-1041 -1043 1133 0
1041 -1133 0
1043 -1133 0
-1045 -1047 1135 0
1045 -1135 0
1047 -1135 0
-1049 -1051 1137 0
1049 -1137 0
1051 -1137 0
-1053 -1055 1139 0
1053 -1139 0
1055 -1139 0
-1057 -1059 1141 0
1057 -1141 0
1059 -1141 0
-1061 -1063 1143 0
1061 -1143 0
1063 -1143 0
-1065 -1067 1145 0
1065 -1145 0
1067 -1145 0
-1069 -1071 1147 0
1069 -1147 0
1071 -1147 0
-1073 -1075 1149 0
1073 -1149 0
1075 -1149 0
-1077 -1079 1151 0
1077 -1151 0
1079 -1151 0
-1081 -1083 1153 0
1081 -1153 0
1083 -1153 0
-1085 -1087 1155 0
1085 -1155 0
1087 -1155 0
-1089 -1091 1157 0
1089 -1157 0
1091 -1157 0
-1093 -1095 1258 0
1093 -1258 0
1095 -1258 0
-1096 -1098 1259 0
1096 -1259 0
1098 -1259 0
-1100 -1101 1260 0
1100 -1260 0
1101 -1260 0
-1103 -1104 1163 0
1103 -1163 0
1104 -1163 0
-1105 -1106 1165 0
1105 -1165 0
1106 -1165 0
-1107 -1108 1167 0
1107 -1167 0
1108 -1167 0
-1110 -1112 1169 0
1110 -1169 0
1112 -1169 0
-1114 -1116 1171 0
1114 -1171 0
1116 -1171 0
-1118 -1120 1173 0
1118 -1173 0
1120 -1173 0
-1122 -1124 1175 0
1122 -1175 0
1124 -1175 0
-1125 -1126 1177 0
1125 -1177 0
1126 -1177 0
-1128 -1130 1179 0
1128 -1179 0
1130 -1179 0
-1132 -1134 1181 0
1132 -1181 0
1134 -1181 0
-1136 -1138 1183 0
1136 -1183 0
1138 -1183 0
-1140 -1142 1185 0
1140 -1185 0
1142 -1185 0
-1144 -1146 1187 0
1144 -1187 0
1146 -1187 0
-1148 -1150 1189 0
1148 -1189 0
1150 -1189 0
-1152 -1154 1191 0
1152 -1191 0
1154 -1191 0
-1156 -1158 1193 0
1156 -1193 0
1158 -1193 0
-1159 -1160 1195 0
1159 -1195 0
1160 -1195 0
-1099 -1161 1197 0
1099 -1197 0
1161 -1197 0
-1102 -1162 1199 0
1102 -1199 0
1162 -1199 0
-1164 -1166 1201 0
1164 -1201 0
1166 -1201 0
-1168 -1170 1203 0
1168 -1203 0
1170 -1203 0
-1172 -1174 1205 0
1172 -1205 0
1174 -1205 0
-1176 -1178 1207 0
1176 -1207 0
1178 -1207 0
-1180 -1182 1209 0
1180 -1209 0
1182 -1209 0
-1184 -1186 1211 0
1184 -1211 0
1186 -1211 0
-1188 -1190 1213 0
1188 -1213 0
1190 -1213 0
-1192 -1194 1215 0
1192 -1215 0
1194 -1215 0
-1196 -1198 1217 0
1196 -1217 0
1198 -1217 0
-1200 -1202 1219 0
1200 -1219 0
1202 -1219 0
-1204 -1206 1221 0
1204 -1221 0
1206 -1221 0
-1208 -1210 1223 0
1208 -1223 0
1210 -1223 0
-1212 -1214 1225 0
1212 -1225 0
1214 -1225 0
-1216 -1218 1227 0
1216 -1227 0
1218 -1227 0
-1220 -1222 1229 0
1220 -1229 0
1222 -1229 0
-1224 -1226 1294 0
1224 -1294 0
1226 -1294 0
-93 -1097 1367 0
93 -1367 0
1097 -1367 0
-1109 -1111 1368 0
1109 -1368 0
1111 -1368 0
-1113 -1115 1237 0
1113 -1237 0
1115 -1237 0
-1117 -1119 1239 0
1117 -1239 0
1119 -1239 0
-1121 -1123 1370 0
1121 -1370 0
1123 -1370 0
-1127 -1129 1243 0
1127 -1243 0
1129 -1243 0
-1131 -1133 1245 0
1131 -1245 0
1133 -1245 0
-1135 -1137 1247 0
1135 -1247 0
1137 -1247 0
-1139 -1141 1249 0
1139 -1249 0
1141 -1249 0
-1143 -1145 1251 0
1143 -1251 0
1145 -1251 0
-1147 -1149 1253 0
1147 -1253 0
1149 -1253 0
-1151 -1153 1255 0
1151 -1255 0
1153 -1255 0
-1155 -1157 1257 0
1155 -1257 0
1157 -1257 0
-1163 -1165 1378 0
1163 -1378 0
1165 -1378 0
-1167 -1169 1263 0
1167 -1263 0
1169 -1263 0
-1171 -1173 1265 0
1171 -1265 0
1173 -1265 0
-1175 -1177 1267 0
1175 -1267 0
1177 -1267 0
-1179 -1181 1269 0
1179 -1269 0
1181 -1269 0
-1183 -1185 1271 0
1183 -1271 0
1185 -1271 0
-1187 -1189 1273 0
1187 -1273 0
1189 -1273 0
-1191 -1193 1275 0
1191 -1275 0
1193 -1275 0
-1195 -1197 1277 0
1195 -1277 0
1197 -1277 0
-1199 -1201 1279 0
1199 -1279 0
1201 -1279 0
-1203 -1205 1281 0
1203 -1281 0
1205 -1281 0
-1207 -1209 1283 0
1207 -1283 0
1209 -1283 0
-1211 -1213 1285 0
1211 -1285 0
1213 -1285 0
-1215 -1217 1287 0
1215 -1287 0
1217 -1287 0
-1219 -1221 1289 0
1219 -1289 0
1221 -1289 0
-1223 -1225 1291 0
1223 -1291 0
1225 -1291 0
-1227 -1229 1293 0
1227 -1293 0
1229 -1293 0
-1230 -1231 1395 0
1230 -1395 0
1231 -1395 0
-1234 -1235 1297 0
1234 -1297 0
1235 -1297 0
-1236 -1238 1299 0
1236 -1299 0
1238 -1299 0
-1240 -1241 1301 0
1240 -1301 0
1241 -1301 0
-1242 -1244 1303 0
1242 -1303 0
1244 -1303 0
-1246 -1248 1305 0
1246 -1305 0
1248 -1305 0
-1250 -1252 1307 0
1250 -1307 0
1252 -1307 0
-1254 -1256 1309 0
1254 -1309 0
1256 -1309 0
-1258 -1259 1311 0
1258 -1311 0
1259 -1311 0
-1260 -1261 1313 0
1260 -1313 0
1261 -1313 0
-1262 -1264 1315 0
1262 -1315 0
1264 -1315 0
-1266 -1268 1317 0
1266 -1317 0
1268 -1317 0
-1270 -1272 1319 0
1270 -1319 0
1272 -1319 0
-1274 -1276 1321 0
1274 -1321 0
1276 -1321 0
-1278 -1280 1323 0
1278 -1323 0
1280 -1323 0
-1282 -1284 1325 0
1282 -1325 0
1284 -1325 0
-1286 -1288 1327 0
1286 -1327 0
1288 -1327 0
-1290 -1292 1329 0
1290 -1329 0
1292 -1329 0
-1294 -1295 1331 0
1294 -1331 0
1295 -1331 0
-1232 -1233 1333 0
1232 -1333 0
1233 -1333 0
-1296 -1298 1335 0
1296 -1335 0
1298 -1335 0
-1300 -1302 1337 0
1300 -1337 0
1302 -1337 0
-1304 -1306 1339 0
1304 -1339 0
1306 -1339 0
-1308 -1310 1341 0
1308 -1341 0
1310 -1341 0
-1312 -1314 1343 0
1312 -1343 0
1314 -1343 0
-1316 -1318 1345 0
1316 -1345 0
1318 -1345 0
-1320 -1322 1347 0
1320 -1347 0
1322 -1347 0
-1324 -1326 1349 0
1324 -1349 0
1326 -1349 0
-1328 -1330 1351 0
1328 -1351 0
1330 -1351 0
-1332 -1334 1353 0
1332 -1353 0
1334 -1353 0
-1336 -1338 1355 0
1336 -1355 0
1338 -1355 0
-1340 -1342 1357 0
1340 -1357 0
1342 -1357 0
-1344 -1346 1359 0
1344 -1359 0
1346 -1359 0
-1348 -1350 1361 0
1348 -1361 0
1350 -1361 0
-1352 -1354 1363 0
1352 -1363 0
1354 -1363 0
-1356 -1358 1365 0
1356 -1365 0
1358 -1365 0
-1360 -1362 1366 0
1360 -1366 0
1362 -1366 0
-1237 -1239 1497 0
1237 -1497 0
1239 -1497 0
-1243 -1245 1372 0
1243 -1372 0
1245 -1372 0
-1247 -1249 1374 0
1247 -1374 0
1249 -1374 0
-1251 -1253 1376 0
1251 -1376 0
1253 -1376 0
-1255 -1257 1377 0
1255 -1377 0
1257 -1377 0
-1263 -1265 1380 0
1263 -1380 0
1265 -1380 0
-1267 -1269 1382 0
1267 -1382 0
1269 -1382 0
-1271 -1273 1384 0
1271 -1384 0
1273 -1384 0
-1275 -1277 1386 0
1275 -1386 0
1277 -1386 0
-1279 -1281 1388 0
1279 -1388 0
1281 -1388 0
-1283 -1285 1390 0
1283 -1390 0
1285 -1390 0
-1287 -1289 1392 0
1287 -1392 0
1289 -1392 0
-1291 -1293 1394 0
1291 -1394 0
1293 -1394 0
-1297 -1299 1396 0
1297 -1396 0
1299 -1396 0
-1301 -1303 1398 0
1301 -1398 0
1303 -1398 0
-1305 -1307 1400 0
1305 -1400 0
1307 -1400 0
-1309 -1311 1402 0
1309 -1402 0
1311 -1402 0
-1313 -1315 1404 0
1313 -1404 0
1315 -1404 0
-1317 -1319 1406 0
1317 -1406 0
1319 -1406 0
-1321 -1323 1408 0
1321 -1408 0
1323 -1408 0
-1325 -1327 1410 0
1325 -1410 0
1327 -1410 0
-1329 -1331 1412 0
1329 -1412 0
1331 -1412 0
-1333 -1335 1414 0
1333 -1414 0
1335 -1414 0
-1337 -1339 1416 0
1337 -1416 0
1339 -1416 0
-1341 -1343 1418 0
1341 -1418 0
1343 -1418 0
-1345 -1347 1420 0
1345 -1420 0
1347 -1420 0
-1349 -1351 1422 0
1349 -1422 0
1351 -1422 0
-1353 -1355 1424 0
1353 -1424 0
1355 -1424 0
-1357 -1359 1426 0
1357 -1426 0
1359 -1426 0
-1361 -1363 1428 0
1361 -1428 0
1363 -1428 0
-1365 -1366 1430 0
1365 -1430 0
1366 -1430 0
-1368 -1369 1431 0
1368 -1431 0
1369 -1431 0
-1370 -1371 1433 0
1370 -1433 0
1371 -1433 0
-1373 -1375 1523 0
1373 -1523 0
1375 -1523 0
-1378 -1379 1437 0
1378 -1437 0
1379 -1437 0
-1381 -1383 1439 0
1381 -1439 0
1383 -1439 0
-1385 -1387 1441 0
1385 -1441 0
1387 -1441 0
-1389 -1391 1443 0
1389 -1443 0
1391 -1443 0
-1393 -1395 1526 0
1393 -1526 0
1395 -1526 0
-1397 -1399 1447 0
1397 -1447 0
1399 -1447 0
-1401 -1403 1449 0
1401 -1449 0
1403 -1449 0
-1405 -1407 1451 0
1405 -1451 0
1407 -1451 0
-1409 -1411 1453 0
1409 -1453 0
1411 -1453 0
-1413 -1415 1455 0
1413 -1455 0
1415 -1455 0
-1417 -1419 1457 0
1417 -1457 0
1419 -1457 0
-1421 -1423 1459 0
1421 -1459 0
1423 -1459 0
-1425 -1427 1461 0
1425 -1461 0
1427 -1461 0
-1367 -1429 1535 0
1429 -1535 0
1367 -1535 0
-1432 -1434 1465 0
1432 -1465 0
1434 -1465 0
-1435 -1436 1467 0
1435 -1467 0
1436 -1467 0
-1438 -1440 1469 0
1438 -1469 0
1440 -1469 0
-1442 -1444 1471 0
1442 -1471 0
1444 -1471 0
-1445 -1446 1473 0
1445 -1473 0
1446 -1473 0
-1448 -1450 1475 0
1448 -1475 0
1450 -1475 0
-1452 -1454 1477 0
1452 -1477 0
1454 -1477 0
-1456 -1458 1479 0
1456 -1479 0
1458 -1479 0
-1460 -1462 1481 0
1460 -1481 0
1462 -1481 0
-1463 -1464 1483 0
1463 -1483 0
1464 -1483 0
-1466 -1468 1485 0
1466 -1485 0
1468 -1485 0
-1470 -1472 1487 0
1470 -1487 0
1472 -1487 0
-1474 -1476 1489 0
1474 -1489 0
1476 -1489 0
-1478 -1480 1491 0
1478 -1491 0
1480 -1491 0
-1482 -1484 1493 0
1482 -1493 0
1484 -1493 0
-1486 -1488 1495 0
1486 -1495 0
1488 -1495 0
-1490 -1492 1496 0
1490 -1496 0
1492 -1496 0
-1372 -1374 1616 0
1372 -1616 0
1374 -1616 0
-1376 -1377 1617 0
1376 -1617 0
1377 -1617 0
-1380 -1382 1500 0
1380 -1500 0
1382 -1500 0
-1384 -1386 1502 0
1384 -1502 0
1386 -1502 0
-1388 -1390 1504 0
1388 -1504 0
1390 -1504 0
-1392 -1394 1506 0
1392 -1506 0
1394 -1506 0
-1396 -1398 1620 0
1396 -1620 0
1398 -1620 0
-1400 -1402 1508 0
1400 -1508 0
1402 -1508 0
-1404 -1406 1510 0
1404 -1510 0
1406 -1510 0
-1408 -1410 1512 0
1408 -1512 0
1410 -1512 0
-1412 -1414 1514 0
1412 -1514 0
1414 -1514 0
-1416 -1418 1516 0
1416 -1516 0
1418 -1516 0
-1420 -1422 1518 0
1420 -1518 0
1422 -1518 0
-1424 -1426 1520 0
1424 -1520 0
1426 -1520 0
-1428 -1430 1522 0
1428 -1522 0
1430 -1522 0
-1431 -1433 1629 0
1431 -1629 0
1433 -1629 0
-1437 -1439 1630 0
1437 -1630 0
1439 -1630 0
-1441 -1443 1631 0
1441 -1631 0
1443 -1631 0
-1447 -1449 1528 0
1447 -1528 0
1449 -1528 0
-1451 -1453 1530 0
1451 -1530 0
1453 -1530 0
-1455 -1457 1532 0
1455 -1532 0
1457 -1532 0
-1459 -1461 1534 0
1459 -1534 0
1461 -1534 0
-1465 -1467 1634 0
1465 -1634 0
1467 -1634 0
-1469 -1471 1538 0
1469 -1538 0
1471 -1538 0
-1473 -1475 1540 0
1473 -1540 0
1475 -1540 0
-1477 -1479 1542 0
1477 -1542 0
1479 -1542 0
-1481 -1483 1544 0
1481 -1544 0
1483 -1544 0
-1485 -1487 1546 0
1485 -1546 0
1487 -1546 0
-1489 -1491 1548 0
1489 -1548 0
1491 -1548 0
-1493 -1495 1550 0
1493 -1550 0
1495 -1550 0
-1494 -1496 1552 0
1496 -1552 0
1494 -1552 0
-1497 -1498 1643 0
1497 -1643 0
1498 -1643 0
-1499 -1501 1644 0
1499 -1644 0
1501 -1644 0
-1503 -1505 1645 0
1503 -1645 0
1505 -1645 0
-1507 -1509 1558 0
1507 -1558 0
1509 -1558 0
-1511 -1513 1560 0
1511 -1560 0
1513 -1560 0
-1515 -1517 1562 0
1515 -1562 0
1517 -1562 0
-1519 -1521 1564 0
1519 -1564 0
1521 -1564 0
-1523 -1524 1648 0
1523 -1648 0
1524 -1648 0
-1525 -1526 1568 0
1525 -1568 0
1526 -1568 0
-1527 -1529 1570 0
1527 -1570 0
1529 -1570 0
-1531 -1533 1572 0
1531 -1572 0
1533 -1572 0
-1535 -1536 1574 0
1535 -1574 0
1536 -1574 0
-1537 -1539 1576 0
1537 -1576 0
1539 -1576 0
-1541 -1543 1578 0
1541 -1578 0
1543 -1578 0
-1545 -1547 1580 0
1545 -1580 0
1547 -1580 0
-1549 -1551 1582 0
1549 -1582 0
1551 -1582 0
-1553 -1554 1657 0
1553 -1657 0
1554 -1657 0
-1555 -1556 1586 0
1555 -1586 0
1556 -1586 0
-1557 -1559 1588 0
1557 -1588 0
1559 -1588 0
-1561 -1563 1590 0
1561 -1590 0
1563 -1590 0
-1565 -1566 1592 0
1565 -1592 0
1566 -1592 0
-1567 -1569 1594 0
1567 -1594 0
1569 -1594 0
-1571 -1573 1596 0
1571 -1596 0
1573 -1596 0
-1575 -1577 1598 0
1575 -1598 0
1577 -1598 0
-1579 -1581 1600 0
1579 -1600 0
1581 -1600 0
-1583 -1584 1602 0
1583 -1602 0
1584 -1602 0
-1585 -1587 1604 0
1585 -1604 0
1587 -1604 0
-1589 -1591 1606 0
1589 -1606 0
1591 -1606 0
-1593 -1595 1608 0
1593 -1608 0
1595 -1608 0
-1597 -1599 1610 0
1597 -1610 0
1599 -1610 0
-1601 -1603 1612 0
1601 -1612 0
1603 -1612 0
-1605 -1607 1614 0
1605 -1614 0
1607 -1614 0
-1609 -1611 1615 0
1609 -1615 0
1611 -1615 0
-1500 -1502 1745 0
1500 -1745 0
1502 -1745 0
-1504 -1506 1746 0
1504 -1746 0
1506 -1746 0
-1508 -1510 1622 0
1508 -1622 0
1510 -1622 0
-1512 -1514 1624 0
1512 -1624 0
1514 -1624 0
-1516 -1518 1626 0
1516 -1626 0
1518 -1626 0
-1520 -1522 1628 0
1520 -1628 0
1522 -1628 0
-1528 -1530 1748 0
1528 -1748 0
1530 -1748 0
-1532 -1534 1749 0
1532 -1749 0
1534 -1749 0
-1538 -1540 1636 0
1538 -1636 0
1540 -1636 0
-1542 -1544 1638 0
1542 -1638 0
1544 -1638 0
-1546 -1548 1640 0
1546 -1640 0
1548 -1640 0
-1550 -1552 1642 0
1550 -1642 0
1552 -1642 0
-1558 -1560 1754 0
1558 -1754 0
1560 -1754 0
-1562 -1564 1755 0
1562 -1755 0
1564 -1755 0
-1568 -1570 1650 0
1568 -1650 0
1570 -1650 0
-1572 -1574 1652 0
1572 -1652 0
1574 -1652 0
-1576 -1578 1654 0
1576 -1654 0
1578 -1654 0
-1580 -1582 1656 0
1580 -1656 0
1582 -1656 0
-1586 -1588 1758 0
1586 -1758 0
1588 -1758 0
-1590 -1592 1660 0
1590 -1660 0
1592 -1660 0
-1594 -1596 1662 0
1594 -1662 0
1596 -1662 0
-1598 -1600 1664 0
1598 -1664 0
1600 -1664 0
-1602 -1604 1666 0
1602 -1666 0
1604 -1666 0
-1606 -1608 1668 0
1606 -1668 0
1608 -1668 0
-1610 -1612 1670 0
1610 -1670 0
1612 -1670 0
-1614 -1615 1764 0
1614 -1764 0
1615 -1764 0
-1616 -1617 1673 0
1616 -1673 0
1617 -1673 0
-1618 -1619 1675 0
1618 -1675 0
1619 -1675 0
-1620 -1621 1677 0
1620 -1677 0
1621 -1677 0
-1623 -1625 1679 0
1623 -1679 0
1625 -1679 0
-1627 -1629 1681 0
1627 -1681 0
1629 -1681 0
-1630 -1631 1683 0
1630 -1683 0
1631 -1683 0
-1632 -1633 1685 0
1632 -1685 0
1633 -1685 0
-1634 -1635 1687 0
1634 -1687 0
1635 -1687 0
-1637 -1639 1689 0
1637 -1689 0
1639 -1689 0
-1641 -1643 1691 0
1641 -1691 0
1643 -1691 0
-1644 -1645 1693 0
1644 -1693 0
1645 -1693 0
-1646 -1647 1695 0
1646 -1695 0
1647 -1695 0
-1648 -1649 1697 0
1648 -1697 0
1649 -1697 0
-1651 -1653 1699 0
1651 -1699 0
1653 -1699 0
-1655 -1657 1701 0
1655 -1701 0
1657 -1701 0
-1658 -1659 1703 0
1658 -1703 0
1659 -1703 0
-1661 -1663 1705 0
1661 -1705 0
1663 -1705 0
-1665 -1667 1707 0
1665 -1707 0
1667 -1707 0
-1669 -1671 1709 0
1669 -1709 0
1671 -1709 0
-1613 -1672 1711 0
1613 -1711 0
1672 -1711 0
-1674 -1676 1713 0
1674 -1713 0
1676 -1713 0
-1678 -1680 1715 0
1678 -1715 0
1680 -1715 0
-1682 -1684 1717 0
1682 -1717 0
1684 -1717 0
-1686 -1688 1719 0
1686 -1719 0
1688 -1719 0
-1690 -1692 1721 0
1690 -1721 0
1692 -1721 0
-1694 -1696 1723 0
1694 -1723 0
1696 -1723 0
-1698 -1700 1725 0
1698 -1725 0
1700 -1725 0
-1702 -1704 1727 0
1702 -1727 0
1704 -1727 0
-1706 -1708 1729 0
1706 -1729 0
1708 -1729 0
-1710 -1712 1731 0
1710 -1731 0
1712 -1731 0
-1714 -1716 1733 0
1714 -1733 0
1716 -1733 0
-1718 -1720 1735 0
1718 -1735 0
1720 -1735 0
-1722 -1724 1737 0
1722 -1737 0
1724 -1737 0
-1726 -1728 1739 0
1726 -1739 0
1728 -1739 0
-1730 -1732 1741 0
1730 -1741 0
1732 -1741 0
-1734 -1736 1743 0
1734 -1743 0
1736 -1743 0
-1738 -1740 1744 0
1738 -1744 0
1740 -1744 0
-1622 -1624 1868 0
1622 -1868 0
1624 -1868 0
-1626 -1628 1869 0
1626 -1869 0
1628 -1869 0
-1636 -1638 1751 0
1636 -1751 0
1638 -1751 0
-1640 -1642 1753 0
1640 -1753 0
1642 -1753 0
-1650 -1652 1870 0
1650 -1870 0
1652 -1870 0
-1654 -1656 1871 0
1654 -1871 0
1656 -1871 0
-1660 -1662 1760 0
1660 -1760 0
1662 -1760 0
-1664 -1666 1762 0
1664 -1762 0
1666 -1762 0
-1668 -1670 1873 0
1668 -1873 0
1670 -1873 0
-1673 -1675 1766 0
1673 -1766 0
1675 -1766 0
-1677 -1679 1768 0
1677 -1768 0
1679 -1768 0
-1681 -1683 1770 0
1681 -1770 0
1683 -1770 0
-1685 -1687 1772 0
1685 -1772 0
1687 -1772 0
-1689 -1691 1774 0
1689 -1774 0
1691 -1774 0
-1693 -1695 1776 0
1693 -1776 0
1695 -1776 0
-1697 -1699 1778 0
1697 -1778 0
1699 -1778 0
-1701 -1703 1780 0
1701 -1780 0
1703 -1780 0
-1705 -1707 1782 0
1705 -1782 0
1707 -1782 0
-1709 -1711 1784 0
1709 -1784 0
1711 -1784 0
-1713 -1715 1786 0
1713 -1786 0
1715 -1786 0
-1717 -1719 1788 0
1717 -1788 0
1719 -1788 0
-1721 -1723 1790 0
1721 -1790 0
1723 -1790 0
-1725 -1727 1792 0
1725 -1792 0
1727 -1792 0
-1729 -1731 1794 0
1729 -1794 0
1731 -1794 0
-1733 -1735 1796 0
1733 -1796 0
1735 -1796 0
-1737 -1739 1798 0
1737 -1798 0
1739 -1798 0
-1741 -1743 1800 0
1741 -1800 0
1743 -1800 0
-1742 -1744 1891 0
1744 -1891 0
1742 -1891 0
-1746 -1747 1892 0
1746 -1892 0
1747 -1892 0
-1748 -1749 1805 0
1748 -1805 0
1749 -1805 0
-1750 -1752 1807 0
1750 -1807 0
1752 -1807 0
-1755 -1756 1894 0
1755 -1894 0
1756 -1894 0
-1757 -1758 1810 0
1757 -1810 0
1758 -1810 0
-1759 -1761 1812 0
1759 -1812 0
1761 -1812 0
-1763 -1764 1814 0
1763 -1814 0
1764 -1814 0
-1765 -1767 1816 0
1765 -1816 0
1767 -1816 0
-1769 -1771 1818 0
1769 -1818 0
1771 -1818 0
-1773 -1775 1820 0
1773 -1820 0
1775 -1820 0
-1777 -1779 1822 0
1777 -1822 0
1779 -1822 0
-1781 -1783 1824 0
1781 -1824 0
1783 -1824 0
-1785 -1787 1826 0
1785 -1826 0
1787 -1826 0
-1789 -1791 1828 0
1789 -1828 0
1791 -1828 0
-1793 -1795 1830 0
1793 -1830 0
1795 -1830 0
-1797 -1799 1832 0
1797 -1832 0
1799 -1832 0
-1745 -1801 1834 0
1801 -1834 0
1745 -1834 0
-1802 -1803 1836 0
1802 -1836 0
1803 -1836 0
-1804 -1806 1838 0
1804 -1838 0
1806 -1838 0
-1754 -1808 1840 0
1754 -1840 0
1808 -1840 0
-1809 -1811 1842 0
1809 -1842 0
1811 -1842 0
-1813 -1815 1844 0
1813 -1844 0
1815 -1844 0
-1817 -1819 1846 0
1817 -1846 0
1819 -1846 0
-1821 -1823 1848 0
1821 -1848 0
1823 -1848 0
-1825 -1827 1850 0
1825 -1850 0
1827 -1850 0
-1829 -1831 1852 0
1829 -1852 0
1831 -1852 0
-1833 -1835 1854 0
1833 -1854 0
1835 -1854 0
-1837 -1839 1856 0
1837 -1856 0
1839 -1856 0
-1841 -1843 1858 0
1841 -1858 0
1843 -1858 0
-1845 -1847 1860 0
1845 -1860 0
1847 -1860 0
-1849 -1851 1862 0
1849 -1862 0
1851 -1862 0
-1853 -1855 1864 0
1853 -1864 0
1855 -1864 0
-1857 -1859 1866 0
1857 -1866 0
1859 -1866 0
-1861 -1863 1867 0
1861 -1867 0
1863 -1867 0
-1751 -1753 1991 0
1751 -1991 0
1753 -1991 0
-1760 -1762 1992 0
1760 -1992 0
1762 -1992 0
-1766 -1768 1875 0
1766 -1875 0
1768 -1875 0
-1770 -1772 1877 0
1770 -1877 0
1772 -1877 0
-1774 -1776 1879 0
1774 -1879 0
1776 -1879 0
-1778 -1780 1881 0
1778 -1881 0
1780 -1881 0
-1782 -1784 1883 0
1782 -1883 0
1784 -1883 0
-1786 -1788 1885 0
1786 -1885 0
1788 -1885 0
-1790 -1792 1887 0
1790 -1887 0
1792 -1887 0
-1794 -1796 1889 0
1794 -1889 0
1796 -1889 0
-1798 -1800 1999 0
1798 -1999 0
1800 -1999 0
-1805 -1807 2000 0
1805 -2000 0
1807 -2000 0
-1810 -1812 2001 0
1810 -2001 0
1812 -2001 0
-1814 -1816 1897 0
1814 -1897 0
1816 -1897 0
-1818 -1820 1899 0
1818 -1899 0
1820 -1899 0
-1822 -1824 1901 0
1822 -1901 0
1824 -1901 0
-1826 -1828 1903 0
1826 -1903 0
1828 -1903 0
-1830 -1832 1905 0
1830 -1905 0
1832 -1905 0
-1834 -1836 1907 0
1834 -1907 0
1836 -1907 0
-1838 -1840 1909 0
1838 -1909 0
1840 -1909 0
-1842 -1844 1911 0
1842 -1911 0
1844 -1911 0
-1846 -1848 1913 0
1846 -1913 0
1848 -1913 0
-1850 -1852 1915 0
1850 -1915 0
1852 -1915 0
-1854 -1856 1917 0
1854 -1917 0
1856 -1917 0
-1858 -1860 1919 0
1858 -1919 0
1860 -1919 0
-1862 -1864 1921 0
1862 -1921 0
1864 -1921 0
-1866 -1867 1923 0
1866 -1923 0
1867 -1923 0
-1868 -1869 2015 0
1868 -2015 0
1869 -2015 0
-1871 -1872 1927 0
1871 -1927 0
1872 -1927 0
-1873 -1874 1929 0
1873 -1929 0
1874 -1929 0
-1876 -1878 1931 0
1876 -1931 0
1878 -1931 0
-1880 -1882 1933 0
1880 -1933 0
1882 -1933 0
-1884 -1886 1935 0
1884 -1935 0
1886 -1935 0
-1888 -1890 1937 0
1888 -1937 0
1890 -1937 0
-1891 -1892 1939 0
1891 -1939 0
1892 -1939 0
-1893 -1894 1941 0
1893 -1941 0
1894 -1941 0
-1895 -1896 1943 0
1895 -1943 0
1896 -1943 0
-1898 -1900 1945 0
1898 -1945 0
1900 -1945 0
-1902 -1904 1947 0
1902 -1947 0
1904 -1947 0
-1906 -1908 1949 0
1906 -1949 0
1908 -1949 0
-1910 -1912 1951 0
1910 -1951 0
1912 -1951 0
-1914 -1916 1953 0
1914 -1953 0
1916 -1953 0
-1918 -1920 1955 0
1918 -1955 0
1920 -1955 0
-1865 -1922 1957 0
1922 -1957 0
1865 -1957 0
-1924 -1925 1959 0
1924 -1959 0
1925 -1959 0
-1870 -1926 1961 0
1870 -1961 0
1926 -1961 0
-1928 -1930 1963 0
1928 -1963 0
1930 -1963 0
-1932 -1934 1965 0
1932 -1965 0
1934 -1965 0
-1936 -1938 1967 0
1936 -1967 0
1938 -1967 0
-1940 -1942 1969 0
1940 -1969 0
1942 -1969 0
-1944 -1946 1971 0
1944 -1971 0
1946 -1971 0
-1948 -1950 1973 0
1948 -1973 0
1950 -1973 0
-1952 -1954 1975 0
1952 -1975 0
1954 -1975 0
-1956 -1958 1977 0
1956 -1977 0
1958 -1977 0
-1960 -1962 1979 0
1960 -1979 0
1962 -1979 0
-1964 -1966 1981 0
1964 -1981 0
1966 -1981 0
-1968 -1970 1983 0
1968 -1983 0
1970 -1983 0
-1972 -1974 1985 0
1972 -1985 0
1974 -1985 0
-1976 -1978 1987 0
1976 -1987 0
1978 -1987 0
-1980 -1982 1989 0
1980 -1989 0
1982 -1989 0
-1984 -1986 1990 0
1984 -1990 0
1986 -1990 0
-1875 -1877 2110 0
1875 -2110 0
1877 -2110 0
-1879 -1881 1995 0
1879 -1995 0
1881 -1995 0
-1883 -1885 1997 0
1883 -1997 0
1885 -1997 0
-1887 -1889 2112 0
1887 -2112 0
1889 -2112 0
-1897 -1899 2003 0
1897 -2003 0
1899 -2003 0
-1901 -1903 2005 0
1901 -2005 0
1903 -2005 0
-1905 -1907 2007 0
1905 -2007 0
1907 -2007 0
-1909 -1911 2009 0
1909 -2009 0
1911 -2009 0
-1913 -1915 2011 0
1913 -2011 0
1915 -2011 0
-1917 -1919 2013 0
1917 -2013 0
1919 -2013 0
-1921 -1923 2117 0
1921 -2117 0
1923 -2117 0
-1927 -1929 2118 0
1927 -2118 0
1929 -2118 0
-1931 -1933 2017 0
1931 -2017 0
1933 -2017 0
-1935 -1937 2019 0
1935 -2019 0
1937 -2019 0
-1939 -1941 2021 0
1939 -2021 0
1941 -2021 0
-1943 -1945 2023 0
1943 -2023 0
1945 -2023 0
-1947 -1949 2025 0
1947 -2025 0
1949 -2025 0
-1951 -1953 2027 0
1951 -2027 0
1953 -2027 0
-1955 -1957 2029 0
1955 -2029 0
1957 -2029 0
-1959 -1961 2031 0
1959 -2031 0
1961 -2031 0
-1963 -1965 2033 0
1963 -2033 0
1965 -2033 0
-1967 -1969 2035 0
1967 -2035 0
1969 -2035 0
-1971 -1973 2037 0
1971 -2037 0
1973 -2037 0
-1975 -1977 2039 0
1975 -2039 0
1977 -2039 0
-1979 -1981 2041 0
1979 -2041 0
1981 -2041 0
-1983 -1985 2043 0
1983 -2043 0
1985 -2043 0
-1987 -1989 2045 0
1987 -2045 0
1989 -2045 0
-1988 -1990 2047 0
1990 -2047 0
1988 -2047 0
-1992 -1993 2049 0
1992 -2049 0
1993 -2049 0
-1994 -1996 2051 0
1994 -2051 0
1996 -2051 0
-1998 -1999 2053 0
1998 -2053 0
1999 -2053 0
-2000 -2001 2055 0
2000 -2055 0
2001 -2055 0
-2002 -2004 2057 0
2002 -2057 0
2004 -2057 0
-2006 -2008 2059 0
2006 -2059 0
2008 -2059 0
-2010 -2012 2061 0
2010 -2061 0
2012 -2061 0
-2014 -2015 2063 0
2014 -2063 0
2015 -2063 0
-2016 -2018 2140 0
2016 -2140 0
2018 -2140 0
-2020 -2022 2067 0
2020 -2067 0
2022 -2067 0
-2024 -2026 2069 0
2024 -2069 0
2026 -2069 0
-2028 -2030 2071 0
2028 -2071 0
2030 -2071 0
-2032 -2034 2073 0
2032 -2073 0
2034 -2073 0
-2036 -2038 2075 0
2036 -2075 0
2038 -2075 0
-2040 -2042 2077 0
2040 -2077 0
2042 -2077 0
-2044 -2046 2146 0
2044 -2146 0
2046 -2146 0
-2048 -2050 2080 0
2048 -2080 0
2050 -2080 0
-2052 -2054 2082 0
2052 -2082 0
2054 -2082 0
-2056 -2058 2084 0
2056 -2084 0
2058 -2084 0
-2060 -2062 2086 0
2060 -2086 0
2062 -2086 0
-2064 -2065 2088 0
2064 -2088 0
2065 -2088 0
-2066 -2068 2090 0
2066 -2090 0
2068 -2090 0
-2070 -2072 2092 0
2070 -2092 0
2072 -2092 0
-2074 -2076 2094 0
2074 -2094 0
2076 -2094 0
-1991 -2078 2096 0
2078 -2096 0
1991 -2096 0
-2079 -2081 2098 0
2079 -2098 0
2081 -2098 0
-2083 -2085 2100 0
2083 -2100 0
2085 -2100 0
-2087 -2089 2102 0
2087 -2102 0
2089 -2102 0
-2091 -2093 2104 0
2091 -2104 0
2093 -2104 0
-2095 -2097 2106 0
2095 -2106 0
2097 -2106 0
-2099 -2101 2108 0
2099 -2108 0
2101 -2108 0
-2103 -2105 2109 0
2103 -2109 0
2105 -2109 0
-1995 -1997 2223 0
1995 -2223 0
1997 -2223 0
-2003 -2005 2113 0
2003 -2113 0
2005 -2113 0
-2007 -2009 2115 0
2007 -2115 0
2009 -2115 0
-2011 -2013 2224 0
2011 -2224 0
2013 -2224 0
-2017 -2019 2225 0
2017 -2225 0
2019 -2225 0
-2021 -2023 2121 0
2021 -2121 0
2023 -2121 0
-2025 -2027 2123 0
2025 -2123 0
2027 -2123 0
-2029 -2031 2125 0
2029 -2125 0
2031 -2125 0
-2033 -2035 2127 0
2033 -2127 0
2035 -2127 0
-2037 -2039 2129 0
2037 -2129 0
2039 -2129 0
-2041 -2043 2131 0
2041 -2131 0
2043 -2131 0
-2045 -2047 2231 0
2045 -2231 0
2047 -2231 0
-2049 -2051 2133 0
2049 -2133 0
2051 -2133 0
-2053 -2055 2135 0
2053 -2135 0
2055 -2135 0
-2057 -2059 2137 0
2057 -2137 0
2059 -2137 0
-2061 -2063 2139 0
2061 -2139 0
2063 -2139 0
-2067 -2069 2236 0
2067 -2236 0
2069 -2236 0
-2071 -2073 2143 0
2071 -2143 0
2073 -2143 0
-2075 -2077 2145 0
2075 -2145 0
2077 -2145 0
-2080 -2082 2238 0
2080 -2238 0
2082 -2238 0
-2084 -2086 2149 0
2084 -2149 0
2086 -2149 0
-2088 -2090 2151 0
2088 -2151 0
2090 -2151 0
-2092 -2094 2153 0
2092 -2153 0
2094 -2153 0
-2096 -2098 2155 0
2096 -2155 0
2098 -2155 0
-2100 -2102 2157 0
2100 -2157 0
2102 -2157 0
-2104 -2106 2159 0
2104 -2159 0
2106 -2159 0
-2108 -2109 2244 0
2108 -2244 0
2109 -2244 0
-2111 -2112 2245 0
2111 -2245 0
2112 -2245 0
-2114 -2116 2246 0
2114 -2246 0
2116 -2246 0
-2117 -2118 2165 0
2117 -2165 0
2118 -2165 0
-2119 -2120 2167 0
2119 -2167 0
2120 -2167 0
-2122 -2124 2169 0
2122 -2169 0
2124 -2169 0
-2126 -2128 2171 0
2126 -2171 0
2128 -2171 0
-2130 -2132 2249 0
2130 -2249 0
2132 -2249 0
-2134 -2136 2175 0
2134 -2175 0
2136 -2175 0
-2138 -2140 2177 0
2138 -2177 0
2140 -2177 0
-2141 -2142 2179 0
2141 -2179 0
2142 -2179 0
-2144 -2146 2181 0
2144 -2181 0
2146 -2181 0
-2147 -2148 2183 0
2147 -2183 0
2148 -2183 0
-2150 -2152 2185 0
2150 -2185 0
2152 -2185 0
-2154 -2156 2187 0
2154 -2187 0
2156 -2187 0
-2158 -2160 2189 0
2158 -2189 0
2160 -2189 0
-2107 -2110 2191 0
2107 -2191 0
2110 -2191 0
-2161 -2162 2193 0
2161 -2193 0
2162 -2193 0
-2163 -2164 2195 0
2163 -2195 0
2164 -2195 0
-2166 -2168 2197 0
2166 -2197 0
2168 -2197 0
-2170 -2172 2199 0
2170 -2199 0
2172 -2199 0
-2173 -2174 2201 0
2173 -2201 0
2174 -2201 0
-2176 -2178 2203 0
2176 -2203 0
2178 -2203 0
-2180 -2182 2205 0
2180 -2205 0
2182 -2205 0
-2184 -2186 2207 0
2184 -2207 0
2186 -2207 0
-2188 -2190 2209 0
2188 -2209 0
2190 -2209 0
-2192 -2194 2211 0
2192 -2211 0
2194 -2211 0
-2196 -2198 2213 0
2196 -2213 0
2198 -2213 0
-2200 -2202 2215 0
2200 -2215 0
2202 -2215 0
-2204 -2206 2217 0
2204 -2217 0
2206 -2217 0
-2208 -2210 2219 0
2208 -2219 0
2210 -2219 0
-2212 -2214 2221 0
2212 -2221 0
2214 -2221 0
-2216 -2218 2222 0
2216 -2222 0
2218 -2222 0
-2113 -2115 2340 0
2113 -2340 0
2115 -2340 0
-2121 -2123 2227 0
2121 -2227 0
2123 -2227 0
-2125 -2127 2229 0
2125 -2229 0
2127 -2229 0
-2129 -2131 2342 0
2129 -2342 0
2131 -2342 0
-2133 -2135 2233 0
2133 -2233 0
2135 -2233 0
-2137 -2139 2235 0
2137 -2235 0
2139 -2235 0
-2143 -2145 2344 0
2143 -2344 0
2145 -2344 0
-2149 -2151 2345 0
2149 -2345 0
2151 -2345 0
-2153 -2155 2241 0
2153 -2241 0
2155 -2241 0
-2157 -2159 2243 0
2157 -2243 0
2159 -2243 0
-2165 -2167 2399 0
2165 -2399 0
2167 -2399 0
-2169 -2171 2347 0
2169 -2347 0
2171 -2347 0
-2175 -2177 2251 0
2175 -2251 0
2177 -2251 0
-2179 -2181 2253 0
2179 -2253 0
2181 -2253 0
-2183 -2185 2255 0
2183 -2255 0
2185 -2255 0
-2187 -2189 2257 0
2187 -2257 0
2189 -2257 0
-2191 -2193 2259 0
2191 -2259 0
2193 -2259 0
-2195 -2197 2261 0
2195 -2261 0
2197 -2261 0
-2199 -2201 2263 0
2199 -2263 0
2201 -2263 0
-2203 -2205 2265 0
2203 -2265 0
2205 -2265 0
-2207 -2209 2267 0
2207 -2267 0
2209 -2267 0
-2211 -2213 2269 0
2211 -2269 0
2213 -2269 0
-2215 -2217 2271 0
2215 -2271 0
2217 -2271 0
-2219 -2221 2273 0
2219 -2273 0
2221 -2273 0
-2220 -2222 2360 0
2222 -2360 0
2220 -2360 0
-2224 -2225 2361 0
2224 -2361 0
2225 -2361 0
-2226 -2228 2278 0
2226 -2278 0
2228 -2278 0
-2230 -2231 2280 0
2230 -2280 0
2231 -2280 0
-2232 -2234 2282 0
2232 -2282 0
2234 -2282 0
-2236 -2237 2284 0
2236 -2284 0
2237 -2284 0
-2238 -2239 2286 0
2238 -2286 0
2239 -2286 0
-2240 -2242 2288 0
2240 -2288 0
2242 -2288 0
-2244 -2245 2290 0
2244 -2290 0
2245 -2290 0
-2246 -2247 2292 0
2246 -2292 0
2247 -2292 0
-2248 -2249 2294 0
2248 -2294 0
2249 -2294 0
-2250 -2252 2296 0
2250 -2296 0
2252 -2296 0
-2254 -2256 2298 0
2254 -2298 0
2256 -2298 0
-2258 -2260 2300 0
2258 -2300 0
2260 -2300 0
-2262 -2264 2302 0
2262 -2302 0
2264 -2302 0
-2266 -2268 2304 0
2266 -2304 0
2268 -2304 0
-2270 -2272 2306 0
2270 -2306 0
2272 -2306 0
-2223 -2274 2308 0
2274 -2308 0
2223 -2308 0
-2275 -2276 2310 0
2275 -2310 0
2276 -2310 0
-2277 -2279 2312 0
2277 -2312 0
2279 -2312 0
-2281 -2283 2314 0
2281 -2314 0
2283 -2314 0
-2285 -2287 2316 0
2285 -2316 0
2287 -2316 0
-2289 -2291 2318 0
2289 -2318 0
2291 -2318 0
-2293 -2295 2320 0
2293 -2320 0
2295 -2320 0
-2297 -2299 2322 0
2297 -2322 0
2299 -2322 0
-2301 -2303 2324 0
2301 -2324 0
2303 -2324 0
-2305 -2307 2326 0
2305 -2326 0
2307 -2326 0
-2309 -2311 2328 0
2309 -2328 0
2311 -2328 0
-2313 -2315 2330 0
2313 -2330 0
2315 -2330 0
-2317 -2319 2332 0
2317 -2332 0
2319 -2332 0
-2321 -2323 2334 0
2321 -2334 0
2323 -2334 0
-2325 -2327 2336 0
2325 -2336 0
2327 -2336 0
-2329 -2331 2338 0
2329 -2338 0
2331 -2338 0
-2333 -2335 2339 0
2333 -2339 0
2335 -2339 0
-2227 -2229 2457 0
2227 -2457 0
2229 -2457 0
-2233 -2235 2458 0
2233 -2458 0
2235 -2458 0
-2241 -2243 2459 0
2241 -2459 0
2243 -2459 0
-2251 -2253 2349 0
2251 -2349 0
2253 -2349 0
-2255 -2257 2351 0
2255 -2351 0
2257 -2351 0
-2259 -2261 2353 0
2259 -2353 0
2261 -2353 0
-2263 -2265 2355 0
2263 -2355 0
2265 -2355 0
-2267 -2269 2357 0
2267 -2357 0
2269 -2357 0
-2271 -2273 2359 0
2271 -2359 0
2273 -2359 0
-2278 -2280 2363 0
2278 -2363 0
2280 -2363 0
-2282 -2284 2365 0
2282 -2365 0
2284 -2365 0
-2286 -2288 2367 0
2286 -2367 0
2288 -2367 0
-2290 -2292 2369 0
2290 -2369 0
2292 -2369 0
-2294 -2296 2371 0
2294 -2371 0
2296 -2371 0
-2298 -2300 2373 0
2298 -2373 0
2300 -2373 0
-2302 -2304 2375 0
2302 -2375 0
2304 -2375 0
-2306 -2308 2377 0
2306 -2377 0
2308 -2377 0
-2310 -2312 2379 0
2310 -2379 0
2312 -2379 0
-2314 -2316 2381 0
2314 -2381 0
2316 -2381 0
-2318 -2320 2383 0
2318 -2383 0
2320 -2383 0
-2322 -2324 2385 0
2322 -2385 0
2324 -2385 0
-2326 -2328 2387 0
2326 -2387 0
2328 -2387 0
-2330 -2332 2389 0
2330 -2389 0
2332 -2389 0
-2334 -2336 2391 0
2334 -2391 0
2336 -2391 0
-2338 -2339 2393 0
2338 -2393 0
2339 -2393 0
-2341 -2342 2395 0
2341 -2395 0
2342 -2395 0
-2343 -2344 2397 0
2343 -2397 0
2344 -2397 0
-2345 -2346 2480 0
2345 -2480 0
2346 -2480 0
-2347 -2348 2401 0
2347 -2401 0
2348 -2401 0
-2350 -2352 2403 0
2350 -2403 0
2352 -2403 0
-2354 -2356 2405 0
2354 -2405 0
2356 -2405 0
-2358 -2360 2407 0
2358 -2407 0
2360 -2407 0
-2361 -2362 2409 0
2361 -2409 0
2362 -2409 0
-2364 -2366 2411 0
2364 -2411 0
2366 -2411 0
-2368 -2370 2413 0
2368 -2413 0
2370 -2413 0
-2372 -2374 2415 0
2372 -2415 0
2374 -2415 0
-2376 -2378 2417 0
2376 -2417 0
2378 -2417 0
-2380 -2382 2419 0
2380 -2419 0
2382 -2419 0
-2384 -2386 2421 0
2384 -2421 0
2386 -2421 0
-2388 -2390 2423 0
2388 -2423 0
2390 -2423 0
-2337 -2392 2425 0
2392 -2425 0
2337 -2425 0
-2340 -2394 2427 0
2340 -2427 0
2394 -2427 0
-2396 -2398 2429 0
2396 -2429 0
2398 -2429 0
-2399 -2400 2431 0
2399 -2431 0
2400 -2431 0
-2402 -2404 2433 0
2402 -2433 0
2404 -2433 0
-2406 -2408 2435 0
2406 -2435 0
2408 -2435 0
-2410 -2412 2437 0
2410 -2437 0
2412 -2437 0
-2414 -2416 2439 0
2414 -2439 0
2416 -2439 0
-2418 -2420 2441 0
2418 -2441 0
2420 -2441 0
-2422 -2424 2443 0
2422 -2443 0
2424 -2443 0
-2426 -2428 2445 0
2426 -2445 0
2428 -2445 0
-2430 -2432 2447 0
2430 -2447 0
2432 -2447 0
-2434 -2436 2449 0
2434 -2449 0
2436 -2449 0
-2438 -2440 2451 0
2438 -2451 0
2440 -2451 0
-2442 -2444 2453 0
2442 -2453 0
2444 -2453 0
-2446 -2448 2455 0
2446 -2455 0
2448 -2455 0
-2450 -2452 2456 0
2450 -2456 0
2452 -2456 0
-2349 -2351 2461 0
2349 -2461 0
2351 -2461 0
-2353 -2355 2463 0
2353 -2463 0
2355 -2463 0
-2357 -2359 2567 0
2357 -2567 0
2359 -2567 0
-2363 -2365 2465 0
2363 -2465 0
2365 -2465 0
-2367 -2369 2467 0
2367 -2467 0
2369 -2467 0
-2371 -2373 2469 0
2371 -2469 0
2373 -2469 0
-2375 -2377 2471 0
2375 -2471 0
2377 -2471 0
-2379 -2381 2473 0
2379 -2473 0
2381 -2473 0
-2383 -2385 2475 0
2383 -2475 0
2385 -2475 0
-2387 -2389 2477 0
2387 -2477 0
2389 -2477 0
-2391 -2393 2479 0
2391 -2479 0
2393 -2479 0
-2395 -2397 2574 0
2395 -2574 0
2397 -2574 0
-2401 -2403 2575 0
2401 -2575 0
2403 -2575 0
-2405 -2407 2483 0
2405 -2483 0
2407 -2483 0
-2409 -2411 2485 0
2409 -2485 0
2411 -2485 0
-2413 -2415 2487 0
2413 -2487 0
2415 -2487 0
-2417 -2419 2489 0
2417 -2489 0
2419 -2489 0
-2421 -2423 2491 0
2421 -2491 0
2423 -2491 0
-2425 -2427 2493 0
2425 -2493 0
2427 -2493 0
-2429 -2431 2495 0
2429 -2495 0
2431 -2495 0
-2433 -2435 2497 0
2433 -2497 0
2435 -2497 0
-2437 -2439 2499 0
2437 -2499 0
2439 -2499 0
-2441 -2443 2501 0
2441 -2501 0
2443 -2501 0
-2445 -2447 2503 0
2445 -2503 0
2447 -2503 0
-2449 -2451 2505 0
2449 -2505 0
2451 -2505 0
-2453 -2455 2507 0
2453 -2507 0
2455 -2507 0
-2454 -2456 2509 0
2456 -2509 0
2454 -2509 0
-2460 -2462 2588 0
2460 -2588 0
2462 -2588 0
-2464 -2466 2589 0
2464 -2589 0
2466 -2589 0
-2468 -2470 2514 0
2468 -2514 0
2470 -2514 0
-2472 -2474 2516 0
2472 -2516 0
2474 -2516 0
-2476 -2478 2591 0
2476 -2591 0
2478 -2591 0
-2480 -2481 2520 0
2480 -2520 0
2481 -2520 0
-2482 -2484 2522 0
2482 -2522 0
2484 -2522 0
-2486 -2488 2524 0
2486 -2524 0
2488 -2524 0
-2490 -2492 2526 0
2490 -2526 0
2492 -2526 0
-2494 -2496 2528 0
2494 -2528 0
2496 -2528 0
-2498 -2500 2530 0
2498 -2530 0
2500 -2530 0
-2502 -2504 2532 0
2502 -2532 0
2504 -2532 0
-2506 -2508 2534 0
2506 -2534 0
2508 -2534 0
-2457 -2458 2536 0
2457 -2536 0
2458 -2536 0
-2459 -2510 2538 0
2459 -2538 0
2510 -2538 0
-2511 -2512 2540 0
2511 -2540 0
2512 -2540 0
-2513 -2515 2542 0
2513 -2542 0
2515 -2542 0
-2517 -2518 2544 0
2517 -2544 0
2518 -2544 0
-2519 -2521 2546 0
2519 -2546 0
2521 -2546 0
-2523 -2525 2548 0
2523 -2548 0
2525 -2548 0
-2527 -2529 2550 0
2527 -2550 0
2529 -2550 0
-2531 -2533 2552 0
2531 -2552 0
2533 -2552 0
-2535 -2537 2554 0
2535 -2554 0
2537 -2554 0
-2539 -2541 2556 0
2539 -2556 0
2541 -2556 0
-2543 -2545 2558 0
2543 -2558 0
2545 -2558 0
-2547 -2549 2560 0
2547 -2560 0
2549 -2560 0
-2551 -2553 2562 0
2551 -2562 0
2553 -2562 0
-2555 -2557 2564 0
2555 -2564 0
2557 -2564 0
-2559 -2561 2565 0
2559 -2565 0
2561 -2565 0
-2461 -2463 2671 0
2461 -2671 0
2463 -2671 0
-2465 -2467 2672 0
2465 -2672 0
2467 -2672 0
-2469 -2471 2570 0
2469 -2570 0
2471 -2570 0
-2473 -2475 2572 0
2473 -2572 0
2475 -2572 0
-2477 -2479 2674 0
2477 -2674 0
2479 -2674 0
-2483 -2485 2675 0
2483 -2675 0
2485 -2675 0
-2487 -2489 2578 0
2487 -2578 0
2489 -2578 0
-2491 -2493 2580 0
2491 -2580 0
2493 -2580 0
-2495 -2497 2582 0
2495 -2582 0
2497 -2582 0
-2499 -2501 2584 0
2499 -2584 0
2501 -2584 0
-2503 -2505 2586 0
2503 -2586 0
2505 -2586 0
-2507 -2509 2587 0
2507 -2587 0
2509 -2587 0
-2514 -2516 2680 0
2514 -2680 0
2516 -2680 0
-2520 -2522 2681 0
2520 -2681 0
2522 -2681 0
-2524 -2526 2594 0
2524 -2594 0
2526 -2594 0
-2528 -2530 2596 0
2528 -2596 0
2530 -2596 0
-2532 -2534 2598 0
2532 -2598 0
2534 -2598 0
-2536 -2538 2600 0
2536 -2600 0
2538 -2600 0
-2540 -2542 2602 0
2540 -2602 0
2542 -2602 0
-2544 -2546 2604 0
2544 -2604 0
2546 -2604 0
-2548 -2550 2606 0
2548 -2606 0
2550 -2606 0
-2552 -2554 2608 0
2552 -2608 0
2554 -2608 0
-2556 -2558 2610 0
2556 -2610 0
2558 -2610 0
-2560 -2562 2612 0
2560 -2612 0
2562 -2612 0
-2564 -2565 2691 0
2564 -2691 0
2565 -2691 0
-2566 -2567 2692 0
2566 -2692 0
2567 -2692 0
-2568 -2569 2616 0
2568 -2616 0
2569 -2616 0
-2571 -2573 2618 0
2571 -2618 0
2573 -2618 0
-2574 -2575 2620 0
2574 -2620 0
2575 -2620 0
-2576 -2577 2622 0
2576 -2622 0
2577 -2622 0
-2579 -2581 2624 0
2579 -2624 0
2581 -2624 0
-2583 -2585 2626 0
2583 -2626 0
2585 -2626 0
-2588 -2589 2698 0
2588 -2698 0
2589 -2698 0
-2590 -2591 2630 0
2590 -2630 0
2591 -2630 0
-2592 -2593 2632 0
2592 -2632 0
2593 -2632 0
-2595 -2597 2634 0
2595 -2634 0
2597 -2634 0
-2599 -2601 2636 0
2599 -2636 0
2601 -2636 0
-2603 -2605 2638 0
2603 -2638 0
2605 -2638 0
-2607 -2609 2640 0
2607 -2640 0
2609 -2640 0
-2611 -2613 2704 0
2611 -2704 0
2613 -2704 0
-2614 -2615 2643 0
2614 -2643 0
2615 -2643 0
-2617 -2619 2645 0
2617 -2645 0
2619 -2645 0
-2621 -2623 2647 0
2621 -2647 0
2623 -2647 0
-2625 -2627 2649 0
2625 -2649 0
2627 -2649 0
-2628 -2629 2651 0
2628 -2651 0
2629 -2651 0
-2631 -2633 2653 0
2631 -2653 0
2633 -2653 0
-2635 -2637 2655 0
2635 -2655 0
2637 -2655 0
-2639 -2641 2657 0
2639 -2657 0
2641 -2657 0
-2563 -2642 2659 0
2563 -2659 0
2642 -2659 0
-2644 -2646 2661 0
2644 -2661 0
2646 -2661 0
-2648 -2650 2663 0
2648 -2663 0
2650 -2663 0
-2652 -2654 2665 0
2652 -2665 0
2654 -2665 0
-2656 -2658 2667 0
2656 -2667 0
2658 -2667 0
-2660 -2662 2669 0
2660 -2669 0
2662 -2669 0
-2664 -2666 2670 0
2664 -2670 0
2666 -2670 0
-2570 -2572 2780 0
2570 -2780 0
2572 -2780 0
-2578 -2580 2677 0
2578 -2677 0
2580 -2677 0
-2582 -2584 2679 0
2582 -2679 0
2584 -2679 0
-2586 -2587 2782 0
2586 -2782 0
2587 -2782 0
-2594 -2596 2683 0
2594 -2683 0
2596 -2683 0
-2598 -2600 2685 0
2598 -2685 0
2600 -2685 0
-2602 -2604 2687 0
2602 -2687 0
2604 -2687 0
-2606 -2608 2689 0
2606 -2689 0
2608 -2689 0
-2610 -2612 2786 0
2610 -2786 0
2612 -2786 0
-2616 -2618 2787 0
2616 -2787 0
2618 -2787 0
-2620 -2622 2695 0
2620 -2695 0
2622 -2695 0
-2624 -2626 2697 0
2624 -2697 0
2626 -2697 0
-2630 -2632 2789 0
2630 -2789 0
2632 -2789 0
-2634 -2636 2701 0
2634 -2701 0
2636 -2701 0
-2638 -2640 2703 0
2638 -2703 0
2640 -2703 0
-2643 -2645 2791 0
2643 -2791 0
2645 -2791 0
-2647 -2649 2707 0
2647 -2707 0
2649 -2707 0
-2651 -2653 2709 0
2651 -2709 0
2653 -2709 0
-2655 -2657 2711 0
2655 -2711 0
2657 -2711 0
-2659 -2661 2713 0
2659 -2713 0
2661 -2713 0
-2663 -2665 2715 0
2663 -2715 0
2665 -2715 0
-2667 -2669 2717 0
2667 -2717 0
2669 -2717 0
-2668 -2670 2797 0
2670 -2797 0
2668 -2797 0
-2672 -2673 2720 0
2672 -2720 0
2673 -2720 0
-2674 -2675 2722 0
2674 -2722 0
2675 -2722 0
-2676 -2678 2799 0
2676 -2799 0
2678 -2799 0
-2680 -2681 2726 0
2680 -2726 0
2681 -2726 0
-2682 -2684 2728 0
2682 -2728 0
2684 -2728 0
-2686 -2688 2730 0
2686 -2730 0
2688 -2730 0
-2690 -2691 2732 0
2690 -2732 0
2691 -2732 0
-2692 -2693 2734 0
2692 -2734 0
2693 -2734 0
-2694 -2696 2736 0
2694 -2736 0
2696 -2736 0
-2698 -2699 2738 0
2698 -2738 0
2699 -2738 0
-2700 -2702 2740 0
2700 -2740 0
2702 -2740 0
-2704 -2705 2742 0
2704 -2742 0
2705 -2742 0
-2706 -2708 2744 0
2706 -2744 0
2708 -2744 0
-2710 -2712 2746 0
2710 -2746 0
2712 -2746 0
-2714 -2716 2748 0
2714 -2748 0
2716 -2748 0
-2671 -2718 2750 0
2718 -2750 0
2671 -2750 0
-2719 -2721 2752 0
2719 -2752 0
2721 -2752 0
-2723 -2724 2754 0
2723 -2754 0
2724 -2754 0
-2725 -2727 2756 0
2725 -2756 0
2727 -2756 0
-2729 -2731 2758 0
2729 -2758 0
2731 -2758 0
-2733 -2735 2760 0
2733 -2760 0
2735 -2760 0
-2737 -2739 2762 0
2737 -2762 0
2739 -2762 0
-2741 -2743 2764 0
2741 -2764 0
2743 -2764 0
-2745 -2747 2766 0
2745 -2766 0
2747 -2766 0
-2749 -2751 2768 0
2749 -2768 0
2751 -2768 0
-2753 -2755 2770 0
2753 -2770 0
2755 -2770 0
-2757 -2759 2772 0
2757 -2772 0
2759 -2772 0
-2761 -2763 2774 0
2761 -2774 0
2763 -2774 0
-2765 -2767 2776 0
2765 -2776 0
2767 -2776 0
-2769 -2771 2778 0
2769 -2778 0
2771 -2778 0
-2773 -2775 2779 0
2773 -2779 0
2775 -2779 0
-2677 -2679 2887 0
2677 -2887 0
2679 -2887 0
-2683 -2685 2783 0
2683 -2783 0
2685 -2783 0
-2687 -2689 2785 0
2687 -2785 0
2689 -2785 0
-2695 -2697 2935 0
2695 -2935 0
2697 -2935 0
-2701 -2703 2888 0
2701 -2888 0
2703 -2888 0
-2707 -2709 2793 0
2707 -2793 0
2709 -2793 0
-2711 -2713 2795 0
2711 -2795 0
2713 -2795 0
-2715 -2717 2890 0
2715 -2890 0
2717 -2890 0
-2720 -2722 2891 0
2720 -2891 0
2722 -2891 0
-2726 -2728 2801 0
2726 -2801 0
2728 -2801 0
-2730 -2732 2803 0
2730 -2803 0
2732 -2803 0
-2734 -2736 2805 0
2734 -2805 0
2736 -2805 0
-2738 -2740 2807 0
2738 -2807 0
2740 -2807 0
-2742 -2744 2809 0
2742 -2809 0
2744 -2809 0
-2746 -2748 2811 0
2746 -2811 0
2748 -2811 0
-2750 -2752 2813 0
2750 -2813 0
2752 -2813 0
-2754 -2756 2815 0
2754 -2815 0
2756 -2815 0
-2758 -2760 2817 0
2758 -2817 0
2760 -2817 0
-2762 -2764 2819 0
2762 -2819 0
2764 -2819 0
-2766 -2768 2821 0
2766 -2821 0
2768 -2821 0
-2770 -2772 2823 0
2770 -2823 0
2772 -2823 0
-2774 -2776 2825 0
2774 -2825 0
2776 -2825 0
-2778 -2779 2827 0
2778 -2827 0
2779 -2827 0
-2781 -2782 2904 0
2781 -2904 0
2782 -2904 0
-2784 -2786 2831 0
2784 -2831 0
2786 -2831 0
-2787 -2788 2833 0
2787 -2833 0
2788 -2833 0
-2789 -2790 2835 0
2789 -2835 0
2790 -2835 0
-2791 -2792 2837 0
2791 -2837 0
2792 -2837 0
-2794 -2796 2839 0
2794 -2839 0
2796 -2839 0
-2797 -2798 2841 0
2797 -2841 0
2798 -2841 0
-2799 -2800 2843 0
2799 -2843 0
2800 -2843 0
-2802 -2804 2845 0
2802 -2845 0
2804 -2845 0
-2806 -2808 2847 0
2806 -2847 0
2808 -2847 0
-2810 -2812 2849 0
2810 -2849 0
2812 -2849 0
-2814 -2816 2851 0
2814 -2851 0
2816 -2851 0
-2818 -2820 2853 0
2818 -2853 0
2820 -2853 0
-2822 -2824 2855 0
2822 -2855 0
2824 -2855 0
-2777 -2826 2857 0
2826 -2857 0
2777 -2857 0
-2780 -2828 2859 0
2780 -2859 0
2828 -2859 0
-2829 -2830 2861 0
2829 -2861 0
2830 -2861 0
-2832 -2834 2863 0
2832 -2863 0
2834 -2863 0
-2836 -2838 2865 0
2836 -2865 0
2838 -2865 0
-2840 -2842 2867 0
2840 -2867 0
2842 -2867 0
-2844 -2846 2869 0
2844 -2869 0
2846 -2869 0
-2848 -2850 2871 0
2848 -2871 0
2850 -2871 0
-2852 -2854 2873 0
2852 -2873 0
2854 -2873 0
-2856 -2858 2875 0
2856 -2875 0
2858 -2875 0
-2860 -2862 2877 0
2860 -2877 0
2862 -2877 0
-2864 -2866 2879 0
2864 -2879 0
2866 -2879 0
-2868 -2870 2881 0
2868 -2881 0
2870 -2881 0
-2872 -2874 2883 0
2872 -2883 0
2874 -2883 0
-2876 -2878 2885 0
2876 -2885 0
2878 -2885 0
-2880 -2882 2886 0
2880 -2886 0
2882 -2886 0
-2783 -2785 2990 0
2783 -2990 0
2785 -2990 0
-2793 -2795 2991 0
2793 -2991 0
2795 -2991 0
-2801 -2803 2893 0
2801 -2893 0
2803 -2893 0
-2805 -2807 2895 0
2805 -2895 0
2807 -2895 0
-2809 -2811 2897 0
2809 -2897 0
2811 -2897 0
-2813 -2815 2899 0
2813 -2899 0
2815 -2899 0
-2817 -2819 2901 0
2817 -2901 0
2819 -2901 0
-2821 -2823 2903 0
2821 -2903 0
2823 -2903 0
-2825 -2827 2997 0
2825 -2997 0
2827 -2997 0
-2831 -2833 2998 0
2831 -2998 0
2833 -2998 0
-2835 -2837 2907 0
2835 -2907 0
2837 -2907 0
-2839 -2841 2909 0
2839 -2909 0
2841 -2909 0
-2843 -2845 2911 0
2843 -2911 0
2845 -2911 0
-2847 -2849 2913 0
2847 -2913 0
2849 -2913 0
-2851 -2853 2915 0
2851 -2915 0
2853 -2915 0
-2855 -2857 2917 0
2855 -2917 0
2857 -2917 0
-2859 -2861 2919 0
2859 -2919 0
2861 -2919 0
-2863 -2865 2921 0
2863 -2921 0
2865 -2921 0
-2867 -2869 2923 0
2867 -2923 0
2869 -2923 0
-2871 -2873 2925 0
2871 -2925 0
2873 -2925 0
-2875 -2877 2927 0
2875 -2927 0
2877 -2927 0
-2879 -2881 2929 0
2879 -2929 0
2881 -2929 0
-2883 -2885 2931 0
2883 -2931 0
2885 -2931 0
-2884 -2886 2933 0
2886 -2933 0
2884 -2933 0
-2888 -2889 3012 0
2888 -3012 0
2889 -3012 0
-2890 -2891 2938 0
2890 -2938 0
2891 -2938 0
-2892 -2894 2940 0
2892 -2940 0
2894 -2940 0
-2896 -2898 2942 0
2896 -2942 0
2898 -2942 0
-2900 -2902 2944 0
2900 -2944 0
2902 -2944 0
-2904 -2905 3015 0
2904 -3015 0
2905 -3015 0
-2906 -2908 2948 0
2906 -2948 0
2908 -2948 0
-2910 -2912 2950 0
2910 -2950 0
2912 -2950 0
-2914 -2916 2952 0
2914 -2952 0
2916 -2952 0
-2918 -2920 2954 0
2918 -2954 0
2920 -2954 0
-2922 -2924 2956 0
2922 -2956 0
2924 -2956 0
-2926 -2928 2958 0
2926 -2958 0
2928 -2958 0
-2930 -2932 2960 0
2930 -2960 0
2932 -2960 0
-2887 -2934 2962 0
2887 -2962 0
2934 -2962 0
-2935 -2936 2964 0
2935 -2964 0
2936 -2964 0
-2937 -2939 2966 0
2937 -2966 0
2939 -2966 0
-2941 -2943 2968 0
2941 -2968 0
2943 -2968 0
-2945 -2946 2970 0
2945 -2970 0
2946 -2970 0
-2947 -2949 2972 0
2947 -2972 0
2949 -2972 0
-2951 -2953 2974 0
2951 -2974 0
2953 -2974 0
-2955 -2957 2976 0
2955 -2976 0
2957 -2976 0
-2959 -2961 2978 0
2959 -2978 0
2961 -2978 0
-2963 -2965 2980 0
2963 -2980 0
2965 -2980 0
-2967 -2969 2982 0
2967 -2982 0
2969 -2982 0
-2971 -2973 2984 0
2971 -2984 0
2973 -2984 0
-2975 -2977 2986 0
2975 -2986 0
2977 -2986 0
-2979 -2981 2988 0
2979 -2988 0
2981 -2988 0
-2983 -2985 2989 0
2983 -2989 0
2985 -2989 0
-2893 -2895 3091 0
2893 -3091 0
2895 -3091 0
-2897 -2899 2994 0
2897 -2994 0
2899 -2994 0
-2901 -2903 2996 0
2901 -2996 0
2903 -2996 0
-2907 -2909 3000 0
2907 -3000 0
2909 -3000 0
-2911 -2913 3002 0
2911 -3002 0
2913 -3002 0
-2915 -2917 3004 0
2915 -3004 0
2917 -3004 0
-2919 -2921 3006 0
2919 -3006 0
2921 -3006 0
-2923 -2925 3008 0
2923 -3008 0
2925 -3008 0
-2927 -2929 3010 0
2927 -3010 0
2929 -3010 0
-2931 -2933 3097 0
2931 -3097 0
2933 -3097 0
-2938 -2940 3098 0
2938 -3098 0
2940 -3098 0
-2942 -2944 3099 0
2942 -3099 0
2944 -3099 0
-2948 -2950 3017 0
2948 -3017 0
2950 -3017 0
-2952 -2954 3019 0
2952 -3019 0
2954 -3019 0
-2956 -2958 3021 0
2956 -3021 0
2958 -3021 0
-2960 -2962 3023 0
2960 -3023 0
2962 -3023 0
-2964 -2966 3025 0
2964 -3025 0
2966 -3025 0
-2968 -2970 3027 0
2968 -3027 0
2970 -3027 0
-2972 -2974 3029 0
2972 -3029 0
2974 -3029 0
-2976 -2978 3031 0
2976 -3031 0
2978 -3031 0
-2980 -2982 3033 0
2980 -3033 0
2982 -3033 0
-2984 -2986 3035 0
2984 -3035 0
2986 -3035 0
-2988 -2989 3109 0
2988 -3109 0
2989 -3109 0
-2992 -2993 3038 0
2992 -3038 0
2993 -3038 0
-2995 -2997 3040 0
2995 -3040 0
2997 -3040 0
-2998 -2999 3042 0
2998 -3042 0
2999 -3042 0
-3001 -3003 3044 0
3001 -3044 0
3003 -3044 0
-3005 -3007 3046 0
3005 -3046 0
3007 -3046 0
-3009 -3011 3048 0
3009 -3048 0
3011 -3048 0
-3013 -3014 3115 0
3013 -3115 0
3014 -3115 0
-3015 -3016 3051 0
3015 -3051 0
3016 -3051 0
-3018 -3020 3053 0
3018 -3053 0
3020 -3053 0
-3022 -3024 3055 0
3022 -3055 0
3024 -3055 0
-3026 -3028 3057 0
3026 -3057 0
3028 -3057 0
-3030 -3032 3059 0
3030 -3059 0
3032 -3059 0
-3034 -3036 3061 0
3034 -3061 0
3036 -3061 0
-2987 -2990 3063 0
2987 -3063 0
2990 -3063 0
-2991 -3037 3065 0
2991 -3065 0
3037 -3065 0
-3039 -3041 3067 0
3039 -3067 0
3041 -3067 0
-3043 -3045 3069 0
3043 -3069 0
3045 -3069 0
-3012 -3047 3071 0
3047 -3071 0
3012 -3071 0
-3049 -3050 3073 0
3049 -3073 0
3050 -3073 0
-3052 -3054 3075 0
3052 -3075 0
3054 -3075 0
-3056 -3058 3077 0
3056 -3077 0
3058 -3077 0
-3060 -3062 3079 0
3060 -3079 0
3062 -3079 0
-3064 -3066 3081 0
3064 -3081 0
3066 -3081 0
-3068 -3070 3083 0
3068 -3083 0
3070 -3083 0
-3072 -3074 3085 0
3072 -3085 0
3074 -3085 0
-3076 -3078 3087 0
3076 -3087 0
3078 -3087 0
-3080 -3082 3089 0
3080 -3089 0
3082 -3089 0
-3084 -3086 3090 0
3084 -3090 0
3086 -3090 0
-2994 -2996 3188 0
2994 -3188 0
2996 -3188 0
-3000 -3002 3189 0
3000 -3189 0
3002 -3189 0
-3004 -3006 3094 0
3004 -3094 0
3006 -3094 0
-3008 -3010 3096 0
3008 -3096 0
3010 -3096 0
-3017 -3019 3190 0
3017 -3190 0
3019 -3190 0
-3021 -3023 3102 0
3021 -3102 0
3023 -3102 0
-3025 -3027 3104 0
3025 -3104 0
3027 -3104 0
-3029 -3031 3106 0
3029 -3106 0
3031 -3106 0
-3033 -3035 3108 0
3033 -3108 0
3035 -3108 0
-3038 -3040 3111 0
3038 -3111 0
3040 -3111 0
-3042 -3044 3113 0
3042 -3113 0
3044 -3113 0
-3046 -3048 3195 0
3046 -3195 0
3048 -3195 0
-3051 -3053 3117 0
3051 -3117 0
3053 -3117 0
-3055 -3057 3119 0
3055 -3119 0
3057 -3119 0
-3059 -3061 3121 0
3059 -3121 0
3061 -3121 0
-3063 -3065 3123 0
3063 -3123 0
3065 -3123 0
-3067 -3069 3125 0
3067 -3125 0
3069 -3125 0
-3071 -3073 3127 0
3071 -3127 0
3073 -3127 0
-3075 -3077 3129 0
3075 -3129 0
3077 -3129 0
-3079 -3081 3131 0
3079 -3131 0
3081 -3131 0
-3083 -3085 3133 0
3083 -3133 0
3085 -3133 0
-3087 -3089 3135 0
3087 -3135 0
3089 -3135 0
-3088 -3090 3205 0
3090 -3205 0
3088 -3205 0
-3091 -3092 3206 0
3091 -3206 0
3092 -3206 0
-3093 -3095 3139 0
3093 -3139 0
3095 -3139 0
-3097 -3098 3141 0
3097 -3141 0
3098 -3141 0
-3099 -3100 3143 0
3099 -3143 0
3100 -3143 0
-3101 -3103 3145 0
3101 -3145 0
3103 -3145 0
-3105 -3107 3211 0
3105 -3211 0
3107 -3211 0
-3110 -3112 3148 0
3110 -3148 0
3112 -3148 0
-3114 -3115 3150 0
3114 -3150 0
3115 -3150 0
-3116 -3118 3152 0
3116 -3152 0
3118 -3152 0
-3120 -3122 3154 0
3120 -3154 0
3122 -3154 0
-3124 -3126 3156 0
3124 -3156 0
3126 -3156 0
-3128 -3130 3158 0
3128 -3158 0
3130 -3158 0
-3132 -3134 3217 0
3132 -3217 0
3134 -3217 0
-3136 -3137 3162 0
3136 -3162 0
3137 -3162 0
-3138 -3140 3164 0
3138 -3164 0
3140 -3164 0
-3142 -3144 3166 0
3142 -3166 0
3144 -3166 0
-3109 -3146 3168 0
3146 -3168 0
3109 -3168 0
-3147 -3149 3170 0
3147 -3170 0
3149 -3170 0
-3151 -3153 3172 0
3151 -3172 0
3153 -3172 0
-3155 -3157 3174 0
3155 -3174 0
3157 -3174 0
-3159 -3160 3176 0
3159 -3176 0
3160 -3176 0
-3161 -3163 3178 0
3161 -3178 0
3163 -3178 0
-3165 -3167 3180 0
3165 -3180 0
3167 -3180 0
-3169 -3171 3182 0
3169 -3182 0
3171 -3182 0
-3173 -3175 3184 0
3173 -3184 0
3175 -3184 0
-3177 -3179 3186 0
3177 -3186 0
3179 -3186 0
-3181 -3183 3187 0
3181 -3187 0
3183 -3187 0
-3094 -3096 3285 0
3094 -3285 0
3096 -3285 0
-3102 -3104 3192 0
3102 -3192 0
3104 -3192 0
-3106 -3108 3193 0
3106 -3193 0
3108 -3193 0
-3111 -3113 3286 0
3111 -3286 0
3113 -3286 0
-3117 -3119 3287 0
3117 -3287 0
3119 -3287 0
-3121 -3123 3198 0
3121 -3198 0
3123 -3198 0
-3125 -3127 3200 0
3125 -3200 0
3127 -3200 0
-3129 -3131 3202 0
3129 -3202 0
3131 -3202 0
-3133 -3135 3204 0
3133 -3204 0
3135 -3204 0
-3139 -3141 3208 0
3139 -3208 0
3141 -3208 0
-3143 -3145 3210 0
3143 -3210 0
3145 -3210 0
-3148 -3150 3292 0
3148 -3292 0
3150 -3292 0
-3152 -3154 3214 0
3152 -3214 0
3154 -3214 0
-3156 -3158 3216 0
3156 -3216 0
3158 -3216 0
-3162 -3164 3294 0
3162 -3294 0
3164 -3294 0
-3166 -3168 3220 0
3166 -3220 0
3168 -3220 0
-3170 -3172 3222 0
3170 -3222 0
3172 -3222 0
-3174 -3176 3224 0
3174 -3224 0
3176 -3224 0
-3178 -3180 3226 0
3178 -3226 0
3180 -3226 0
-3182 -3184 3228 0
3182 -3228 0
3184 -3228 0
-3186 -3187 3230 0
3186 -3230 0
3187 -3230 0
-3188 -3189 3300 0
3188 -3300 0
3189 -3300 0
-3190 -3191 3301 0
3190 -3301 0
3191 -3301 0
-3194 -3195 3302 0
3194 -3302 0
3195 -3302 0
-3196 -3197 3237 0
3196 -3237 0
3197 -3237 0
-3199 -3201 3239 0
3199 -3239 0
3201 -3239 0
-3203 -3205 3241 0
3203 -3241 0
3205 -3241 0
-3206 -3207 3243 0
3206 -3243 0
3207 -3243 0
-3209 -3211 3245 0
3209 -3245 0
3211 -3245 0
-3212 -3213 3247 0
3212 -3247 0
3213 -3247 0
-3215 -3217 3249 0
3215 -3249 0
3217 -3249 0
-3218 -3219 3251 0
3218 -3251 0
3219 -3251 0
-3221 -3223 3253 0
3221 -3253 0
3223 -3253 0
-3225 -3227 3255 0
3225 -3255 0
3227 -3255 0
-3185 -3229 3257 0
3229 -3257 0
3185 -3257 0
-3231 -3232 3259 0
3231 -3259 0
3232 -3259 0
-3233 -3234 3261 0
3233 -3261 0
3234 -3261 0
-3235 -3236 3263 0
3235 -3263 0
3236 -3263 0
-3238 -3240 3265 0
3238 -3265 0
3240 -3265 0
-3242 -3244 3267 0
3242 -3267 0
3244 -3267 0
-3246 -3248 3269 0
3246 -3269 0
3248 -3269 0
-3250 -3252 3271 0
3250 -3271 0
3252 -3271 0
-3254 -3256 3273 0
3254 -3273 0
3256 -3273 0
-3258 -3260 3275 0
3258 -3275 0
3260 -3275 0
-3262 -3264 3277 0
3262 -3277 0
3264 -3277 0
-3266 -3268 3279 0
3266 -3279 0
3268 -3279 0
-3270 -3272 3281 0
3270 -3281 0
3272 -3281 0
-3274 -3276 3283 0
3274 -3283 0
3276 -3283 0
-3278 -3280 3284 0
3278 -3284 0
3280 -3284 0
-3192 -3193 3382 0
3192 -3382 0
3193 -3382 0
-3198 -3200 3289 0
3198 -3289 0
3200 -3289 0
-3202 -3204 3291 0
3202 -3291 0
3204 -3291 0
-3208 -3210 3384 0
3208 -3384 0
3210 -3384 0
-3214 -3216 3385 0
3214 -3385 0
3216 -3385 0
-3220 -3222 3386 0
3220 -3386 0
3222 -3386 0
-3224 -3226 3297 0
3224 -3297 0
3226 -3297 0
-3228 -3230 3299 0
3228 -3299 0
3230 -3299 0
-3237 -3239 3387 0
3237 -3387 0
3239 -3387 0
-3241 -3243 3305 0
3241 -3305 0
3243 -3305 0
-3245 -3247 3307 0
3245 -3307 0
3247 -3307 0
-3249 -3251 3309 0
3249 -3309 0
3251 -3309 0
-3253 -3255 3311 0
3253 -3311 0
3255 -3311 0
-3257 -3259 3313 0
3257 -3313 0
3259 -3313 0
-3261 -3263 3315 0
3261 -3315 0
3263 -3315 0
-3265 -3267 3317 0
3265 -3317 0
3267 -3317 0
-3269 -3271 3319 0
3269 -3319 0
3271 -3319 0
-3273 -3275 3321 0
3273 -3321 0
3275 -3321 0
-3277 -3279 3323 0
3277 -3323 0
3279 -3323 0
-3281 -3283 3325 0
3281 -3325 0
3283 -3325 0
-3282 -3284 3327 0
3284 -3327 0
3282 -3327 0
-3286 -3287 3330 0
3286 -3330 0
3287 -3330 0
-3288 -3290 3332 0
3288 -3332 0
3290 -3332 0
-3292 -3293 3400 0
3292 -3400 0
3293 -3400 0
-3294 -3295 3336 0
3294 -3336 0
3295 -3336 0
-3296 -3298 3338 0
3296 -3338 0
3298 -3338 0
-3300 -3301 3340 0
3300 -3340 0
3301 -3340 0
-3302 -3303 3342 0
3302 -3342 0
3303 -3342 0
-3304 -3306 3344 0
3304 -3344 0
3306 -3344 0
-3308 -3310 3346 0
3308 -3346 0
3310 -3346 0
-3312 -3314 3348 0
3312 -3348 0
3314 -3348 0
-3316 -3318 3350 0
3316 -3350 0
3318 -3350 0
-3320 -3322 3352 0
3320 -3352 0
3322 -3352 0
-3324 -3326 3354 0
3324 -3354 0
3326 -3354 0
-3285 -3328 3356 0
3285 -3356 0
3328 -3356 0
-3329 -3331 3358 0
3329 -3358 0
3331 -3358 0
-3333 -3334 3360 0
3333 -3360 0
3334 -3360 0
-3335 -3337 3362 0
3335 -3362 0
3337 -3362 0
-3339 -3341 3364 0
3339 -3364 0
3341 -3364 0
-3343 -3345 3366 0
3343 -3366 0
3345 -3366 0
-3347 -3349 3368 0
3347 -3368 0
3349 -3368 0
-3351 -3353 3370 0
3351 -3370 0
3353 -3370 0
-3355 -3357 3372 0
3355 -3372 0
3357 -3372 0
-3359 -3361 3374 0
3359 -3374 0
3361 -3374 0
-3363 -3365 3376 0
3363 -3376 0
3365 -3376 0
-3367 -3369 3378 0
3367 -3378 0
3369 -3378 0
-3371 -3373 3380 0
3371 -3380 0
3373 -3380 0
-3375 -3377 3381 0
3375 -3381 0
3377 -3381 0
-3289 -3291 3473 0
3289 -3473 0
3291 -3473 0
-3297 -3299 3474 0
3297 -3474 0
3299 -3474 0
-3305 -3307 3389 0
3305 -3389 0
3307 -3389 0
-3309 -3311 3391 0
3309 -3391 0
3311 -3391 0
-3313 -3315 3393 0
3313 -3393 0
3315 -3393 0
-3317 -3319 3395 0
3317 -3395 0
3319 -3395 0
-3321 -3323 3397 0
3321 -3397 0
3323 -3397 0
-3325 -3327 3398 0
3325 -3398 0
3327 -3398 0
-3330 -3332 3479 0
3330 -3479 0
3332 -3479 0
-3336 -3338 3480 0
3336 -3480 0
3338 -3480 0
-3340 -3342 3403 0
3340 -3403 0
3342 -3403 0
-3344 -3346 3405 0
3344 -3405 0
3346 -3405 0
-3348 -3350 3407 0
3348 -3407 0
3350 -3407 0
-3352 -3354 3409 0
3352 -3409 0
3354 -3409 0
-3356 -3358 3411 0
3356 -3411 0
3358 -3411 0
-3360 -3362 3413 0
3360 -3413 0
3362 -3413 0
-3364 -3366 3415 0
3364 -3415 0
3366 -3415 0
-3368 -3370 3417 0
3368 -3417 0
3370 -3417 0
-3372 -3374 3419 0
3372 -3419 0
3374 -3419 0
-3376 -3378 3421 0
3376 -3421 0
3378 -3421 0
-3380 -3381 3490 0
3380 -3490 0
3381 -3490 0
-3383 -3384 3491 0
3383 -3491 0
3384 -3491 0
-3385 -3386 3492 0
3385 -3492 0
3386 -3492 0
-3387 -3388 3427 0
3387 -3427 0
3388 -3427 0
-3390 -3392 3429 0
3390 -3429 0
3392 -3429 0
-3394 -3396 3494 0
3394 -3494 0
3396 -3494 0
-3399 -3400 3433 0
3399 -3433 0
3400 -3433 0
-3401 -3402 3435 0
3401 -3435 0
3402 -3435 0
-3404 -3406 3437 0
3404 -3437 0
3406 -3437 0
-3408 -3410 3439 0
3408 -3439 0
3410 -3439 0
-3412 -3414 3441 0
3412 -3441 0
3414 -3441 0
-3416 -3418 3443 0
3416 -3443 0
3418 -3443 0
-3420 -3422 3445 0
3420 -3445 0
3422 -3445 0
-3379 -3382 3447 0
3379 -3447 0
3382 -3447 0
-3423 -3424 3449 0
3423 -3449 0
3424 -3449 0
-3425 -3426 3451 0
3425 -3451 0
3426 -3451 0
-3428 -3430 3453 0
3428 -3453 0
3430 -3453 0
-3431 -3432 3455 0
3431 -3455 0
3432 -3455 0
-3434 -3436 3457 0
3434 -3457 0
3436 -3457 0
-3438 -3440 3459 0
3438 -3459 0
3440 -3459 0
-3442 -3444 3461 0
3442 -3461 0
3444 -3461 0
-3446 -3448 3463 0
3446 -3463 0
3448 -3463 0
-3450 -3452 3465 0
3450 -3465 0
3452 -3465 0
-3454 -3456 3467 0
3454 -3467 0
3456 -3467 0
-3458 -3460 3469 0
3458 -3469 0
3460 -3469 0
-3462 -3464 3471 0
3462 -3471 0
3464 -3471 0
-3466 -3468 3472 0
3466 -3472 0
3468 -3472 0
-3389 -3391 3568 0
3389 -3568 0
3391 -3568 0
-3393 -3395 3476 0
3393 -3476 0
3395 -3476 0
-3397 -3398 3478 0
3397 -3478 0
3398 -3478 0
-3403 -3405 3482 0
3403 -3482 0
3405 -3482 0
-3407 -3409 3484 0
3407 -3484 0
3409 -3484 0
-3411 -3413 3486 0
3411 -3486 0
3413 -3486 0
-3415 -3417 3488 0
3415 -3488 0
3417 -3488 0
-3419 -3421 3571 0
3419 -3571 0
3421 -3571 0
-3427 -3429 3572 0
3427 -3572 0
3429 -3572 0
-3433 -3435 3496 0
3433 -3496 0
3435 -3496 0
-3437 -3439 3498 0
3437 -3498 0
3439 -3498 0
-3441 -3443 3500 0
3441 -3500 0
3443 -3500 0
-3445 -3447 3502 0
3445 -3502 0
3447 -3502 0
-3449 -3451 3504 0
3449 -3504 0
3451 -3504 0
-3453 -3455 3506 0
3453 -3506 0
3455 -3506 0
-3457 -3459 3508 0
3457 -3508 0
3459 -3508 0
-3461 -3463 3510 0
3461 -3510 0
3463 -3510 0
-3465 -3467 3512 0
3465 -3512 0
3467 -3512 0
-3469 -3471 3514 0
3469 -3514 0
3471 -3514 0
-3470 -3472 3582 0
3472 -3582 0
3470 -3582 0
-3475 -3477 3518 0
3475 -3518 0
3477 -3518 0
-3479 -3480 3520 0
3479 -3520 0
3480 -3520 0
-3481 -3483 3522 0
3481 -3522 0
3483 -3522 0
-3485 -3487 3524 0
3485 -3524 0
3487 -3524 0
-3489 -3490 3526 0
3489 -3526 0
3490 -3526 0
-3491 -3492 3528 0
3491 -3528 0
3492 -3528 0
-3493 -3494 3530 0
3493 -3530 0
3494 -3530 0
-3495 -3497 3532 0
3495 -3532 0
3497 -3532 0
-3499 -3501 3534 0
3499 -3534 0
3501 -3534 0
-3503 -3505 3536 0
3503 -3536 0
3505 -3536 0
-3507 -3509 3538 0
3507 -3538 0
3509 -3538 0
-3511 -3513 3540 0
3511 -3540 0
3513 -3540 0
-3473 -3515 3542 0
3515 -3542 0
3473 -3542 0
-3474 -3516 3544 0
3474 -3544 0
3516 -3544 0
-3517 -3519 3546 0
3517 -3546 0
3519 -3546 0
-3521 -3523 3548 0
3521 -3548 0
3523 -3548 0
-3525 -3527 3550 0
3525 -3550 0
3527 -3550 0
-3529 -3531 3552 0
3529 -3552 0
3531 -3552 0
-3533 -3535 3554 0
3533 -3554 0
3535 -3554 0
-3537 -3539 3556 0
3537 -3556 0
3539 -3556 0
-3541 -3543 3558 0
3541 -3558 0
3543 -3558 0
-3545 -3547 3560 0
3545 -3560 0
3547 -3560 0
-3549 -3551 3562 0
3549 -3562 0
3551 -3562 0
-3553 -3555 3564 0
3553 -3564 0
3555 -3564 0
-3557 -3559 3566 0
3557 -3566 0
3559 -3566 0
-3561 -3563 3567 0
3561 -3567 0
3563 -3567 0
-3476 -3478 3653 0
3476 -3653 0
3478 -3653 0
-3482 -3484 3654 0
3482 -3654 0
3484 -3654 0
-3486 -3488 3655 0
3486 -3655 0
3488 -3655 0
-3496 -3498 3574 0
3496 -3574 0
3498 -3574 0
-3500 -3502 3576 0
3500 -3576 0
3502 -3576 0
-3504 -3506 3578 0
3504 -3578 0
3506 -3578 0
-3508 -3510 3580 0
3508 -3580 0
3510 -3580 0
-3512 -3514 3657 0
3512 -3657 0
3514 -3657 0
-3518 -3520 3658 0
3518 -3658 0
3520 -3658 0
-3522 -3524 3585 0
3522 -3585 0
3524 -3585 0
-3526 -3528 3587 0
3526 -3587 0
3528 -3587 0
-3530 -3532 3589 0
3530 -3589 0
3532 -3589 0
-3534 -3536 3591 0
3534 -3591 0
3536 -3591 0
-3538 -3540 3593 0
3538 -3593 0
3540 -3593 0
-3542 -3544 3595 0
3542 -3595 0
3544 -3595 0
-3546 -3548 3597 0
3546 -3597 0
3548 -3597 0
-3550 -3552 3599 0
3550 -3599 0
3552 -3599 0
-3554 -3556 3601 0
3554 -3601 0
3556 -3601 0
-3558 -3560 3603 0
3558 -3603 0
3560 -3603 0
-3562 -3564 3605 0
3562 -3605 0
3564 -3605 0
-3566 -3567 3607 0
3566 -3607 0
3567 -3607 0
-3569 -3570 3668 0
3569 -3668 0
3570 -3668 0
-3572 -3573 3669 0
3572 -3669 0
3573 -3669 0
-3575 -3577 3612 0
3575 -3612 0
3577 -3612 0
-3579 -3581 3614 0
3579 -3614 0
3581 -3614 0
-3583 -3584 3671 0
3583 -3671 0
3584 -3671 0
-3586 -3588 3617 0
3586 -3617 0
3588 -3617 0
-3590 -3592 3619 0
3590 -3619 0
3592 -3619 0
-3594 -3596 3621 0
3594 -3621 0
3596 -3621 0
-3598 -3600 3623 0
3598 -3623 0
3600 -3623 0
-3602 -3604 3625 0
3602 -3625 0
3604 -3625 0
-3565 -3606 3627 0
3606 -3627 0
3565 -3627 0
-3568 -3608 3629 0
3568 -3629 0
3608 -3629 0
-3571 -3609 3631 0
3609 -3631 0
3571 -3631 0
-3610 -3611 3633 0
3610 -3633 0
3611 -3633 0
-3582 -3613 3635 0
3613 -3635 0
3582 -3635 0
-3615 -3616 3637 0
3615 -3637 0
3616 -3637 0
-3618 -3620 3639 0
3618 -3639 0
3620 -3639 0
-3622 -3624 3641 0
3622 -3641 0
3624 -3641 0
-3626 -3628 3643 0
3626 -3643 0
3628 -3643 0
-3630 -3632 3645 0
3630 -3645 0
3632 -3645 0
-3634 -3636 3647 0
3634 -3647 0
3636 -3647 0
-3638 -3640 3649 0
3638 -3649 0
3640 -3649 0
-3642 -3644 3651 0
3642 -3651 0
3644 -3651 0
-3646 -3648 3652 0
3646 -3652 0
3648 -3652 0
-3574 -3576 3777 0
3574 -3777 0
3576 -3777 0
-3578 -3580 3740 0
3578 -3740 0
3580 -3740 0
-3585 -3587 3741 0
3585 -3741 0
3587 -3741 0
-3589 -3591 3661 0
3589 -3661 0
3591 -3661 0
-3593 -3595 3663 0
3593 -3663 0
3595 -3663 0
-3597 -3599 3665 0
3597 -3665 0
3599 -3665 0
-3601 -3603 3667 0
3601 -3667 0
3603 -3667 0
-3605 -3607 3744 0
3605 -3744 0
3607 -3744 0
-3612 -3614 3745 0
3612 -3745 0
3614 -3745 0
-3617 -3619 3673 0
3617 -3673 0
3619 -3673 0
-3621 -3623 3675 0
3621 -3675 0
3623 -3675 0
-3625 -3627 3677 0
3625 -3677 0
3627 -3677 0
-3629 -3631 3679 0
3629 -3679 0
3631 -3679 0
-3633 -3635 3681 0
3633 -3681 0
3635 -3681 0
-3637 -3639 3683 0
3637 -3683 0
3639 -3683 0
-3641 -3643 3685 0
3641 -3685 0
3643 -3685 0
-3645 -3647 3687 0
3645 -3687 0
3647 -3687 0
-3649 -3651 3689 0
3649 -3689 0
3651 -3689 0
-3650 -3652 3691 0
3652 -3691 0
3650 -3691 0
-3654 -3655 3755 0
3654 -3755 0
3655 -3755 0
-3656 -3657 3756 0
3656 -3756 0
3657 -3756 0
-3658 -3659 3696 0
3658 -3696 0
3659 -3696 0
-3660 -3662 3698 0
3660 -3698 0
3662 -3698 0
-3664 -3666 3758 0
3664 -3758 0
3666 -3758 0
-3668 -3669 3702 0
3668 -3702 0
3669 -3702 0
-3670 -3671 3704 0
3670 -3704 0
3671 -3704 0
-3672 -3674 3706 0
3672 -3706 0
3674 -3706 0
-3676 -3678 3708 0
3676 -3708 0
3678 -3708 0
-3680 -3682 3710 0
3680 -3710 0
3682 -3710 0
-3684 -3686 3712 0
3684 -3712 0
3686 -3712 0
-3688 -3690 3714 0
3688 -3714 0
3690 -3714 0
-3653 -3692 3716 0
3653 -3716 0
3692 -3716 0
-3693 -3694 3718 0
3693 -3718 0
3694 -3718 0
-3695 -3697 3720 0
3695 -3720 0
3697 -3720 0
-3699 -3700 3722 0
3699 -3722 0
3700 -3722 0
-3701 -3703 3724 0
3701 -3724 0
3703 -3724 0
-3705 -3707 3726 0
3705 -3726 0
3707 -3726 0
-3709 -3711 3728 0
3709 -3728 0
3711 -3728 0
-3713 -3715 3730 0
3713 -3730 0
3715 -3730 0
-3717 -3719 3732 0
3717 -3732 0
3719 -3732 0
-3721 -3723 3734 0
3721 -3734 0
3723 -3734 0
-3725 -3727 3736 0
3725 -3736 0
3727 -3736 0
-3729 -3731 3738 0
3729 -3738 0
3731 -3738 0
-3733 -3735 3739 0
3733 -3739 0
3735 -3739 0
-3661 -3663 3825 0
3661 -3825 0
3663 -3825 0
-3665 -3667 3826 0
3665 -3826 0
3667 -3826 0
-3673 -3675 3747 0
3673 -3747 0
3675 -3747 0
-3677 -3679 3749 0
3677 -3749 0
3679 -3749 0
-3681 -3683 3751 0
3681 -3751 0
3683 -3751 0
-3685 -3687 3753 0
3685 -3753 0
3687 -3753 0
-3689 -3691 3828 0
3689 -3828 0
3691 -3828 0
-3696 -3698 3829 0
3696 -3829 0
3698 -3829 0
-3702 -3704 3830 0
3702 -3830 0
3704 -3830 0
-3706 -3708 3761 0
3706 -3761 0
3708 -3761 0
-3710 -3712 3763 0
3710 -3763 0
3712 -3763 0
-3714 -3716 3765 0
3714 -3765 0
3716 -3765 0
-3718 -3720 3767 0
3718 -3767 0
3720 -3767 0
-3722 -3724 3769 0
3722 -3769 0
3724 -3769 0
-3726 -3728 3771 0
3726 -3771 0
3728 -3771 0
-3730 -3732 3773 0
3730 -3773 0
3732 -3773 0
-3734 -3736 3775 0
3734 -3775 0
3736 -3775 0
-3738 -3739 3839 0
3738 -3839 0
3739 -3839 0
-3740 -3741 3840 0
3740 -3840 0
3741 -3840 0
-3742 -3743 3841 0
3742 -3841 0
3743 -3841 0
-3745 -3746 3781 0
3745 -3781 0
3746 -3781 0
-3748 -3750 3783 0
3748 -3783 0
3750 -3783 0
-3752 -3754 3785 0
3752 -3785 0
3754 -3785 0
-3755 -3756 3787 0
3755 -3787 0
3756 -3787 0
-3757 -3758 3789 0
3757 -3789 0
3758 -3789 0
-3759 -3760 3791 0
3759 -3791 0
3760 -3791 0
-3762 -3764 3793 0
3762 -3793 0
3764 -3793 0
-3766 -3768 3795 0
3766 -3795 0
3768 -3795 0
-3770 -3772 3797 0
3770 -3797 0
3772 -3797 0
-3774 -3776 3799 0
3774 -3799 0
3776 -3799 0
-3737 -3777 3801 0
3737 -3801 0
3777 -3801 0
-3778 -3779 3803 0
3778 -3803 0
3779 -3803 0
-3744 -3780 3805 0
3744 -3805 0
3780 -3805 0
-3782 -3784 3807 0
3782 -3807 0
3784 -3807 0
-3786 -3788 3809 0
3786 -3809 0
3788 -3809 0
-3790 -3792 3811 0
3790 -3811 0
3792 -3811 0
-3794 -3796 3813 0
3794 -3813 0
3796 -3813 0
-3798 -3800 3815 0
3798 -3815 0
3800 -3815 0
-3802 -3804 3817 0
3802 -3817 0
3804 -3817 0
-3806 -3808 3819 0
3806 -3819 0
3808 -3819 0
-3810 -3812 3821 0
3810 -3821 0
3812 -3821 0
-3814 -3816 3823 0
3814 -3823 0
3816 -3823 0
-3818 -3820 3824 0
3818 -3824 0
3820 -3824 0
-3747 -3749 3910 0
3747 -3910 0
3749 -3910 0
-3751 -3753 3911 0
3751 -3911 0
3753 -3911 0
-3761 -3763 3832 0
3761 -3832 0
3763 -3832 0
-3765 -3767 3834 0
3765 -3834 0
3767 -3834 0
-3769 -3771 3836 0
3769 -3836 0
3771 -3836 0
-3773 -3775 3838 0
3773 -3838 0
3775 -3838 0
-3781 -3783 3948 0
3781 -3948 0
3783 -3948 0
-3785 -3787 3844 0
3785 -3844 0
3787 -3844 0
-3789 -3791 3846 0
3789 -3846 0
3791 -3846 0
-3793 -3795 3848 0
3793 -3848 0
3795 -3848 0
-3797 -3799 3850 0
3797 -3850 0
3799 -3850 0
-3801 -3803 3852 0
3801 -3852 0
3803 -3852 0
-3805 -3807 3854 0
3805 -3854 0
3807 -3854 0
-3809 -3811 3856 0
3809 -3856 0
3811 -3856 0
-3813 -3815 3858 0
3813 -3858 0
3815 -3858 0
-3817 -3819 3860 0
3817 -3860 0
3819 -3860 0
-3821 -3823 3862 0
3821 -3862 0
3823 -3862 0
-3822 -3824 3923 0
3824 -3923 0
3822 -3923 0
-3825 -3826 3924 0
3825 -3924 0
3826 -3924 0
-3827 -3828 3866 0
3827 -3866 0
3828 -3866 0
-3829 -3830 3868 0
3829 -3868 0
3830 -3868 0
-3831 -3833 3870 0
3831 -3870 0
3833 -3870 0
-3835 -3837 3872 0
3835 -3872 0
3837 -3872 0
-3839 -3840 3874 0
3839 -3874 0
3840 -3874 0
-3841 -3842 3876 0
3841 -3876 0
3842 -3876 0
-3843 -3845 3878 0
3843 -3878 0
3845 -3878 0
-3847 -3849 3880 0
3847 -3880 0
3849 -3880 0
-3851 -3853 3882 0
3851 -3882 0
3853 -3882 0
-3855 -3857 3884 0
3855 -3884 0
3857 -3884 0
-3859 -3861 3934 0
3859 -3934 0
3861 -3934 0
-3863 -3864 3888 0
3863 -3888 0
3864 -3888 0
-3865 -3867 3890 0
3865 -3890 0
3867 -3890 0
-3869 -3871 3892 0
3869 -3892 0
3871 -3892 0
-3873 -3875 3894 0
3873 -3894 0
3875 -3894 0
-3877 -3879 3896 0
3877 -3896 0
3879 -3896 0
-3881 -3883 3898 0
3881 -3898 0
3883 -3898 0
-3885 -3886 3900 0
3885 -3900 0
3886 -3900 0
-3887 -3889 3902 0
3887 -3902 0
3889 -3902 0
-3891 -3893 3904 0
3891 -3904 0
3893 -3904 0
-3895 -3897 3906 0
3895 -3906 0
3897 -3906 0
-3899 -3901 3908 0
3899 -3908 0
3901 -3908 0
-3903 -3905 3909 0
3903 -3909 0
3905 -3909 0
-3832 -3834 3991 0
3832 -3991 0
3834 -3991 0
-3836 -3838 3992 0
3836 -3992 0
3838 -3992 0
-3844 -3846 3993 0
3844 -3993 0
3846 -3993 0
-3848 -3850 3916 0
3848 -3916 0
3850 -3916 0
-3852 -3854 3918 0
3852 -3918 0
3854 -3918 0
-3856 -3858 3920 0
3856 -3920 0
3858 -3920 0
-3860 -3862 3922 0
3860 -3922 0
3862 -3922 0
-3866 -3868 3926 0
3866 -3926 0
3868 -3926 0
-3870 -3872 3928 0
3870 -3928 0
3872 -3928 0
-3874 -3876 3930 0
3874 -3930 0
3876 -3930 0
-3878 -3880 3932 0
3878 -3932 0
3880 -3932 0
-3882 -3884 3999 0
3882 -3999 0
3884 -3999 0
-3888 -3890 3936 0
3888 -3936 0
3890 -3936 0
-3892 -3894 3938 0
3892 -3938 0
3894 -3938 0
-3896 -3898 3940 0
3896 -3940 0
3898 -3940 0
-3900 -3902 3942 0
3900 -3942 0
3902 -3942 0
-3904 -3906 3944 0
3904 -3944 0
3906 -3944 0
-3908 -3909 3946 0
3908 -3946 0
3909 -3946 0
-3912 -3913 4034 0
3912 -4034 0
3913 -4034 0
-3914 -3915 4005 0
3914 -4005 0
3915 -4005 0
-3917 -3919 3951 0
3917 -3951 0
3919 -3951 0
-3921 -3923 3953 0
3921 -3953 0
3923 -3953 0
-3924 -3925 3955 0
3924 -3955 0
3925 -3955 0
-3927 -3929 3957 0
3927 -3957 0
3929 -3957 0
-3931 -3933 3959 0
3931 -3959 0
3933 -3959 0
-3934 -3935 3961 0
3934 -3961 0
3935 -3961 0
-3937 -3939 3963 0
3937 -3963 0
3939 -3963 0
-3941 -3943 3965 0
3941 -3965 0
3943 -3965 0
-3907 -3945 3967 0
3945 -3967 0
3907 -3967 0
-3910 -3911 3969 0
3910 -3969 0
3911 -3969 0
-3947 -3948 3971 0
3947 -3971 0
3948 -3971 0
-3949 -3950 3973 0
3949 -3973 0
3950 -3973 0
-3952 -3954 3975 0
3952 -3975 0
3954 -3975 0
-3956 -3958 3977 0
3956 -3977 0
3958 -3977 0
-3960 -3962 3979 0
3960 -3979 0
3962 -3979 0
-3964 -3966 3981 0
3964 -3981 0
3966 -3981 0
-3968 -3970 3983 0
3968 -3983 0
3970 -3983 0
-3972 -3974 3985 0
3972 -3985 0
3974 -3985 0
-3976 -3978 3987 0
3976 -3987 0
3978 -3987 0
-3980 -3982 3989 0
3980 -3989 0
3982 -3989 0
-3984 -3986 3990 0
3984 -3990 0
3986 -3990 0
-3916 -3918 4101 0
3916 -4101 0
3918 -4101 0
-3920 -3922 4068 0
3920 -4068 0
3922 -4068 0
-3926 -3928 3996 0
3926 -3996 0
3928 -3996 0
-3930 -3932 3998 0
3930 -3998 0
3932 -3998 0
-3936 -3938 4070 0
3936 -4070 0
3938 -4070 0
-3940 -3942 4002 0
3940 -4002 0
3942 -4002 0
-3944 -3946 4004 0
3944 -4004 0
3946 -4004 0
-3951 -3953 4072 0
3951 -4072 0
3953 -4072 0
-3955 -3957 4008 0
3955 -4008 0
3957 -4008 0
-3959 -3961 4010 0
3959 -4010 0
3961 -4010 0
-3963 -3965 4012 0
3963 -4012 0
3965 -4012 0
-3967 -3969 4014 0
3967 -4014 0
3969 -4014 0
-3971 -3973 4016 0
3971 -4016 0
3973 -4016 0
-3975 -3977 4018 0
3975 -4018 0
3977 -4018 0
-3979 -3981 4020 0
3979 -4020 0
3981 -4020 0
-3983 -3985 4022 0
3983 -4022 0
3985 -4022 0
-3987 -3989 4024 0
3987 -4024 0
3989 -4024 0
-3988 -3990 4026 0
3990 -4026 0
3988 -4026 0
-3991 -3992 4082 0
3991 -4082 0
3992 -4082 0
-3993 -3994 4083 0
3993 -4083 0
3994 -4083 0
-3995 -3997 4030 0
3995 -4030 0
3997 -4030 0
-3999 -4000 4032 0
3999 -4032 0
4000 -4032 0
-4001 -4003 4085 0
4001 -4085 0
4003 -4085 0
-4005 -4006 4036 0
4005 -4036 0
4006 -4036 0
-4007 -4009 4038 0
4007 -4038 0
4009 -4038 0
-4011 -4013 4040 0
4011 -4040 0
4013 -4040 0
-4015 -4017 4042 0
4015 -4042 0
4017 -4042 0
-4019 -4021 4044 0
4019 -4044 0
4021 -4044 0
-4023 -4025 4046 0
4023 -4046 0
4025 -4046 0
-4027 -4028 4091 0
4027 -4091 0
4028 -4091 0
-4029 -4031 4050 0
4029 -4050 0
4031 -4050 0
-4033 -4034 4052 0
4033 -4052 0
4034 -4052 0
-4035 -4037 4054 0
4035 -4054 0
4037 -4054 0
-4039 -4041 4056 0
4039 -4056 0
4041 -4056 0
-4043 -4045 4058 0
4043 -4058 0
4045 -4058 0
-4047 -4048 4060 0
4047 -4060 0
4048 -4060 0
-4049 -4051 4062 0
4049 -4062 0
4051 -4062 0
-4053 -4055 4064 0
4053 -4064 0
4055 -4064 0
-4057 -4059 4066 0
4057 -4066 0
4059 -4066 0
-4061 -4063 4067 0
4061 -4067 0
4063 -4067 0
-3996 -3998 4145 0
3996 -4145 0
3998 -4145 0
-4002 -4004 4146 0
4002 -4146 0
4004 -4146 0
-4008 -4010 4147 0
4008 -4147 0
4010 -4147 0
-4012 -4014 4075 0
4012 -4075 0
4014 -4075 0
-4016 -4018 4077 0
4016 -4077 0
4018 -4077 0
-4020 -4022 4079 0
4020 -4079 0
4022 -4079 0
-4024 -4026 4081 0
4024 -4081 0
4026 -4081 0
-4030 -4032 4149 0
4030 -4149 0
4032 -4149 0
-4036 -4038 4087 0
4036 -4087 0
4038 -4087 0
-4040 -4042 4089 0
4040 -4089 0
4042 -4089 0
-4044 -4046 4151 0
4044 -4151 0
4046 -4151 0
-4050 -4052 4093 0
4050 -4093 0
4052 -4093 0
-4054 -4056 4095 0
4054 -4095 0
4056 -4095 0
-4058 -4060 4097 0
4058 -4097 0
4060 -4097 0
-4062 -4064 4099 0
4062 -4099 0
4064 -4099 0
-4066 -4067 4154 0
4066 -4154 0
4067 -4154 0
-4068 -4069 4155 0
4068 -4155 0
4069 -4155 0
-4070 -4071 4156 0
4070 -4156 0
4071 -4156 0
-4073 -4074 4105 0
4073 -4105 0
4074 -4105 0
-4076 -4078 4107 0
4076 -4107 0
4078 -4107 0
-4080 -4082 4109 0
4080 -4109 0
4082 -4109 0
-4083 -4084 4111 0
4083 -4111 0
4084 -4111 0
-4085 -4086 4113 0
4085 -4113 0
4086 -4113 0
-4088 -4090 4115 0
4088 -4115 0
4090 -4115 0
-4091 -4092 4117 0
4091 -4117 0
4092 -4117 0
-4094 -4096 4119 0
4094 -4119 0
4096 -4119 0
-4098 -4100 4121 0
4098 -4121 0
4100 -4121 0
-4065 -4101 4123 0
4065 -4123 0
4101 -4123 0
-4102 -4103 4125 0
4102 -4125 0
4103 -4125 0
-4072 -4104 4127 0
4072 -4127 0
4104 -4127 0
-4106 -4108 4129 0
4106 -4129 0
4108 -4129 0
-4110 -4112 4131 0
4110 -4131 0
4112 -4131 0
-4114 -4116 4133 0
4114 -4133 0
4116 -4133 0
-4118 -4120 4135 0
4118 -4135 0
4120 -4135 0
-4122 -4124 4137 0
4122 -4137 0
4124 -4137 0
-4126 -4128 4139 0
4126 -4139 0
4128 -4139 0
-4130 -4132 4141 0
4130 -4141 0
4132 -4141 0
-4134 -4136 4143 0
4134 -4143 0
4136 -4143 0
-4138 -4140 4144 0
4138 -4144 0
4140 -4144 0
-4075 -4077 4220 0
4075 -4220 0
4077 -4220 0
-4079 -4081 4221 0
4079 -4221 0
4081 -4221 0
-4087 -4089 4222 0
4087 -4222 0
4089 -4222 0
-4093 -4095 4223 0
4093 -4223 0
4095 -4223 0
-4097 -4099 4224 0
4097 -4224 0
4099 -4224 0
-4105 -4107 4158 0
4105 -4158 0
4107 -4158 0
-4109 -4111 4160 0
4109 -4160 0
4111 -4160 0
-4113 -4115 4162 0
4113 -4162 0
4115 -4162 0
-4117 -4119 4164 0
4117 -4164 0
4119 -4164 0
-4121 -4123 4166 0
4121 -4166 0
4123 -4166 0
-4125 -4127 4168 0
4125 -4168 0
4127 -4168 0
-4129 -4131 4170 0
4129 -4170 0
4131 -4170 0
-4133 -4135 4172 0
4133 -4172 0
4135 -4172 0
-4137 -4139 4174 0
4137 -4174 0
4139 -4174 0
-4141 -4143 4176 0
4141 -4176 0
4143 -4176 0
-4142 -4144 4233 0
4144 -4233 0
4142 -4233 0
-4145 -4146 4178 0
4145 -4178 0
4146 -4178 0
-4147 -4148 4180 0
4147 -4180 0
4148 -4180 0
-4149 -4150 4235 0
4149 -4235 0
4150 -4235 0
-4151 -4152 4184 0
4151 -4184 0
4152 -4184 0
-4153 -4154 4186 0
4153 -4186 0
4154 -4186 0
-4155 -4156 4188 0
4155 -4188 0
4156 -4188 0
-4157 -4159 4190 0
4157 -4190 0
4159 -4190 0
-4161 -4163 4192 0
4161 -4192 0
4163 -4192 0
-4165 -4167 4194 0
4165 -4194 0
4167 -4194 0
-4169 -4171 4196 0
4169 -4196 0
4171 -4196 0
-4173 -4175 4198 0
4173 -4198 0
4175 -4198 0
-4177 -4179 4244 0
4177 -4244 0
4179 -4244 0
-4181 -4182 4202 0
4181 -4202 0
4182 -4202 0
-4183 -4185 4204 0
4183 -4204 0
4185 -4204 0
-4187 -4189 4206 0
4187 -4206 0
4189 -4206 0
-4191 -4193 4208 0
4191 -4208 0
4193 -4208 0
-4195 -4197 4210 0
4195 -4210 0
4197 -4210 0
-4199 -4200 4212 0
4199 -4212 0
4200 -4212 0
-4201 -4203 4214 0
4201 -4214 0
4203 -4214 0
-4205 -4207 4216 0
4205 -4216 0
4207 -4216 0
-4209 -4211 4218 0
4209 -4218 0
4211 -4218 0
-4213 -4215 4219 0
4213 -4219 0
4215 -4219 0
-4158 -4160 4225 0
4158 -4225 0
4160 -4225 0
-4162 -4164 4227 0
4162 -4227 0
4164 -4227 0
-4166 -4168 4229 0
4166 -4229 0
4168 -4229 0
-4170 -4172 4231 0
4170 -4231 0
4172 -4231 0
-4174 -4176 4301 0
4174 -4301 0
4176 -4301 0
-4178 -4180 4302 0
4178 -4302 0
4180 -4302 0
-4184 -4186 4237 0
4184 -4237 0
4186 -4237 0
-4188 -4190 4239 0
4188 -4239 0
4190 -4239 0
-4192 -4194 4241 0
4192 -4241 0
4194 -4241 0
-4196 -4198 4243 0
4196 -4243 0
4198 -4243 0
-4202 -4204 4307 0
4202 -4307 0
4204 -4307 0
-4206 -4208 4247 0
4206 -4247 0
4208 -4247 0
-4210 -4212 4249 0
4210 -4249 0
4212 -4249 0
-4214 -4216 4251 0
4214 -4251 0
4216 -4251 0
-4218 -4219 4253 0
4218 -4253 0
4219 -4253 0
-4221 -4222 4255 0
4221 -4255 0
4222 -4255 0
-4223 -4224 4257 0
4223 -4257 0
4224 -4257 0
-4226 -4228 4310 0
4226 -4310 0
4228 -4310 0
-4230 -4232 4261 0
4230 -4261 0
4232 -4261 0
-4233 -4234 4263 0
4233 -4263 0
4234 -4263 0
-4235 -4236 4265 0
4235 -4265 0
4236 -4265 0
-4238 -4240 4267 0
4238 -4267 0
4240 -4267 0
-4242 -4244 4269 0
4242 -4269 0
4244 -4269 0
-4245 -4246 4271 0
4245 -4271 0
4246 -4271 0
-4248 -4250 4273 0
4248 -4273 0
4250 -4273 0
-4217 -4252 4275 0
4252 -4275 0
4217 -4275 0
-4220 -4254 4277 0
4220 -4277 0
4254 -4277 0
-4256 -4258 4279 0
4256 -4279 0
4258 -4279 0
-4259 -4260 4281 0
4259 -4281 0
4260 -4281 0
-4262 -4264 4283 0
4262 -4283 0
4264 -4283 0
-4266 -4268 4285 0
4266 -4285 0
4268 -4285 0
-4270 -4272 4287 0
4270 -4287 0
4272 -4287 0
-4274 -4276 4289 0
4274 -4289 0
4276 -4289 0
-4278 -4280 4291 0
4278 -4291 0
4280 -4291 0
-4282 -4284 4293 0
4282 -4293 0
4284 -4293 0
-4286 -4288 4295 0
4286 -4295 0
4288 -4295 0
-4290 -4292 4296 0
4290 -4296 0
4292 -4296 0
-4225 -4227 4298 0
4225 -4298 0
4227 -4298 0
-4229 -4231 4300 0
4229 -4300 0
4231 -4300 0
-4237 -4239 4304 0
4237 -4304 0
4239 -4304 0
-4241 -4243 4306 0
4241 -4306 0
4243 -4306 0
-4247 -4249 4366 0
4247 -4366 0
4249 -4366 0
-4251 -4253 4367 0
4251 -4367 0
4253 -4367 0
-4255 -4257 4368 0
4255 -4368 0
4257 -4368 0
-4261 -4263 4312 0
4261 -4312 0
4263 -4312 0
-4265 -4267 4314 0
4265 -4314 0
4267 -4314 0
-4269 -4271 4316 0
4269 -4316 0
4271 -4316 0
-4273 -4275 4318 0
4273 -4318 0
4275 -4318 0
-4277 -4279 4320 0
4277 -4320 0
4279 -4320 0
-4281 -4283 4322 0
4281 -4322 0
4283 -4322 0
-4285 -4287 4324 0
4285 -4324 0
4287 -4324 0
-4289 -4291 4326 0
4289 -4326 0
4291 -4326 0
-4293 -4295 4328 0
4293 -4328 0
4295 -4328 0
-4294 -4296 4330 0
4296 -4330 0
4294 -4330 0
-4297 -4299 4332 0
4297 -4332 0
4299 -4332 0
-4301 -4302 4334 0
4301 -4334 0
4302 -4334 0
-4303 -4305 4336 0
4303 -4336 0
4305 -4336 0
-4307 -4308 4338 0
4307 -4338 0
4308 -4338 0
-4309 -4310 4381 0
4309 -4381 0
4310 -4381 0
-4311 -4313 4342 0
4311 -4342 0
4313 -4342 0
-4315 -4317 4344 0
4315 -4344 0
4317 -4344 0
-4319 -4321 4346 0
4319 -4346 0
4321 -4346 0
-4323 -4325 4348 0
4323 -4348 0
4325 -4348 0
-4327 -4329 4384 0
4327 -4384 0
4329 -4384 0
-4331 -4333 4350 0
4331 -4350 0
4333 -4350 0
-4335 -4337 4352 0
4335 -4352 0
4337 -4352 0
-4339 -4340 4354 0
4339 -4354 0
4340 -4354 0
-4341 -4343 4356 0
4341 -4356 0
4343 -4356 0
-4345 -4347 4389 0
4345 -4389 0
4347 -4389 0
-4349 -4351 4360 0
4349 -4360 0
4351 -4360 0
-4353 -4355 4362 0
4353 -4362 0
4355 -4362 0
-4357 -4358 4364 0
4357 -4364 0
4358 -4364 0
-4359 -4361 4365 0
4359 -4365 0
4361 -4365 0
-4298 -4300 4433 0
4298 -4433 0
4300 -4433 0
-4304 -4306 4434 0
4304 -4434 0
4306 -4434 0
-4312 -4314 4370 0
4312 -4370 0
4314 -4370 0
-4316 -4318 4372 0
4316 -4372 0
4318 -4372 0
-4320 -4322 4374 0
4320 -4374 0
4322 -4374 0
-4324 -4326 4376 0
4324 -4376 0
4326 -4376 0
-4328 -4330 4439 0
4328 -4439 0
4330 -4439 0
-4332 -4334 4378 0
4332 -4378 0
4334 -4378 0
-4336 -4338 4380 0
4336 -4380 0
4338 -4380 0
-4342 -4344 4441 0
4342 -4441 0
4344 -4441 0
-4346 -4348 4442 0
4346 -4442 0
4348 -4442 0
-4350 -4352 4386 0
4350 -4386 0
4352 -4386 0
-4354 -4356 4388 0
4354 -4388 0
4356 -4388 0
-4360 -4362 4444 0
4360 -4444 0
4362 -4444 0
-4364 -4365 4445 0
4364 -4445 0
4365 -4445 0
-4366 -4367 4395 0
4366 -4395 0
4367 -4395 0
-4368 -4369 4397 0
4368 -4397 0
4369 -4397 0
-4371 -4373 4399 0
4371 -4399 0
4373 -4399 0
-4375 -4377 4401 0
4375 -4401 0
4377 -4401 0
-4379 -4381 4450 0
4379 -4450 0
4381 -4450 0
-4382 -4383 4405 0
4382 -4405 0
4383 -4405 0
-4384 -4385 4407 0
4384 -4407 0
4385 -4407 0
-4387 -4389 4409 0
4387 -4409 0
4389 -4409 0
-4390 -4391 4411 0
4390 -4411 0
4391 -4411 0
-4363 -4392 4413 0
4363 -4413 0
4392 -4413 0
-4393 -4394 4415 0
4393 -4415 0
4394 -4415 0
-4396 -4398 4417 0
4396 -4417 0
4398 -4417 0
-4400 -4402 4419 0
4400 -4419 0
4402 -4419 0
-4403 -4404 4421 0
4403 -4421 0
4404 -4421 0
-4406 -4408 4423 0
4406 -4423 0
4408 -4423 0
-4410 -4412 4425 0
4410 -4425 0
4412 -4425 0
-4414 -4416 4427 0
4414 -4427 0
4416 -4427 0
-4418 -4420 4429 0
4418 -4429 0
4420 -4429 0
-4422 -4424 4431 0
4422 -4431 0
4424 -4431 0
-4426 -4428 4432 0
4426 -4432 0
4428 -4432 0
-4370 -4372 4436 0
4370 -4436 0
4372 -4436 0
-4374 -4376 4438 0
4374 -4438 0
4376 -4438 0
-4378 -4380 4502 0
4378 -4502 0
4380 -4502 0
-4386 -4388 4531 0
4386 -4531 0
4388 -4531 0
-4395 -4397 4447 0
4395 -4447 0
4397 -4447 0
-4399 -4401 4449 0
4399 -4449 0
4401 -4449 0
-4405 -4407 4504 0
4405 -4504 0
4407 -4504 0
-4409 -4411 4453 0
4409 -4453 0
4411 -4453 0
-4413 -4415 4455 0
4413 -4455 0
4415 -4455 0
-4417 -4419 4457 0
4417 -4457 0
4419 -4457 0
-4421 -4423 4459 0
4421 -4459 0
4423 -4459 0
-4425 -4427 4461 0
4425 -4461 0
4427 -4461 0
-4429 -4431 4463 0
4429 -4463 0
4431 -4463 0
-4430 -4432 4510 0
4432 -4510 0
4430 -4510 0
-4435 -4437 4511 0
4435 -4511 0
4437 -4511 0
-4439 -4440 4467 0
4439 -4467 0
4440 -4467 0
-4441 -4442 4469 0
4441 -4469 0
4442 -4469 0
-4443 -4444 4513 0
4443 -4513 0
4444 -4513 0
-4446 -4448 4472 0
4446 -4472 0
4448 -4472 0
-4450 -4451 4474 0
4450 -4474 0
4451 -4474 0
-4452 -4454 4476 0
4452 -4476 0
4454 -4476 0
-4456 -4458 4478 0
4456 -4478 0
4458 -4478 0
-4460 -4462 4480 0
4460 -4480 0
4462 -4480 0
-4433 -4464 4482 0
4464 -4482 0
4433 -4482 0
-4434 -4465 4484 0
4434 -4484 0
4465 -4484 0
-4466 -4468 4486 0
4466 -4486 0
4468 -4486 0
-4445 -4470 4488 0
4470 -4488 0
4445 -4488 0
-4471 -4473 4490 0
4471 -4490 0
4473 -4490 0
-4475 -4477 4492 0
4475 -4492 0
4477 -4492 0
-4479 -4481 4494 0
4479 -4494 0
4481 -4494 0
-4483 -4485 4496 0
4483 -4496 0
4485 -4496 0
-4487 -4489 4498 0
4487 -4498 0
4489 -4498 0
-4491 -4493 4500 0
4491 -4500 0
4493 -4500 0
-4495 -4497 4501 0
4495 -4501 0
4497 -4501 0
-4436 -4438 4569 0
4436 -4569 0
4438 -4569 0
-4447 -4449 4570 0
4447 -4570 0
4449 -4570 0
-4453 -4455 4571 0
4453 -4571 0
4455 -4571 0
-4457 -4459 4507 0
4457 -4507 0
4459 -4507 0
-4461 -4463 4509 0
4461 -4509 0
4463 -4509 0
-4467 -4469 4573 0
4467 -4573 0
4469 -4573 0
-4472 -4474 4515 0
4472 -4515 0
4474 -4515 0
-4476 -4478 4517 0
4476 -4517 0
4478 -4517 0
-4480 -4482 4519 0
4480 -4519 0
4482 -4519 0
-4484 -4486 4521 0
4484 -4521 0
4486 -4521 0
-4488 -4490 4523 0
4488 -4523 0
4490 -4523 0
-4492 -4494 4525 0
4492 -4525 0
4494 -4525 0
-4496 -4498 4527 0
4496 -4527 0
4498 -4527 0
-4500 -4501 4529 0
4500 -4529 0
4501 -4529 0
-4503 -4504 4533 0
4503 -4533 0
4504 -4533 0
-4505 -4506 4535 0
4505 -4535 0
4506 -4535 0
-4508 -4510 4537 0
4508 -4537 0
4510 -4537 0
-4511 -4512 4539 0
4511 -4539 0
4512 -4539 0
-4513 -4514 4541 0
4513 -4541 0
4514 -4541 0
-4516 -4518 4543 0
4516 -4543 0
4518 -4543 0
-4520 -4522 4545 0
4520 -4545 0
4522 -4545 0
-4524 -4526 4547 0
4524 -4547 0
4526 -4547 0
-4499 -4528 4549 0
4528 -4549 0
4499 -4549 0
-4502 -4530 4551 0
4530 -4551 0
4502 -4551 0
-4531 -4532 4553 0
4531 -4553 0
4532 -4553 0
-4534 -4536 4555 0
4534 -4555 0
4536 -4555 0
-4538 -4540 4557 0
4538 -4557 0
4540 -4557 0
-4542 -4544 4559 0
4542 -4559 0
4544 -4559 0
-4546 -4548 4561 0
4546 -4561 0
4548 -4561 0
-4550 -4552 4563 0
4550 -4563 0
4552 -4563 0
-4554 -4556 4565 0
4554 -4565 0
4556 -4565 0
-4558 -4560 4567 0
4558 -4567 0
4560 -4567 0
-4562 -4564 4568 0
4562 -4568 0
4564 -4568 0
-4507 -4509 4656 0
4507 -4656 0
4509 -4656 0
-4515 -4517 4575 0
4515 -4575 0
4517 -4575 0
-4519 -4521 4577 0
4519 -4577 0
4521 -4577 0
-4523 -4525 4579 0
4523 -4579 0
4525 -4579 0
-4527 -4529 4581 0
4527 -4581 0
4529 -4581 0
-4533 -4535 4583 0
4533 -4583 0
4535 -4583 0
-4537 -4539 4585 0
4537 -4585 0
4539 -4585 0
-4541 -4543 4587 0
4541 -4587 0
4543 -4587 0
-4545 -4547 4589 0
4545 -4589 0
4547 -4589 0
-4549 -4551 4591 0
4549 -4591 0
4551 -4591 0
-4553 -4555 4593 0
4553 -4593 0
4555 -4593 0
-4557 -4559 4595 0
4557 -4595 0
4559 -4595 0
-4561 -4563 4597 0
4561 -4597 0
4563 -4597 0
-4565 -4567 4599 0
4565 -4599 0
4567 -4599 0
-4566 -4568 4601 0
4568 -4601 0
4566 -4601 0
-4571 -4572 4642 0
4571 -4642 0
4572 -4642 0
-4574 -4576 4604 0
4574 -4604 0
4576 -4604 0
-4578 -4580 4606 0
4578 -4606 0
4580 -4606 0
-4582 -4584 4644 0
4582 -4644 0
4584 -4644 0
-4586 -4588 4608 0
4586 -4608 0
4588 -4608 0
-4590 -4592 4610 0
4590 -4610 0
4592 -4610 0
-4594 -4596 4612 0
4594 -4612 0
4596 -4612 0
-4598 -4600 4614 0
4598 -4614 0
4600 -4614 0
-4569 -4570 4616 0
4569 -4616 0
4570 -4616 0
-4573 -4602 4618 0
4602 -4618 0
4573 -4618 0
-4603 -4605 4650 0
4603 -4650 0
4605 -4650 0
-4607 -4609 4622 0
4607 -4622 0
4609 -4622 0
-4611 -4613 4624 0
4611 -4624 0
4613 -4624 0
-4615 -4617 4626 0
4615 -4626 0
4617 -4626 0
-4619 -4620 4628 0
4619 -4628 0
4620 -4628 0
-4621 -4623 4630 0
4621 -4630 0
4623 -4630 0
-4625 -4627 4631 0
4625 -4631 0
4627 -4631 0
-4575 -4577 4632 0
4575 -4632 0
4577 -4632 0
-4579 -4581 4633 0
4579 -4633 0
4581 -4633 0
-4583 -4585 4692 0
4583 -4692 0
4585 -4692 0
-4587 -4589 4636 0
4587 -4636 0
4589 -4636 0
-4591 -4593 4638 0
4591 -4638 0
4593 -4638 0
-4595 -4597 4640 0
4595 -4640 0
4597 -4640 0
-4599 -4601 4641 0
4599 -4641 0
4601 -4641 0
-4604 -4606 4697 0
4604 -4697 0
4606 -4697 0
-4608 -4610 4646 0
4608 -4646 0
4610 -4646 0
-4612 -4614 4648 0
4612 -4648 0
4614 -4648 0
-4616 -4618 4699 0
4616 -4699 0
4618 -4699 0
-4622 -4624 4652 0
4622 -4652 0
4624 -4652 0
-4626 -4628 4654 0
4626 -4654 0
4628 -4654 0
-4630 -4631 4701 0
4630 -4701 0
4631 -4701 0
-4634 -4635 4702 0
4634 -4702 0
4635 -4702 0
-4637 -4639 4703 0
4637 -4703 0
4639 -4703 0
-4642 -4643 4663 0
4642 -4663 0
4643 -4663 0
-4644 -4645 4665 0
4644 -4665 0
4645 -4665 0
-4647 -4649 4667 0
4647 -4667 0
4649 -4667 0
-4650 -4651 4669 0
4650 -4669 0
4651 -4669 0
-4653 -4655 4671 0
4653 -4671 0
4655 -4671 0
-4629 -4656 4673 0
4629 -4673 0
4656 -4673 0
-4657 -4658 4675 0
4657 -4675 0
4658 -4675 0
-4659 -4660 4677 0
4659 -4677 0
4660 -4677 0
-4661 -4662 4679 0
4661 -4679 0
4662 -4679 0
-4664 -4666 4681 0
4664 -4681 0
4666 -4681 0
-4668 -4670 4683 0
4668 -4683 0
4670 -4683 0
-4672 -4674 4685 0
4672 -4685 0
4674 -4685 0
-4676 -4678 4687 0
4676 -4687 0
4678 -4687 0
-4680 -4682 4689 0
4680 -4689 0
4682 -4689 0
-4684 -4686 4690 0
4684 -4690 0
4686 -4690 0
-4632 -4633 4748 0
4632 -4748 0
4633 -4748 0
-4636 -4638 4694 0
4636 -4694 0
4638 -4694 0
-4640 -4641 4696 0
4640 -4696 0
4641 -4696 0
-4646 -4648 4750 0
4646 -4750 0
4648 -4750 0
-4652 -4654 4751 0
4652 -4751 0
4654 -4751 0
-4663 -4665 4752 0
4663 -4752 0
4665 -4752 0
-4667 -4669 4706 0
4667 -4706 0
4669 -4706 0
-4671 -4673 4708 0
4671 -4708 0
4673 -4708 0
-4675 -4677 4710 0
4675 -4710 0
4677 -4710 0
-4679 -4681 4712 0
4679 -4712 0
4681 -4712 0
-4683 -4685 4714 0
4683 -4714 0
4685 -4714 0
-4687 -4689 4716 0
4687 -4716 0
4689 -4716 0
-4688 -4690 4758 0
4690 -4758 0
4688 -4758 0
-4691 -4692 4718 0
4691 -4718 0
4692 -4718 0
-4693 -4695 4720 0
4693 -4720 0
4695 -4720 0
-4698 -4699 4760 0
4698 -4760 0
4699 -4760 0
-4700 -4701 4761 0
4700 -4761 0
4701 -4761 0
-4703 -4704 4724 0
4703 -4724 0
4704 -4724 0
-4705 -4707 4726 0
4705 -4726 0
4707 -4726 0
-4709 -4711 4728 0
4709 -4728 0
4711 -4728 0
-4713 -4715 4730 0
4713 -4730 0
4715 -4730 0
-4717 -4719 4764 0
4717 -4764 0
4719 -4764 0
-4697 -4721 4734 0
4697 -4734 0
4721 -4734 0
-4702 -4722 4736 0
4722 -4736 0
4702 -4736 0
-4723 -4725 4738 0
4723 -4738 0
4725 -4738 0
-4727 -4729 4740 0
4727 -4740 0
4729 -4740 0
-4731 -4732 4742 0
4731 -4742 0
4732 -4742 0
-4733 -4735 4744 0
4733 -4744 0
4735 -4744 0
-4737 -4739 4746 0
4737 -4746 0
4739 -4746 0
-4741 -4743 4747 0
4741 -4747 0
4743 -4747 0
-4694 -4696 4807 0
4694 -4807 0
4696 -4807 0
-4706 -4708 4754 0
4706 -4754 0
4708 -4754 0
-4710 -4712 4756 0
4710 -4756 0
4712 -4756 0
-4714 -4716 4809 0
4714 -4809 0
4716 -4809 0
-4718 -4720 4810 0
4718 -4810 0
4720 -4810 0
-4724 -4726 4811 0
4724 -4811 0
4726 -4811 0
-4728 -4730 4812 0
4728 -4812 0
4730 -4812 0
-4734 -4736 4766 0
4734 -4766 0
4736 -4766 0
-4738 -4740 4768 0
4738 -4768 0
4740 -4768 0
-4742 -4744 4770 0
4742 -4770 0
4744 -4770 0
-4746 -4747 4772 0
4746 -4772 0
4747 -4772 0
-4748 -4749 4815 0
4748 -4815 0
4749 -4815 0
-4752 -4753 4775 0
4752 -4775 0
4753 -4775 0
-4755 -4757 4777 0
4755 -4777 0
4757 -4777 0
-4758 -4759 4779 0
4758 -4779 0
4759 -4779 0
-4760 -4761 4781 0
4760 -4781 0
4761 -4781 0
-4762 -4763 4783 0
4762 -4783 0
4763 -4783 0
-4764 -4765 4785 0
4764 -4785 0
4765 -4785 0
-4767 -4769 4787 0
4767 -4787 0
4769 -4787 0
-4745 -4771 4789 0
4771 -4789 0
4745 -4789 0
-4750 -4773 4791 0
4773 -4791 0
4750 -4791 0
-4751 -4774 4793 0
4751 -4793 0
4774 -4793 0
-4776 -4778 4795 0
4776 -4795 0
4778 -4795 0
-4780 -4782 4797 0
4780 -4797 0
4782 -4797 0
-4784 -4786 4799 0
4784 -4799 0
4786 -4799 0
-4788 -4790 4801 0
4788 -4801 0
4790 -4801 0
-4792 -4794 4803 0
4792 -4803 0
4794 -4803 0
-4796 -4798 4805 0
4796 -4805 0
4798 -4805 0
-4800 -4802 4806 0
4800 -4806 0
4802 -4806 0
-4754 -4756 4862 0
4754 -4862 0
4756 -4862 0
-4766 -4768 4863 0
4766 -4863 0
4768 -4863 0
-4770 -4772 4864 0
4770 -4864 0
4772 -4864 0
-4775 -4777 4865 0
4775 -4865 0
4777 -4865 0
-4779 -4781 4817 0
4779 -4817 0
4781 -4817 0
-4783 -4785 4819 0
4783 -4819 0
4785 -4819 0
-4787 -4789 4821 0
4787 -4821 0
4789 -4821 0
-4791 -4793 4823 0
4791 -4823 0
4793 -4823 0
-4795 -4797 4825 0
4795 -4825 0
4797 -4825 0
-4799 -4801 4827 0
4799 -4827 0
4801 -4827 0
-4803 -4805 4829 0
4803 -4829 0
4805 -4829 0
-4804 -4806 4831 0
4806 -4831 0
4804 -4831 0
-4808 -4809 4833 0
4808 -4833 0
4809 -4833 0
-4810 -4811 4835 0
4810 -4835 0
4811 -4835 0
-4812 -4813 4837 0
4812 -4837 0
4813 -4837 0
-4814 -4815 4839 0
4814 -4839 0
4815 -4839 0
-4816 -4818 4875 0
4816 -4875 0
4818 -4875 0
-4820 -4822 4843 0
4820 -4843 0
4822 -4843 0
-4824 -4826 4845 0
4824 -4845 0
4826 -4845 0
-4828 -4830 4877 0
4828 -4877 0
4830 -4877 0
-4832 -4834 4848 0
4832 -4848 0
4834 -4848 0
-4836 -4838 4850 0
4836 -4850 0
4838 -4850 0
-4840 -4841 4852 0
4840 -4852 0
4841 -4852 0
-4842 -4844 4854 0
4842 -4854 0
4844 -4854 0
-4807 -4846 4856 0
4846 -4856 0
4807 -4856 0
-4847 -4849 4858 0
4847 -4858 0
4849 -4858 0
-4851 -4853 4860 0
4851 -4860 0
4853 -4860 0
-4855 -4857 4861 0
4855 -4861 0
4857 -4861 0
-4817 -4819 4915 0
4817 -4915 0
4819 -4915 0
-4821 -4823 4868 0
4821 -4868 0
4823 -4868 0
-4825 -4827 4870 0
4825 -4870 0
4827 -4870 0
-4829 -4831 4917 0
4829 -4917 0
4831 -4917 0
-4833 -4835 4872 0
4833 -4872 0
4835 -4872 0
-4837 -4839 4874 0
4837 -4874 0
4839 -4874 0
-4843 -4845 4919 0
4843 -4919 0
4845 -4919 0
-4848 -4850 4920 0
4848 -4920 0
4850 -4920 0
-4852 -4854 4880 0
4852 -4880 0
4854 -4880 0
-4856 -4858 4882 0
4856 -4882 0
4858 -4882 0
-4860 -4861 4922 0
4860 -4922 0
4861 -4922 0
-4864 -4865 4885 0
4864 -4885 0
4865 -4885 0
-4866 -4867 4887 0
4866 -4887 0
4867 -4887 0
-4869 -4871 4924 0
4869 -4924 0
4871 -4924 0
-4873 -4875 4891 0
4873 -4891 0
4875 -4891 0
-4876 -4877 4893 0
4876 -4893 0
4877 -4893 0
-4878 -4879 4895 0
4878 -4895 0
4879 -4895 0
-4881 -4883 4897 0
4881 -4897 0
4883 -4897 0
-4859 -4862 4899 0
4859 -4899 0
4862 -4899 0
-4863 -4884 4901 0
4863 -4901 0
4884 -4901 0
-4886 -4888 4903 0
4886 -4903 0
4888 -4903 0
-4889 -4890 4905 0
4889 -4905 0
4890 -4905 0
-4892 -4894 4907 0
4892 -4907 0
4894 -4907 0
-4896 -4898 4909 0
4896 -4909 0
4898 -4909 0
-4900 -4902 4911 0
4900 -4911 0
4902 -4911 0
-4904 -4906 4913 0
4904 -4913 0
4906 -4913 0
-4908 -4910 4914 0
4908 -4914 0
4910 -4914 0
-4868 -4870 4964 0
4868 -4964 0
4870 -4964 0
-4872 -4874 4965 0
4872 -4965 0
4874 -4965 0
-4880 -4882 4966 0
4880 -4966 0
4882 -4966 0
-4885 -4887 4987 0
4885 -4987 0
4887 -4987 0
-4891 -4893 4926 0
4891 -4926 0
4893 -4926 0
-4895 -4897 4928 0
4895 -4928 0
4897 -4928 0
-4899 -4901 4930 0
4899 -4930 0
4901 -4930 0
-4903 -4905 4932 0
4903 -4932 0
4905 -4932 0
-4907 -4909 4934 0
4907 -4934 0
4909 -4934 0
-4911 -4913 4936 0
4911 -4936 0
4913 -4936 0
-4912 -4914 4972 0
4914 -4972 0
4912 -4972 0
-4916 -4917 4973 0
4916 -4973 0
4917 -4973 0
-4918 -4919 4939 0
4918 -4939 0
4919 -4939 0
-4920 -4921 4941 0
4920 -4941 0
4921 -4941 0
-4923 -4924 4975 0
4923 -4975 0
4924 -4975 0
-4925 -4927 4944 0
4925 -4944 0
4927 -4944 0
-4929 -4931 4946 0
4929 -4946 0
4931 -4946 0
-4933 -4935 4977 0
4933 -4977 0
4935 -4977 0
-4915 -4937 4950 0
4915 -4950 0
4937 -4950 0
-4938 -4940 4952 0
4938 -4952 0
4940 -4952 0
-4922 -4942 4954 0
4922 -4954 0
4942 -4954 0
-4943 -4945 4956 0
4943 -4956 0
4945 -4956 0
-4947 -4948 4958 0
4947 -4958 0
4948 -4958 0
-4949 -4951 4960 0
4949 -4960 0
4951 -4960 0
-4953 -4955 4962 0
4953 -4962 0
4955 -4962 0
-4957 -4959 4963 0
4957 -4963 0
4959 -4963 0
-4926 -4928 5051 0
4926 -5051 0
4928 -5051 0
-4930 -4932 4969 0
4930 -4969 0
4932 -4969 0
-4934 -4936 4971 0
4934 -4971 0
4936 -4971 0
-4939 -4941 5017 0
4939 -5017 0
4941 -5017 0
-4944 -4946 5018 0
4944 -5018 0
4946 -5018 0
-4950 -4952 4979 0
4950 -4979 0
4952 -4979 0
-4954 -4956 4981 0
4954 -4981 0
4956 -4981 0
-4958 -4960 4983 0
4958 -4983 0
4960 -4983 0
-4962 -4963 4985 0
4962 -4985 0
4963 -4985 0
-4965 -4966 5023 0
4965 -5023 0
4966 -5023 0
-4967 -4968 4989 0
4967 -4989 0
4968 -4989 0
-4970 -4972 4991 0
4970 -4991 0
4972 -4991 0
-4973 -4974 4993 0
4973 -4993 0
4974 -4993 0
-4975 -4976 4995 0
4975 -4995 0
4976 -4995 0
-4977 -4978 4997 0
4977 -4997 0
4978 -4997 0
-4980 -4982 4999 0
4980 -4999 0
4982 -4999 0
-4961 -4984 5001 0
4984 -5001 0
4961 -5001 0
-4964 -4986 5003 0
4964 -5003 0
4986 -5003 0
-4987 -4988 5005 0
4987 -5005 0
4988 -5005 0
-4990 -4992 5007 0
4990 -5007 0
4992 -5007 0
-4994 -4996 5009 0
4994 -5009 0
4996 -5009 0
-4998 -5000 5011 0
4998 -5011 0
5000 -5011 0
-5002 -5004 5013 0
5002 -5013 0
5004 -5013 0
-5006 -5008 5015 0
5006 -5015 0
5008 -5015 0
-5010 -5012 5016 0
5010 -5016 0
5012 -5016 0
-4969 -4971 5064 0
4969 -5064 0
4971 -5064 0
-4979 -4981 5020 0
4979 -5020 0
4981 -5020 0
-4983 -4985 5022 0
4983 -5022 0
4985 -5022 0
-4989 -4991 5025 0
4989 -5025 0
4991 -5025 0
-4993 -4995 5027 0
4993 -5027 0
4995 -5027 0
-4997 -4999 5029 0
4997 -5029 0
4999 -5029 0
-5001 -5003 5031 0
5001 -5031 0
5003 -5031 0
-5005 -5007 5033 0
5005 -5033 0
5007 -5033 0
-5009 -5011 5035 0
5009 -5035 0
5011 -5035 0
-5013 -5015 5037 0
5013 -5037 0
5015 -5037 0
-5014 -5016 5039 0
5016 -5039 0
5014 -5039 0
-5017 -5018 5071 0
5017 -5071 0
5018 -5071 0
-5019 -5021 5072 0
5019 -5072 0
5021 -5072 0
-5024 -5026 5044 0
5024 -5044 0
5026 -5044 0
-5028 -5030 5046 0
5028 -5046 0
5030 -5046 0
-5032 -5034 5048 0
5032 -5048 0
5034 -5048 0
-5036 -5038 5050 0
5036 -5050 0
5038 -5050 0
-5040 -5041 5075 0
5040 -5075 0
5041 -5075 0
-5023 -5042 5054 0
5042 -5054 0
5023 -5054 0
-5043 -5045 5056 0
5043 -5056 0
5045 -5056 0
-5047 -5049 5058 0
5047 -5058 0
5049 -5058 0
-5051 -5052 5060 0
5051 -5060 0
5052 -5060 0
-5053 -5055 5062 0
5053 -5062 0
5055 -5062 0
-5057 -5059 5063 0
5057 -5063 0
5059 -5063 0
-5020 -5022 5107 0
5020 -5107 0
5022 -5107 0
-5025 -5027 5065 0
5025 -5065 0
5027 -5065 0
-5029 -5031 5067 0
5029 -5067 0
5031 -5067 0
-5033 -5035 5069 0
5033 -5069 0
5035 -5069 0
-5037 -5039 5070 0
5037 -5070 0
5039 -5070 0
-5044 -5046 5109 0
5044 -5109 0
5046 -5109 0
-5048 -5050 5110 0
5048 -5110 0
5050 -5110 0
-5054 -5056 5077 0
5054 -5077 0
5056 -5077 0
-5058 -5060 5079 0
5058 -5079 0
5060 -5079 0
-5062 -5063 5112 0
5062 -5112 0
5063 -5112 0
-5066 -5068 5113 0
5066 -5113 0
5068 -5113 0
-5071 -5072 5114 0
5071 -5114 0
5072 -5114 0
-5073 -5074 5087 0
5073 -5087 0
5074 -5087 0
-5075 -5076 5089 0
5075 -5089 0
5076 -5089 0
-5078 -5080 5091 0
5078 -5091 0
5080 -5091 0
-5061 -5064 5093 0
5061 -5093 0
5064 -5093 0
-5081 -5082 5095 0
5081 -5095 0
5082 -5095 0
-5083 -5084 5097 0
5083 -5097 0
5084 -5097 0
-5085 -5086 5099 0
5085 -5099 0
5086 -5099 0
-5088 -5090 5101 0
5088 -5101 0
5090 -5101 0
-5092 -5094 5103 0
5092 -5103 0
5094 -5103 0
-5096 -5098 5105 0
5096 -5105 0
5098 -5105 0
-5100 -5102 5106 0
5100 -5106 0
5102 -5106 0
-5065 -5067 5148 0
5065 -5148 0
5067 -5148 0
-5069 -5070 5149 0
5069 -5149 0
5070 -5149 0
-5077 -5079 5150 0
5077 -5150 0
5079 -5150 0
-5087 -5089 5165 0
5087 -5165 0
5089 -5165 0
-5091 -5093 5117 0
5091 -5117 0
5093 -5117 0
-5095 -5097 5119 0
5095 -5119 0
5097 -5119 0
-5099 -5101 5121 0
5099 -5121 0
5101 -5121 0
-5103 -5105 5123 0
5103 -5123 0
5105 -5123 0
-5104 -5106 5153 0
5106 -5153 0
5104 -5153 0
-5107 -5108 5154 0
5107 -5154 0
5108 -5154 0
-5109 -5110 5127 0
5109 -5127 0
5110 -5127 0
-5111 -5112 5129 0
5111 -5129 0
5112 -5129 0
-5114 -5115 5156 0
5114 -5156 0
5115 -5156 0
-5116 -5118 5132 0
5116 -5132 0
5118 -5132 0
-5120 -5122 5134 0
5120 -5134 0
5122 -5134 0
-5124 -5125 5158 0
5124 -5158 0
5125 -5158 0
-5126 -5128 5138 0
5126 -5138 0
5128 -5138 0
-5113 -5130 5140 0
5113 -5140 0
5130 -5140 0
-5131 -5133 5142 0
5131 -5142 0
5133 -5142 0
-5135 -5136 5144 0
5135 -5144 0
5136 -5144 0
-5137 -5139 5146 0
5137 -5146 0
5139 -5146 0
-5141 -5143 5147 0
5141 -5147 0
5143 -5147 0
-5117 -5119 5209 0
5117 -5209 0
5119 -5209 0
-5121 -5123 5191 0
5121 -5191 0
5123 -5191 0
-5127 -5129 5192 0
5127 -5192 0
5129 -5192 0
-5132 -5134 5193 0
5132 -5193 0
5134 -5193 0
-5138 -5140 5194 0
5138 -5194 0
5140 -5194 0
-5142 -5144 5161 0
5142 -5161 0
5144 -5161 0
-5146 -5147 5163 0
5146 -5163 0
5147 -5163 0
-5148 -5149 5196 0
5148 -5196 0
5149 -5196 0
-5151 -5152 5167 0
5151 -5167 0
5152 -5167 0
-5153 -5154 5169 0
5153 -5169 0
5154 -5169 0
-5155 -5156 5171 0
5155 -5171 0
5156 -5171 0
-5157 -5158 5173 0
5157 -5173 0
5158 -5173 0
-5159 -5160 5175 0
5159 -5175 0
5160 -5175 0
-5145 -5162 5177 0
5162 -5177 0
5145 -5177 0
-5150 -5164 5179 0
5164 -5179 0
5150 -5179 0
-5165 -5166 5181 0
5165 -5181 0
5166 -5181 0
-5168 -5170 5183 0
5168 -5183 0
5170 -5183 0
-5172 -5174 5185 0
5172 -5185 0
5174 -5185 0
-5176 -5178 5187 0
5176 -5187 0
5178 -5187 0
-5180 -5182 5189 0
5180 -5189 0
5182 -5189 0
-5184 -5186 5190 0
5184 -5190 0
5186 -5190 0
-5161 -5163 5232 0
5161 -5232 0
5163 -5232 0
-5167 -5169 5233 0
5167 -5233 0
5169 -5233 0
-5171 -5173 5198 0
5171 -5198 0
5173 -5198 0
-5175 -5177 5200 0
5175 -5200 0
5177 -5200 0
-5179 -5181 5202 0
5179 -5202 0
5181 -5202 0
-5183 -5185 5204 0
5183 -5204 0
5185 -5204 0
-5187 -5189 5206 0
5187 -5206 0
5189 -5206 0
-5188 -5190 5208 0
5190 -5208 0
5188 -5208 0
-5191 -5192 5211 0
5191 -5211 0
5192 -5211 0
-5193 -5194 5213 0
5193 -5213 0
5194 -5213 0
-5195 -5196 5239 0
5195 -5239 0
5196 -5239 0
-5197 -5199 5217 0
5197 -5217 0
5199 -5217 0
-5201 -5203 5219 0
5201 -5219 0
5203 -5219 0
-5205 -5207 5241 0
5205 -5241 0
5207 -5241 0
-5210 -5212 5222 0
5210 -5222 0
5212 -5222 0
-5214 -5215 5224 0
5214 -5224 0
5215 -5224 0
-5216 -5218 5226 0
5216 -5226 0
5218 -5226 0
-5209 -5220 5228 0
5220 -5228 0
5209 -5228 0
-5221 -5223 5230 0
5221 -5230 0
5223 -5230 0
-5225 -5227 5231 0
5225 -5231 0
5227 -5231 0
-5198 -5200 5235 0
5198 -5235 0
5200 -5235 0
-5202 -5204 5237 0
5202 -5237 0
5204 -5237 0
-5206 -5208 5267 0
5206 -5267 0
5208 -5267 0
-5211 -5213 5268 0
5211 -5268 0
5213 -5268 0
-5217 -5219 5269 0
5217 -5269 0
5219 -5269 0
-5222 -5224 5243 0
5222 -5243 0
5224 -5243 0
-5226 -5228 5245 0
5226 -5245 0
5228 -5245 0
-5230 -5231 5271 0
5230 -5271 0
5231 -5271 0
-5233 -5234 5248 0
5233 -5248 0
5234 -5248 0
-5236 -5238 5250 0
5236 -5250 0
5238 -5250 0
-5239 -5240 5273 0
5239 -5273 0
5240 -5273 0
-5241 -5242 5254 0
5241 -5254 0
5242 -5254 0
-5244 -5246 5256 0
5244 -5256 0
5246 -5256 0
-5232 -5247 5275 0
5232 -5275 0
5247 -5275 0
-5249 -5251 5259 0
5249 -5259 0
5251 -5259 0
-5252 -5253 5261 0
5252 -5261 0
5253 -5261 0
-5229 -5255 5263 0
5255 -5263 0
5229 -5263 0
-5257 -5258 5265 0
5257 -5265 0
5258 -5265 0
-5260 -5262 5266 0
5260 -5266 0
5262 -5266 0
-5235 -5237 5300 0
5235 -5300 0
5237 -5300 0
-5243 -5245 5301 0
5243 -5301 0
5245 -5301 0
-5248 -5250 5302 0
5248 -5302 0
5250 -5302 0
-5254 -5256 5303 0
5254 -5303 0
5256 -5303 0
-5259 -5261 5277 0
5259 -5277 0
5261 -5277 0
-5263 -5265 5279 0
5263 -5279 0
5265 -5279 0
-5264 -5266 5305 0
5266 -5305 0
5264 -5305 0
-5267 -5268 5306 0
5267 -5306 0
5268 -5306 0
-5269 -5270 5307 0
5269 -5307 0
5270 -5307 0
-5272 -5273 5284 0
5272 -5284 0
5273 -5284 0
-5274 -5275 5286 0
5274 -5286 0
5275 -5286 0
-5276 -5278 5309 0
5276 -5309 0
5278 -5309 0
-5280 -5281 5290 0
5280 -5290 0
5281 -5290 0
-5271 -5282 5292 0
5282 -5292 0
5271 -5292 0
-5283 -5285 5294 0
5283 -5294 0
5285 -5294 0
-5287 -5288 5296 0
5287 -5296 0
5288 -5296 0
-5289 -5291 5298 0
5289 -5298 0
5291 -5298 0
-5293 -5295 5299 0
5293 -5299 0
5295 -5299 0
-5277 -5279 5352 0
5277 -5352 0
5279 -5352 0
-5284 -5286 5353 0
5284 -5353 0
5286 -5353 0
-5290 -5292 5337 0
5290 -5337 0
5292 -5337 0
-5294 -5296 5312 0
5294 -5312 0
5296 -5312 0
-5298 -5299 5314 0
5298 -5314 0
5299 -5314 0
-5302 -5303 5339 0
5302 -5339 0
5303 -5339 0
-5304 -5305 5317 0
5304 -5317 0
5305 -5317 0
-5306 -5307 5319 0
5306 -5319 0
5307 -5319 0
-5308 -5309 5321 0
5308 -5321 0
5309 -5321 0
-5310 -5311 5323 0
5310 -5323 0
5311 -5323 0
-5297 -5313 5325 0
5313 -5325 0
5297 -5325 0
-5300 -5301 5327 0
5300 -5327 0
5301 -5327 0
-5315 -5316 5329 0
5315 -5329 0
5316 -5329 0
-5318 -5320 5331 0
5318 -5331 0
5320 -5331 0
-5322 -5324 5333 0
5322 -5333 0
5324 -5333 0
-5326 -5328 5335 0
5326 -5335 0
5328 -5335 0
-5330 -5332 5336 0
5330 -5336 0
5332 -5336 0
-5312 -5314 5378 0
5312 -5378 0
5314 -5378 0
-5317 -5319 5341 0
5317 -5341 0
5319 -5341 0
-5321 -5323 5343 0
5321 -5343 0
5323 -5343 0
-5325 -5327 5345 0
5325 -5345 0
5327 -5345 0
-5329 -5331 5347 0
5329 -5347 0
5331 -5347 0
-5333 -5335 5349 0
5333 -5349 0
5335 -5349 0
-5334 -5336 5351 0
5336 -5351 0
5334 -5351 0
-5337 -5338 5372 0
5337 -5372 0
5338 -5372 0
-5340 -5342 5373 0
5340 -5373 0
5342 -5373 0
-5344 -5346 5357 0
5344 -5357 0
5346 -5357 0
-5348 -5350 5359 0
5348 -5359 0
5350 -5359 0
-5353 -5354 5375 0
5353 -5375 0
5354 -5375 0
-5339 -5355 5362 0
5339 -5362 0
5355 -5362 0
-5356 -5358 5364 0
5356 -5364 0
5358 -5364 0
-5352 -5360 5366 0
5352 -5366 0
5360 -5366 0
-5361 -5363 5367 0
5361 -5367 0
5363 -5367 0
-5341 -5343 5395 0
5341 -5395 0
5343 -5395 0
-5345 -5347 5370 0
5345 -5370 0
5347 -5370 0
-5349 -5351 5371 0
5349 -5371 0
5351 -5371 0
-5357 -5359 5407 0
5357 -5407 0
5359 -5407 0
-5362 -5364 5397 0
5362 -5397 0
5364 -5397 0
-5366 -5367 5398 0
5366 -5398 0
5367 -5398 0
-5368 -5369 5399 0
5368 -5399 0
5369 -5399 0
-5372 -5373 5382 0
5372 -5382 0
5373 -5382 0
-5374 -5375 5384 0
5374 -5384 0
5375 -5384 0
-5376 -5377 5401 0
5376 -5401 0
5377 -5401 0
-5378 -5379 5387 0
5378 -5387 0
5379 -5387 0
-5380 -5381 5389 0
5380 -5389 0
5381 -5389 0
-5383 -5385 5391 0
5383 -5391 0
5385 -5391 0
-5365 -5386 5393 0
5365 -5393 0
5386 -5393 0
-5388 -5390 5394 0
5388 -5394 0
5390 -5394 0
-5370 -5371 5442 0
5370 -5442 0
5371 -5442 0
-5382 -5384 5422 0
5382 -5422 0
5384 -5422 0
-5387 -5389 5403 0
5387 -5403 0
5389 -5403 0
-5391 -5393 5405 0
5391 -5405 0
5393 -5405 0
-5392 -5394 5424 0
5394 -5424 0
5392 -5424 0
-5395 -5396 5425 0
5395 -5425 0
5396 -5425 0
-5397 -5398 5426 0
5397 -5426 0
5398 -5426 0
-5400 -5401 5410 0
5400 -5410 0
5401 -5410 0
-5402 -5404 5412 0
5402 -5412 0
5404 -5412 0
-5406 -5407 5428 0
5406 -5428 0
5407 -5428 0
-5399 -5408 5416 0
5408 -5416 0
5399 -5416 0
-5409 -5411 5418 0
5409 -5418 0
5411 -5418 0
-5413 -5414 5420 0
5413 -5420 0
5414 -5420 0
-5415 -5417 5421 0
5415 -5421 0
5417 -5421 0
-5403 -5405 5464 0
5403 -5464 0
5405 -5464 0
-5410 -5412 5449 0
5410 -5449 0
5412 -5449 0
-5416 -5418 5430 0
5416 -5430 0
5418 -5430 0
-5420 -5421 5432 0
5420 -5432 0
5421 -5432 0
-5422 -5423 5450 0
5422 -5450 0
5423 -5450 0
-5424 -5425 5435 0
5424 -5435 0
5425 -5435 0
-5426 -5427 5437 0
5426 -5437 0
5427 -5437 0
-5428 -5429 5439 0
5428 -5439 0
5429 -5439 0
-5419 -5431 5441 0
5431 -5441 0
5419 -5441 0
-5433 -5434 5453 0
5433 -5453 0
5434 -5453 0
-5436 -5438 5445 0
5436 -5445 0
5438 -5445 0
-5440 -5442 5447 0
5440 -5447 0
5442 -5447 0
-5443 -5444 5448 0
5443 -5448 0
5444 -5448 0
-5430 -5432 5472 0
5430 -5472 0
5432 -5472 0
-5435 -5437 5473 0
5435 -5473 0
5437 -5473 0
-5439 -5441 5474 0
5439 -5474 0
5441 -5474 0
-5445 -5447 5455 0
5445 -5455 0
5447 -5455 0
-5446 -5448 5457 0
5448 -5457 0
5446 -5457 0
-5450 -5451 5460 0
5450 -5460 0
5451 -5460 0
-5452 -5453 5462 0
5452 -5462 0
5453 -5462 0
-5454 -5456 5477 0
5454 -5477 0
5456 -5477 0
-5449 -5458 5466 0
5449 -5466 0
5458 -5466 0
-5459 -5461 5468 0
5459 -5468 0
5461 -5468 0
-5463 -5464 5470 0
5463 -5470 0
5464 -5470 0
-5465 -5467 5471 0
5465 -5471 0
5467 -5471 0
-5455 -5457 5489 0
5455 -5489 0
5457 -5489 0
-5460 -5462 5490 0
5460 -5490 0
5462 -5490 0
-5466 -5468 5491 0
5466 -5491 0
5468 -5491 0
-5470 -5471 5492 0
5470 -5492 0
5471 -5492 0
-5472 -5473 5493 0
5472 -5493 0
5473 -5493 0
-5474 -5475 5494 0
5474 -5494 0
5475 -5494 0
-5476 -5477 5482 0
5476 -5482 0
5477 -5482 0
-5478 -5479 5484 0
5478 -5484 0
5479 -5484 0
-5480 -5481 5496 0
5480 -5496 0
5481 -5496 0
-5469 -5483 5497 0
5483 -5497 0
5469 -5497 0
-5485 -5486 5488 0
5485 -5488 0
5486 -5488 0
-5482 -5484 5520 0
5482 -5520 0
5484 -5520 0
-5487 -5488 5512 0
5488 -5512 0
5487 -5512 0
-5490 -5491 5513 0
5490 -5513 0
5491 -5513 0
-5492 -5493 5500 0
5492 -5500 0
5493 -5500 0
-5494 -5495 5502 0
5494 -5502 0
5495 -5502 0
-5496 -5497 5515 0
5496 -5515 0
5497 -5515 0
-5489 -5498 5506 0
5489 -5506 0
5498 -5506 0
-5499 -5501 5508 0
5499 -5508 0
5501 -5508 0
-5503 -5504 5510 0
5503 -5510 0
5504 -5510 0
-5505 -5507 5511 0
5505 -5511 0
5507 -5511 0
-5500 -5502 5531 0
5500 -5531 0
5502 -5531 0
-5506 -5508 5517 0
5506 -5517 0
5508 -5517 0
-5510 -5511 5519 0
5510 -5519 0
5511 -5519 0
-5513 -5514 5522 0
5513 -5522 0
5514 -5522 0
-5515 -5516 5524 0
5515 -5524 0
5516 -5524 0
-5509 -5518 5534 0
5518 -5534 0
5509 -5534 0
-5512 -5521 5527 0
5512 -5527 0
5521 -5527 0
-5523 -5525 5529 0
5523 -5529 0
5525 -5529 0
-5520 -5526 5530 0
5520 -5530 0
5526 -5530 0
-5517 -5519 5544 0
5517 -5544 0
5519 -5544 0
-5522 -5524 5548 0
5522 -5548 0
5524 -5548 0
-5527 -5529 5536 0
5527 -5536 0
5529 -5536 0
-5528 -5530 5538 0
5530 -5538 0
5528 -5538 0
-5531 -5532 5545 0
5531 -5545 0
5532 -5545 0
-5533 -5534 5540 0
5533 -5540 0
5534 -5540 0
-5535 -5537 5542 0
5535 -5542 0
5537 -5542 0
-5539 -5541 5547 0
5539 -5547 0
5541 -5547 0
-5536 -5538 5561 0
5536 -5561 0
5538 -5561 0
-5540 -5542 5557 0
5540 -5557 0
5542 -5557 0
-5545 -5546 5558 0
5545 -5558 0
5546 -5558 0
-5543 -5544 5559 0
5543 -5559 0
5544 -5559 0
-5548 -5549 5553 0
5548 -5553 0
5549 -5553 0
-5547 -5550 5555 0
5550 -5555 0
5547 -5555 0
-5551 -5552 5556 0
5551 -5556 0
5552 -5556 0
-5553 -5555 5572 0
5553 -5572 0
5555 -5572 0
-5554 -5556 5568 0
5556 -5568 0
5554 -5568 0
-5559 -5560 5569 0
5559 -5569 0
5560 -5569 0
-5557 -5561 5570 0
5561 -5570 0
5557 -5570 0
-5558 -5562 5566 0
5558 -5566 0
5562 -5566 0
-5563 -5564 5567 0
5563 -5567 0
5564 -5567 0
-5566 -5567 5581 0
5566 -5581 0
5567 -5581 0
-5569 -5570 5574 0
5569 -5574 0
5570 -5574 0
-5565 -5571 5576 0
5571 -5576 0
5565 -5576 0
-5568 -5573 5579 0
5568 -5579 0
5573 -5579 0
-5572 -5575 5578 0
5575 -5578 0
5572 -5578 0
-5574 -5576 5584 0
5574 -5584 0
5576 -5584 0
-5577 -5578 5585 0
5578 -5585 0
5577 -5585 0
-5579 -5580 5586 0
5579 -5586 0
5580 -5586 0
-5581 -5582 5587 0
5581 -5587 0
5582 -5587 0
-5584 -5585 5593 0
5584 -5593 0
5585 -5593 0
-5586 -5587 5591 0
5586 -5591 0
5587 -5591 0
-5583 -5588 5590 0
5588 -5590 0
5583 -5590 0
-5589 -5590 5595 0
-5591 -5592 5594 0
5591 -5594 0
5592 -5594 0
-5593 -5594 5595 0
-5595 0
-2 -9 -96 0
2 9 -96 0
-2 9 96 0
2 -9 96 0
-17 -25 96 0
17 25 96 0
-17 25 -96 0
17 -25 -96 0
-3 -10 -99 0
3 10 -99 0
-3 10 99 0
3 -10 99 0
-34 -95 -98 0
34 95 -98 0
-34 95 98 0
34 -95 98 0
-97 -98 -100 0
97 98 -100 0
-97 98 100 0
97 -98 100 0
-99 -100 101 0
99 100 101 0
-99 100 -101 0
99 -100 -101 0
-4 -11 -102 0
4 11 -102 0
-4 11 102 0
4 -11 102 0
-18 -26 -104 0
18 26 -104 0
-18 26 104 0
18 -26 104 0
-35 -44 -106 0
35 44 -106 0
-35 44 106 0
35 -44 106 0
-102 -104 -112 0
102 104 -112 0
-102 104 112 0
102 -104 112 0
-106 -108 -113 0
106 108 -113 0
-106 108 113 0
106 -108 113 0
-110 -111 -114 0
110 111 -114 0
-110 111 114 0
110 -111 114 0
-112 -113 -116 0
112 113 -116 0
-112 113 116 0
112 -113 116 0
-109 -114 116 0
109 114 116 0
-109 114 -116 0
109 -114 -116 0
-5 -12 -118 0
5 12 -118 0
-5 12 118 0
5 -12 118 0
-19 -27 -120 0
19 27 -120 0
-19 27 120 0
19 -27 120 0
-36 -45 -122 0
36 45 -122 0
-36 45 122 0
36 -45 122 0
-54 -103 -124 0
54 103 -124 0
-54 103 124 0
54 -103 124 0
-105 -107 -132 0
105 107 -132 0
-105 107 132 0
105 -107 132 0
-115 -117 -128 0
115 117 -128 0
-115 117 128 0
115 -117 128 0
-118 -120 -130 0
118 120 -130 0
-118 120 130 0
118 -120 130 0
-122 -124 -131 0
122 124 -131 0
-122 124 131 0
122 -124 131 0
-127 -128 -133 0
127 128 -133 0
-127 128 133 0
127 -128 133 0
-129 -130 -134 0
129 130 -134 0
-129 130 134 0
129 -130 134 0
-131 -132 -136 0
131 132 -136 0
-131 132 136 0
131 -132 136 0
-126 -133 -138 0
126 133 -138 0
-126 133 138 0
126 -133 138 0
-134 -136 138 0
134 136 138 0
-134 136 -138 0
134 -136 -138 0
-6 -13 -157 0
6 13 -157 0
-6 13 157 0
6 -13 157 0
-20 -28 -142 0
20 28 -142 0
-20 28 142 0
20 -28 142 0
-37 -46 -144 0
37 46 -144 0
-37 46 144 0
37 -46 144 0
-55 -64 -146 0
55 64 -146 0
-55 64 146 0
55 -64 146 0
-119 -121 -148 0
119 121 -148 0
-119 121 148 0
119 -121 148 0
-123 -125 -150 0
123 125 -150 0
-123 125 150 0
123 -125 150 0
-135 -137 -155 0
135 137 -155 0
-135 137 155 0
135 -137 155 0
-139 -140 -156 0
139 140 -156 0
-139 140 156 0
139 -140 156 0
-142 -144 -158 0
142 144 -158 0
-142 144 158 0
142 -144 158 0
-146 -148 -160 0
146 148 -160 0
-146 148 160 0
146 -148 160 0
-150 -151 -162 0
150 151 -162 0
-150 151 162 0
150 -151 162 0
-152 -153 -164 0
152 153 -164 0
-152 153 164 0
152 -153 164 0
-154 -155 -166 0
154 155 -166 0
-154 155 166 0
154 -155 166 0
-156 -157 -168 0
156 157 -168 0
-156 157 168 0
156 -157 168 0
-158 -160 -170 0
158 160 -170 0
-158 160 170 0
158 -160 170 0
-162 -163 -172 0
162 163 -172 0
-162 163 172 0
162 -163 172 0
-164 -166 -174 0
164 166 -174 0
-164 166 174 0
164 -166 174 0
-168 -170 -176 0
168 170 -176 0
-168 170 176 0
168 -170 176 0
-172 -174 -176 0
172 174 -176 0
-172 174 176 0
172 -174 176 0
-7 -14 -179 0
7 14 -179 0
-7 14 179 0
7 -14 179 0
-21 -29 -181 0
21 29 -181 0
-21 29 181 0
21 -29 181 0
-38 -47 -183 0
38 47 -183 0
-38 47 183 0
38 -47 183 0
-56 -65 -185 0
56 65 -185 0
-56 65 185 0
56 -65 185 0
-74 -141 -187 0
74 141 -187 0
-74 141 187 0
74 -141 187 0
-143 -145 -189 0
143 145 -189 0
-143 145 189 0
143 -145 189 0
-147 -149 -191 0
147 149 -191 0
-147 149 191 0
147 -149 191 0
-159 -161 -195 0
159 161 -195 0
-159 161 195 0
159 -161 195 0
-165 -167 -197 0
165 167 -197 0
-165 167 197 0
165 -167 197 0
-169 -171 -199 0
169 171 -199 0
-169 171 199 0
169 -171 199 0
-173 -175 -201 0
173 175 -201 0
-173 175 201 0
173 -175 201 0
-177 -178 -203 0
177 178 -203 0
-177 178 203 0
177 -178 203 0
-176 -179 -205 0
176 179 -205 0
-176 179 205 0
176 -179 205 0
-181 -183 -207 0
181 183 -207 0
-181 183 207 0
181 -183 207 0
-185 -187 -209 0
185 187 -209 0
-185 187 209 0
185 -187 209 0
-189 -191 -211 0
189 191 -211 0
-189 191 211 0
189 -191 211 0
-194 -195 -213 0
194 195 -213 0
-194 195 213 0
194 -195 213 0
-196 -197 -215 0
196 197 -215 0
-196 197 215 0
196 -197 215 0
-199 -201 -217 0
199 201 -217 0
-199 201 217 0
199 -201 217 0
-203 -205 -219 0
203 205 -219 0
-203 205 219 0
203 -205 219 0
-207 -209 -221 0
207 209 -221 0
-207 209 221 0
207 -209 221 0
-192 -211 -223 0
192 211 -223 0
192 -211 223 0
-192 211 223 0
-193 -213 -225 0
193 213 -225 0
-193 213 225 0
193 -213 225 0
-215 -217 -227 0
215 217 -227 0
-215 217 227 0
215 -217 227 0
-219 -221 -229 0
219 221 -229 0
-219 221 229 0
219 -221 229 0
-223 -225 -231 0
223 225 -231 0
-223 225 231 0
223 -225 231 0
-227 -229 231 0
227 229 231 0
-227 229 -231 0
227 -229 -231 0
-8 -15 -233 0
8 15 -233 0
-8 15 233 0
8 -15 233 0
-22 -30 -235 0
22 30 -235 0
-22 30 235 0
22 -30 235 0
-39 -48 -237 0
39 48 -237 0
-39 48 237 0
39 -48 237 0
-57 -66 -239 0
57 66 -239 0
-57 66 239 0
57 -66 239 0
-75 -84 -241 0
75 84 -241 0
-75 84 241 0
75 -84 241 0
-180 -182 -243 0
180 182 -243 0
-180 182 243 0
180 -182 243 0
-184 -186 -245 0
184 186 -245 0
-184 186 245 0
184 -186 245 0
-188 -190 -247 0
188 190 -247 0
-188 190 247 0
188 -190 247 0
-198 -200 -250 0
198 200 -250 0
-198 200 250 0
198 -200 250 0
-202 -204 -251 0
202 204 -251 0
-202 204 251 0
202 -204 251 0
-206 -208 -253 0
206 208 -253 0
-206 208 253 0
206 -208 253 0
-210 -212 -255 0
210 212 -255 0
-210 212 255 0
210 -212 255 0
-214 -216 -277 0
214 216 -277 0
-214 216 277 0
214 -216 277 0
-218 -220 -257 0
218 220 -257 0
-218 220 257 0
218 -220 257 0
-222 -224 -259 0
222 224 -259 0
-222 224 259 0
222 -224 259 0
-226 -228 -261 0
226 228 -261 0
-226 228 261 0
226 -228 261 0
-230 -232 -263 0
230 232 -263 0
-230 232 263 0
230 -232 263 0
-233 -235 -265 0
233 235 -265 0
-233 235 265 0
233 -235 265 0
-237 -239 -267 0
237 239 -267 0
-237 239 267 0
237 -239 267 0
-241 -243 -269 0
241 243 -269 0
-241 243 269 0
241 -243 269 0
-245 -247 -271 0
245 247 -271 0
-245 247 271 0
245 -247 271 0
-250 -251 -273 0
250 251 -273 0
-250 251 273 0
250 -251 273 0
-253 -255 -275 0
253 255 -275 0
-253 255 275 0
253 -255 275 0
-257 -259 -278 0
257 259 -278 0
-257 259 278 0
257 -259 278 0
-261 -263 -279 0
261 263 -279 0
-261 263 279 0
261 -263 279 0
-264 -265 -281 0
264 265 -281 0
-264 265 281 0
264 -265 281 0
-267 -269 -283 0
267 269 -283 0
-267 269 283 0
267 -269 283 0
-248 -271 -285 0
248 271 -285 0
248 -271 285 0
-248 271 285 0
-249 -273 -287 0
249 273 -287 0
-249 273 287 0
249 -273 287 0
-275 -277 -289 0
275 277 -289 0
-275 277 289 0
275 -277 289 0
-278 -279 -291 0
278 279 -291 0
-278 279 291 0
278 -279 291 0
-281 -283 -293 0
281 283 -293 0
-281 283 293 0
281 -283 293 0
-285 -287 -295 0
285 287 -295 0
-285 287 295 0
285 -287 295 0
-289 -291 -297 0
289 291 -297 0
-289 291 297 0
289 -291 297 0
-293 -295 297 0
293 295 297 0
-293 295 -297 0
293 -295 -297 0
-16 -23 -299 0
16 23 -299 0
-16 23 299 0
16 -23 299 0
-31 -40 -301 0
31 40 -301 0
-31 40 301 0
31 -40 301 0
-49 -58 -303 0
49 58 -303 0
-49 58 303 0
49 -58 303 0
-67 -76 -305 0
67 76 -305 0
-67 76 305 0
67 -76 305 0
-85 -234 -307 0
85 234 -307 0
-85 234 307 0
85 -234 307 0
-236 -238 -309 0
236 238 -309 0
-236 238 309 0
236 -238 309 0
-240 -242 -311 0
240 242 -311 0
-240 242 311 0
240 -242 311 0
-244 -246 -313 0
244 246 -313 0
-244 246 313 0
244 -246 313 0
-252 -254 -317 0
252 254 -317 0
-252 254 317 0
252 -254 317 0
-256 -258 -319 0
256 258 -319 0
-256 258 319 0
256 -258 319 0
-260 -262 -320 0
260 262 -320 0
-260 262 320 0
260 -262 320 0
-266 -268 -322 0
266 268 -322 0
-266 268 322 0
266 -268 322 0
-270 -272 -324 0
270 272 -324 0
-270 272 324 0
270 -272 324 0
-274 -276 -351 0
274 276 -351 0
-274 276 351 0
274 -276 351 0
-280 -282 -327 0
280 282 -327 0
-280 282 327 0
280 -282 327 0
-284 -286 -328 0
284 286 -328 0
-284 286 328 0
284 -286 328 0
-288 -290 -330 0
288 290 -330 0
-288 290 330 0
288 -290 330 0
-292 -294 -332 0
292 294 -332 0
-292 294 332 0
292 -294 332 0
-296 -298 -334 0
296 298 -334 0
-296 298 334 0
296 -298 334 0
-299 -301 -337 0
299 301 -337 0
-299 301 337 0
299 -301 337 0
-303 -305 -338 0
303 305 -338 0
-303 305 338 0
303 -305 338 0
-307 -309 -340 0
307 309 -340 0
-307 309 340 0
307 -309 340 0
-311 -313 -342 0
311 313 -342 0
-311 313 342 0
311 -313 342 0
-316 -317 -343 0
316 317 -343 0
-316 317 343 0
316 -317 343 0
-318 -319 -345 0
318 319 -345 0
-318 319 345 0
318 -319 345 0
-320 -321 -347 0
320 321 -347 0
-320 321 347 0
320 -321 347 0
-322 -324 -349 0
322 324 -349 0
-322 324 349 0
322 -324 349 0
-326 -327 -352 0
326 327 -352 0
-326 327 352 0
326 -327 352 0
-328 -330 -353 0
328 330 -353 0
-328 330 353 0
328 -330 353 0
-332 -334 -355 0
332 334 -355 0
-332 334 355 0
332 -334 355 0
-336 -337 -357 0
336 337 -357 0
-336 337 357 0
336 -337 357 0
-338 -340 -359 0
338 340 -359 0
-338 340 359 0
338 -340 359 0
-315 -342 -361 0
315 342 -361 0
315 -342 361 0
-315 342 361 0
-343 -345 -363 0
343 345 -363 0
-343 345 363 0
343 -345 363 0
-347 -349 -365 0
347 349 -365 0
-347 349 365 0
347 -349 365 0
-351 -352 -367 0
351 352 -367 0
-351 352 367 0
351 -352 367 0
-353 -355 -369 0
353 355 -369 0
-353 355 369 0
353 -355 369 0
-357 -359 -371 0
357 359 -371 0
-357 359 371 0
357 -359 371 0
-361 -363 -373 0
361 363 -373 0
-361 363 373 0
361 -363 373 0
-365 -367 -375 0
365 367 -375 0
-365 367 375 0
365 -367 375 0
-369 -371 -377 0
369 371 -377 0
-369 371 377 0
369 -371 377 0
-373 -375 -377 0
373 375 -377 0
-373 375 377 0
373 -375 377 0
-24 -32 -380 0
24 32 -380 0
-24 32 380 0
24 -32 380 0
-41 -50 -382 0
41 50 -382 0
-41 50 382 0
41 -50 382 0
-59 -68 -384 0
59 68 -384 0
-59 68 384 0
59 -68 384 0
-77 -86 -386 0
77 86 -386 0
-77 86 386 0
77 -86 386 0
-300 -302 -388 0
300 302 -388 0
-300 302 388 0
300 -302 388 0
-304 -306 -390 0
304 306 -390 0
-304 306 390 0
304 -306 390 0
-308 -310 -392 0
308 310 -392 0
-308 310 392 0
308 -310 392 0
-312 -314 -431 0
312 314 -431 0
-312 314 431 0
312 -314 431 0
-323 -325 -397 0
323 325 -397 0
-323 325 397 0
323 -325 397 0
-329 -331 -400 0
329 331 -400 0
-329 331 400 0
329 -331 400 0
-333 -335 -402 0
333 335 -402 0
-333 335 402 0
333 -335 402 0
-339 -341 -405 0
339 341 -405 0
-339 341 405 0
339 -341 405 0
-344 -346 -407 0
344 346 -407 0
-344 346 407 0
344 -346 407 0
-348 -350 -408 0
348 350 -408 0
-348 350 408 0
348 -350 408 0
-354 -356 -410 0
354 356 -410 0
-354 356 410 0
354 -356 410 0
-358 -360 -412 0
358 360 -412 0
-358 360 412 0
358 -360 412 0
-362 -364 -414 0
362 364 -414 0
-362 364 414 0
362 -364 414 0
-366 -368 -416 0
366 368 -416 0
-366 368 416 0
366 -368 416 0
-370 -372 -418 0
370 372 -418 0
-370 372 418 0
370 -372 418 0
-374 -376 -420 0
374 376 -420 0
-374 376 420 0
374 -376 420 0
-378 -379 -422 0
378 379 -422 0
-378 379 422 0
378 -379 422 0
-377 -380 -424 0
377 380 -424 0
-377 380 424 0
377 -380 424 0
-382 -384 -426 0
382 384 -426 0
-382 384 426 0
382 -384 426 0
-386 -388 -428 0
386 388 -428 0
-386 388 428 0
386 -388 428 0
-390 -392 -430 0
390 392 -430 0
-390 392 430 0
390 -392 430 0
-394 -395 -432 0
394 395 -432 0
-394 395 432 0
394 -395 432 0
-396 -397 -434 0
396 397 -434 0
-396 397 434 0
396 -397 434 0
-398 -399 -436 0
398 399 -436 0
-398 399 436 0
398 -399 436 0
-400 -402 -438 0
400 402 -438 0
-400 402 438 0
400 -402 438 0
-404 -405 -440 0
404 405 -440 0
-404 405 440 0
404 -405 440 0
-406 -407 -442 0
406 407 -442 0
-406 407 442 0
406 -407 442 0
-408 -409 -444 0
408 409 -444 0
-408 409 444 0
408 -409 444 0
-410 -412 -446 0
410 412 -446 0
-410 412 446 0
410 -412 446 0
-414 -416 -448 0
414 416 -448 0
-414 416 448 0
414 -416 448 0
-418 -420 -450 0
418 420 -450 0
-418 420 450 0
418 -420 450 0
-422 -424 -452 0
422 424 -452 0
-422 424 452 0
422 -424 452 0
-426 -428 -454 0
426 428 -454 0
-426 428 454 0
426 -428 454 0
-430 -431 -456 0
430 431 -456 0
-430 431 456 0
430 -431 456 0
-432 -434 -458 0
432 434 -458 0
-432 434 458 0
432 -434 458 0
-436 -438 -460 0
436 438 -460 0
-436 438 460 0
436 -438 460 0
-440 -442 -462 0
440 442 -462 0
-440 442 462 0
440 -442 462 0
-444 -446 -464 0
444 446 -464 0
-444 446 464 0
444 -446 464 0
-448 -450 -466 0
448 450 -466 0
-448 450 466 0
448 -450 466 0
-452 -454 -468 0
452 454 -468 0
-452 454 468 0
452 -454 468 0
-456 -458 -470 0
456 458 -470 0
-456 458 470 0
456 -458 470 0
-460 -462 -472 0
460 462 -472 0
-460 462 472 0
460 -462 472 0
-464 -466 -474 0
464 466 -474 0
-464 466 474 0
464 -466 474 0
-468 -470 -476 0
468 470 -476 0
-468 470 476 0
468 -470 476 0
-472 -474 -476 0
472 474 -476 0
-472 474 476 0
472 -474 476 0
-33 -42 -479 0
33 42 -479 0
-33 42 479 0
33 -42 479 0
-51 -60 -481 0
51 60 -481 0
-51 60 481 0
51 -60 481 0
-69 -78 -483 0
69 78 -483 0
-69 78 483 0
69 -78 483 0
-87 -381 -485 0
87 381 -485 0
-87 381 485 0
87 -381 485 0
-383 -385 -487 0
383 385 -487 0
-383 385 487 0
383 -385 487 0
-387 -389 -489 0
387 389 -489 0
-387 389 489 0
387 -389 489 0
-391 -393 -491 0
391 393 -491 0
-391 393 491 0
391 -393 491 0
-401 -403 -494 0
401 403 -494 0
-401 403 494 0
401 -403 494 0
-411 -413 -498 0
411 413 -498 0
-411 413 498 0
411 -413 498 0
-415 -417 -499 0
415 417 -499 0
-415 417 499 0
415 -417 499 0
-419 -421 -501 0
419 421 -501 0
-419 421 501 0
419 -421 501 0
-423 -425 -503 0
423 425 -503 0
-423 425 503 0
423 -425 503 0
-427 -429 -505 0
427 429 -505 0
-427 429 505 0
427 -429 505 0
-433 -435 -508 0
433 435 -508 0
-433 435 508 0
433 -435 508 0
-437 -439 -509 0
437 439 -509 0
-437 439 509 0
437 -439 509 0
-441 -443 -511 0
441 443 -511 0
-441 443 511 0
441 -443 511 0
-445 -447 -513 0
445 447 -513 0
-445 447 513 0
445 -447 513 0
-449 -451 -515 0
449 451 -515 0
-449 451 515 0
449 -451 515 0
-453 -455 -517 0
453 455 -517 0
-453 455 517 0
453 -455 517 0
-457 -459 -519 0
457 459 -519 0
-457 459 519 0
457 -459 519 0
-461 -463 -521 0
461 463 -521 0
-461 463 521 0
461 -463 521 0
-465 -467 -523 0
465 467 -523 0
-465 467 523 0
465 -467 523 0
-469 -471 -525 0
469 471 -525 0
-469 471 525 0
469 -471 525 0
-473 -475 -527 0
473 475 -527 0
-473 475 527 0
473 -475 527 0
-477 -478 -529 0
477 478 -529 0
-477 478 529 0
477 -478 529 0
-476 -479 -531 0
476 479 -531 0
-476 479 531 0
476 -479 531 0
-481 -483 -533 0
481 483 -533 0
-481 483 533 0
481 -483 533 0
-485 -487 -535 0
485 487 -535 0
-485 487 535 0
485 -487 535 0
-489 -491 -537 0
489 491 -537 0
-489 491 537 0
489 -491 537 0
-494 -495 -538 0
494 495 -538 0
-494 495 538 0
494 -495 538 0
-496 -497 -539 0
496 497 -539 0
-496 497 539 0
496 -497 539 0
-498 -499 -541 0
498 499 -541 0
-498 499 541 0
498 -499 541 0
-501 -503 -543 0
501 503 -543 0
-501 503 543 0
501 -503 543 0
-505 -507 -545 0
505 507 -545 0
-505 507 545 0
505 -507 545 0
-508 -509 -547 0
508 509 -547 0
-508 509 547 0
508 -509 547 0
-511 -513 -549 0
511 513 -549 0
-511 513 549 0
511 -513 549 0
-515 -517 -551 0
515 517 -551 0
-515 517 551 0
515 -517 551 0
-519 -521 -553 0
519 521 -553 0
-519 521 553 0
519 -521 553 0
-523 -525 -555 0
523 525 -555 0
-523 525 555 0
523 -525 555 0
-527 -529 -557 0
527 529 -557 0
-527 529 557 0
527 -529 557 0
-531 -533 -559 0
531 533 -559 0
-531 533 559 0
531 -533 559 0
-535 -537 -561 0
535 537 -561 0
-535 537 561 0
535 -537 561 0
-492 -493 -563 0
492 493 -563 0
-492 493 563 0
492 -493 563 0
-538 -539 -565 0
538 539 -565 0
-538 539 565 0
538 -539 565 0
-541 -543 -567 0
541 543 -567 0
-541 543 567 0
541 -543 567 0
-545 -547 -569 0
545 547 -569 0
-545 547 569 0
545 -547 569 0
-549 -551 -571 0
549 551 -571 0
-549 551 571 0
549 -551 571 0
-553 -555 -573 0
553 555 -573 0
-553 555 573 0
553 -555 573 0
-557 -559 -575 0
557 559 -575 0
-557 559 575 0
557 -559 575 0
-561 -563 -577 0
561 563 -577 0
-561 563 577 0
561 -563 577 0
-565 -567 -579 0
565 567 -579 0
-565 567 579 0
565 -567 579 0
-569 -571 -581 0
569 571 -581 0
-569 571 581 0
569 -571 581 0
-573 -575 -583 0
573 575 -583 0
-573 575 583 0
573 -575 583 0
-577 -579 -585 0
577 579 -585 0
-577 579 585 0
577 -579 585 0
-581 -583 -585 0
581 583 -585 0
-581 583 585 0
581 -583 585 0
-43 -52 -588 0
43 52 -588 0
-43 52 588 0
43 -52 588 0
-61 -70 -590 0
61 70 -590 0
-61 70 590 0
61 -70 590 0
-79 -88 -592 0
79 88 -592 0
-79 88 592 0
79 -88 592 0
-480 -482 -594 0
480 482 -594 0
-480 482 594 0
480 -482 594 0
-484 -486 -596 0
484 486 -596 0
-484 486 596 0
484 -486 596 0
-488 -490 -598 0
488 490 -598 0
-488 490 598 0
488 -490 598 0
-500 -502 -602 0
500 502 -602 0
-500 502 602 0
500 -502 602 0
-504 -506 -604 0
504 506 -604 0
-504 506 604 0
504 -506 604 0
-510 -512 -607 0
510 512 -607 0
-510 512 607 0
510 -512 607 0
-514 -516 -608 0
514 516 -608 0
-514 516 608 0
514 -516 608 0
-518 -520 -610 0
518 520 -610 0
-518 520 610 0
518 -520 610 0
-522 -524 -612 0
522 524 -612 0
-522 524 612 0
522 -524 612 0
-526 -528 -614 0
526 528 -614 0
-526 528 614 0
526 -528 614 0
-530 -532 -616 0
530 532 -616 0
-530 532 616 0
530 -532 616 0
-534 -536 -618 0
534 536 -618 0
-534 536 618 0
534 -536 618 0
-540 -542 -622 0
540 542 -622 0
-540 542 622 0
540 -542 622 0
-544 -546 -624 0
544 546 -624 0
-544 546 624 0
544 -546 624 0
-548 -550 -626 0
548 550 -626 0
-548 550 626 0
548 -550 626 0
-552 -554 -628 0
552 554 -628 0
-552 554 628 0
552 -554 628 0
-556 -558 -630 0
556 558 -630 0
-556 558 630 0
556 -558 630 0
-560 -562 -632 0
560 562 -632 0
-560 562 632 0
560 -562 632 0
-564 -566 -634 0
564 566 -634 0
-564 566 634 0
564 -566 634 0
-568 -570 -636 0
568 570 -636 0
-568 570 636 0
568 -570 636 0
-572 -574 -638 0
572 574 -638 0
-572 574 638 0
572 -574 638 0
-576 -578 -640 0
576 578 -640 0
-576 578 640 0
576 -578 640 0
-580 -582 -642 0
580 582 -642 0
-580 582 642 0
580 -582 642 0
-584 -586 -644 0
584 586 -644 0
-584 586 644 0
584 -586 644 0
-585 -587 -646 0
585 587 -646 0
585 -587 646 0
-585 587 646 0
-588 -590 -648 0
588 590 -648 0
-588 590 648 0
588 -590 648 0
-592 -594 -650 0
592 594 -650 0
-592 594 650 0
592 -594 650 0
-596 -598 -652 0
596 598 -652 0
-596 598 652 0
596 -598 652 0
-601 -602 -654 0
601 602 -654 0
-601 602 654 0
601 -602 654 0
-604 -606 -656 0
604 606 -656 0
-604 606 656 0
604 -606 656 0
-607 -608 -658 0
607 608 -658 0
-607 608 658 0
607 -608 658 0
-610 -612 -660 0
610 612 -660 0
-610 612 660 0
610 -612 660 0
-614 -616 -662 0
614 616 -662 0
-614 616 662 0
614 -616 662 0
-618 -620 -664 0
618 620 -664 0
-618 620 664 0
618 -620 664 0
-621 -622 -666 0
621 622 -666 0
-621 622 666 0
621 -622 666 0
-624 -626 -668 0
624 626 -668 0
-624 626 668 0
624 -626 668 0
-628 -630 -670 0
628 630 -670 0
-628 630 670 0
628 -630 670 0
-632 -634 -672 0
632 634 -672 0
-632 634 672 0
632 -634 672 0
-636 -638 -674 0
636 638 -674 0
-636 638 674 0
636 -638 674 0
-640 -642 -676 0
640 642 -676 0
-640 642 676 0
640 -642 676 0
-644 -646 -678 0
644 646 -678 0
-644 646 678 0
644 -646 678 0
-648 -650 -680 0
648 650 -680 0
-648 650 680 0
648 -650 680 0
-599 -652 -682 0
599 652 -682 0
599 -652 682 0
-599 652 682 0
-600 -654 -684 0
600 654 -684 0
-600 654 684 0
600 -654 684 0
-656 -658 -686 0
656 658 -686 0
-656 658 686 0
656 -658 686 0
-660 -662 -688 0
660 662 -688 0
-660 662 688 0
660 -662 688 0
-664 -666 -690 0
664 666 -690 0
-664 666 690 0
664 -666 690 0
-668 -670 -692 0
668 670 -692 0
-668 670 692 0
668 -670 692 0
-672 -674 -694 0
672 674 -694 0
-672 674 694 0
672 -674 694 0
-676 -678 -696 0
676 678 -696 0
-676 678 696 0
676 -678 696 0
-680 -682 -698 0
680 682 -698 0
-680 682 698 0
680 -682 698 0
-684 -686 -700 0
684 686 -700 0
-684 686 700 0
684 -686 700 0
-688 -690 -702 0
688 690 -702 0
-688 690 702 0
688 -690 702 0
-692 -694 -704 0
692 694 -704 0
-692 694 704 0
692 -694 704 0
-696 -698 -706 0
696 698 -706 0
-696 698 706 0
696 -698 706 0
-700 -702 -708 0
700 702 -708 0
-700 702 708 0
700 -702 708 0
-704 -706 708 0
704 706 708 0
-704 706 -708 0
704 -706 -708 0
-53 -62 -710 0
53 62 -710 0
-53 62 710 0
53 -62 710 0
-71 -80 -712 0
71 80 -712 0
-71 80 712 0
71 -80 712 0
-89 -589 -714 0
89 589 -714 0
-89 589 714 0
89 -589 714 0
-591 -593 -716 0
591 593 -716 0
-591 593 716 0
591 -593 716 0
-595 -597 -718 0
595 597 -718 0
-595 597 718 0
595 -597 718 0
-603 -605 -720 0
603 605 -720 0
-603 605 720 0
603 -605 720 0
-609 -611 -722 0
609 611 -722 0
-609 611 722 0
609 -611 722 0
-613 -615 -724 0
613 615 -724 0
-613 615 724 0
613 -615 724 0
-617 -619 -776 0
617 619 -776 0
-617 619 776 0
617 -619 776 0
-623 -625 -726 0
623 625 -726 0
-623 625 726 0
623 -625 726 0
-627 -629 -728 0
627 629 -728 0
-627 629 728 0
627 -629 728 0
-631 -633 -730 0
631 633 -730 0
-631 633 730 0
631 -633 730 0
-635 -637 -732 0
635 637 -732 0
-635 637 732 0
635 -637 732 0
-639 -641 -734 0
639 641 -734 0
-639 641 734 0
639 -641 734 0
-643 -645 -736 0
643 645 -736 0
-643 645 736 0
643 -645 736 0
-647 -649 -738 0
647 649 -738 0
-647 649 738 0
647 -649 738 0
-651 -653 -740 0
651 653 -740 0
-651 653 740 0
651 -653 740 0
-655 -657 -783 0
655 657 -783 0
-655 657 783 0
655 -657 783 0
-659 -661 -742 0
659 661 -742 0
-659 661 742 0
659 -661 742 0
-663 -665 -744 0
663 665 -744 0
-663 665 744 0
663 -665 744 0
-667 -669 -746 0
667 669 -746 0
-667 669 746 0
667 -669 746 0
-671 -673 -748 0
671 673 -748 0
-671 673 748 0
671 -673 748 0
-675 -677 -750 0
675 677 -750 0
-675 677 750 0
675 -677 750 0
-679 -681 -752 0
679 681 -752 0
-679 681 752 0
679 -681 752 0
-683 -685 -754 0
683 685 -754 0
-683 685 754 0
683 -685 754 0
-687 -689 -756 0
687 689 -756 0
-687 689 756 0
687 -689 756 0
-691 -693 -758 0
691 693 -758 0
-691 693 758 0
691 -693 758 0
-695 -697 -760 0
695 697 -760 0
-695 697 760 0
695 -697 760 0
-699 -701 -762 0
699 701 -762 0
-699 701 762 0
699 -701 762 0
-703 -705 -764 0
703 705 -764 0
-703 705 764 0
703 -705 764 0
-707 -709 -766 0
707 709 -766 0
-707 709 766 0
707 -709 766 0
-710 -712 -768 0
710 712 -768 0
-710 712 768 0
710 -712 768 0
-714 -716 -770 0
714 716 -770 0
-714 716 770 0
714 -716 770 0
-718 -719 -800 0
718 719 -800 0
-718 719 800 0
718 -719 800 0
-720 -721 -772 0
720 721 -772 0
-720 721 772 0
720 -721 772 0
-722 -724 -774 0
722 724 -774 0
-722 724 774 0
722 -724 774 0
-726 -728 -777 0
726 728 -777 0
-726 728 777 0
726 -728 777 0
-730 -732 -778 0
730 732 -778 0
-730 732 778 0
730 -732 778 0
-734 -736 -780 0
734 736 -780 0
-734 736 780 0
734 -736 780 0
-738 -740 -782 0
738 740 -782 0
-738 740 782 0
738 -740 782 0
-742 -744 -784 0
742 744 -784 0
-742 744 784 0
742 -744 784 0
-746 -748 -786 0
746 748 -786 0
-746 748 786 0
746 -748 786 0
-750 -752 -788 0
750 752 -788 0
-750 752 788 0
750 -752 788 0
-754 -756 -790 0
754 756 -790 0
-754 756 790 0
754 -756 790 0
-758 -760 -792 0
758 760 -792 0
-758 760 792 0
758 -760 792 0
-762 -764 -794 0
762 764 -794 0
-762 764 794 0
762 -764 794 0
-766 -767 -796 0
766 767 -796 0
-766 767 796 0
766 -767 796 0
-768 -770 -798 0
768 770 -798 0
-768 770 798 0
768 -770 798 0
-772 -774 -801 0
772 774 -801 0
-772 774 801 0
772 -774 801 0
-776 -777 -802 0
776 777 -802 0
-776 777 802 0
776 -777 802 0
-778 -780 -804 0
778 780 -804 0
-778 780 804 0
778 -780 804 0
-782 -783 -806 0
782 783 -806 0
-782 783 806 0
782 -783 806 0
-784 -786 -808 0
784 786 -808 0
-784 786 808 0
784 -786 808 0
-788 -790 -810 0
788 790 -810 0
-788 790 810 0
788 -790 810 0
-792 -794 -812 0
792 794 -812 0
-792 794 812 0
792 -794 812 0
-796 -798 -814 0
796 798 -814 0
-796 798 814 0
796 -798 814 0
-800 -801 -816 0
800 801 -816 0
-800 801 816 0
800 -801 816 0
-802 -804 -818 0
802 804 -818 0
-802 804 818 0
802 -804 818 0
-806 -808 -820 0
806 808 -820 0
-806 808 820 0
806 -808 820 0
-810 -812 -822 0
810 812 -822 0
-810 812 822 0
810 -812 822 0
-814 -816 -824 0
814 816 -824 0
-814 816 824 0
814 -816 824 0
-818 -820 -826 0
818 820 -826 0
-818 820 826 0
818 -820 826 0
-822 -824 -826 0
822 824 -826 0
-822 824 826 0
822 -824 826 0
-63 -72 -829 0
63 72 -829 0
-63 72 829 0
63 -72 829 0
-81 -90 -831 0
81 90 -831 0
-81 90 831 0
81 -90 831 0
-711 -713 -833 0
711 713 -833 0
-711 713 833 0
711 -713 833 0
-715 -717 -835 0
715 717 -835 0
-715 717 835 0
715 -717 835 0
-723 -725 -837 0
723 725 -837 0
-723 725 837 0
723 -725 837 0
-727 -729 -839 0
727 729 -839 0
-727 729 839 0
727 -729 839 0
-731 -733 -841 0
731 733 -841 0
-731 733 841 0
731 -733 841 0
-735 -737 -843 0
735 737 -843 0
-735 737 843 0
735 -737 843 0
-739 -741 -845 0
739 741 -845 0
-739 741 845 0
739 -741 845 0
-743 -745 -848 0
743 745 -848 0
-743 745 848 0
743 -745 848 0
-747 -749 -849 0
747 749 -849 0
-747 749 849 0
747 -749 849 0
-751 -753 -851 0
751 753 -851 0
-751 753 851 0
751 -753 851 0
-755 -757 -853 0
755 757 -853 0
-755 757 853 0
755 -757 853 0
-759 -761 -855 0
759 761 -855 0
-759 761 855 0
759 -761 855 0
-763 -765 -857 0
763 765 -857 0
-763 765 857 0
763 -765 857 0
-769 -771 -859 0
769 771 -859 0
-769 771 859 0
769 -771 859 0
-773 -775 -861 0
773 775 -861 0
-773 775 861 0
773 -775 861 0
-779 -781 -863 0
779 781 -863 0
-779 781 863 0
779 -781 863 0
-785 -787 -865 0
785 787 -865 0
-785 787 865 0
785 -787 865 0
-789 -791 -867 0
789 791 -867 0
-789 791 867 0
789 -791 867 0
-793 -795 -869 0
793 795 -869 0
-793 795 869 0
793 -795 869 0
-797 -799 -871 0
797 799 -871 0
-797 799 871 0
797 -799 871 0
-803 -805 -874 0
803 805 -874 0
-803 805 874 0
803 -805 874 0
-807 -809 -875 0
807 809 -875 0
-807 809 875 0
807 -809 875 0
-811 -813 -877 0
811 813 -877 0
-811 813 877 0
811 -813 877 0
-815 -817 -879 0
815 817 -879 0
-815 817 879 0
815 -817 879 0
-819 -821 -881 0
819 821 -881 0
-819 821 881 0
819 -821 881 0
-823 -825 -883 0
823 825 -883 0
-823 825 883 0
823 -825 883 0
-827 -828 -885 0
827 828 -885 0
-827 828 885 0
827 -828 885 0
-826 -829 -887 0
826 829 -887 0
-826 829 887 0
826 -829 887 0
-831 -833 -889 0
831 833 -889 0
-831 833 889 0
831 -833 889 0
-835 -836 -891 0
835 836 -891 0
-835 836 891 0
835 -836 891 0
-837 -838 -893 0
837 838 -893 0
-837 838 893 0
837 -838 893 0
-839 -841 -895 0
839 841 -895 0
-839 841 895 0
839 -841 895 0
-843 -845 -897 0
843 845 -897 0
-843 845 897 0
843 -845 897 0
-847 -848 -899 0
847 848 -899 0
-847 848 899 0
847 -848 899 0
-849 -851 -901 0
849 851 -901 0
-849 851 901 0
849 -851 901 0
-853 -855 -903 0
853 855 -903 0
-853 855 903 0
853 -855 903 0
-857 -858 -905 0
857 858 -905 0
-857 858 905 0
857 -858 905 0
-859 -860 -907 0
859 860 -907 0
-859 860 907 0
859 -860 907 0
-861 -862 -909 0
861 862 -909 0
-861 862 909 0
861 -862 909 0
-863 -864 -911 0
863 864 -911 0
-863 864 911 0
863 -864 911 0
-865 -867 -913 0
865 867 -913 0
-865 867 913 0
865 -867 913 0
-869 -871 -915 0
869 871 -915 0
-869 871 915 0
869 -871 915 0
-873 -874 -917 0
873 874 -917 0
-873 874 917 0
873 -874 917 0
-875 -877 -919 0
875 877 -919 0
-875 877 919 0
875 -877 919 0
-879 -881 -921 0
879 881 -921 0
-879 881 921 0
879 -881 921 0
-883 -885 -923 0
883 885 -923 0
-883 885 923 0
883 -885 923 0
-887 -889 -925 0
887 889 -925 0
-887 889 925 0
887 -889 925 0
-891 -892 -927 0
891 892 -927 0
-891 892 927 0
891 -892 927 0
-893 -895 -929 0
893 895 -929 0
-893 895 929 0
893 -895 929 0
-897 -899 -931 0
897 899 -931 0
-897 899 931 0
897 -899 931 0
-901 -903 -933 0
901 903 -933 0
-901 903 933 0
901 -903 933 0
-905 -907 -935 0
905 907 -935 0
-905 907 935 0
905 -907 935 0
-909 -911 -937 0
909 911 -937 0
-909 911 937 0
909 -911 937 0
-913 -915 -939 0
913 915 -939 0
-913 915 939 0
913 -915 939 0
-917 -919 -941 0
917 919 -941 0
-917 919 941 0
917 -919 941 0
-921 -923 -943 0
921 923 -943 0
-921 923 943 0
921 -923 943 0
-925 -927 -945 0
925 927 -945 0
-925 927 945 0
925 -927 945 0
-929 -931 -947 0
929 931 -947 0
-929 931 947 0
929 -931 947 0
-933 -935 -949 0
933 935 -949 0
-933 935 949 0
933 -935 949 0
-937 -939 -951 0
937 939 -951 0
-937 939 951 0
937 -939 951 0
-941 -943 -953 0
941 943 -953 0
-941 943 953 0
941 -943 953 0
-945 -947 -955 0
945 947 -955 0
-945 947 955 0
945 -947 955 0
-949 -951 -957 0
949 951 -957 0
-949 951 957 0
949 -951 957 0
-953 -955 -957 0
953 955 -957 0
-953 955 957 0
953 -955 957 0
-73 -82 -960 0
73 82 -960 0
-73 82 960 0
73 -82 960 0
-91 -830 -962 0
91 830 -962 0
-91 830 962 0
91 -830 962 0
-832 -834 -964 0
832 834 -964 0
-832 834 964 0
832 -834 964 0
-840 -842 -967 0
840 842 -967 0
-840 842 967 0
840 -842 967 0
-844 -846 -969 0
844 846 -969 0
-844 846 969 0
844 -846 969 0
-850 -852 -972 0
850 852 -972 0
-850 852 972 0
850 -852 972 0
-854 -856 -973 0
854 856 -973 0
-854 856 973 0
854 -856 973 0
-866 -868 -978 0
866 868 -978 0
-866 868 978 0
866 -868 978 0
-870 -872 -979 0
870 872 -979 0
-870 872 979 0
870 -872 979 0
-876 -878 -981 0
876 878 -981 0
-876 878 981 0
876 -878 981 0
-880 -882 -983 0
880 882 -983 0
-880 882 983 0
880 -882 983 0
-884 -886 -985 0
884 886 -985 0
-884 886 985 0
884 -886 985 0
-888 -890 -987 0
888 890 -987 0
-888 890 987 0
888 -890 987 0
-894 -896 -990 0
894 896 -990 0
-894 896 990 0
894 -896 990 0
-898 -900 -991 0
898 900 -991 0
-898 900 991 0
898 -900 991 0
-902 -904 -993 0
902 904 -993 0
-902 904 993 0
902 -904 993 0
-906 -908 -995 0
906 908 -995 0
-906 908 995 0
906 -908 995 0
-910 -912 -997 0
910 912 -997 0
-910 912 997 0
910 -912 997 0
-914 -916 -999 0
914 916 -999 0
-914 916 999 0
914 -916 999 0
-918 -920 -1001 0
918 920 -1001 0
-918 920 1001 0
918 -920 1001 0
-922 -924 -1003 0
922 924 -1003 0
-922 924 1003 0
922 -924 1003 0
-926 -928 -1005 0
926 928 -1005 0
-926 928 1005 0
926 -928 1005 0
-930 -932 -1007 0
930 932 -1007 0
-930 932 1007 0
930 -932 1007 0
-934 -936 -1009 0
934 936 -1009 0
-934 936 1009 0
934 -936 1009 0
-938 -940 -1011 0
938 940 -1011 0
-938 940 1011 0
938 -940 1011 0
-942 -944 -1013 0
942 944 -1013 0
-942 944 1013 0
942 -944 1013 0
-946 -948 -1015 0
946 948 -1015 0
-946 948 1015 0
946 -948 1015 0
-950 -952 -1017 0
950 952 -1017 0
-950 952 1017 0
950 -952 1017 0
-954 -956 -1019 0
954 956 -1019 0
-954 956 1019 0
954 -956 1019 0
-958 -959 -1021 0
958 959 -1021 0
-958 959 1021 0
958 -959 1021 0
-957 -960 -1023 0
957 960 -1023 0
-957 960 1023 0
957 -960 1023 0
-962 -964 -1025 0
962 964 -1025 0
-962 964 1025 0
962 -964 1025 0
-966 -967 -1027 0
966 967 -1027 0
-966 967 1027 0
966 -967 1027 0
-969 -971 -1028 0
969 971 -1028 0
-969 971 1028 0
969 -971 1028 0
-972 -973 -1030 0
972 973 -1030 0
-972 973 1030 0
972 -973 1030 0
-974 -975 -1032 0
974 975 -1032 0
-974 975 1032 0
974 -975 1032 0
-976 -977 -1034 0
976 977 -1034 0
-976 977 1034 0
976 -977 1034 0
-978 -979 -1036 0
978 979 -1036 0
-978 979 1036 0
978 -979 1036 0
-980 -981 -1038 0
980 981 -1038 0
-980 981 1038 0
980 -981 1038 0
-983 -985 -1040 0
983 985 -1040 0
-983 985 1040 0
983 -985 1040 0
-987 -989 -1042 0
987 989 -1042 0
-987 989 1042 0
987 -989 1042 0
-990 -991 -1044 0
990 991 -1044 0
-990 991 1044 0
990 -991 1044 0
-993 -995 -1046 0
993 995 -1046 0
-993 995 1046 0
993 -995 1046 0
-997 -999 -1048 0
997 999 -1048 0
-997 999 1048 0
997 -999 1048 0
-1001 -1003 -1050 0
1001 1003 -1050 0
-1001 1003 1050 0
1001 -1003 1050 0
-1005 -1007 -1052 0
1005 1007 -1052 0
-1005 1007 1052 0
1005 -1007 1052 0
-1009 -1011 -1054 0
1009 1011 -1054 0
-1009 1011 1054 0
1009 -1011 1054 0
-1013 -1015 -1056 0
1013 1015 -1056 0
-1013 1015 1056 0
1013 -1015 1056 0
-1017 -1019 -1058 0
1017 1019 -1058 0
-1017 1019 1058 0
1017 -1019 1058 0
-1021 -1023 -1060 0
1021 1023 -1060 0
-1021 1023 1060 0
1021 -1023 1060 0
-965 -1025 -1062 0
965 1025 -1062 0
965 -1025 1062 0
-965 1025 1062 0
-1027 -1028 -1064 0
1027 1028 -1064 0
-1027 1028 1064 0
1027 -1028 1064 0
-1030 -1032 -1066 0
1030 1032 -1066 0
-1030 1032 1066 0
1030 -1032 1066 0
-1034 -1036 -1068 0
1034 1036 -1068 0
-1034 1036 1068 0
1034 -1036 1068 0
-1038 -1040 -1070 0
1038 1040 -1070 0
-1038 1040 1070 0
1038 -1040 1070 0
-1042 -1044 -1072 0
1042 1044 -1072 0
-1042 1044 1072 0
1042 -1044 1072 0
-1046 -1048 -1074 0
1046 1048 -1074 0
-1046 1048 1074 0
1046 -1048 1074 0
-1050 -1052 -1076 0
1050 1052 -1076 0
-1050 1052 1076 0
1050 -1052 1076 0
-1054 -1056 -1078 0
1054 1056 -1078 0
-1054 1056 1078 0
1054 -1056 1078 0
-1058 -1060 -1080 0
1058 1060 -1080 0
-1058 1060 1080 0
1058 -1060 1080 0
-1062 -1064 -1082 0
1062 1064 -1082 0
-1062 1064 1082 0
1062 -1064 1082 0
-1066 -1068 -1084 0
1066 1068 -1084 0
-1066 1068 1084 0
1066 -1068 1084 0
-1070 -1072 -1086 0
1070 1072 -1086 0
-1070 1072 1086 0
1070 -1072 1086 0
-1074 -1076 -1088 0
1074 1076 -1088 0
-1074 1076 1088 0
1074 -1076 1088 0
-1078 -1080 -1090 0
1078 1080 -1090 0
-1078 1080 1090 0
1078 -1080 1090 0
-1082 -1084 -1092 0
1082 1084 -1092 0
-1082 1084 1092 0
1082 -1084 1092 0
-1086 -1088 -1094 0
1086 1088 -1094 0
-1086 1088 1094 0
1086 -1088 1094 0
-1090 -1092 1094 0
1090 1092 1094 0
-1090 1092 -1094 0
1090 -1092 -1094 0
-83 -92 -1096 0
83 92 -1096 0
-83 92 1096 0
83 -92 1096 0
-961 -963 -1098 0
961 963 -1098 0
-961 963 1098 0
961 -963 1098 0
-968 -970 -1100 0
968 970 -1100 0
-968 970 1100 0
968 -970 1100 0
-982 -984 -1105 0
982 984 -1105 0
-982 984 1105 0
982 -984 1105 0
-986 -988 -1106 0
986 988 -1106 0
-986 988 1106 0
986 -988 1106 0
-992 -994 -1108 0
992 994 -1108 0
-992 994 1108 0
992 -994 1108 0
-996 -998 -1110 0
996 998 -1110 0
-996 998 1110 0
996 -998 1110 0
-1000 -1002 -1112 0
1000 1002 -1112 0
-1000 1002 1112 0
1000 -1002 1112 0
-1004 -1006 -1114 0
1004 1006 -1114 0
-1004 1006 1114 0
1004 -1006 1114 0
-1008 -1010 -1116 0
1008 1010 -1116 0
-1008 1010 1116 0
1008 -1010 1116 0
-1012 -1014 -1118 0
1012 1014 -1118 0
-1012 1014 1118 0
1012 -1014 1118 0
-1016 -1018 -1120 0
1016 1018 -1120 0
-1016 1018 1120 0
1016 -1018 1120 0
-1020 -1022 -1122 0
1020 1022 -1122 0
-1020 1022 1122 0
1020 -1022 1122 0
-1024 -1026 -1124 0
1024 1026 -1124 0
-1024 1026 1124 0
1024 -1026 1124 0
-1029 -1031 -1126 0
1029 1031 -1126 0
-1029 1031 1126 0
1029 -1031 1126 0
-1033 -1035 -1128 0
1033 1035 -1128 0
-1033 1035 1128 0
1033 -1035 1128 0
-1037 -1039 -1130 0
1037 1039 -1130 0
-1037 1039 1130 0
1037 -1039 1130 0
-1041 -1043 -1132 0
1041 1043 -1132 0
-1041 1043 1132 0
1041 -1043 1132 0
-1045 -1047 -1134 0
1045 1047 -1134 0
-1045 1047 1134 0
1045 -1047 1134 0
-1049 -1051 -1136 0
1049 1051 -1136 0
-1049 1051 1136 0
1049 -1051 1136 0
-1053 -1055 -1138 0
1053 1055 -1138 0
-1053 1055 1138 0
1053 -1055 1138 0
-1057 -1059 -1140 0
1057 1059 -1140 0
-1057 1059 1140 0
1057 -1059 1140 0
-1061 -1063 -1142 0
1061 1063 -1142 0
-1061 1063 1142 0
1061 -1063 1142 0
-1065 -1067 -1144 0
1065 1067 -1144 0
-1065 1067 1144 0
1065 -1067 1144 0
-1069 -1071 -1146 0
1069 1071 -1146 0
-1069 1071 1146 0
1069 -1071 1146 0
-1073 -1075 -1148 0
1073 1075 -1148 0
-1073 1075 1148 0
1073 -1075 1148 0
-1077 -1079 -1150 0
1077 1079 -1150 0
-1077 1079 1150 0
1077 -1079 1150 0
-1081 -1083 -1152 0
1081 1083 -1152 0
-1081 1083 1152 0
1081 -1083 1152 0
-1085 -1087 -1154 0
1085 1087 -1154 0
-1085 1087 1154 0
1085 -1087 1154 0
-1089 -1091 -1156 0
1089 1091 -1156 0
-1089 1091 1156 0
1089 -1091 1156 0
-1093 -1095 -1158 0
1093 1095 -1158 0
-1093 1095 1158 0
1093 -1095 1158 0
-1096 -1098 -1160 0
1096 1098 -1160 0
-1096 1098 1160 0
1096 -1098 1160 0
-1100 -1101 -1161 0
1100 1101 -1161 0
-1100 1101 1161 0
1100 -1101 1161 0
-1103 -1104 -1162 0
1103 1104 -1162 0
-1103 1104 1162 0
1103 -1104 1162 0
-1105 -1106 -1164 0
1105 1106 -1164 0
-1105 1106 1164 0
1105 -1106 1164 0
-1107 -1108 -1166 0
1107 1108 -1166 0
-1107 1108 1166 0
1107 -1108 1166 0
-1110 -1112 -1168 0
1110 1112 -1168 0
-1110 1112 1168 0
1110 -1112 1168 0
-1114 -1116 -1170 0
1114 1116 -1170 0
-1114 1116 1170 0
1114 -1116 1170 0
-1118 -1120 -1172 0
1118 1120 -1172 0
-1118 1120 1172 0
1118 -1120 1172 0
-1122 -1124 -1174 0
1122 1124 -1174 0
-1122 1124 1174 0
1122 -1124 1174 0
-1125 -1126 -1176 0
1125 1126 -1176 0
-1125 1126 1176 0
1125 -1126 1176 0
-1128 -1130 -1178 0
1128 1130 -1178 0
-1128 1130 1178 0
1128 -1130 1178 0
-1132 -1134 -1180 0
1132 1134 -1180 0
-1132 1134 1180 0
1132 -1134 1180 0
-1136 -1138 -1182 0
1136 1138 -1182 0
-1136 1138 1182 0
1136 -1138 1182 0
-1140 -1142 -1184 0
1140 1142 -1184 0
-1140 1142 1184 0
1140 -1142 1184 0
-1144 -1146 -1186 0
1144 1146 -1186 0
-1144 1146 1186 0
1144 -1146 1186 0
-1148 -1150 -1188 0
1148 1150 -1188 0
-1148 1150 1188 0
1148 -1150 1188 0
-1152 -1154 -1190 0
1152 1154 -1190 0
-1152 1154 1190 0
1152 -1154 1190 0
-1156 -1158 -1192 0
1156 1158 -1192 0
-1156 1158 1192 0
1156 -1158 1192 0
-1159 -1160 -1194 0
1159 1160 -1194 0
-1159 1160 1194 0
1159 -1160 1194 0
-1099 -1161 -1196 0
1099 1161 -1196 0
-1099 1161 1196 0
1099 -1161 1196 0
-1102 -1162 -1198 0
1102 1162 -1198 0
-1102 1162 1198 0
1102 -1162 1198 0
-1164 -1166 -1200 0
1164 1166 -1200 0
-1164 1166 1200 0
1164 -1166 1200 0
-1168 -1170 -1202 0
1168 1170 -1202 0
-1168 1170 1202 0
1168 -1170 1202 0
-1172 -1174 -1204 0
1172 1174 -1204 0
-1172 1174 1204 0
1172 -1174 1204 0
-1176 -1178 -1206 0
1176 1178 -1206 0
-1176 1178 1206 0
1176 -1178 1206 0
-1180 -1182 -1208 0
1180 1182 -1208 0
-1180 1182 1208 0
1180 -1182 1208 0
-1184 -1186 -1210 0
1184 1186 -1210 0
-1184 1186 1210 0
1184 -1186 1210 0
-1188 -1190 -1212 0
1188 1190 -1212 0
-1188 1190 1212 0
1188 -1190 1212 0
-1192 -1194 -1214 0
1192 1194 -1214 0
-1192 1194 1214 0
1192 -1194 1214 0
-1196 -1198 -1216 0
1196 1198 -1216 0
-1196 1198 1216 0
1196 -1198 1216 0
-1200 -1202 -1218 0
1200 1202 -1218 0
-1200 1202 1218 0
1200 -1202 1218 0
-1204 -1206 -1220 0
1204 1206 -1220 0
-1204 1206 1220 0
1204 -1206 1220 0
-1208 -1210 -1222 0
1208 1210 -1222 0
-1208 1210 1222 0
1208 -1210 1222 0
-1212 -1214 -1224 0
1212 1214 -1224 0
-1212 1214 1224 0
1212 -1214 1224 0
-1216 -1218 -1226 0
1216 1218 -1226 0
-1216 1218 1226 0
1216 -1218 1226 0
-1220 -1222 -1228 0
1220 1222 -1228 0
-1220 1222 1228 0
1220 -1222 1228 0
-1224 -1226 1228 0
1224 1226 1228 0
-1224 1226 -1228 0
1224 -1226 -1228 0
-93 -1097 -1230 0
93 1097 -1230 0
-93 1097 1230 0
93 -1097 1230 0
-1109 -1111 -1235 0
1109 1111 -1235 0
-1109 1111 1235 0
1109 -1111 1235 0
-1113 -1115 -1236 0
1113 1115 -1236 0
-1113 1115 1236 0
1113 -1115 1236 0
-1117 -1119 -1238 0
1117 1119 -1238 0
-1117 1119 1238 0
1117 -1119 1238 0
-1121 -1123 -1240 0
1121 1123 -1240 0
-1121 1123 1240 0
1121 -1123 1240 0
-1127 -1129 -1242 0
1127 1129 -1242 0
-1127 1129 1242 0
1127 -1129 1242 0
-1131 -1133 -1244 0
1131 1133 -1244 0
-1131 1133 1244 0
1131 -1133 1244 0
-1135 -1137 -1246 0
1135 1137 -1246 0
-1135 1137 1246 0
1135 -1137 1246 0
-1139 -1141 -1248 0
1139 1141 -1248 0
-1139 1141 1248 0
1139 -1141 1248 0
-1143 -1145 -1250 0
1143 1145 -1250 0
-1143 1145 1250 0
1143 -1145 1250 0
-1147 -1149 -1252 0
1147 1149 -1252 0
-1147 1149 1252 0
1147 -1149 1252 0
-1151 -1153 -1254 0
1151 1153 -1254 0
-1151 1153 1254 0
1151 -1153 1254 0
-1155 -1157 -1256 0
1155 1157 -1256 0
-1155 1157 1256 0
1155 -1157 1256 0
-1163 -1165 -1261 0
1163 1165 -1261 0
-1163 1165 1261 0
1163 -1165 1261 0
-1167 -1169 -1262 0
1167 1169 -1262 0
-1167 1169 1262 0
1167 -1169 1262 0
-1171 -1173 -1264 0
1171 1173 -1264 0
-1171 1173 1264 0
1171 -1173 1264 0
-1175 -1177 -1266 0
1175 1177 -1266 0
-1175 1177 1266 0
1175 -1177 1266 0
-1179 -1181 -1268 0
1179 1181 -1268 0
-1179 1181 1268 0
1179 -1181 1268 0
-1183 -1185 -1270 0
1183 1185 -1270 0
-1183 1185 1270 0
1183 -1185 1270 0
-1187 -1189 -1272 0
1187 1189 -1272 0
-1187 1189 1272 0
1187 -1189 1272 0
-1191 -1193 -1274 0
1191 1193 -1274 0
-1191 1193 1274 0
1191 -1193 1274 0
-1195 -1197 -1276 0
1195 1197 -1276 0
-1195 1197 1276 0
1195 -1197 1276 0
-1199 -1201 -1278 0
1199 1201 -1278 0
-1199 1201 1278 0
1199 -1201 1278 0
-1203 -1205 -1280 0
1203 1205 -1280 0
-1203 1205 1280 0
1203 -1205 1280 0
-1207 -1209 -1282 0
1207 1209 -1282 0
-1207 1209 1282 0
1207 -1209 1282 0
-1211 -1213 -1284 0
1211 1213 -1284 0
-1211 1213 1284 0
1211 -1213 1284 0
-1215 -1217 -1286 0
1215 1217 -1286 0
-1215 1217 1286 0
1215 -1217 1286 0
-1219 -1221 -1288 0
1219 1221 -1288 0
-1219 1221 1288 0
1219 -1221 1288 0
-1223 -1225 -1290 0
1223 1225 -1290 0
-1223 1225 1290 0
1223 -1225 1290 0
-1227 -1229 -1292 0
1227 1229 -1292 0
-1227 1229 1292 0
1227 -1229 1292 0
-1230 -1231 -1295 0
1230 1231 -1295 0
-1230 1231 1295 0
1230 -1231 1295 0
-1234 -1235 -1296 0
1234 1235 -1296 0
-1234 1235 1296 0
1234 -1235 1296 0
-1236 -1238 -1298 0
1236 1238 -1298 0
-1236 1238 1298 0
1236 -1238 1298 0
-1240 -1241 -1300 0
1240 1241 -1300 0
-1240 1241 1300 0
1240 -1241 1300 0
-1242 -1244 -1302 0
1242 1244 -1302 0
-1242 1244 1302 0
1242 -1244 1302 0
-1246 -1248 -1304 0
1246 1248 -1304 0
-1246 1248 1304 0
1246 -1248 1304 0
-1250 -1252 -1306 0
1250 1252 -1306 0
-1250 1252 1306 0
1250 -1252 1306 0
-1254 -1256 -1308 0
1254 1256 -1308 0
-1254 1256 1308 0
1254 -1256 1308 0
-1258 -1259 -1310 0
1258 1259 -1310 0
-1258 1259 1310 0
1258 -1259 1310 0
-1260 -1261 -1312 0
1260 1261 -1312 0
-1260 1261 1312 0
1260 -1261 1312 0
-1262 -1264 -1314 0
1262 1264 -1314 0
-1262 1264 1314 0
1262 -1264 1314 0
-1266 -1268 -1316 0
1266 1268 -1316 0
-1266 1268 1316 0
1266 -1268 1316 0
-1270 -1272 -1318 0
1270 1272 -1318 0
-1270 1272 1318 0
1270 -1272 1318 0
-1274 -1276 -1320 0
1274 1276 -1320 0
-1274 1276 1320 0
1274 -1276 1320 0
-1278 -1280 -1322 0
1278 1280 -1322 0
-1278 1280 1322 0
1278 -1280 1322 0
-1282 -1284 -1324 0
1282 1284 -1324 0
-1282 1284 1324 0
1282 -1284 1324 0
-1286 -1288 -1326 0
1286 1288 -1326 0
-1286 1288 1326 0
1286 -1288 1326 0
-1290 -1292 -1328 0
1290 1292 -1328 0
-1290 1292 1328 0
1290 -1292 1328 0
-1294 -1295 -1330 0
1294 1295 -1330 0
-1294 1295 1330 0
1294 -1295 1330 0
-1232 -1233 -1332 0
1232 1233 -1332 0
-1232 1233 1332 0
1232 -1233 1332 0
-1296 -1298 -1334 0
1296 1298 -1334 0
-1296 1298 1334 0
1296 -1298 1334 0
-1300 -1302 -1336 0
1300 1302 -1336 0
-1300 1302 1336 0
1300 -1302 1336 0
-1304 -1306 -1338 0
1304 1306 -1338 0
-1304 1306 1338 0
1304 -1306 1338 0
-1308 -1310 -1340 0
1308 1310 -1340 0
-1308 1310 1340 0
1308 -1310 1340 0
-1312 -1314 -1342 0
1312 1314 -1342 0
-1312 1314 1342 0
1312 -1314 1342 0
-1316 -1318 -1344 0
1316 1318 -1344 0
-1316 1318 1344 0
1316 -1318 1344 0
-1320 -1322 -1346 0
1320 1322 -1346 0
-1320 1322 1346 0
1320 -1322 1346 0
-1324 -1326 -1348 0
1324 1326 -1348 0
-1324 1326 1348 0
1324 -1326 1348 0
-1328 -1330 -1350 0
1328 1330 -1350 0
-1328 1330 1350 0
1328 -1330 1350 0
-1332 -1334 -1352 0
1332 1334 -1352 0
-1332 1334 1352 0
1332 -1334 1352 0
-1336 -1338 -1354 0
1336 1338 -1354 0
-1336 1338 1354 0
1336 -1338 1354 0
-1340 -1342 -1356 0
1340 1342 -1356 0
-1340 1342 1356 0
1340 -1342 1356 0
-1344 -1346 -1358 0
1344 1346 -1358 0
-1344 1346 1358 0
1344 -1346 1358 0
-1348 -1350 -1360 0
1348 1350 -1360 0
-1348 1350 1360 0
1348 -1350 1360 0
-1352 -1354 -1362 0
1352 1354 -1362 0
-1352 1354 1362 0
1352 -1354 1362 0
-1356 -1358 -1364 0
1356 1358 -1364 0
-1356 1358 1364 0
1356 -1358 1364 0
-1360 -1362 1364 0
1360 1362 1364 0
-1360 1362 -1364 0
1360 -1362 -1364 0
-1237 -1239 -1369 0
1237 1239 -1369 0
-1237 1239 1369 0
1237 -1239 1369 0
-1243 -1245 -1371 0
1243 1245 -1371 0
-1243 1245 1371 0
1243 -1245 1371 0
-1247 -1249 -1373 0
1247 1249 -1373 0
-1247 1249 1373 0
1247 -1249 1373 0
-1251 -1253 -1375 0
1251 1253 -1375 0
-1251 1253 1375 0
1251 -1253 1375 0
-1255 -1257 -1435 0
1255 1257 -1435 0
-1255 1257 1435 0
1255 -1257 1435 0
-1263 -1265 -1379 0
1263 1265 -1379 0
-1263 1265 1379 0
1263 -1265 1379 0
-1267 -1269 -1381 0
1267 1269 -1381 0
-1267 1269 1381 0
1267 -1269 1381 0
-1271 -1273 -1383 0
1271 1273 -1383 0
-1271 1273 1383 0
1271 -1273 1383 0
-1275 -1277 -1385 0
1275 1277 -1385 0
-1275 1277 1385 0
1275 -1277 1385 0
-1279 -1281 -1387 0
1279 1281 -1387 0
-1279 1281 1387 0
1279 -1281 1387 0
-1283 -1285 -1389 0
1283 1285 -1389 0
-1283 1285 1389 0
1283 -1285 1389 0
-1287 -1289 -1391 0
1287 1289 -1391 0
-1287 1289 1391 0
1287 -1289 1391 0
-1291 -1293 -1393 0
1291 1293 -1393 0
-1291 1293 1393 0
1291 -1293 1393 0
-1297 -1299 -1445 0
1297 1299 -1445 0
-1297 1299 1445 0
1297 -1299 1445 0
-1301 -1303 -1397 0
1301 1303 -1397 0
-1301 1303 1397 0
1301 -1303 1397 0
-1305 -1307 -1399 0
1305 1307 -1399 0
-1305 1307 1399 0
1305 -1307 1399 0
-1309 -1311 -1401 0
1309 1311 -1401 0
-1309 1311 1401 0
1309 -1311 1401 0
-1313 -1315 -1403 0
1313 1315 -1403 0
-1313 1315 1403 0
1313 -1315 1403 0
-1317 -1319 -1405 0
1317 1319 -1405 0
-1317 1319 1405 0
1317 -1319 1405 0
-1321 -1323 -1407 0
1321 1323 -1407 0
-1321 1323 1407 0
1321 -1323 1407 0
-1325 -1327 -1409 0
1325 1327 -1409 0
-1325 1327 1409 0
1325 -1327 1409 0
-1329 -1331 -1411 0
1329 1331 -1411 0
-1329 1331 1411 0
1329 -1331 1411 0
-1333 -1335 -1413 0
1333 1335 -1413 0
-1333 1335 1413 0
1333 -1335 1413 0
-1337 -1339 -1415 0
1337 1339 -1415 0
-1337 1339 1415 0
1337 -1339 1415 0
-1341 -1343 -1417 0
1341 1343 -1417 0
-1341 1343 1417 0
1341 -1343 1417 0
-1345 -1347 -1419 0
1345 1347 -1419 0
-1345 1347 1419 0
1345 -1347 1419 0
-1349 -1351 -1421 0
1349 1351 -1421 0
-1349 1351 1421 0
1349 -1351 1421 0
-1353 -1355 -1423 0
1353 1355 -1423 0
-1353 1355 1423 0
1353 -1355 1423 0
-1357 -1359 -1425 0
1357 1359 -1425 0
-1357 1359 1425 0
1357 -1359 1425 0
-1361 -1363 -1427 0
1361 1363 -1427 0
-1361 1363 1427 0
1361 -1363 1427 0
-1365 -1366 -1429 0
1365 1366 -1429 0
-1365 1366 1429 0
1365 -1366 1429 0
-1368 -1369 -1463 0
1368 1369 -1463 0
-1368 1369 1463 0
1368 -1369 1463 0
-1370 -1371 -1432 0
1370 1371 -1432 0
-1370 1371 1432 0
1370 -1371 1432 0
-1373 -1375 -1434 0
1373 1375 -1434 0
-1373 1375 1434 0
1373 -1375 1434 0
-1378 -1379 -1436 0
1378 1379 -1436 0
-1378 1379 1436 0
1378 -1379 1436 0
-1381 -1383 -1438 0
1381 1383 -1438 0
-1381 1383 1438 0
1381 -1383 1438 0
-1385 -1387 -1440 0
1385 1387 -1440 0
-1385 1387 1440 0
1385 -1387 1440 0
-1389 -1391 -1442 0
1389 1391 -1442 0
-1389 1391 1442 0
1389 -1391 1442 0
-1393 -1395 -1444 0
1393 1395 -1444 0
-1393 1395 1444 0
1393 -1395 1444 0
-1397 -1399 -1446 0
1397 1399 -1446 0
-1397 1399 1446 0
1397 -1399 1446 0
-1401 -1403 -1448 0
1401 1403 -1448 0
-1401 1403 1448 0
1401 -1403 1448 0
-1405 -1407 -1450 0
1405 1407 -1450 0
-1405 1407 1450 0
1405 -1407 1450 0
-1409 -1411 -1452 0
1409 1411 -1452 0
-1409 1411 1452 0
1409 -1411 1452 0
-1413 -1415 -1454 0
1413 1415 -1454 0
-1413 1415 1454 0
1413 -1415 1454 0
-1417 -1419 -1456 0
1417 1419 -1456 0
-1417 1419 1456 0
1417 -1419 1456 0
-1421 -1423 -1458 0
1421 1423 -1458 0
-1421 1423 1458 0
1421 -1423 1458 0
-1425 -1427 -1460 0
1425 1427 -1460 0
-1425 1427 1460 0
1425 -1427 1460 0
-1367 -1429 -1462 0
1367 1429 -1462 0
1367 -1429 1462 0
-1367 1429 1462 0
-1432 -1434 -1464 0
1432 1434 -1464 0
-1432 1434 1464 0
1432 -1434 1464 0
-1435 -1436 -1466 0
1435 1436 -1466 0
-1435 1436 1466 0
1435 -1436 1466 0
-1438 -1440 -1468 0
1438 1440 -1468 0
-1438 1440 1468 0
1438 -1440 1468 0
-1442 -1444 -1470 0
1442 1444 -1470 0
-1442 1444 1470 0
1442 -1444 1470 0
-1445 -1446 -1472 0
1445 1446 -1472 0
-1445 1446 1472 0
1445 -1446 1472 0
-1448 -1450 -1474 0
1448 1450 -1474 0
-1448 1450 1474 0
1448 -1450 1474 0
-1452 -1454 -1476 0
1452 1454 -1476 0
-1452 1454 1476 0
1452 -1454 1476 0
-1456 -1458 -1478 0
1456 1458 -1478 0
-1456 1458 1478 0
1456 -1458 1478 0
-1460 -1462 -1480 0
1460 1462 -1480 0
-1460 1462 1480 0
1460 -1462 1480 0
-1463 -1464 -1482 0
1463 1464 -1482 0
-1463 1464 1482 0
1463 -1464 1482 0
-1466 -1468 -1484 0
1466 1468 -1484 0
-1466 1468 1484 0
1466 -1468 1484 0
-1470 -1472 -1486 0
1470 1472 -1486 0
-1470 1472 1486 0
1470 -1472 1486 0
-1474 -1476 -1488 0
1474 1476 -1488 0
-1474 1476 1488 0
1474 -1476 1488 0
-1478 -1480 -1490 0
1478 1480 -1490 0
-1478 1480 1490 0
1478 -1480 1490 0
-1482 -1484 -1492 0
1482 1484 -1492 0
-1482 1484 1492 0
1482 -1484 1492 0
-1486 -1488 -1494 0
1486 1488 -1494 0
-1486 1488 1494 0
1486 -1488 1494 0
-1490 -1492 -1494 0
1490 1492 -1494 0
-1490 1492 1494 0
1490 -1492 1494 0
-1372 -1374 -1498 0
1372 1374 -1498 0
-1372 1374 1498 0
1372 -1374 1498 0
-1376 -1377 -1553 0
1376 1377 -1553 0
-1376 1377 1553 0
1376 -1377 1553 0
-1380 -1382 -1499 0
1380 1382 -1499 0
-1380 1382 1499 0
1380 -1382 1499 0
-1384 -1386 -1501 0
1384 1386 -1501 0
-1384 1386 1501 0
1384 -1386 1501 0
-1388 -1390 -1503 0
1388 1390 -1503 0
-1388 1390 1503 0
1388 -1390 1503 0
-1392 -1394 -1505 0
1392 1394 -1505 0
-1392 1394 1505 0
1392 -1394 1505 0
-1396 -1398 -1556 0
1396 1398 -1556 0
-1396 1398 1556 0
1396 -1398 1556 0
-1400 -1402 -1507 0
1400 1402 -1507 0
-1400 1402 1507 0
1400 -1402 1507 0
-1404 -1406 -1509 0
1404 1406 -1509 0
-1404 1406 1509 0
1404 -1406 1509 0
-1408 -1410 -1511 0
1408 1410 -1511 0
-1408 1410 1511 0
1408 -1410 1511 0
-1412 -1414 -1513 0
1412 1414 -1513 0
-1412 1414 1513 0
1412 -1414 1513 0
-1416 -1418 -1515 0
1416 1418 -1515 0
-1416 1418 1515 0
1416 -1418 1515 0
-1420 -1422 -1517 0
1420 1422 -1517 0
-1420 1422 1517 0
1420 -1422 1517 0
-1424 -1426 -1519 0
1424 1426 -1519 0
-1424 1426 1519 0
1424 -1426 1519 0
-1428 -1430 -1521 0
1428 1430 -1521 0
-1428 1430 1521 0
1428 -1430 1521 0
-1431 -1433 -1565 0
1431 1433 -1565 0
-1431 1433 1565 0
1431 -1433 1565 0
-1437 -1439 -1524 0
1437 1439 -1524 0
-1437 1439 1524 0
1437 -1439 1524 0
-1441 -1443 -1525 0
1441 1443 -1525 0
-1441 1443 1525 0
1441 -1443 1525 0
-1447 -1449 -1527 0
1447 1449 -1527 0
-1447 1449 1527 0
1447 -1449 1527 0
-1451 -1453 -1529 0
1451 1453 -1529 0
-1451 1453 1529 0
1451 -1453 1529 0
-1455 -1457 -1531 0
1455 1457 -1531 0
-1455 1457 1531 0
1455 -1457 1531 0
-1459 -1461 -1533 0
1459 1461 -1533 0
-1459 1461 1533 0
1459 -1461 1533 0
-1465 -1467 -1536 0
1465 1467 -1536 0
-1465 1467 1536 0
1465 -1467 1536 0
-1469 -1471 -1537 0
1469 1471 -1537 0
-1469 1471 1537 0
1469 -1471 1537 0
-1473 -1475 -1539 0
1473 1475 -1539 0
-1473 1475 1539 0
1473 -1475 1539 0
-1477 -1479 -1541 0
1477 1479 -1541 0
-1477 1479 1541 0
1477 -1479 1541 0
-1481 -1483 -1543 0
1481 1483 -1543 0
-1481 1483 1543 0
1481 -1483 1543 0
-1485 -1487 -1545 0
1485 1487 -1545 0
-1485 1487 1545 0
1485 -1487 1545 0
-1489 -1491 -1547 0
1489 1491 -1547 0
-1489 1491 1547 0
1489 -1491 1547 0
-1493 -1495 -1549 0
1493 1495 -1549 0
-1493 1495 1549 0
1493 -1495 1549 0
-1494 -1496 -1551 0
1494 1496 -1551 0
1494 -1496 1551 0
-1494 1496 1551 0
-1497 -1498 -1583 0
1497 1498 -1583 0
-1497 1498 1583 0
1497 -1498 1583 0
-1499 -1501 -1554 0
1499 1501 -1554 0
-1499 1501 1554 0
1499 -1501 1554 0
-1503 -1505 -1555 0
1503 1505 -1555 0
-1503 1505 1555 0
1503 -1505 1555 0
-1507 -1509 -1557 0
1507 1509 -1557 0
-1507 1509 1557 0
1507 -1509 1557 0
-1511 -1513 -1559 0
1511 1513 -1559 0
-1511 1513 1559 0
1511 -1513 1559 0
-1515 -1517 -1561 0
1515 1517 -1561 0
-1515 1517 1561 0
1515 -1517 1561 0
-1519 -1521 -1563 0
1519 1521 -1563 0
-1519 1521 1563 0
1519 -1521 1563 0
-1523 -1524 -1566 0
1523 1524 -1566 0
-1523 1524 1566 0
1523 -1524 1566 0
-1525 -1526 -1567 0
1525 1526 -1567 0
-1525 1526 1567 0
1525 -1526 1567 0
-1527 -1529 -1569 0
1527 1529 -1569 0
-1527 1529 1569 0
1527 -1529 1569 0
-1531 -1533 -1571 0
1531 1533 -1571 0
-1531 1533 1571 0
1531 -1533 1571 0
-1535 -1536 -1573 0
1535 1536 -1573 0
-1535 1536 1573 0
1535 -1536 1573 0
-1537 -1539 -1575 0
1537 1539 -1575 0
-1537 1539 1575 0
1537 -1539 1575 0
-1541 -1543 -1577 0
1541 1543 -1577 0
-1541 1543 1577 0
1541 -1543 1577 0
-1545 -1547 -1579 0
1545 1547 -1579 0
-1545 1547 1579 0
1545 -1547 1579 0
-1549 -1551 -1581 0
1549 1551 -1581 0
-1549 1551 1581 0
1549 -1551 1581 0
-1553 -1554 -1584 0
1553 1554 -1584 0
-1553 1554 1584 0
1553 -1554 1584 0
-1555 -1556 -1585 0
1555 1556 -1585 0
-1555 1556 1585 0
1555 -1556 1585 0
-1557 -1559 -1587 0
1557 1559 -1587 0
-1557 1559 1587 0
1557 -1559 1587 0
-1561 -1563 -1589 0
1561 1563 -1589 0
-1561 1563 1589 0
1561 -1563 1589 0
-1565 -1566 -1591 0
1565 1566 -1591 0
-1565 1566 1591 0
1565 -1566 1591 0
-1567 -1569 -1593 0
1567 1569 -1593 0
-1567 1569 1593 0
1567 -1569 1593 0
-1571 -1573 -1595 0
1571 1573 -1595 0
-1571 1573 1595 0
1571 -1573 1595 0
-1575 -1577 -1597 0
1575 1577 -1597 0
-1575 1577 1597 0
1575 -1577 1597 0
-1579 -1581 -1599 0
1579 1581 -1599 0
-1579 1581 1599 0
1579 -1581 1599 0
-1583 -1584 -1601 0
1583 1584 -1601 0
-1583 1584 1601 0
1583 -1584 1601 0
-1585 -1587 -1603 0
1585 1587 -1603 0
-1585 1587 1603 0
1585 -1587 1603 0
-1589 -1591 -1605 0
1589 1591 -1605 0
-1589 1591 1605 0
1589 -1591 1605 0
-1593 -1595 -1607 0
1593 1595 -1607 0
-1593 1595 1607 0
1593 -1595 1607 0
-1597 -1599 -1609 0
1597 1599 -1609 0
-1597 1599 1609 0
1597 -1599 1609 0
-1601 -1603 -1611 0
1601 1603 -1611 0
-1601 1603 1611 0
1601 -1603 1611 0
-1605 -1607 -1613 0
1605 1607 -1613 0
-1605 1607 1613 0
1605 -1607 1613 0
-1609 -1611 -1613 0
1609 1611 -1613 0
-1609 1611 1613 0
1609 -1611 1613 0
-1500 -1502 -1618 0
1500 1502 -1618 0
-1500 1502 1618 0
1500 -1502 1618 0
-1504 -1506 -1619 0
1504 1506 -1619 0
-1504 1506 1619 0
1504 -1506 1619 0
-1508 -1510 -1621 0
1508 1510 -1621 0
-1508 1510 1621 0
1508 -1510 1621 0
-1512 -1514 -1623 0
1512 1514 -1623 0
-1512 1514 1623 0
1512 -1514 1623 0
-1516 -1518 -1625 0
1516 1518 -1625 0
-1516 1518 1625 0
1516 -1518 1625 0
-1520 -1522 -1627 0
1520 1522 -1627 0
-1520 1522 1627 0
1520 -1522 1627 0
-1528 -1530 -1632 0
1528 1530 -1632 0
-1528 1530 1632 0
1528 -1530 1632 0
-1532 -1534 -1633 0
1532 1534 -1633 0
-1532 1534 1633 0
1532 -1534 1633 0
-1538 -1540 -1635 0
1538 1540 -1635 0
-1538 1540 1635 0
1538 -1540 1635 0
-1542 -1544 -1637 0
1542 1544 -1637 0
-1542 1544 1637 0
1542 -1544 1637 0
-1546 -1548 -1639 0
1546 1548 -1639 0
-1546 1548 1639 0
1546 -1548 1639 0
-1550 -1552 -1641 0
1550 1552 -1641 0
-1550 1552 1641 0
1550 -1552 1641 0
-1558 -1560 -1646 0
1558 1560 -1646 0
-1558 1560 1646 0
1558 -1560 1646 0
-1562 -1564 -1647 0
1562 1564 -1647 0
-1562 1564 1647 0
1562 -1564 1647 0
-1568 -1570 -1649 0
1568 1570 -1649 0
-1568 1570 1649 0
1568 -1570 1649 0
-1572 -1574 -1651 0
1572 1574 -1651 0
-1572 1574 1651 0
1572 -1574 1651 0
-1576 -1578 -1653 0
1576 1578 -1653 0
-1576 1578 1653 0
1576 -1578 1653 0
-1580 -1582 -1655 0
1580 1582 -1655 0
-1580 1582 1655 0
1580 -1582 1655 0
-1586 -1588 -1658 0
1586 1588 -1658 0
-1586 1588 1658 0
1586 -1588 1658 0
-1590 -1592 -1659 0
1590 1592 -1659 0
-1590 1592 1659 0
1590 -1592 1659 0
-1594 -1596 -1661 0
1594 1596 -1661 0
-1594 1596 1661 0
1594 -1596 1661 0
-1598 -1600 -1663 0
1598 1600 -1663 0
-1598 1600 1663 0
1598 -1600 1663 0
-1602 -1604 -1665 0
1602 1604 -1665 0
-1602 1604 1665 0
1602 -1604 1665 0
-1606 -1608 -1667 0
1606 1608 -1667 0
-1606 1608 1667 0
1606 -1608 1667 0
-1610 -1612 -1669 0
1610 1612 -1669 0
-1610 1612 1669 0
1610 -1612 1669 0
-1614 -1615 -1671 0
1614 1615 -1671 0
-1614 1615 1671 0
1614 -1615 1671 0
-1616 -1617 -1672 0
1616 1617 -1672 0
-1616 1617 1672 0
1616 -1617 1672 0
-1618 -1619 -1674 0
1618 1619 -1674 0
-1618 1619 1674 0
1618 -1619 1674 0
-1620 -1621 -1676 0
1620 1621 -1676 0
-1620 1621 1676 0
1620 -1621 1676 0
-1623 -1625 -1678 0
1623 1625 -1678 0
-1623 1625 1678 0
1623 -1625 1678 0
-1627 -1629 -1680 0
1627 1629 -1680 0
-1627 1629 1680 0
1627 -1629 1680 0
-1630 -1631 -1682 0
1630 1631 -1682 0
-1630 1631 1682 0
1630 -1631 1682 0
-1632 -1633 -1684 0
1632 1633 -1684 0
-1632 1633 1684 0
1632 -1633 1684 0
-1634 -1635 -1686 0
1634 1635 -1686 0
-1634 1635 1686 0
1634 -1635 1686 0
-1637 -1639 -1688 0
1637 1639 -1688 0
-1637 1639 1688 0
1637 -1639 1688 0
-1641 -1643 -1690 0
1641 1643 -1690 0
-1641 1643 1690 0
1641 -1643 1690 0
-1644 -1645 -1692 0
1644 1645 -1692 0
-1644 1645 1692 0
1644 -1645 1692 0
-1646 -1647 -1694 0
1646 1647 -1694 0
-1646 1647 1694 0
1646 -1647 1694 0
-1648 -1649 -1696 0
1648 1649 -1696 0
-1648 1649 1696 0
1648 -1649 1696 0
-1651 -1653 -1698 0
1651 1653 -1698 0
-1651 1653 1698 0
1651 -1653 1698 0
-1655 -1657 -1700 0
1655 1657 -1700 0
-1655 1657 1700 0
1655 -1657 1700 0
-1658 -1659 -1702 0
1658 1659 -1702 0
-1658 1659 1702 0
1658 -1659 1702 0
-1661 -1663 -1704 0
1661 1663 -1704 0
-1661 1663 1704 0
1661 -1663 1704 0
-1665 -1667 -1706 0
1665 1667 -1706 0
-1665 1667 1706 0
1665 -1667 1706 0
-1669 -1671 -1708 0
1669 1671 -1708 0
-1669 1671 1708 0
1669 -1671 1708 0
-1613 -1672 -1710 0
1613 1672 -1710 0
-1613 1672 1710 0
1613 -1672 1710 0
-1674 -1676 -1712 0
1674 1676 -1712 0
-1674 1676 1712 0
1674 -1676 1712 0
-1678 -1680 -1714 0
1678 1680 -1714 0
-1678 1680 1714 0
1678 -1680 1714 0
-1682 -1684 -1716 0
1682 1684 -1716 0
-1682 1684 1716 0
1682 -1684 1716 0
-1686 -1688 -1718 0
1686 1688 -1718 0
-1686 1688 1718 0
1686 -1688 1718 0
-1690 -1692 -1720 0
1690 1692 -1720 0
-1690 1692 1720 0
1690 -1692 1720 0
-1694 -1696 -1722 0
1694 1696 -1722 0
-1694 1696 1722 0
1694 -1696 1722 0
-1698 -1700 -1724 0
1698 1700 -1724 0
-1698 1700 1724 0
1698 -1700 1724 0
-1702 -1704 -1726 0
1702 1704 -1726 0
-1702 1704 1726 0
1702 -1704 1726 0
-1706 -1708 -1728 0
1706 1708 -1728 0
-1706 1708 1728 0
1706 -1708 1728 0
-1710 -1712 -1730 0
1710 1712 -1730 0
-1710 1712 1730 0
1710 -1712 1730 0
-1714 -1716 -1732 0
1714 1716 -1732 0
-1714 1716 1732 0
1714 -1716 1732 0
-1718 -1720 -1734 0
1718 1720 -1734 0
-1718 1720 1734 0
1718 -1720 1734 0
-1722 -1724 -1736 0
1722 1724 -1736 0
-1722 1724 1736 0
1722 -1724 1736 0
-1726 -1728 -1738 0
1726 1728 -1738 0
-1726 1728 1738 0
1726 -1728 1738 0
-1730 -1732 -1740 0
1730 1732 -1740 0
-1730 1732 1740 0
1730 -1732 1740 0
-1734 -1736 -1742 0
1734 1736 -1742 0
-1734 1736 1742 0
1734 -1736 1742 0
-1738 -1740 -1742 0
1738 1740 -1742 0
-1738 1740 1742 0
1738 -1740 1742 0
-1622 -1624 -1747 0
1622 1624 -1747 0
-1622 1624 1747 0
1622 -1624 1747 0
-1626 -1628 -1803 0
1626 1628 -1803 0
-1626 1628 1803 0
1626 -1628 1803 0
-1636 -1638 -1750 0
1636 1638 -1750 0
-1636 1638 1750 0
1636 -1638 1750 0
-1640 -1642 -1752 0
1640 1642 -1752 0
-1640 1642 1752 0
1640 -1642 1752 0
-1650 -1652 -1756 0
1650 1652 -1756 0
-1650 1652 1756 0
1650 -1652 1756 0
-1654 -1656 -1757 0
1654 1656 -1757 0
-1654 1656 1757 0
1654 -1656 1757 0
-1660 -1662 -1759 0
1660 1662 -1759 0
-1660 1662 1759 0
1660 -1662 1759 0
-1664 -1666 -1761 0
1664 1666 -1761 0
-1664 1666 1761 0
1664 -1666 1761 0
-1668 -1670 -1763 0
1668 1670 -1763 0
-1668 1670 1763 0
1668 -1670 1763 0
-1673 -1675 -1765 0
1673 1675 -1765 0
-1673 1675 1765 0
1673 -1675 1765 0
-1677 -1679 -1767 0
1677 1679 -1767 0
-1677 1679 1767 0
1677 -1679 1767 0
-1681 -1683 -1769 0
1681 1683 -1769 0
-1681 1683 1769 0
1681 -1683 1769 0
-1685 -1687 -1771 0
1685 1687 -1771 0
-1685 1687 1771 0
1685 -1687 1771 0
-1689 -1691 -1773 0
1689 1691 -1773 0
-1689 1691 1773 0
1689 -1691 1773 0
-1693 -1695 -1775 0
1693 1695 -1775 0
-1693 1695 1775 0
1693 -1695 1775 0
-1697 -1699 -1777 0
1697 1699 -1777 0
-1697 1699 1777 0
1697 -1699 1777 0
-1701 -1703 -1779 0
1701 1703 -1779 0
-1701 1703 1779 0
1701 -1703 1779 0
-1705 -1707 -1781 0
1705 1707 -1781 0
-1705 1707 1781 0
1705 -1707 1781 0
-1709 -1711 -1783 0
1709 1711 -1783 0
-1709 1711 1783 0
1709 -1711 1783 0
-1713 -1715 -1785 0
1713 1715 -1785 0
-1713 1715 1785 0
1713 -1715 1785 0
-1717 -1719 -1787 0
1717 1719 -1787 0
-1717 1719 1787 0
1717 -1719 1787 0
-1721 -1723 -1789 0
1721 1723 -1789 0
-1721 1723 1789 0
1721 -1723 1789 0
-1725 -1727 -1791 0
1725 1727 -1791 0
-1725 1727 1791 0
1725 -1727 1791 0
-1729 -1731 -1793 0
1729 1731 -1793 0
-1729 1731 1793 0
1729 -1731 1793 0
-1733 -1735 -1795 0
1733 1735 -1795 0
-1733 1735 1795 0
1733 -1735 1795 0
-1737 -1739 -1797 0
1737 1739 -1797 0
-1737 1739 1797 0
1737 -1739 1797 0
-1741 -1743 -1799 0
1741 1743 -1799 0
-1741 1743 1799 0
1741 -1743 1799 0
-1742 -1744 -1801 0
1742 1744 -1801 0
1742 -1744 1801 0
-1742 1744 1801 0
-1746 -1747 -1802 0
1746 1747 -1802 0
-1746 1747 1802 0
1746 -1747 1802 0
-1748 -1749 -1804 0
1748 1749 -1804 0
-1748 1749 1804 0
1748 -1749 1804 0
-1750 -1752 -1806 0
1750 1752 -1806 0
-1750 1752 1806 0
1750 -1752 1806 0
-1755 -1756 -1808 0
1755 1756 -1808 0
-1755 1756 1808 0
1755 -1756 1808 0
-1757 -1758 -1809 0
1757 1758 -1809 0
-1757 1758 1809 0
1757 -1758 1809 0
-1759 -1761 -1811 0
1759 1761 -1811 0
-1759 1761 1811 0
1759 -1761 1811 0
-1763 -1764 -1813 0
1763 1764 -1813 0
-1763 1764 1813 0
1763 -1764 1813 0
-1765 -1767 -1815 0
1765 1767 -1815 0
-1765 1767 1815 0
1765 -1767 1815 0
-1769 -1771 -1817 0
1769 1771 -1817 0
-1769 1771 1817 0
1769 -1771 1817 0
-1773 -1775 -1819 0
1773 1775 -1819 0
-1773 1775 1819 0
1773 -1775 1819 0
-1777 -1779 -1821 0
1777 1779 -1821 0
-1777 1779 1821 0
1777 -1779 1821 0
-1781 -1783 -1823 0
1781 1783 -1823 0
-1781 1783 1823 0
1781 -1783 1823 0
-1785 -1787 -1825 0
1785 1787 -1825 0
-1785 1787 1825 0
1785 -1787 1825 0
-1789 -1791 -1827 0
1789 1791 -1827 0
-1789 1791 1827 0
1789 -1791 1827 0
-1793 -1795 -1829 0
1793 1795 -1829 0
-1793 1795 1829 0
1793 -1795 1829 0
-1797 -1799 -1831 0
1797 1799 -1831 0
-1797 1799 1831 0
1797 -1799 1831 0
-1745 -1801 -1833 0
1745 1801 -1833 0
1745 -1801 1833 0
-1745 1801 1833 0
-1802 -1803 -1835 0
1802 1803 -1835 0
-1802 1803 1835 0
1802 -1803 1835 0
-1804 -1806 -1837 0
1804 1806 -1837 0
-1804 1806 1837 0
1804 -1806 1837 0
-1754 -1808 -1839 0
1754 1808 -1839 0
-1754 1808 1839 0
1754 -1808 1839 0
-1809 -1811 -1841 0
1809 1811 -1841 0
-1809 1811 1841 0
1809 -1811 1841 0
-1813 -1815 -1843 0
1813 1815 -1843 0
-1813 1815 1843 0
1813 -1815 1843 0
-1817 -1819 -1845 0
1817 1819 -1845 0
-1817 1819 1845 0
1817 -1819 1845 0
-1821 -1823 -1847 0
1821 1823 -1847 0
-1821 1823 1847 0
1821 -1823 1847 0
-1825 -1827 -1849 0
1825 1827 -1849 0
-1825 1827 1849 0
1825 -1827 1849 0
-1829 -1831 -1851 0
1829 1831 -1851 0
-1829 1831 1851 0
1829 -1831 1851 0
-1833 -1835 -1853 0
1833 1835 -1853 0
-1833 1835 1853 0
1833 -1835 1853 0
-1837 -1839 -1855 0
1837 1839 -1855 0
-1837 1839 1855 0
1837 -1839 1855 0
-1841 -1843 -1857 0
1841 1843 -1857 0
-1841 1843 1857 0
1841 -1843 1857 0
-1845 -1847 -1859 0
1845 1847 -1859 0
-1845 1847 1859 0
1845 -1847 1859 0
-1849 -1851 -1861 0
1849 1851 -1861 0
-1849 1851 1861 0
1849 -1851 1861 0
-1853 -1855 -1863 0
1853 1855 -1863 0
-1853 1855 1863 0
1853 -1855 1863 0
-1857 -1859 -1865 0
1857 1859 -1865 0
-1857 1859 1865 0
1857 -1859 1865 0
-1861 -1863 -1865 0
1861 1863 -1865 0
-1861 1863 1865 0
1861 -1863 1865 0
-1751 -1753 -1925 0
1751 1753 -1925 0
-1751 1753 1925 0
1751 -1753 1925 0
-1760 -1762 -1872 0
1760 1762 -1872 0
-1760 1762 1872 0
1760 -1762 1872 0
-1766 -1768 -1874 0
1766 1768 -1874 0
-1766 1768 1874 0
1766 -1768 1874 0
-1770 -1772 -1876 0
1770 1772 -1876 0
-1770 1772 1876 0
1770 -1772 1876 0
-1774 -1776 -1878 0
1774 1776 -1878 0
-1774 1776 1878 0
1774 -1776 1878 0
-1778 -1780 -1880 0
1778 1780 -1880 0
-1778 1780 1880 0
1778 -1780 1880 0
-1782 -1784 -1882 0
1782 1784 -1882 0
-1782 1784 1882 0
1782 -1784 1882 0
-1786 -1788 -1884 0
1786 1788 -1884 0
-1786 1788 1884 0
1786 -1788 1884 0
-1790 -1792 -1886 0
1790 1792 -1886 0
-1790 1792 1886 0
1790 -1792 1886 0
-1794 -1796 -1888 0
1794 1796 -1888 0
-1794 1796 1888 0
1794 -1796 1888 0
-1798 -1800 -1890 0
1798 1800 -1890 0
-1798 1800 1890 0
1798 -1800 1890 0
-1805 -1807 -1893 0
1805 1807 -1893 0
-1805 1807 1893 0
1805 -1807 1893 0
-1810 -1812 -1895 0
1810 1812 -1895 0
-1810 1812 1895 0
1810 -1812 1895 0
-1814 -1816 -1896 0
1814 1816 -1896 0
-1814 1816 1896 0
1814 -1816 1896 0
-1818 -1820 -1898 0
1818 1820 -1898 0
-1818 1820 1898 0
1818 -1820 1898 0
-1822 -1824 -1900 0
1822 1824 -1900 0
-1822 1824 1900 0
1822 -1824 1900 0
-1826 -1828 -1902 0
1826 1828 -1902 0
-1826 1828 1902 0
1826 -1828 1902 0
-1830 -1832 -1904 0
1830 1832 -1904 0
-1830 1832 1904 0
1830 -1832 1904 0
-1834 -1836 -1906 0
1834 1836 -1906 0
-1834 1836 1906 0
1834 -1836 1906 0
-1838 -1840 -1908 0
1838 1840 -1908 0
-1838 1840 1908 0
1838 -1840 1908 0
-1842 -1844 -1910 0
1842 1844 -1910 0
-1842 1844 1910 0
1842 -1844 1910 0
-1846 -1848 -1912 0
1846 1848 -1912 0
-1846 1848 1912 0
1846 -1848 1912 0
-1850 -1852 -1914 0
1850 1852 -1914 0
-1850 1852 1914 0
1850 -1852 1914 0
-1854 -1856 -1916 0
1854 1856 -1916 0
-1854 1856 1916 0
1854 -1856 1916 0
-1858 -1860 -1918 0
1858 1860 -1918 0
-1858 1860 1918 0
1858 -1860 1918 0
-1862 -1864 -1920 0
1862 1864 -1920 0
-1862 1864 1920 0
1862 -1864 1920 0
-1866 -1867 -1922 0
1866 1867 -1922 0
-1866 1867 1922 0
1866 -1867 1922 0
-1868 -1869 -1924 0
1868 1869 -1924 0
-1868 1869 1924 0
1868 -1869 1924 0
-1871 -1872 -1926 0
1871 1872 -1926 0
-1871 1872 1926 0
1871 -1872 1926 0
-1873 -1874 -1928 0
1873 1874 -1928 0
-1873 1874 1928 0
1873 -1874 1928 0
-1876 -1878 -1930 0
1876 1878 -1930 0
-1876 1878 1930 0
1876 -1878 1930 0
-1880 -1882 -1932 0
1880 1882 -1932 0
-1880 1882 1932 0
1880 -1882 1932 0
-1884 -1886 -1934 0
1884 1886 -1934 0
-1884 1886 1934 0
1884 -1886 1934 0
-1888 -1890 -1936 0
1888 1890 -1936 0
-1888 1890 1936 0
1888 -1890 1936 0
-1891 -1892 -1938 0
1891 1892 -1938 0
-1891 1892 1938 0
1891 -1892 1938 0
-1893 -1894 -1940 0
1893 1894 -1940 0
-1893 1894 1940 0
1893 -1894 1940 0
-1895 -1896 -1942 0
1895 1896 -1942 0
-1895 1896 1942 0
1895 -1896 1942 0
-1898 -1900 -1944 0
1898 1900 -1944 0
-1898 1900 1944 0
1898 -1900 1944 0
-1902 -1904 -1946 0
1902 1904 -1946 0
-1902 1904 1946 0
1902 -1904 1946 0
-1906 -1908 -1948 0
1906 1908 -1948 0
-1906 1908 1948 0
1906 -1908 1948 0
-1910 -1912 -1950 0
1910 1912 -1950 0
-1910 1912 1950 0
1910 -1912 1950 0
-1914 -1916 -1952 0
1914 1916 -1952 0
-1914 1916 1952 0
1914 -1916 1952 0
-1918 -1920 -1954 0
1918 1920 -1954 0
-1918 1920 1954 0
1918 -1920 1954 0
-1865 -1922 -1956 0
1865 1922 -1956 0
1865 -1922 1956 0
-1865 1922 1956 0
-1924 -1925 -1958 0
1924 1925 -1958 0
-1924 1925 1958 0
1924 -1925 1958 0
-1870 -1926 -1960 0
1870 1926 -1960 0
-1870 1926 1960 0
1870 -1926 1960 0
-1928 -1930 -1962 0
1928 1930 -1962 0
-1928 1930 1962 0
1928 -1930 1962 0
-1932 -1934 -1964 0
1932 1934 -1964 0
-1932 1934 1964 0
1932 -1934 1964 0
-1936 -1938 -1966 0
1936 1938 -1966 0
-1936 1938 1966 0
1936 -1938 1966 0
-1940 -1942 -1968 0
1940 1942 -1968 0
-1940 1942 1968 0
1940 -1942 1968 0
-1944 -1946 -1970 0
1944 1946 -1970 0
-1944 1946 1970 0
1944 -1946 1970 0
-1948 -1950 -1972 0
1948 1950 -1972 0
-1948 1950 1972 0
1948 -1950 1972 0
-1952 -1954 -1974 0
1952 1954 -1974 0
-1952 1954 1974 0
1952 -1954 1974 0
-1956 -1958 -1976 0
1956 1958 -1976 0
-1956 1958 1976 0
1956 -1958 1976 0
-1960 -1962 -1978 0
1960 1962 -1978 0
-1960 1962 1978 0
1960 -1962 1978 0
-1964 -1966 -1980 0
1964 1966 -1980 0
-1964 1966 1980 0
1964 -1966 1980 0
-1968 -1970 -1982 0
1968 1970 -1982 0
-1968 1970 1982 0
1968 -1970 1982 0
-1972 -1974 -1984 0
1972 1974 -1984 0
-1972 1974 1984 0
1972 -1974 1984 0
-1976 -1978 -1986 0
1976 1978 -1986 0
-1976 1978 1986 0
1976 -1978 1986 0
-1980 -1982 -1988 0
1980 1982 -1988 0
-1980 1982 1988 0
1980 -1982 1988 0
-1984 -1986 -1988 0
1984 1986 -1988 0
-1984 1986 1988 0
1984 -1986 1988 0
-1875 -1877 -1993 0
1875 1877 -1993 0
-1875 1877 1993 0
1875 -1877 1993 0
-1879 -1881 -1994 0
1879 1881 -1994 0
-1879 1881 1994 0
1879 -1881 1994 0
-1883 -1885 -1996 0
1883 1885 -1996 0
-1883 1885 1996 0
1883 -1885 1996 0
-1887 -1889 -1998 0
1887 1889 -1998 0
-1887 1889 1998 0
1887 -1889 1998 0
-1897 -1899 -2002 0
1897 1899 -2002 0
-1897 1899 2002 0
1897 -1899 2002 0
-1901 -1903 -2004 0
1901 1903 -2004 0
-1901 1903 2004 0
1901 -1903 2004 0
-1905 -1907 -2006 0
1905 1907 -2006 0
-1905 1907 2006 0
1905 -1907 2006 0
-1909 -1911 -2008 0
1909 1911 -2008 0
-1909 1911 2008 0
1909 -1911 2008 0
-1913 -1915 -2010 0
1913 1915 -2010 0
-1913 1915 2010 0
1913 -1915 2010 0
-1917 -1919 -2012 0
1917 1919 -2012 0
-1917 1919 2012 0
1917 -1919 2012 0
-1921 -1923 -2014 0
1921 1923 -2014 0
-1921 1923 2014 0
1921 -1923 2014 0
-1927 -1929 -2064 0
1927 1929 -2064 0
-1927 1929 2064 0
1927 -1929 2064 0
-1931 -1933 -2016 0
1931 1933 -2016 0
-1931 1933 2016 0
1931 -1933 2016 0
-1935 -1937 -2018 0
1935 1937 -2018 0
-1935 1937 2018 0
1935 -1937 2018 0
-1939 -1941 -2020 0
1939 1941 -2020 0
-1939 1941 2020 0
1939 -1941 2020 0
-1943 -1945 -2022 0
1943 1945 -2022 0
-1943 1945 2022 0
1943 -1945 2022 0
-1947 -1949 -2024 0
1947 1949 -2024 0
-1947 1949 2024 0
1947 -1949 2024 0
-1951 -1953 -2026 0
1951 1953 -2026 0
-1951 1953 2026 0
1951 -1953 2026 0
-1955 -1957 -2028 0
1955 1957 -2028 0
-1955 1957 2028 0
1955 -1957 2028 0
-1959 -1961 -2030 0
1959 1961 -2030 0
-1959 1961 2030 0
1959 -1961 2030 0
-1963 -1965 -2032 0
1963 1965 -2032 0
-1963 1965 2032 0
1963 -1965 2032 0
-1967 -1969 -2034 0
1967 1969 -2034 0
-1967 1969 2034 0
1967 -1969 2034 0
-1971 -1973 -2036 0
1971 1973 -2036 0
-1971 1973 2036 0
1971 -1973 2036 0
-1975 -1977 -2038 0
1975 1977 -2038 0
-1975 1977 2038 0
1975 -1977 2038 0
-1979 -1981 -2040 0
1979 1981 -2040 0
-1979 1981 2040 0
1979 -1981 2040 0
-1983 -1985 -2042 0
1983 1985 -2042 0
-1983 1985 2042 0
1983 -1985 2042 0
-1987 -1989 -2044 0
1987 1989 -2044 0
-1987 1989 2044 0
1987 -1989 2044 0
-1988 -1990 -2046 0
1988 1990 -2046 0
1988 -1990 2046 0
-1988 1990 2046 0
-1992 -1993 -2048 0
1992 1993 -2048 0
-1992 1993 2048 0
1992 -1993 2048 0
-1994 -1996 -2050 0
1994 1996 -2050 0
-1994 1996 2050 0
1994 -1996 2050 0
-1998 -1999 -2052 0
1998 1999 -2052 0
-1998 1999 2052 0
1998 -1999 2052 0
-2000 -2001 -2054 0
2000 2001 -2054 0
-2000 2001 2054 0
2000 -2001 2054 0
-2002 -2004 -2056 0
2002 2004 -2056 0
-2002 2004 2056 0
2002 -2004 2056 0
-2006 -2008 -2058 0
2006 2008 -2058 0
-2006 2008 2058 0
2006 -2008 2058 0
-2010 -2012 -2060 0
2010 2012 -2060 0
-2010 2012 2060 0
2010 -2012 2060 0
-2014 -2015 -2062 0
2014 2015 -2062 0
-2014 2015 2062 0
2014 -2015 2062 0
-2016 -2018 -2065 0
2016 2018 -2065 0
-2016 2018 2065 0
2016 -2018 2065 0
-2020 -2022 -2066 0
2020 2022 -2066 0
-2020 2022 2066 0
2020 -2022 2066 0
-2024 -2026 -2068 0
2024 2026 -2068 0
-2024 2026 2068 0
2024 -2026 2068 0
-2028 -2030 -2070 0
2028 2030 -2070 0
-2028 2030 2070 0
2028 -2030 2070 0
-2032 -2034 -2072 0
2032 2034 -2072 0
-2032 2034 2072 0
2032 -2034 2072 0
-2036 -2038 -2074 0
2036 2038 -2074 0
-2036 2038 2074 0
2036 -2038 2074 0
-2040 -2042 -2076 0
2040 2042 -2076 0
-2040 2042 2076 0
2040 -2042 2076 0
-2044 -2046 -2078 0
2044 2046 -2078 0
-2044 2046 2078 0
2044 -2046 2078 0
-2048 -2050 -2079 0
2048 2050 -2079 0
-2048 2050 2079 0
2048 -2050 2079 0
-2052 -2054 -2081 0
2052 2054 -2081 0
-2052 2054 2081 0
2052 -2054 2081 0
-2056 -2058 -2083 0
2056 2058 -2083 0
-2056 2058 2083 0
2056 -2058 2083 0
-2060 -2062 -2085 0
2060 2062 -2085 0
-2060 2062 2085 0
2060 -2062 2085 0
-2064 -2065 -2087 0
2064 2065 -2087 0
-2064 2065 2087 0
2064 -2065 2087 0
-2066 -2068 -2089 0
2066 2068 -2089 0
-2066 2068 2089 0
2066 -2068 2089 0
-2070 -2072 -2091 0
2070 2072 -2091 0
-2070 2072 2091 0
2070 -2072 2091 0
-2074 -2076 -2093 0
2074 2076 -2093 0
-2074 2076 2093 0
2074 -2076 2093 0
-1991 -2078 -2095 0
1991 2078 -2095 0
1991 -2078 2095 0
-1991 2078 2095 0
-2079 -2081 -2097 0
2079 2081 -2097 0
-2079 2081 2097 0
2079 -2081 2097 0
-2083 -2085 -2099 0
2083 2085 -2099 0
-2083 2085 2099 0
2083 -2085 2099 0
-2087 -2089 -2101 0
2087 2089 -2101 0
-2087 2089 2101 0
2087 -2089 2101 0
-2091 -2093 -2103 0
2091 2093 -2103 0
-2091 2093 2103 0
2091 -2093 2103 0
-2095 -2097 -2105 0
2095 2097 -2105 0
-2095 2097 2105 0
2095 -2097 2105 0
-2099 -2101 -2107 0
2099 2101 -2107 0
-2099 2101 2107 0
2099 -2101 2107 0
-2103 -2105 -2107 0
2103 2105 -2107 0
-2103 2105 2107 0
2103 -2105 2107 0
-1995 -1997 -2111 0
1995 1997 -2111 0
-1995 1997 2111 0
1995 -1997 2111 0
-2003 -2005 -2162 0
2003 2005 -2162 0
-2003 2005 2162 0
2003 -2005 2162 0
-2007 -2009 -2114 0
2007 2009 -2114 0
-2007 2009 2114 0
2007 -2009 2114 0
-2011 -2013 -2116 0
2011 2013 -2116 0
-2011 2013 2116 0
2011 -2013 2116 0
-2017 -2019 -2119 0
2017 2019 -2119 0
-2017 2019 2119 0
2017 -2019 2119 0
-2021 -2023 -2120 0
2021 2023 -2120 0
-2021 2023 2120 0
2021 -2023 2120 0
-2025 -2027 -2122 0
2025 2027 -2122 0
-2025 2027 2122 0
2025 -2027 2122 0
-2029 -2031 -2124 0
2029 2031 -2124 0
-2029 2031 2124 0
2029 -2031 2124 0
-2033 -2035 -2126 0
2033 2035 -2126 0
-2033 2035 2126 0
2033 -2035 2126 0
-2037 -2039 -2128 0
2037 2039 -2128 0
-2037 2039 2128 0
2037 -2039 2128 0
-2041 -2043 -2130 0
2041 2043 -2130 0
-2041 2043 2130 0
2041 -2043 2130 0
-2045 -2047 -2132 0
2045 2047 -2132 0
-2045 2047 2132 0
2045 -2047 2132 0
-2049 -2051 -2173 0
2049 2051 -2173 0
-2049 2051 2173 0
2049 -2051 2173 0
-2053 -2055 -2134 0
2053 2055 -2134 0
-2053 2055 2134 0
2053 -2055 2134 0
-2057 -2059 -2136 0
2057 2059 -2136 0
-2057 2059 2136 0
2057 -2059 2136 0
-2061 -2063 -2138 0
2061 2063 -2138 0
-2061 2063 2138 0
2061 -2063 2138 0
-2067 -2069 -2141 0
2067 2069 -2141 0
-2067 2069 2141 0
2067 -2069 2141 0
-2071 -2073 -2142 0
2071 2073 -2142 0
-2071 2073 2142 0
2071 -2073 2142 0
-2075 -2077 -2144 0
2075 2077 -2144 0
-2075 2077 2144 0
2075 -2077 2144 0
-2080 -2082 -2147 0
2080 2082 -2147 0
-2080 2082 2147 0
2080 -2082 2147 0
-2084 -2086 -2148 0
2084 2086 -2148 0
-2084 2086 2148 0
2084 -2086 2148 0
-2088 -2090 -2150 0
2088 2090 -2150 0
-2088 2090 2150 0
2088 -2090 2150 0
-2092 -2094 -2152 0
2092 2094 -2152 0
-2092 2094 2152 0
2092 -2094 2152 0
-2096 -2098 -2154 0
2096 2098 -2154 0
-2096 2098 2154 0
2096 -2098 2154 0
-2100 -2102 -2156 0
2100 2102 -2156 0
-2100 2102 2156 0
2100 -2102 2156 0
-2104 -2106 -2158 0
2104 2106 -2158 0
-2104 2106 2158 0
2104 -2106 2158 0
-2108 -2109 -2160 0
2108 2109 -2160 0
-2108 2109 2160 0
2108 -2109 2160 0
-2111 -2112 -2161 0
2111 2112 -2161 0
-2111 2112 2161 0
2111 -2112 2161 0
-2114 -2116 -2163 0
2114 2116 -2163 0
-2114 2116 2163 0
2114 -2116 2163 0
-2117 -2118 -2164 0
2117 2118 -2164 0
-2117 2118 2164 0
2117 -2118 2164 0
-2119 -2120 -2166 0
2119 2120 -2166 0
-2119 2120 2166 0
2119 -2120 2166 0
-2122 -2124 -2168 0
2122 2124 -2168 0
-2122 2124 2168 0
2122 -2124 2168 0
-2126 -2128 -2170 0
2126 2128 -2170 0
-2126 2128 2170 0
2126 -2128 2170 0
-2130 -2132 -2172 0
2130 2132 -2172 0
-2130 2132 2172 0
2130 -2132 2172 0
-2134 -2136 -2174 0
2134 2136 -2174 0
-2134 2136 2174 0
2134 -2136 2174 0
-2138 -2140 -2176 0
2138 2140 -2176 0
-2138 2140 2176 0
2138 -2140 2176 0
-2141 -2142 -2178 0
2141 2142 -2178 0
-2141 2142 2178 0
2141 -2142 2178 0
-2144 -2146 -2180 0
2144 2146 -2180 0
-2144 2146 2180 0
2144 -2146 2180 0
-2147 -2148 -2182 0
2147 2148 -2182 0
-2147 2148 2182 0
2147 -2148 2182 0
-2150 -2152 -2184 0
2150 2152 -2184 0
-2150 2152 2184 0
2150 -2152 2184 0
-2154 -2156 -2186 0
2154 2156 -2186 0
-2154 2156 2186 0
2154 -2156 2186 0
-2158 -2160 -2188 0
2158 2160 -2188 0
-2158 2160 2188 0
2158 -2160 2188 0
-2107 -2110 -2190 0
2107 2110 -2190 0
-2107 2110 2190 0
2107 -2110 2190 0
-2161 -2162 -2192 0
2161 2162 -2192 0
-2161 2162 2192 0
2161 -2162 2192 0
-2163 -2164 -2194 0
2163 2164 -2194 0
-2163 2164 2194 0
2163 -2164 2194 0
-2166 -2168 -2196 0
2166 2168 -2196 0
-2166 2168 2196 0
2166 -2168 2196 0
-2170 -2172 -2198 0
2170 2172 -2198 0
-2170 2172 2198 0
2170 -2172 2198 0
-2173 -2174 -2200 0
2173 2174 -2200 0
-2173 2174 2200 0
2173 -2174 2200 0
-2176 -2178 -2202 0
2176 2178 -2202 0
-2176 2178 2202 0
2176 -2178 2202 0
-2180 -2182 -2204 0
2180 2182 -2204 0
-2180 2182 2204 0
2180 -2182 2204 0
-2184 -2186 -2206 0
2184 2186 -2206 0
-2184 2186 2206 0
2184 -2186 2206 0
-2188 -2190 -2208 0
2188 2190 -2208 0
-2188 2190 2208 0
2188 -2190 2208 0
-2192 -2194 -2210 0
2192 2194 -2210 0
-2192 2194 2210 0
2192 -2194 2210 0
-2196 -2198 -2212 0
2196 2198 -2212 0
-2196 2198 2212 0
2196 -2198 2212 0
-2200 -2202 -2214 0
2200 2202 -2214 0
-2200 2202 2214 0
2200 -2202 2214 0
-2204 -2206 -2216 0
2204 2206 -2216 0
-2204 2206 2216 0
2204 -2206 2216 0
-2208 -2210 -2218 0
2208 2210 -2218 0
-2208 2210 2218 0
2208 -2210 2218 0
-2212 -2214 -2220 0
2212 2214 -2220 0
-2212 2214 2220 0
2212 -2214 2220 0
-2216 -2218 -2220 0
2216 2218 -2220 0
-2216 2218 2220 0
2216 -2218 2220 0
-2113 -2115 -2275 0
2113 2115 -2275 0
-2113 2115 2275 0
2113 -2115 2275 0
-2121 -2123 -2226 0
2121 2123 -2226 0
-2121 2123 2226 0
2121 -2123 2226 0
-2125 -2127 -2228 0
2125 2127 -2228 0
-2125 2127 2228 0
2125 -2127 2228 0
-2129 -2131 -2230 0
2129 2131 -2230 0
-2129 2131 2230 0
2129 -2131 2230 0
-2133 -2135 -2232 0
2133 2135 -2232 0
-2133 2135 2232 0
2133 -2135 2232 0
-2137 -2139 -2234 0
2137 2139 -2234 0
-2137 2139 2234 0
2137 -2139 2234 0
-2143 -2145 -2237 0
2143 2145 -2237 0
-2143 2145 2237 0
2143 -2145 2237 0
-2149 -2151 -2239 0
2149 2151 -2239 0
-2149 2151 2239 0
2149 -2151 2239 0
-2153 -2155 -2240 0
2153 2155 -2240 0
-2153 2155 2240 0
2153 -2155 2240 0
-2157 -2159 -2242 0
2157 2159 -2242 0
-2157 2159 2242 0
2157 -2159 2242 0
-2165 -2167 -2247 0
2165 2167 -2247 0
-2165 2167 2247 0
2165 -2167 2247 0
-2169 -2171 -2248 0
2169 2171 -2248 0
-2169 2171 2248 0
2169 -2171 2248 0
-2175 -2177 -2250 0
2175 2177 -2250 0
-2175 2177 2250 0
2175 -2177 2250 0
-2179 -2181 -2252 0
2179 2181 -2252 0
-2179 2181 2252 0
2179 -2181 2252 0
-2183 -2185 -2254 0
2183 2185 -2254 0
-2183 2185 2254 0
2183 -2185 2254 0
-2187 -2189 -2256 0
2187 2189 -2256 0
-2187 2189 2256 0
2187 -2189 2256 0
-2191 -2193 -2258 0
2191 2193 -2258 0
-2191 2193 2258 0
2191 -2193 2258 0
-2195 -2197 -2260 0
2195 2197 -2260 0
-2195 2197 2260 0
2195 -2197 2260 0
-2199 -2201 -2262 0
2199 2201 -2262 0
-2199 2201 2262 0
2199 -2201 2262 0
-2203 -2205 -2264 0
2203 2205 -2264 0
-2203 2205 2264 0
2203 -2205 2264 0
-2207 -2209 -2266 0
2207 2209 -2266 0
-2207 2209 2266 0
2207 -2209 2266 0
-2211 -2213 -2268 0
2211 2213 -2268 0
-2211 2213 2268 0
2211 -2213 2268 0
-2215 -2217 -2270 0
2215 2217 -2270 0
-2215 2217 2270 0
2215 -2217 2270 0
-2219 -2221 -2272 0
2219 2221 -2272 0
-2219 2221 2272 0
2219 -2221 2272 0
-2220 -2222 -2274 0
2220 2222 -2274 0
2220 -2222 2274 0
-2220 2222 2274 0
-2224 -2225 -2276 0
2224 2225 -2276 0
-2224 2225 2276 0
2224 -2225 2276 0
-2226 -2228 -2277 0
2226 2228 -2277 0
-2226 2228 2277 0
2226 -2228 2277 0
-2230 -2231 -2279 0
2230 2231 -2279 0
-2230 2231 2279 0
2230 -2231 2279 0
-2232 -2234 -2281 0
2232 2234 -2281 0
-2232 2234 2281 0
2232 -2234 2281 0
-2236 -2237 -2283 0
2236 2237 -2283 0
-2236 2237 2283 0
2236 -2237 2283 0
-2238 -2239 -2285 0
2238 2239 -2285 0
-2238 2239 2285 0
2238 -2239 2285 0
-2240 -2242 -2287 0
2240 2242 -2287 0
-2240 2242 2287 0
2240 -2242 2287 0
-2244 -2245 -2289 0
2244 2245 -2289 0
-2244 2245 2289 0
2244 -2245 2289 0
-2246 -2247 -2291 0
2246 2247 -2291 0
-2246 2247 2291 0
2246 -2247 2291 0
-2248 -2249 -2293 0
2248 2249 -2293 0
-2248 2249 2293 0
2248 -2249 2293 0
-2250 -2252 -2295 0
2250 2252 -2295 0
-2250 2252 2295 0
2250 -2252 2295 0
-2254 -2256 -2297 0
2254 2256 -2297 0
-2254 2256 2297 0
2254 -2256 2297 0
-2258 -2260 -2299 0
2258 2260 -2299 0
-2258 2260 2299 0
2258 -2260 2299 0
-2262 -2264 -2301 0
2262 2264 -2301 0
-2262 2264 2301 0
2262 -2264 2301 0
-2266 -2268 -2303 0
2266 2268 -2303 0
-2266 2268 2303 0
2266 -2268 2303 0
-2270 -2272 -2305 0
2270 2272 -2305 0
-2270 2272 2305 0
2270 -2272 2305 0
-2223 -2274 -2307 0
2223 2274 -2307 0
2223 -2274 2307 0
-2223 2274 2307 0
-2275 -2276 -2309 0
2275 2276 -2309 0
-2275 2276 2309 0
2275 -2276 2309 0
-2277 -2279 -2311 0
2277 2279 -2311 0
-2277 2279 2311 0
2277 -2279 2311 0
-2281 -2283 -2313 0
2281 2283 -2313 0
-2281 2283 2313 0
2281 -2283 2313 0
-2285 -2287 -2315 0
2285 2287 -2315 0
-2285 2287 2315 0
2285 -2287 2315 0
-2289 -2291 -2317 0
2289 2291 -2317 0
-2289 2291 2317 0
2289 -2291 2317 0
-2293 -2295 -2319 0
2293 2295 -2319 0
-2293 2295 2319 0
2293 -2295 2319 0
-2297 -2299 -2321 0
2297 2299 -2321 0
-2297 2299 2321 0
2297 -2299 2321 0
-2301 -2303 -2323 0
2301 2303 -2323 0
-2301 2303 2323 0
2301 -2303 2323 0
-2305 -2307 -2325 0
2305 2307 -2325 0
-2305 2307 2325 0
2305 -2307 2325 0
-2309 -2311 -2327 0
2309 2311 -2327 0
-2309 2311 2327 0
2309 -2311 2327 0
-2313 -2315 -2329 0
2313 2315 -2329 0
-2313 2315 2329 0
2313 -2315 2329 0
-2317 -2319 -2331 0
2317 2319 -2331 0
-2317 2319 2331 0
2317 -2319 2331 0
-2321 -2323 -2333 0
2321 2323 -2333 0
-2321 2323 2333 0
2321 -2323 2333 0
-2325 -2327 -2335 0
2325 2327 -2335 0
-2325 2327 2335 0
2325 -2327 2335 0
-2329 -2331 -2337 0
2329 2331 -2337 0
-2329 2331 2337 0
2329 -2331 2337 0
-2333 -2335 -2337 0
2333 2335 -2337 0
-2333 2335 2337 0
2333 -2335 2337 0
-2227 -2229 -2341 0
2227 2229 -2341 0
-2227 2229 2341 0
2227 -2229 2341 0
-2233 -2235 -2343 0
2233 2235 -2343 0
-2233 2235 2343 0
2233 -2235 2343 0
-2241 -2243 -2346 0
2241 2243 -2346 0
-2241 2243 2346 0
2241 -2243 2346 0
-2251 -2253 -2348 0
2251 2253 -2348 0
-2251 2253 2348 0
2251 -2253 2348 0
-2255 -2257 -2350 0
2255 2257 -2350 0
-2255 2257 2350 0
2255 -2257 2350 0
-2259 -2261 -2352 0
2259 2261 -2352 0
-2259 2261 2352 0
2259 -2261 2352 0
-2263 -2265 -2354 0
2263 2265 -2354 0
-2263 2265 2354 0
2263 -2265 2354 0
-2267 -2269 -2356 0
2267 2269 -2356 0
-2267 2269 2356 0
2267 -2269 2356 0
-2271 -2273 -2358 0
2271 2273 -2358 0
-2271 2273 2358 0
2271 -2273 2358 0
-2278 -2280 -2362 0
2278 2280 -2362 0
-2278 2280 2362 0
2278 -2280 2362 0
-2282 -2284 -2364 0
2282 2284 -2364 0
-2282 2284 2364 0
2282 -2284 2364 0
-2286 -2288 -2366 0
2286 2288 -2366 0
-2286 2288 2366 0
2286 -2288 2366 0
-2290 -2292 -2368 0
2290 2292 -2368 0
-2290 2292 2368 0
2290 -2292 2368 0
-2294 -2296 -2370 0
2294 2296 -2370 0
-2294 2296 2370 0
2294 -2296 2370 0
-2298 -2300 -2372 0
2298 2300 -2372 0
-2298 2300 2372 0
2298 -2300 2372 0
-2302 -2304 -2374 0
2302 2304 -2374 0
-2302 2304 2374 0
2302 -2304 2374 0
-2306 -2308 -2376 0
2306 2308 -2376 0
-2306 2308 2376 0
2306 -2308 2376 0
-2310 -2312 -2378 0
2310 2312 -2378 0
-2310 2312 2378 0
2310 -2312 2378 0
-2314 -2316 -2380 0
2314 2316 -2380 0
-2314 2316 2380 0
2314 -2316 2380 0
-2318 -2320 -2382 0
2318 2320 -2382 0
-2318 2320 2382 0
2318 -2320 2382 0
-2322 -2324 -2384 0
2322 2324 -2384 0
-2322 2324 2384 0
2322 -2324 2384 0
-2326 -2328 -2386 0
2326 2328 -2386 0
-2326 2328 2386 0
2326 -2328 2386 0
-2330 -2332 -2388 0
2330 2332 -2388 0
-2330 2332 2388 0
2330 -2332 2388 0
-2334 -2336 -2390 0
2334 2336 -2390 0
-2334 2336 2390 0
2334 -2336 2390 0
-2338 -2339 -2392 0
2338 2339 -2392 0
-2338 2339 2392 0
2338 -2339 2392 0
-2341 -2342 -2394 0
2341 2342 -2394 0
-2341 2342 2394 0
2341 -2342 2394 0
-2343 -2344 -2396 0
2343 2344 -2396 0
-2343 2344 2396 0
2343 -2344 2396 0
-2345 -2346 -2398 0
2345 2346 -2398 0
-2345 2346 2398 0
2345 -2346 2398 0
-2347 -2348 -2400 0
2347 2348 -2400 0
-2347 2348 2400 0
2347 -2348 2400 0
-2350 -2352 -2402 0
2350 2352 -2402 0
-2350 2352 2402 0
2350 -2352 2402 0
-2354 -2356 -2404 0
2354 2356 -2404 0
-2354 2356 2404 0
2354 -2356 2404 0
-2358 -2360 -2406 0
2358 2360 -2406 0
-2358 2360 2406 0
2358 -2360 2406 0
-2361 -2362 -2408 0
2361 2362 -2408 0
-2361 2362 2408 0
2361 -2362 2408 0
-2364 -2366 -2410 0
2364 2366 -2410 0
-2364 2366 2410 0
2364 -2366 2410 0
-2368 -2370 -2412 0
2368 2370 -2412 0
-2368 2370 2412 0
2368 -2370 2412 0
-2372 -2374 -2414 0
2372 2374 -2414 0
-2372 2374 2414 0
2372 -2374 2414 0
-2376 -2378 -2416 0
2376 2378 -2416 0
-2376 2378 2416 0
2376 -2378 2416 0
-2380 -2382 -2418 0
2380 2382 -2418 0
-2380 2382 2418 0
2380 -2382 2418 0
-2384 -2386 -2420 0
2384 2386 -2420 0
-2384 2386 2420 0
2384 -2386 2420 0
-2388 -2390 -2422 0
2388 2390 -2422 0
-2388 2390 2422 0
2388 -2390 2422 0
-2337 -2392 -2424 0
2337 2392 -2424 0
2337 -2392 2424 0
-2337 2392 2424 0
-2340 -2394 -2426 0
2340 2394 -2426 0
-2340 2394 2426 0
2340 -2394 2426 0
-2396 -2398 -2428 0
2396 2398 -2428 0
-2396 2398 2428 0
2396 -2398 2428 0
-2399 -2400 -2430 0
2399 2400 -2430 0
-2399 2400 2430 0
2399 -2400 2430 0
-2402 -2404 -2432 0
2402 2404 -2432 0
-2402 2404 2432 0
2402 -2404 2432 0
-2406 -2408 -2434 0
2406 2408 -2434 0
-2406 2408 2434 0
2406 -2408 2434 0
-2410 -2412 -2436 0
2410 2412 -2436 0
-2410 2412 2436 0
2410 -2412 2436 0
-2414 -2416 -2438 0
2414 2416 -2438 0
-2414 2416 2438 0
2414 -2416 2438 0
-2418 -2420 -2440 0
2418 2420 -2440 0
-2418 2420 2440 0
2418 -2420 2440 0
-2422 -2424 -2442 0
2422 2424 -2442 0
-2422 2424 2442 0
2422 -2424 2442 0
-2426 -2428 -2444 0
2426 2428 -2444 0
-2426 2428 2444 0
2426 -2428 2444 0
-2430 -2432 -2446 0
2430 2432 -2446 0
-2430 2432 2446 0
2430 -2432 2446 0
-2434 -2436 -2448 0
2434 2436 -2448 0
-2434 2436 2448 0
2434 -2436 2448 0
-2438 -2440 -2450 0
2438 2440 -2450 0
-2438 2440 2450 0
2438 -2440 2450 0
-2442 -2444 -2452 0
2442 2444 -2452 0
-2442 2444 2452 0
2442 -2444 2452 0
-2446 -2448 -2454 0
2446 2448 -2454 0
-2446 2448 2454 0
2446 -2448 2454 0
-2450 -2452 -2454 0
2450 2452 -2454 0
-2450 2452 2454 0
2450 -2452 2454 0
-2349 -2351 -2460 0
2349 2351 -2460 0
-2349 2351 2460 0
2349 -2351 2460 0
-2353 -2355 -2462 0
2353 2355 -2462 0
-2353 2355 2462 0
2353 -2355 2462 0
-2357 -2359 -2511 0
2357 2359 -2511 0
-2357 2359 2511 0
2357 -2359 2511 0
-2363 -2365 -2464 0
2363 2365 -2464 0
-2363 2365 2464 0
2363 -2365 2464 0
-2367 -2369 -2466 0
2367 2369 -2466 0
-2367 2369 2466 0
2367 -2369 2466 0
-2371 -2373 -2468 0
2371 2373 -2468 0
-2371 2373 2468 0
2371 -2373 2468 0
-2375 -2377 -2470 0
2375 2377 -2470 0
-2375 2377 2470 0
2375 -2377 2470 0
-2379 -2381 -2472 0
2379 2381 -2472 0
-2379 2381 2472 0
2379 -2381 2472 0
-2383 -2385 -2474 0
2383 2385 -2474 0
-2383 2385 2474 0
2383 -2385 2474 0
-2387 -2389 -2476 0
2387 2389 -2476 0
-2387 2389 2476 0
2387 -2389 2476 0
-2391 -2393 -2478 0
2391 2393 -2478 0
-2391 2393 2478 0
2391 -2393 2478 0
-2395 -2397 -2518 0
2395 2397 -2518 0
-2395 2397 2518 0
2395 -2397 2518 0
-2401 -2403 -2481 0
2401 2403 -2481 0
-2401 2403 2481 0
2401 -2403 2481 0
-2405 -2407 -2482 0
2405 2407 -2482 0
-2405 2407 2482 0
2405 -2407 2482 0
-2409 -2411 -2484 0
2409 2411 -2484 0
-2409 2411 2484 0
2409 -2411 2484 0
-2413 -2415 -2486 0
2413 2415 -2486 0
-2413 2415 2486 0
2413 -2415 2486 0
-2417 -2419 -2488 0
2417 2419 -2488 0
-2417 2419 2488 0
2417 -2419 2488 0
-2421 -2423 -2490 0
2421 2423 -2490 0
-2421 2423 2490 0
2421 -2423 2490 0
-2425 -2427 -2492 0
2425 2427 -2492 0
-2425 2427 2492 0
2425 -2427 2492 0
-2429 -2431 -2494 0
2429 2431 -2494 0
-2429 2431 2494 0
2429 -2431 2494 0
-2433 -2435 -2496 0
2433 2435 -2496 0
-2433 2435 2496 0
2433 -2435 2496 0
-2437 -2439 -2498 0
2437 2439 -2498 0
-2437 2439 2498 0
2437 -2439 2498 0
-2441 -2443 -2500 0
2441 2443 -2500 0
-2441 2443 2500 0
2441 -2443 2500 0
-2445 -2447 -2502 0
2445 2447 -2502 0
-2445 2447 2502 0
2445 -2447 2502 0
-2449 -2451 -2504 0
2449 2451 -2504 0
-2449 2451 2504 0
2449 -2451 2504 0
-2453 -2455 -2506 0
2453 2455 -2506 0
-2453 2455 2506 0
2453 -2455 2506 0
-2454 -2456 -2508 0
2454 2456 -2508 0
2454 -2456 2508 0
-2454 2456 2508 0
-2460 -2462 -2510 0
2460 2462 -2510 0
-2460 2462 2510 0
2460 -2462 2510 0
-2464 -2466 -2512 0
2464 2466 -2512 0
-2464 2466 2512 0
2464 -2466 2512 0
-2468 -2470 -2513 0
2468 2470 -2513 0
-2468 2470 2513 0
2468 -2470 2513 0
-2472 -2474 -2515 0
2472 2474 -2515 0
-2472 2474 2515 0
2472 -2474 2515 0
-2476 -2478 -2517 0
2476 2478 -2517 0
-2476 2478 2517 0
2476 -2478 2517 0
-2480 -2481 -2519 0
2480 2481 -2519 0
-2480 2481 2519 0
2480 -2481 2519 0
-2482 -2484 -2521 0
2482 2484 -2521 0
-2482 2484 2521 0
2482 -2484 2521 0
-2486 -2488 -2523 0
2486 2488 -2523 0
-2486 2488 2523 0
2486 -2488 2523 0
-2490 -2492 -2525 0
2490 2492 -2525 0
-2490 2492 2525 0
2490 -2492 2525 0
-2494 -2496 -2527 0
2494 2496 -2527 0
-2494 2496 2527 0
2494 -2496 2527 0
-2498 -2500 -2529 0
2498 2500 -2529 0
-2498 2500 2529 0
2498 -2500 2529 0
-2502 -2504 -2531 0
2502 2504 -2531 0
-2502 2504 2531 0
2502 -2504 2531 0
-2506 -2508 -2533 0
2506 2508 -2533 0
-2506 2508 2533 0
2506 -2508 2533 0
-2457 -2458 -2535 0
2457 2458 -2535 0
-2457 2458 2535 0
2457 -2458 2535 0
-2459 -2510 -2537 0
2459 2510 -2537 0
-2459 2510 2537 0
2459 -2510 2537 0
-2511 -2512 -2539 0
2511 2512 -2539 0
-2511 2512 2539 0
2511 -2512 2539 0
-2513 -2515 -2541 0
2513 2515 -2541 0
-2513 2515 2541 0
2513 -2515 2541 0
-2517 -2518 -2543 0
2517 2518 -2543 0
-2517 2518 2543 0
2517 -2518 2543 0
-2519 -2521 -2545 0
2519 2521 -2545 0
-2519 2521 2545 0
2519 -2521 2545 0
-2523 -2525 -2547 0
2523 2525 -2547 0
-2523 2525 2547 0
2523 -2525 2547 0
-2527 -2529 -2549 0
2527 2529 -2549 0
-2527 2529 2549 0
2527 -2529 2549 0
-2531 -2533 -2551 0
2531 2533 -2551 0
-2531 2533 2551 0
2531 -2533 2551 0
-2535 -2537 -2553 0
2535 2537 -2553 0
-2535 2537 2553 0
2535 -2537 2553 0
-2539 -2541 -2555 0
2539 2541 -2555 0
-2539 2541 2555 0
2539 -2541 2555 0
-2543 -2545 -2557 0
2543 2545 -2557 0
-2543 2545 2557 0
2543 -2545 2557 0
-2547 -2549 -2559 0
2547 2549 -2559 0
-2547 2549 2559 0
2547 -2549 2559 0
-2551 -2553 -2561 0
2551 2553 -2561 0
-2551 2553 2561 0
2551 -2553 2561 0
-2555 -2557 -2563 0
2555 2557 -2563 0
-2555 2557 2563 0
2555 -2557 2563 0
-2559 -2561 -2563 0
2559 2561 -2563 0
-2559 2561 2563 0
2559 -2561 2563 0
-2461 -2463 -2566 0
2461 2463 -2566 0
-2461 2463 2566 0
2461 -2463 2566 0
-2465 -2467 -2568 0
2465 2467 -2568 0
-2465 2467 2568 0
2465 -2467 2568 0
-2469 -2471 -2569 0
2469 2471 -2569 0
-2469 2471 2569 0
2469 -2471 2569 0
-2473 -2475 -2571 0
2473 2475 -2571 0
-2473 2475 2571 0
2473 -2475 2571 0
-2477 -2479 -2573 0
2477 2479 -2573 0
-2477 2479 2573 0
2477 -2479 2573 0
-2483 -2485 -2576 0
2483 2485 -2576 0
-2483 2485 2576 0
2483 -2485 2576 0
-2487 -2489 -2577 0
2487 2489 -2577 0
-2487 2489 2577 0
2487 -2489 2577 0
-2491 -2493 -2579 0
2491 2493 -2579 0
-2491 2493 2579 0
2491 -2493 2579 0
-2495 -2497 -2581 0
2495 2497 -2581 0
-2495 2497 2581 0
2495 -2497 2581 0
-2499 -2501 -2583 0
2499 2501 -2583 0
-2499 2501 2583 0
2499 -2501 2583 0
-2503 -2505 -2585 0
2503 2505 -2585 0
-2503 2505 2585 0
2503 -2505 2585 0
-2507 -2509 -2627 0
2507 2509 -2627 0
-2507 2509 2627 0
2507 -2509 2627 0
-2514 -2516 -2590 0
2514 2516 -2590 0
-2514 2516 2590 0
2514 -2516 2590 0
-2520 -2522 -2592 0
2520 2522 -2592 0
-2520 2522 2592 0
2520 -2522 2592 0
-2524 -2526 -2593 0
2524 2526 -2593 0
-2524 2526 2593 0
2524 -2526 2593 0
-2528 -2530 -2595 0
2528 2530 -2595 0
-2528 2530 2595 0
2528 -2530 2595 0
-2532 -2534 -2597 0
2532 2534 -2597 0
-2532 2534 2597 0
2532 -2534 2597 0
-2536 -2538 -2599 0
2536 2538 -2599 0
-2536 2538 2599 0
2536 -2538 2599 0
-2540 -2542 -2601 0
2540 2542 -2601 0
-2540 2542 2601 0
2540 -2542 2601 0
-2544 -2546 -2603 0
2544 2546 -2603 0
-2544 2546 2603 0
2544 -2546 2603 0
-2548 -2550 -2605 0
2548 2550 -2605 0
-2548 2550 2605 0
2548 -2550 2605 0
-2552 -2554 -2607 0
2552 2554 -2607 0
-2552 2554 2607 0
2552 -2554 2607 0
-2556 -2558 -2609 0
2556 2558 -2609 0
-2556 2558 2609 0
2556 -2558 2609 0
-2560 -2562 -2611 0
2560 2562 -2611 0
-2560 2562 2611 0
2560 -2562 2611 0
-2564 -2565 -2613 0
2564 2565 -2613 0
-2564 2565 2613 0
2564 -2565 2613 0
-2566 -2567 -2614 0
2566 2567 -2614 0
-2566 2567 2614 0
2566 -2567 2614 0
-2568 -2569 -2615 0
2568 2569 -2615 0
-2568 2569 2615 0
2568 -2569 2615 0
-2571 -2573 -2617 0
2571 2573 -2617 0
-2571 2573 2617 0
2571 -2573 2617 0
-2574 -2575 -2619 0
2574 2575 -2619 0
-2574 2575 2619 0
2574 -2575 2619 0
-2576 -2577 -2621 0
2576 2577 -2621 0
-2576 2577 2621 0
2576 -2577 2621 0
-2579 -2581 -2623 0
2579 2581 -2623 0
-2579 2581 2623 0
2579 -2581 2623 0
-2583 -2585 -2625 0
2583 2585 -2625 0
-2583 2585 2625 0
2583 -2585 2625 0
-2588 -2589 -2628 0
2588 2589 -2628 0
-2588 2589 2628 0
2588 -2589 2628 0
-2590 -2591 -2629 0
2590 2591 -2629 0
-2590 2591 2629 0
2590 -2591 2629 0
-2592 -2593 -2631 0
2592 2593 -2631 0
-2592 2593 2631 0
2592 -2593 2631 0
-2595 -2597 -2633 0
2595 2597 -2633 0
-2595 2597 2633 0
2595 -2597 2633 0
-2599 -2601 -2635 0
2599 2601 -2635 0
-2599 2601 2635 0
2599 -2601 2635 0
-2603 -2605 -2637 0
2603 2605 -2637 0
-2603 2605 2637 0
2603 -2605 2637 0
-2607 -2609 -2639 0
2607 2609 -2639 0
-2607 2609 2639 0
2607 -2609 2639 0
-2611 -2613 -2641 0
2611 2613 -2641 0
-2611 2613 2641 0
2611 -2613 2641 0
-2614 -2615 -2642 0
2614 2615 -2642 0
-2614 2615 2642 0
2614 -2615 2642 0
-2617 -2619 -2644 0
2617 2619 -2644 0
-2617 2619 2644 0
2617 -2619 2644 0
-2621 -2623 -2646 0
2621 2623 -2646 0
-2621 2623 2646 0
2621 -2623 2646 0
-2625 -2627 -2648 0
2625 2627 -2648 0
-2625 2627 2648 0
2625 -2627 2648 0
-2628 -2629 -2650 0
2628 2629 -2650 0
-2628 2629 2650 0
2628 -2629 2650 0
-2631 -2633 -2652 0
2631 2633 -2652 0
-2631 2633 2652 0
2631 -2633 2652 0
-2635 -2637 -2654 0
2635 2637 -2654 0
-2635 2637 2654 0
2635 -2637 2654 0
-2639 -2641 -2656 0
2639 2641 -2656 0
-2639 2641 2656 0
2639 -2641 2656 0
-2563 -2642 -2658 0
2563 2642 -2658 0
-2563 2642 2658 0
2563 -2642 2658 0
-2644 -2646 -2660 0
2644 2646 -2660 0
-2644 2646 2660 0
2644 -2646 2660 0
-2648 -2650 -2662 0
2648 2650 -2662 0
-2648 2650 2662 0
2648 -2650 2662 0
-2652 -2654 -2664 0
2652 2654 -2664 0
-2652 2654 2664 0
2652 -2654 2664 0
-2656 -2658 -2666 0
2656 2658 -2666 0
-2656 2658 2666 0
2656 -2658 2666 0
-2660 -2662 -2668 0
2660 2662 -2668 0
-2660 2662 2668 0
2660 -2662 2668 0
-2664 -2666 -2668 0
2664 2666 -2668 0
-2664 2666 2668 0
2664 -2666 2668 0
-2570 -2572 -2673 0
2570 2572 -2673 0
-2570 2572 2673 0
2570 -2572 2673 0
-2578 -2580 -2676 0
2578 2580 -2676 0
-2578 2580 2676 0
2578 -2580 2676 0
-2582 -2584 -2678 0
2582 2584 -2678 0
-2582 2584 2678 0
2582 -2584 2678 0
-2586 -2587 -2724 0
2586 2587 -2724 0
-2586 2587 2724 0
2586 -2587 2724 0
-2594 -2596 -2682 0
2594 2596 -2682 0
-2594 2596 2682 0
2594 -2596 2682 0
-2598 -2600 -2684 0
2598 2600 -2684 0
-2598 2600 2684 0
2598 -2600 2684 0
-2602 -2604 -2686 0
2602 2604 -2686 0
-2602 2604 2686 0
2602 -2604 2686 0
-2606 -2608 -2688 0
2606 2608 -2688 0
-2606 2608 2688 0
2606 -2608 2688 0
-2610 -2612 -2690 0
2610 2612 -2690 0
-2610 2612 2690 0
2610 -2612 2690 0
-2616 -2618 -2693 0
2616 2618 -2693 0
-2616 2618 2693 0
2616 -2618 2693 0
-2620 -2622 -2694 0
2620 2622 -2694 0
-2620 2622 2694 0
2620 -2622 2694 0
-2624 -2626 -2696 0
2624 2626 -2696 0
-2624 2626 2696 0
2624 -2626 2696 0
-2630 -2632 -2699 0
2630 2632 -2699 0
-2630 2632 2699 0
2630 -2632 2699 0
-2634 -2636 -2700 0
2634 2636 -2700 0
-2634 2636 2700 0
2634 -2636 2700 0
-2638 -2640 -2702 0
2638 2640 -2702 0
-2638 2640 2702 0
2638 -2640 2702 0
-2643 -2645 -2705 0
2643 2645 -2705 0
-2643 2645 2705 0
2643 -2645 2705 0
-2647 -2649 -2706 0
2647 2649 -2706 0
-2647 2649 2706 0
2647 -2649 2706 0
-2651 -2653 -2708 0
2651 2653 -2708 0
-2651 2653 2708 0
2651 -2653 2708 0
-2655 -2657 -2710 0
2655 2657 -2710 0
-2655 2657 2710 0
2655 -2657 2710 0
-2659 -2661 -2712 0
2659 2661 -2712 0
-2659 2661 2712 0
2659 -2661 2712 0
-2663 -2665 -2714 0
2663 2665 -2714 0
-2663 2665 2714 0
2663 -2665 2714 0
-2667 -2669 -2716 0
2667 2669 -2716 0
-2667 2669 2716 0
2667 -2669 2716 0
-2668 -2670 -2718 0
2668 2670 -2718 0
2668 -2670 2718 0
-2668 2670 2718 0
-2672 -2673 -2719 0
2672 2673 -2719 0
-2672 2673 2719 0
2672 -2673 2719 0
-2674 -2675 -2721 0
2674 2675 -2721 0
-2674 2675 2721 0
2674 -2675 2721 0
-2676 -2678 -2723 0
2676 2678 -2723 0
-2676 2678 2723 0
2676 -2678 2723 0
-2680 -2681 -2725 0
2680 2681 -2725 0
-2680 2681 2725 0
2680 -2681 2725 0
-2682 -2684 -2727 0
2682 2684 -2727 0
-2682 2684 2727 0
2682 -2684 2727 0
-2686 -2688 -2729 0
2686 2688 -2729 0
-2686 2688 2729 0
2686 -2688 2729 0
-2690 -2691 -2731 0
2690 2691 -2731 0
-2690 2691 2731 0
2690 -2691 2731 0
-2692 -2693 -2733 0
2692 2693 -2733 0
-2692 2693 2733 0
2692 -2693 2733 0
-2694 -2696 -2735 0
2694 2696 -2735 0
-2694 2696 2735 0
2694 -2696 2735 0
-2698 -2699 -2737 0
2698 2699 -2737 0
-2698 2699 2737 0
2698 -2699 2737 0
-2700 -2702 -2739 0
2700 2702 -2739 0
-2700 2702 2739 0
2700 -2702 2739 0
-2704 -2705 -2741 0
2704 2705 -2741 0
-2704 2705 2741 0
2704 -2705 2741 0
-2706 -2708 -2743 0
2706 2708 -2743 0
-2706 2708 2743 0
2706 -2708 2743 0
-2710 -2712 -2745 0
2710 2712 -2745 0
-2710 2712 2745 0
2710 -2712 2745 0
-2714 -2716 -2747 0
2714 2716 -2747 0
-2714 2716 2747 0
2714 -2716 2747 0
-2671 -2718 -2749 0
2671 2718 -2749 0
2671 -2718 2749 0
-2671 2718 2749 0
-2719 -2721 -2751 0
2719 2721 -2751 0
-2719 2721 2751 0
2719 -2721 2751 0
-2723 -2724 -2753 0
2723 2724 -2753 0
-2723 2724 2753 0
2723 -2724 2753 0
-2725 -2727 -2755 0
2725 2727 -2755 0
-2725 2727 2755 0
2725 -2727 2755 0
-2729 -2731 -2757 0
2729 2731 -2757 0
-2729 2731 2757 0
2729 -2731 2757 0
-2733 -2735 -2759 0
2733 2735 -2759 0
-2733 2735 2759 0
2733 -2735 2759 0
-2737 -2739 -2761 0
2737 2739 -2761 0
-2737 2739 2761 0
2737 -2739 2761 0
-2741 -2743 -2763 0
2741 2743 -2763 0
-2741 2743 2763 0
2741 -2743 2763 0
-2745 -2747 -2765 0
2745 2747 -2765 0
-2745 2747 2765 0
2745 -2747 2765 0
-2749 -2751 -2767 0
2749 2751 -2767 0
-2749 2751 2767 0
2749 -2751 2767 0
-2753 -2755 -2769 0
2753 2755 -2769 0
-2753 2755 2769 0
2753 -2755 2769 0
-2757 -2759 -2771 0
2757 2759 -2771 0
-2757 2759 2771 0
2757 -2759 2771 0
-2761 -2763 -2773 0
2761 2763 -2773 0
-2761 2763 2773 0
2761 -2763 2773 0
-2765 -2767 -2775 0
2765 2767 -2775 0
-2765 2767 2775 0
2765 -2767 2775 0
-2769 -2771 -2777 0
2769 2771 -2777 0
-2769 2771 2777 0
2769 -2771 2777 0
-2773 -2775 -2777 0
2773 2775 -2777 0
-2773 2775 2777 0
2773 -2775 2777 0
-2677 -2679 -2781 0
2677 2679 -2781 0
-2677 2679 2781 0
2677 -2679 2781 0
-2683 -2685 -2829 0
2683 2685 -2829 0
-2683 2685 2829 0
2683 -2685 2829 0
-2687 -2689 -2784 0
2687 2689 -2784 0
-2687 2689 2784 0
2687 -2689 2784 0
-2695 -2697 -2788 0
2695 2697 -2788 0
-2695 2697 2788 0
2695 -2697 2788 0
-2701 -2703 -2790 0
2701 2703 -2790 0
-2701 2703 2790 0
2701 -2703 2790 0
-2707 -2709 -2792 0
2707 2709 -2792 0
-2707 2709 2792 0
2707 -2709 2792 0
-2711 -2713 -2794 0
2711 2713 -2794 0
-2711 2713 2794 0
2711 -2713 2794 0
-2715 -2717 -2796 0
2715 2717 -2796 0
-2715 2717 2796 0
2715 -2717 2796 0
-2720 -2722 -2798 0
2720 2722 -2798 0
-2720 2722 2798 0
2720 -2722 2798 0
-2726 -2728 -2800 0
2726 2728 -2800 0
-2726 2728 2800 0
2726 -2728 2800 0
-2730 -2732 -2802 0
2730 2732 -2802 0
-2730 2732 2802 0
2730 -2732 2802 0
-2734 -2736 -2804 0
2734 2736 -2804 0
-2734 2736 2804 0
2734 -2736 2804 0
-2738 -2740 -2806 0
2738 2740 -2806 0
-2738 2740 2806 0
2738 -2740 2806 0
-2742 -2744 -2808 0
2742 2744 -2808 0
-2742 2744 2808 0
2742 -2744 2808 0
-2746 -2748 -2810 0
2746 2748 -2810 0
-2746 2748 2810 0
2746 -2748 2810 0
-2750 -2752 -2812 0
2750 2752 -2812 0
-2750 2752 2812 0
2750 -2752 2812 0
-2754 -2756 -2814 0
2754 2756 -2814 0
-2754 2756 2814 0
2754 -2756 2814 0
-2758 -2760 -2816 0
2758 2760 -2816 0
-2758 2760 2816 0
2758 -2760 2816 0
-2762 -2764 -2818 0
2762 2764 -2818 0
-2762 2764 2818 0
2762 -2764 2818 0
-2766 -2768 -2820 0
2766 2768 -2820 0
-2766 2768 2820 0
2766 -2768 2820 0
-2770 -2772 -2822 0
2770 2772 -2822 0
-2770 2772 2822 0
2770 -2772 2822 0
-2774 -2776 -2824 0
2774 2776 -2824 0
-2774 2776 2824 0
2774 -2776 2824 0
-2778 -2779 -2826 0
2778 2779 -2826 0
-2778 2779 2826 0
2778 -2779 2826 0
-2781 -2782 -2828 0
2781 2782 -2828 0
-2781 2782 2828 0
2781 -2782 2828 0
-2784 -2786 -2830 0
2784 2786 -2830 0
-2784 2786 2830 0
2784 -2786 2830 0
-2787 -2788 -2832 0
2787 2788 -2832 0
-2787 2788 2832 0
2787 -2788 2832 0
-2789 -2790 -2834 0
2789 2790 -2834 0
-2789 2790 2834 0
2789 -2790 2834 0
-2791 -2792 -2836 0
2791 2792 -2836 0
-2791 2792 2836 0
2791 -2792 2836 0
-2794 -2796 -2838 0
2794 2796 -2838 0
-2794 2796 2838 0
2794 -2796 2838 0
-2797 -2798 -2840 0
2797 2798 -2840 0
-2797 2798 2840 0
2797 -2798 2840 0
-2799 -2800 -2842 0
2799 2800 -2842 0
-2799 2800 2842 0
2799 -2800 2842 0
-2802 -2804 -2844 0
2802 2804 -2844 0
-2802 2804 2844 0
2802 -2804 2844 0
-2806 -2808 -2846 0
2806 2808 -2846 0
-2806 2808 2846 0
2806 -2808 2846 0
-2810 -2812 -2848 0
2810 2812 -2848 0
-2810 2812 2848 0
2810 -2812 2848 0
-2814 -2816 -2850 0
2814 2816 -2850 0
-2814 2816 2850 0
2814 -2816 2850 0
-2818 -2820 -2852 0
2818 2820 -2852 0
-2818 2820 2852 0
2818 -2820 2852 0
-2822 -2824 -2854 0
2822 2824 -2854 0
-2822 2824 2854 0
2822 -2824 2854 0
-2777 -2826 -2856 0
2777 2826 -2856 0
2777 -2826 2856 0
-2777 2826 2856 0
-2780 -2828 -2858 0
2780 2828 -2858 0
-2780 2828 2858 0
2780 -2828 2858 0
-2829 -2830 -2860 0
2829 2830 -2860 0
-2829 2830 2860 0
2829 -2830 2860 0
-2832 -2834 -2862 0
2832 2834 -2862 0
-2832 2834 2862 0
2832 -2834 2862 0
-2836 -2838 -2864 0
2836 2838 -2864 0
-2836 2838 2864 0
2836 -2838 2864 0
-2840 -2842 -2866 0
2840 2842 -2866 0
-2840 2842 2866 0
2840 -2842 2866 0
-2844 -2846 -2868 0
2844 2846 -2868 0
-2844 2846 2868 0
2844 -2846 2868 0
-2848 -2850 -2870 0
2848 2850 -2870 0
-2848 2850 2870 0
2848 -2850 2870 0
-2852 -2854 -2872 0
2852 2854 -2872 0
-2852 2854 2872 0
2852 -2854 2872 0
-2856 -2858 -2874 0
2856 2858 -2874 0
-2856 2858 2874 0
2856 -2858 2874 0
-2860 -2862 -2876 0
2860 2862 -2876 0
-2860 2862 2876 0
2860 -2862 2876 0
-2864 -2866 -2878 0
2864 2866 -2878 0
-2864 2866 2878 0
2864 -2866 2878 0
-2868 -2870 -2880 0
2868 2870 -2880 0
-2868 2870 2880 0
2868 -2870 2880 0
-2872 -2874 -2882 0
2872 2874 -2882 0
-2872 2874 2882 0
2872 -2874 2882 0
-2876 -2878 -2884 0
2876 2878 -2884 0
-2876 2878 2884 0
2876 -2878 2884 0
-2880 -2882 -2884 0
2880 2882 -2884 0
-2880 2882 2884 0
2880 -2882 2884 0
-2783 -2785 -2934 0
2783 2785 -2934 0
-2783 2785 2934 0
2783 -2785 2934 0
-2793 -2795 -2889 0
2793 2795 -2889 0
-2793 2795 2889 0
2793 -2795 2889 0
-2801 -2803 -2892 0
2801 2803 -2892 0
-2801 2803 2892 0
2801 -2803 2892 0
-2805 -2807 -2894 0
2805 2807 -2894 0
-2805 2807 2894 0
2805 -2807 2894 0
-2809 -2811 -2896 0
2809 2811 -2896 0
-2809 2811 2896 0
2809 -2811 2896 0
-2813 -2815 -2898 0
2813 2815 -2898 0
-2813 2815 2898 0
2813 -2815 2898 0
-2817 -2819 -2900 0
2817 2819 -2900 0
-2817 2819 2900 0
2817 -2819 2900 0
-2821 -2823 -2902 0
2821 2823 -2902 0
-2821 2823 2902 0
2821 -2823 2902 0
-2825 -2827 -2945 0
2825 2827 -2945 0
-2825 2827 2945 0
2825 -2827 2945 0
-2831 -2833 -2905 0
2831 2833 -2905 0
-2831 2833 2905 0
2831 -2833 2905 0
-2835 -2837 -2906 0
2835 2837 -2906 0
-2835 2837 2906 0
2835 -2837 2906 0
-2839 -2841 -2908 0
2839 2841 -2908 0
-2839 2841 2908 0
2839 -2841 2908 0
-2843 -2845 -2910 0
2843 2845 -2910 0
-2843 2845 2910 0
2843 -2845 2910 0
-2847 -2849 -2912 0
2847 2849 -2912 0
-2847 2849 2912 0
2847 -2849 2912 0
-2851 -2853 -2914 0
2851 2853 -2914 0
-2851 2853 2914 0
2851 -2853 2914 0
-2855 -2857 -2916 0
2855 2857 -2916 0
-2855 2857 2916 0
2855 -2857 2916 0
-2859 -2861 -2918 0
2859 2861 -2918 0
-2859 2861 2918 0
2859 -2861 2918 0
-2863 -2865 -2920 0
2863 2865 -2920 0
-2863 2865 2920 0
2863 -2865 2920 0
-2867 -2869 -2922 0
2867 2869 -2922 0
-2867 2869 2922 0
2867 -2869 2922 0
-2871 -2873 -2924 0
2871 2873 -2924 0
-2871 2873 2924 0
2871 -2873 2924 0
-2875 -2877 -2926 0
2875 2877 -2926 0
-2875 2877 2926 0
2875 -2877 2926 0
-2879 -2881 -2928 0
2879 2881 -2928 0
-2879 2881 2928 0
2879 -2881 2928 0
-2883 -2885 -2930 0
2883 2885 -2930 0
-2883 2885 2930 0
2883 -2885 2930 0
-2884 -2886 -2932 0
2884 2886 -2932 0
2884 -2886 2932 0
-2884 2886 2932 0
-2888 -2889 -2936 0
2888 2889 -2936 0
-2888 2889 2936 0
2888 -2889 2936 0
-2890 -2891 -2937 0
2890 2891 -2937 0
-2890 2891 2937 0
2890 -2891 2937 0
-2892 -2894 -2939 0
2892 2894 -2939 0
-2892 2894 2939 0
2892 -2894 2939 0
-2896 -2898 -2941 0
2896 2898 -2941 0
-2896 2898 2941 0
2896 -2898 2941 0
-2900 -2902 -2943 0
2900 2902 -2943 0
-2900 2902 2943 0
2900 -2902 2943 0
-2904 -2905 -2946 0
2904 2905 -2946 0
-2904 2905 2946 0
2904 -2905 2946 0
-2906 -2908 -2947 0
2906 2908 -2947 0
-2906 2908 2947 0
2906 -2908 2947 0
-2910 -2912 -2949 0
2910 2912 -2949 0
-2910 2912 2949 0
2910 -2912 2949 0
-2914 -2916 -2951 0
2914 2916 -2951 0
-2914 2916 2951 0
2914 -2916 2951 0
-2918 -2920 -2953 0
2918 2920 -2953 0
-2918 2920 2953 0
2918 -2920 2953 0
-2922 -2924 -2955 0
2922 2924 -2955 0
-2922 2924 2955 0
2922 -2924 2955 0
-2926 -2928 -2957 0
2926 2928 -2957 0
-2926 2928 2957 0
2926 -2928 2957 0
-2930 -2932 -2959 0
2930 2932 -2959 0
-2930 2932 2959 0
2930 -2932 2959 0
-2887 -2934 -2961 0
2887 2934 -2961 0
-2887 2934 2961 0
2887 -2934 2961 0
-2935 -2936 -2963 0
2935 2936 -2963 0
-2935 2936 2963 0
2935 -2936 2963 0
-2937 -2939 -2965 0
2937 2939 -2965 0
-2937 2939 2965 0
2937 -2939 2965 0
-2941 -2943 -2967 0
2941 2943 -2967 0
-2941 2943 2967 0
2941 -2943 2967 0
-2945 -2946 -2969 0
2945 2946 -2969 0
-2945 2946 2969 0
2945 -2946 2969 0
-2947 -2949 -2971 0
2947 2949 -2971 0
-2947 2949 2971 0
2947 -2949 2971 0
-2951 -2953 -2973 0
2951 2953 -2973 0
-2951 2953 2973 0
2951 -2953 2973 0
-2955 -2957 -2975 0
2955 2957 -2975 0
-2955 2957 2975 0
2955 -2957 2975 0
-2959 -2961 -2977 0
2959 2961 -2977 0
-2959 2961 2977 0
2959 -2961 2977 0
-2963 -2965 -2979 0
2963 2965 -2979 0
-2963 2965 2979 0
2963 -2965 2979 0
-2967 -2969 -2981 0
2967 2969 -2981 0
-2967 2969 2981 0
2967 -2969 2981 0
-2971 -2973 -2983 0
2971 2973 -2983 0
-2971 2973 2983 0
2971 -2973 2983 0
-2975 -2977 -2985 0
2975 2977 -2985 0
-2975 2977 2985 0
2975 -2977 2985 0
-2979 -2981 -2987 0
2979 2981 -2987 0
-2979 2981 2987 0
2979 -2981 2987 0
-2983 -2985 -2987 0
2983 2985 -2987 0
-2983 2985 2987 0
2983 -2985 2987 0
-2893 -2895 -2992 0
2893 2895 -2992 0
-2893 2895 2992 0
2893 -2895 2992 0
-2897 -2899 -2993 0
2897 2899 -2993 0
-2897 2899 2993 0
2897 -2899 2993 0
-2901 -2903 -2995 0
2901 2903 -2995 0
-2901 2903 2995 0
2901 -2903 2995 0
-2907 -2909 -2999 0
2907 2909 -2999 0
-2907 2909 2999 0
2907 -2909 2999 0
-2911 -2913 -3001 0
2911 2913 -3001 0
-2911 2913 3001 0
2911 -2913 3001 0
-2915 -2917 -3003 0
2915 2917 -3003 0
-2915 2917 3003 0
2915 -2917 3003 0
-2919 -2921 -3005 0
2919 2921 -3005 0
-2919 2921 3005 0
2919 -2921 3005 0
-2923 -2925 -3007 0
2923 2925 -3007 0
-2923 2925 3007 0
2923 -2925 3007 0
-2927 -2929 -3009 0
2927 2929 -3009 0
-2927 2929 3009 0
2927 -2929 3009 0
-2931 -2933 -3011 0
2931 2933 -3011 0
-2931 2933 3011 0
2931 -2933 3011 0
-2938 -2940 -3013 0
2938 2940 -3013 0
-2938 2940 3013 0
2938 -2940 3013 0
-2942 -2944 -3014 0
2942 2944 -3014 0
-2942 2944 3014 0
2942 -2944 3014 0
-2948 -2950 -3016 0
2948 2950 -3016 0
-2948 2950 3016 0
2948 -2950 3016 0
-2952 -2954 -3018 0
2952 2954 -3018 0
-2952 2954 3018 0
2952 -2954 3018 0
-2956 -2958 -3020 0
2956 2958 -3020 0
-2956 2958 3020 0
2956 -2958 3020 0
-2960 -2962 -3022 0
2960 2962 -3022 0
-2960 2962 3022 0
2960 -2962 3022 0
-2964 -2966 -3024 0
2964 2966 -3024 0
-2964 2966 3024 0
2964 -2966 3024 0
-2968 -2970 -3026 0
2968 2970 -3026 0
-2968 2970 3026 0
2968 -2970 3026 0
-2972 -2974 -3028 0
2972 2974 -3028 0
-2972 2974 3028 0
2972 -2974 3028 0
-2976 -2978 -3030 0
2976 2978 -3030 0
-2976 2978 3030 0
2976 -2978 3030 0
-2980 -2982 -3032 0
2980 2982 -3032 0
-2980 2982 3032 0
2980 -2982 3032 0
-2984 -2986 -3034 0
2984 2986 -3034 0
-2984 2986 3034 0
2984 -2986 3034 0
-2988 -2989 -3036 0
2988 2989 -3036 0
-2988 2989 3036 0
2988 -2989 3036 0
-2992 -2993 -3037 0
2992 2993 -3037 0
-2992 2993 3037 0
2992 -2993 3037 0
-2995 -2997 -3039 0
2995 2997 -3039 0
-2995 2997 3039 0
2995 -2997 3039 0
-2998 -2999 -3041 0
2998 2999 -3041 0
-2998 2999 3041 0
2998 -2999 3041 0
-3001 -3003 -3043 0
3001 3003 -3043 0
-3001 3003 3043 0
3001 -3003 3043 0
-3005 -3007 -3045 0
3005 3007 -3045 0
-3005 3007 3045 0
3005 -3007 3045 0
-3009 -3011 -3047 0
3009 3011 -3047 0
-3009 3011 3047 0
3009 -3011 3047 0
-3013 -3014 -3049 0
3013 3014 -3049 0
-3013 3014 3049 0
3013 -3014 3049 0
-3015 -3016 -3050 0
3015 3016 -3050 0
-3015 3016 3050 0
3015 -3016 3050 0
-3018 -3020 -3052 0
3018 3020 -3052 0
-3018 3020 3052 0
3018 -3020 3052 0
-3022 -3024 -3054 0
3022 3024 -3054 0
-3022 3024 3054 0
3022 -3024 3054 0
-3026 -3028 -3056 0
3026 3028 -3056 0
-3026 3028 3056 0
3026 -3028 3056 0
-3030 -3032 -3058 0
3030 3032 -3058 0
-3030 3032 3058 0
3030 -3032 3058 0
-3034 -3036 -3060 0
3034 3036 -3060 0
-3034 3036 3060 0
3034 -3036 3060 0
-2987 -2990 -3062 0
2987 2990 -3062 0
-2987 2990 3062 0
2987 -2990 3062 0
-2991 -3037 -3064 0
2991 3037 -3064 0
-2991 3037 3064 0
2991 -3037 3064 0
-3039 -3041 -3066 0
3039 3041 -3066 0
-3039 3041 3066 0
3039 -3041 3066 0
-3043 -3045 -3068 0
3043 3045 -3068 0
-3043 3045 3068 0
3043 -3045 3068 0
-3012 -3047 -3070 0
3012 3047 -3070 0
3012 -3047 3070 0
-3012 3047 3070 0
-3049 -3050 -3072 0
3049 3050 -3072 0
-3049 3050 3072 0
3049 -3050 3072 0
-3052 -3054 -3074 0
3052 3054 -3074 0
-3052 3054 3074 0
3052 -3054 3074 0
-3056 -3058 -3076 0
3056 3058 -3076 0
-3056 3058 3076 0
3056 -3058 3076 0
-3060 -3062 -3078 0
3060 3062 -3078 0
-3060 3062 3078 0
3060 -3062 3078 0
-3064 -3066 -3080 0
3064 3066 -3080 0
-3064 3066 3080 0
3064 -3066 3080 0
-3068 -3070 -3082 0
3068 3070 -3082 0
-3068 3070 3082 0
3068 -3070 3082 0
-3072 -3074 -3084 0
3072 3074 -3084 0
-3072 3074 3084 0
3072 -3074 3084 0
-3076 -3078 -3086 0
3076 3078 -3086 0
-3076 3078 3086 0
3076 -3078 3086 0
-3080 -3082 -3088 0
3080 3082 -3088 0
-3080 3082 3088 0
3080 -3082 3088 0
-3084 -3086 -3088 0
3084 3086 -3088 0
-3084 3086 3088 0
3084 -3086 3088 0
-2994 -2996 -3092 0
2994 2996 -3092 0
-2994 2996 3092 0
2994 -2996 3092 0
-3000 -3002 -3137 0
3000 3002 -3137 0
-3000 3002 3137 0
3000 -3002 3137 0
-3004 -3006 -3093 0
3004 3006 -3093 0
-3004 3006 3093 0
3004 -3006 3093 0
-3008 -3010 -3095 0
3008 3010 -3095 0
-3008 3010 3095 0
3008 -3010 3095 0
-3017 -3019 -3100 0
3017 3019 -3100 0
-3017 3019 3100 0
3017 -3019 3100 0
-3021 -3023 -3101 0
3021 3023 -3101 0
-3021 3023 3101 0
3021 -3023 3101 0
-3025 -3027 -3103 0
3025 3027 -3103 0
-3025 3027 3103 0
3025 -3027 3103 0
-3029 -3031 -3105 0
3029 3031 -3105 0
-3029 3031 3105 0
3029 -3031 3105 0
-3033 -3035 -3107 0
3033 3035 -3107 0
-3033 3035 3107 0
3033 -3035 3107 0
-3038 -3040 -3110 0
3038 3040 -3110 0
-3038 3040 3110 0
3038 -3040 3110 0
-3042 -3044 -3112 0
3042 3044 -3112 0
-3042 3044 3112 0
3042 -3044 3112 0
-3046 -3048 -3114 0
3046 3048 -3114 0
-3046 3048 3114 0
3046 -3048 3114 0
-3051 -3053 -3116 0
3051 3053 -3116 0
-3051 3053 3116 0
3051 -3053 3116 0
-3055 -3057 -3118 0
3055 3057 -3118 0
-3055 3057 3118 0
3055 -3057 3118 0
-3059 -3061 -3120 0
3059 3061 -3120 0
-3059 3061 3120 0
3059 -3061 3120 0
-3063 -3065 -3122 0
3063 3065 -3122 0
-3063 3065 3122 0
3063 -3065 3122 0
-3067 -3069 -3124 0
3067 3069 -3124 0
-3067 3069 3124 0
3067 -3069 3124 0
-3071 -3073 -3126 0
3071 3073 -3126 0
-3071 3073 3126 0
3071 -3073 3126 0
-3075 -3077 -3128 0
3075 3077 -3128 0
-3075 3077 3128 0
3075 -3077 3128 0
-3079 -3081 -3130 0
3079 3081 -3130 0
-3079 3081 3130 0
3079 -3081 3130 0
-3083 -3085 -3132 0
3083 3085 -3132 0
-3083 3085 3132 0
3083 -3085 3132 0
-3087 -3089 -3134 0
3087 3089 -3134 0
-3087 3089 3134 0
3087 -3089 3134 0
-3088 -3090 -3160 0
3088 3090 -3160 0
3088 -3090 3160 0
-3088 3090 3160 0
-3091 -3092 -3136 0
3091 3092 -3136 0
-3091 3092 3136 0
3091 -3092 3136 0
-3093 -3095 -3138 0
3093 3095 -3138 0
-3093 3095 3138 0
3093 -3095 3138 0
-3097 -3098 -3140 0
3097 3098 -3140 0
-3097 3098 3140 0
3097 -3098 3140 0
-3099 -3100 -3142 0
3099 3100 -3142 0
-3099 3100 3142 0
3099 -3100 3142 0
-3101 -3103 -3144 0
3101 3103 -3144 0
-3101 3103 3144 0
3101 -3103 3144 0
-3105 -3107 -3146 0
3105 3107 -3146 0
-3105 3107 3146 0
3105 -3107 3146 0
-3110 -3112 -3147 0
3110 3112 -3147 0
-3110 3112 3147 0
3110 -3112 3147 0
-3114 -3115 -3149 0
3114 3115 -3149 0
-3114 3115 3149 0
3114 -3115 3149 0
-3116 -3118 -3151 0
3116 3118 -3151 0
-3116 3118 3151 0
3116 -3118 3151 0
-3120 -3122 -3153 0
3120 3122 -3153 0
-3120 3122 3153 0
3120 -3122 3153 0
-3124 -3126 -3155 0
3124 3126 -3155 0
-3124 3126 3155 0
3124 -3126 3155 0
-3128 -3130 -3157 0
3128 3130 -3157 0
-3128 3130 3157 0
3128 -3130 3157 0
-3132 -3134 -3159 0
3132 3134 -3159 0
-3132 3134 3159 0
3132 -3134 3159 0
-3136 -3137 -3161 0
3136 3137 -3161 0
-3136 3137 3161 0
3136 -3137 3161 0
-3138 -3140 -3163 0
3138 3140 -3163 0
-3138 3140 3163 0
3138 -3140 3163 0
-3142 -3144 -3165 0
3142 3144 -3165 0
-3142 3144 3165 0
3142 -3144 3165 0
-3109 -3146 -3167 0
3109 3146 -3167 0
3109 -3146 3167 0
-3109 3146 3167 0
-3147 -3149 -3169 0
3147 3149 -3169 0
-3147 3149 3169 0
3147 -3149 3169 0
-3151 -3153 -3171 0
3151 3153 -3171 0
-3151 3153 3171 0
3151 -3153 3171 0
-3155 -3157 -3173 0
3155 3157 -3173 0
-3155 3157 3173 0
3155 -3157 3173 0
-3159 -3160 -3175 0
3159 3160 -3175 0
-3159 3160 3175 0
3159 -3160 3175 0
-3161 -3163 -3177 0
3161 3163 -3177 0
-3161 3163 3177 0
3161 -3163 3177 0
-3165 -3167 -3179 0
3165 3167 -3179 0
-3165 3167 3179 0
3165 -3167 3179 0
-3169 -3171 -3181 0
3169 3171 -3181 0
-3169 3171 3181 0
3169 -3171 3181 0
-3173 -3175 -3183 0
3173 3175 -3183 0
-3173 3175 3183 0
3173 -3175 3183 0
-3177 -3179 -3185 0
3177 3179 -3185 0
-3177 3179 3185 0
3177 -3179 3185 0
-3181 -3183 -3185 0
3181 3183 -3185 0
-3181 3183 3185 0
3181 -3183 3185 0
-3094 -3096 -3232 0
3094 3096 -3232 0
-3094 3096 3232 0
3094 -3096 3232 0
-3102 -3104 -3191 0
3102 3104 -3191 0
-3102 3104 3191 0
3102 -3104 3191 0
-3106 -3108 -3234 0
3106 3108 -3234 0
-3106 3108 3234 0
3106 -3108 3234 0
-3111 -3113 -3194 0
3111 3113 -3194 0
-3111 3113 3194 0
3111 -3113 3194 0
-3117 -3119 -3196 0
3117 3119 -3196 0
-3117 3119 3196 0
3117 -3119 3196 0
-3121 -3123 -3197 0
3121 3123 -3197 0
-3121 3123 3197 0
3121 -3123 3197 0
-3125 -3127 -3199 0
3125 3127 -3199 0
-3125 3127 3199 0
3125 -3127 3199 0
-3129 -3131 -3201 0
3129 3131 -3201 0
-3129 3131 3201 0
3129 -3131 3201 0
-3133 -3135 -3203 0
3133 3135 -3203 0
-3133 3135 3203 0
3133 -3135 3203 0
-3139 -3141 -3207 0
3139 3141 -3207 0
-3139 3141 3207 0
3139 -3141 3207 0
-3143 -3145 -3209 0
3143 3145 -3209 0
-3143 3145 3209 0
3143 -3145 3209 0
-3148 -3150 -3212 0
3148 3150 -3212 0
-3148 3150 3212 0
3148 -3150 3212 0
-3152 -3154 -3213 0
3152 3154 -3213 0
-3152 3154 3213 0
3152 -3154 3213 0
-3156 -3158 -3215 0
3156 3158 -3215 0
-3156 3158 3215 0
3156 -3158 3215 0
-3162 -3164 -3218 0
3162 3164 -3218 0
-3162 3164 3218 0
3162 -3164 3218 0
-3166 -3168 -3219 0
3166 3168 -3219 0
-3166 3168 3219 0
3166 -3168 3219 0
-3170 -3172 -3221 0
3170 3172 -3221 0
-3170 3172 3221 0
3170 -3172 3221 0
-3174 -3176 -3223 0
3174 3176 -3223 0
-3174 3176 3223 0
3174 -3176 3223 0
-3178 -3180 -3225 0
3178 3180 -3225 0
-3178 3180 3225 0
3178 -3180 3225 0
-3182 -3184 -3227 0
3182 3184 -3227 0
-3182 3184 3227 0
3182 -3184 3227 0
-3186 -3187 -3229 0
3186 3187 -3229 0
-3186 3187 3229 0
3186 -3187 3229 0
-3188 -3189 -3231 0
3188 3189 -3231 0
-3188 3189 3231 0
3188 -3189 3231 0
-3190 -3191 -3233 0
3190 3191 -3233 0
-3190 3191 3233 0
3190 -3191 3233 0
-3194 -3195 -3235 0
3194 3195 -3235 0
-3194 3195 3235 0
3194 -3195 3235 0
-3196 -3197 -3236 0
3196 3197 -3236 0
-3196 3197 3236 0
3196 -3197 3236 0
-3199 -3201 -3238 0
3199 3201 -3238 0
-3199 3201 3238 0
3199 -3201 3238 0
-3203 -3205 -3240 0
3203 3205 -3240 0
-3203 3205 3240 0
3203 -3205 3240 0
-3206 -3207 -3242 0
3206 3207 -3242 0
-3206 3207 3242 0
3206 -3207 3242 0
-3209 -3211 -3244 0
3209 3211 -3244 0
-3209 3211 3244 0
3209 -3211 3244 0
-3212 -3213 -3246 0
3212 3213 -3246 0
-3212 3213 3246 0
3212 -3213 3246 0
-3215 -3217 -3248 0
3215 3217 -3248 0
-3215 3217 3248 0
3215 -3217 3248 0
-3218 -3219 -3250 0
3218 3219 -3250 0
-3218 3219 3250 0
3218 -3219 3250 0
-3221 -3223 -3252 0
3221 3223 -3252 0
-3221 3223 3252 0
3221 -3223 3252 0
-3225 -3227 -3254 0
3225 3227 -3254 0
-3225 3227 3254 0
3225 -3227 3254 0
-3185 -3229 -3256 0
3185 3229 -3256 0
3185 -3229 3256 0
-3185 3229 3256 0
-3231 -3232 -3258 0
3231 3232 -3258 0
-3231 3232 3258 0
3231 -3232 3258 0
-3233 -3234 -3260 0
3233 3234 -3260 0
-3233 3234 3260 0
3233 -3234 3260 0
-3235 -3236 -3262 0
3235 3236 -3262 0
-3235 3236 3262 0
3235 -3236 3262 0
-3238 -3240 -3264 0
3238 3240 -3264 0
-3238 3240 3264 0
3238 -3240 3264 0
-3242 -3244 -3266 0
3242 3244 -3266 0
-3242 3244 3266 0
3242 -3244 3266 0
-3246 -3248 -3268 0
3246 3248 -3268 0
-3246 3248 3268 0
3246 -3248 3268 0
-3250 -3252 -3270 0
3250 3252 -3270 0
-3250 3252 3270 0
3250 -3252 3270 0
-3254 -3256 -3272 0
3254 3256 -3272 0
-3254 3256 3272 0
3254 -3256 3272 0
-3258 -3260 -3274 0
3258 3260 -3274 0
-3258 3260 3274 0
3258 -3260 3274 0
-3262 -3264 -3276 0
3262 3264 -3276 0
-3262 3264 3276 0
3262 -3264 3276 0
-3266 -3268 -3278 0
3266 3268 -3278 0
-3266 3268 3278 0
3266 -3268 3278 0
-3270 -3272 -3280 0
3270 3272 -3280 0
-3270 3272 3280 0
3270 -3272 3280 0
-3274 -3276 -3282 0
3274 3276 -3282 0
-3274 3276 3282 0
3274 -3276 3282 0
-3278 -3280 -3282 0
3278 3280 -3282 0
-3278 3280 3282 0
3278 -3280 3282 0
-3192 -3193 -3328 0
3192 3193 -3328 0
-3192 3193 3328 0
3192 -3193 3328 0
-3198 -3200 -3288 0
3198 3200 -3288 0
-3198 3200 3288 0
3198 -3200 3288 0
-3202 -3204 -3290 0
3202 3204 -3290 0
-3202 3204 3290 0
3202 -3204 3290 0
-3208 -3210 -3333 0
3208 3210 -3333 0
-3208 3210 3333 0
3208 -3210 3333 0
-3214 -3216 -3293 0
3214 3216 -3293 0
-3214 3216 3293 0
3214 -3216 3293 0
-3220 -3222 -3295 0
3220 3222 -3295 0
-3220 3222 3295 0
3220 -3222 3295 0
-3224 -3226 -3296 0
3224 3226 -3296 0
-3224 3226 3296 0
3224 -3226 3296 0
-3228 -3230 -3298 0
3228 3230 -3298 0
-3228 3230 3298 0
3228 -3230 3298 0
-3237 -3239 -3303 0
3237 3239 -3303 0
-3237 3239 3303 0
3237 -3239 3303 0
-3241 -3243 -3304 0
3241 3243 -3304 0
-3241 3243 3304 0
3241 -3243 3304 0
-3245 -3247 -3306 0
3245 3247 -3306 0
-3245 3247 3306 0
3245 -3247 3306 0
-3249 -3251 -3308 0
3249 3251 -3308 0
-3249 3251 3308 0
3249 -3251 3308 0
-3253 -3255 -3310 0
3253 3255 -3310 0
-3253 3255 3310 0
3253 -3255 3310 0
-3257 -3259 -3312 0
3257 3259 -3312 0
-3257 3259 3312 0
3257 -3259 3312 0
-3261 -3263 -3314 0
3261 3263 -3314 0
-3261 3263 3314 0
3261 -3263 3314 0
-3265 -3267 -3316 0
3265 3267 -3316 0
-3265 3267 3316 0
3265 -3267 3316 0
-3269 -3271 -3318 0
3269 3271 -3318 0
-3269 3271 3318 0
3269 -3271 3318 0
-3273 -3275 -3320 0
3273 3275 -3320 0
-3273 3275 3320 0
3273 -3275 3320 0
-3277 -3279 -3322 0
3277 3279 -3322 0
-3277 3279 3322 0
3277 -3279 3322 0
-3281 -3283 -3324 0
3281 3283 -3324 0
-3281 3283 3324 0
3281 -3283 3324 0
-3282 -3284 -3326 0
3282 3284 -3326 0
3282 -3284 3326 0
-3282 3284 3326 0
-3286 -3287 -3329 0
3286 3287 -3329 0
-3286 3287 3329 0
3286 -3287 3329 0
-3288 -3290 -3331 0
3288 3290 -3331 0
-3288 3290 3331 0
3288 -3290 3331 0
-3292 -3293 -3334 0
3292 3293 -3334 0
-3292 3293 3334 0
3292 -3293 3334 0
-3294 -3295 -3335 0
3294 3295 -3335 0
-3294 3295 3335 0
3294 -3295 3335 0
-3296 -3298 -3337 0
3296 3298 -3337 0
-3296 3298 3337 0
3296 -3298 3337 0
-3300 -3301 -3339 0
3300 3301 -3339 0
-3300 3301 3339 0
3300 -3301 3339 0
-3302 -3303 -3341 0
3302 3303 -3341 0
-3302 3303 3341 0
3302 -3303 3341 0
-3304 -3306 -3343 0
3304 3306 -3343 0
-3304 3306 3343 0
3304 -3306 3343 0
-3308 -3310 -3345 0
3308 3310 -3345 0
-3308 3310 3345 0
3308 -3310 3345 0
-3312 -3314 -3347 0
3312 3314 -3347 0
-3312 3314 3347 0
3312 -3314 3347 0
-3316 -3318 -3349 0
3316 3318 -3349 0
-3316 3318 3349 0
3316 -3318 3349 0
-3320 -3322 -3351 0
3320 3322 -3351 0
-3320 3322 3351 0
3320 -3322 3351 0
-3324 -3326 -3353 0
3324 3326 -3353 0
-3324 3326 3353 0
3324 -3326 3353 0
-3285 -3328 -3355 0
3285 3328 -3355 0
-3285 3328 3355 0
3285 -3328 3355 0
-3329 -3331 -3357 0
3329 3331 -3357 0
-3329 3331 3357 0
3329 -3331 3357 0
-3333 -3334 -3359 0
3333 3334 -3359 0
-3333 3334 3359 0
3333 -3334 3359 0
-3335 -3337 -3361 0
3335 3337 -3361 0
-3335 3337 3361 0
3335 -3337 3361 0
-3339 -3341 -3363 0
3339 3341 -3363 0
-3339 3341 3363 0
3339 -3341 3363 0
-3343 -3345 -3365 0
3343 3345 -3365 0
-3343 3345 3365 0
3343 -3345 3365 0
-3347 -3349 -3367 0
3347 3349 -3367 0
-3347 3349 3367 0
3347 -3349 3367 0
-3351 -3353 -3369 0
3351 3353 -3369 0
-3351 3353 3369 0
3351 -3353 3369 0
-3355 -3357 -3371 0
3355 3357 -3371 0
-3355 3357 3371 0
3355 -3357 3371 0
-3359 -3361 -3373 0
3359 3361 -3373 0
-3359 3361 3373 0
3359 -3361 3373 0
-3363 -3365 -3375 0
3363 3365 -3375 0
-3363 3365 3375 0
3363 -3365 3375 0
-3367 -3369 -3377 0
3367 3369 -3377 0
-3367 3369 3377 0
3367 -3369 3377 0
-3371 -3373 -3379 0
3371 3373 -3379 0
-3371 3373 3379 0
3371 -3373 3379 0
-3375 -3377 -3379 0
3375 3377 -3379 0
-3375 3377 3379 0
3375 -3377 3379 0
-3289 -3291 -3383 0
3289 3291 -3383 0
-3289 3291 3383 0
3289 -3291 3383 0
-3297 -3299 -3425 0
3297 3299 -3425 0
-3297 3299 3425 0
3297 -3299 3425 0
-3305 -3307 -3388 0
3305 3307 -3388 0
-3305 3307 3388 0
3305 -3307 3388 0
-3309 -3311 -3390 0
3309 3311 -3390 0
-3309 3311 3390 0
3309 -3311 3390 0
-3313 -3315 -3392 0
3313 3315 -3392 0
-3313 3315 3392 0
3313 -3315 3392 0
-3317 -3319 -3394 0
3317 3319 -3394 0
-3317 3319 3394 0
3317 -3319 3394 0
-3321 -3323 -3396 0
3321 3323 -3396 0
-3321 3323 3396 0
3321 -3323 3396 0
-3325 -3327 -3431 0
3325 3327 -3431 0
-3325 3327 3431 0
3325 -3327 3431 0
-3330 -3332 -3399 0
3330 3332 -3399 0
-3330 3332 3399 0
3330 -3332 3399 0
-3336 -3338 -3401 0
3336 3338 -3401 0
-3336 3338 3401 0
3336 -3338 3401 0
-3340 -3342 -3402 0
3340 3342 -3402 0
-3340 3342 3402 0
3340 -3342 3402 0
-3344 -3346 -3404 0
3344 3346 -3404 0
-3344 3346 3404 0
3344 -3346 3404 0
-3348 -3350 -3406 0
3348 3350 -3406 0
-3348 3350 3406 0
3348 -3350 3406 0
-3352 -3354 -3408 0
3352 3354 -3408 0
-3352 3354 3408 0
3352 -3354 3408 0
-3356 -3358 -3410 0
3356 3358 -3410 0
-3356 3358 3410 0
3356 -3358 3410 0
-3360 -3362 -3412 0
3360 3362 -3412 0
-3360 3362 3412 0
3360 -3362 3412 0
-3364 -3366 -3414 0
3364 3366 -3414 0
-3364 3366 3414 0
3364 -3366 3414 0
-3368 -3370 -3416 0
3368 3370 -3416 0
-3368 3370 3416 0
3368 -3370 3416 0
-3372 -3374 -3418 0
3372 3374 -3418 0
-3372 3374 3418 0
3372 -3374 3418 0
-3376 -3378 -3420 0
3376 3378 -3420 0
-3376 3378 3420 0
3376 -3378 3420 0
-3380 -3381 -3422 0
3380 3381 -3422 0
-3380 3381 3422 0
3380 -3381 3422 0
-3383 -3384 -3423 0
3383 3384 -3423 0
-3383 3384 3423 0
3383 -3384 3423 0
-3385 -3386 -3424 0
3385 3386 -3424 0
-3385 3386 3424 0
3385 -3386 3424 0
-3387 -3388 -3426 0
3387 3388 -3426 0
-3387 3388 3426 0
3387 -3388 3426 0
-3390 -3392 -3428 0
3390 3392 -3428 0
-3390 3392 3428 0
3390 -3392 3428 0
-3394 -3396 -3430 0
3394 3396 -3430 0
-3394 3396 3430 0
3394 -3396 3430 0
-3399 -3400 -3432 0
3399 3400 -3432 0
-3399 3400 3432 0
3399 -3400 3432 0
-3401 -3402 -3434 0
3401 3402 -3434 0
-3401 3402 3434 0
3401 -3402 3434 0
-3404 -3406 -3436 0
3404 3406 -3436 0
-3404 3406 3436 0
3404 -3406 3436 0
-3408 -3410 -3438 0
3408 3410 -3438 0
-3408 3410 3438 0
3408 -3410 3438 0
-3412 -3414 -3440 0
3412 3414 -3440 0
-3412 3414 3440 0
3412 -3414 3440 0
-3416 -3418 -3442 0
3416 3418 -3442 0
-3416 3418 3442 0
3416 -3418 3442 0
-3420 -3422 -3444 0
3420 3422 -3444 0
-3420 3422 3444 0
3420 -3422 3444 0
-3379 -3382 -3446 0
3379 3382 -3446 0
-3379 3382 3446 0
3379 -3382 3446 0
-3423 -3424 -3448 0
3423 3424 -3448 0
-3423 3424 3448 0
3423 -3424 3448 0
-3425 -3426 -3450 0
3425 3426 -3450 0
-3425 3426 3450 0
3425 -3426 3450 0
-3428 -3430 -3452 0
3428 3430 -3452 0
-3428 3430 3452 0
3428 -3430 3452 0
-3431 -3432 -3454 0
3431 3432 -3454 0
-3431 3432 3454 0
3431 -3432 3454 0
-3434 -3436 -3456 0
3434 3436 -3456 0
-3434 3436 3456 0
3434 -3436 3456 0
-3438 -3440 -3458 0
3438 3440 -3458 0
-3438 3440 3458 0
3438 -3440 3458 0
-3442 -3444 -3460 0
3442 3444 -3460 0
-3442 3444 3460 0
3442 -3444 3460 0
-3446 -3448 -3462 0
3446 3448 -3462 0
-3446 3448 3462 0
3446 -3448 3462 0
-3450 -3452 -3464 0
3450 3452 -3464 0
-3450 3452 3464 0
3450 -3452 3464 0
-3454 -3456 -3466 0
3454 3456 -3466 0
-3454 3456 3466 0
3454 -3456 3466 0
-3458 -3460 -3468 0
3458 3460 -3468 0
-3458 3460 3468 0
3458 -3460 3468 0
-3462 -3464 -3470 0
3462 3464 -3470 0
-3462 3464 3470 0
3462 -3464 3470 0
-3466 -3468 -3470 0
3466 3468 -3470 0
-3466 3468 3470 0
3466 -3468 3470 0
-3389 -3391 -3516 0
3389 3391 -3516 0
-3389 3391 3516 0
3389 -3391 3516 0
-3393 -3395 -3475 0
3393 3395 -3475 0
-3393 3395 3475 0
3393 -3395 3475 0
-3397 -3398 -3477 0
3397 3398 -3477 0
-3397 3398 3477 0
3397 -3398 3477 0
-3403 -3405 -3481 0
3403 3405 -3481 0
-3403 3405 3481 0
3403 -3405 3481 0
-3407 -3409 -3483 0
3407 3409 -3483 0
-3407 3409 3483 0
3407 -3409 3483 0
-3411 -3413 -3485 0
3411 3413 -3485 0
-3411 3413 3485 0
3411 -3413 3485 0
-3415 -3417 -3487 0
3415 3417 -3487 0
-3415 3417 3487 0
3415 -3417 3487 0
-3419 -3421 -3489 0
3419 3421 -3489 0
-3419 3421 3489 0
3419 -3421 3489 0
-3427 -3429 -3493 0
3427 3429 -3493 0
-3427 3429 3493 0
3427 -3429 3493 0
-3433 -3435 -3495 0
3433 3435 -3495 0
-3433 3435 3495 0
3433 -3435 3495 0
-3437 -3439 -3497 0
3437 3439 -3497 0
-3437 3439 3497 0
3437 -3439 3497 0
-3441 -3443 -3499 0
3441 3443 -3499 0
-3441 3443 3499 0
3441 -3443 3499 0
-3445 -3447 -3501 0
3445 3447 -3501 0
-3445 3447 3501 0
3445 -3447 3501 0
-3449 -3451 -3503 0
3449 3451 -3503 0
-3449 3451 3503 0
3449 -3451 3503 0
-3453 -3455 -3505 0
3453 3455 -3505 0
-3453 3455 3505 0
3453 -3455 3505 0
-3457 -3459 -3507 0
3457 3459 -3507 0
-3457 3459 3507 0
3457 -3459 3507 0
-3461 -3463 -3509 0
3461 3463 -3509 0
-3461 3463 3509 0
3461 -3463 3509 0
-3465 -3467 -3511 0
3465 3467 -3511 0
-3465 3467 3511 0
3465 -3467 3511 0
-3469 -3471 -3513 0
3469 3471 -3513 0
-3469 3471 3513 0
3469 -3471 3513 0
-3470 -3472 -3515 0
3470 3472 -3515 0
3470 -3472 3515 0
-3470 3472 3515 0
-3475 -3477 -3517 0
3475 3477 -3517 0
-3475 3477 3517 0
3475 -3477 3517 0
-3479 -3480 -3519 0
3479 3480 -3519 0
-3479 3480 3519 0
3479 -3480 3519 0
-3481 -3483 -3521 0
3481 3483 -3521 0
-3481 3483 3521 0
3481 -3483 3521 0
-3485 -3487 -3523 0
3485 3487 -3523 0
-3485 3487 3523 0
3485 -3487 3523 0
-3489 -3490 -3525 0
3489 3490 -3525 0
-3489 3490 3525 0
3489 -3490 3525 0
-3491 -3492 -3527 0
3491 3492 -3527 0
-3491 3492 3527 0
3491 -3492 3527 0
-3493 -3494 -3529 0
3493 3494 -3529 0
-3493 3494 3529 0
3493 -3494 3529 0
-3495 -3497 -3531 0
3495 3497 -3531 0
-3495 3497 3531 0
3495 -3497 3531 0
-3499 -3501 -3533 0
3499 3501 -3533 0
-3499 3501 3533 0
3499 -3501 3533 0
-3503 -3505 -3535 0
3503 3505 -3535 0
-3503 3505 3535 0
3503 -3505 3535 0
-3507 -3509 -3537 0
3507 3509 -3537 0
-3507 3509 3537 0
3507 -3509 3537 0
-3511 -3513 -3539 0
3511 3513 -3539 0
-3511 3513 3539 0
3511 -3513 3539 0
-3473 -3515 -3541 0
3473 3515 -3541 0
3473 -3515 3541 0
-3473 3515 3541 0
-3474 -3516 -3543 0
3474 3516 -3543 0
-3474 3516 3543 0
3474 -3516 3543 0
-3517 -3519 -3545 0
3517 3519 -3545 0
-3517 3519 3545 0
3517 -3519 3545 0
-3521 -3523 -3547 0
3521 3523 -3547 0
-3521 3523 3547 0
3521 -3523 3547 0
-3525 -3527 -3549 0
3525 3527 -3549 0
-3525 3527 3549 0
3525 -3527 3549 0
-3529 -3531 -3551 0
3529 3531 -3551 0
-3529 3531 3551 0
3529 -3531 3551 0
-3533 -3535 -3553 0
3533 3535 -3553 0
-3533 3535 3553 0
3533 -3535 3553 0
-3537 -3539 -3555 0
3537 3539 -3555 0
-3537 3539 3555 0
3537 -3539 3555 0
-3541 -3543 -3557 0
3541 3543 -3557 0
-3541 3543 3557 0
3541 -3543 3557 0
-3545 -3547 -3559 0
3545 3547 -3559 0
-3545 3547 3559 0
3545 -3547 3559 0
-3549 -3551 -3561 0
3549 3551 -3561 0
-3549 3551 3561 0
3549 -3551 3561 0
-3553 -3555 -3563 0
3553 3555 -3563 0
-3553 3555 3563 0
3553 -3555 3563 0
-3557 -3559 -3565 0
3557 3559 -3565 0
-3557 3559 3565 0
3557 -3559 3565 0
-3561 -3563 -3565 0
3561 3563 -3565 0
-3561 3563 3565 0
3561 -3563 3565 0
-3476 -3478 -3608 0
3476 3478 -3608 0
-3476 3478 3608 0
3476 -3478 3608 0
-3482 -3484 -3569 0
3482 3484 -3569 0
-3482 3484 3569 0
3482 -3484 3569 0
-3486 -3488 -3570 0
3486 3488 -3570 0
-3486 3488 3570 0
3486 -3488 3570 0
-3496 -3498 -3573 0
3496 3498 -3573 0
-3496 3498 3573 0
3496 -3498 3573 0
-3500 -3502 -3575 0
3500 3502 -3575 0
-3500 3502 3575 0
3500 -3502 3575 0
-3504 -3506 -3577 0
3504 3506 -3577 0
-3504 3506 3577 0
3504 -3506 3577 0
-3508 -3510 -3579 0
3508 3510 -3579 0
-3508 3510 3579 0
3508 -3510 3579 0
-3512 -3514 -3581 0
3512 3514 -3581 0
-3512 3514 3581 0
3512 -3514 3581 0
-3518 -3520 -3583 0
3518 3520 -3583 0
-3518 3520 3583 0
3518 -3520 3583 0
-3522 -3524 -3584 0
3522 3524 -3584 0
-3522 3524 3584 0
3522 -3524 3584 0
-3526 -3528 -3586 0
3526 3528 -3586 0
-3526 3528 3586 0
3526 -3528 3586 0
-3530 -3532 -3588 0
3530 3532 -3588 0
-3530 3532 3588 0
3530 -3532 3588 0
-3534 -3536 -3590 0
3534 3536 -3590 0
-3534 3536 3590 0
3534 -3536 3590 0
-3538 -3540 -3592 0
3538 3540 -3592 0
-3538 3540 3592 0
3538 -3540 3592 0
-3542 -3544 -3594 0
3542 3544 -3594 0
-3542 3544 3594 0
3542 -3544 3594 0
-3546 -3548 -3596 0
3546 3548 -3596 0
-3546 3548 3596 0
3546 -3548 3596 0
-3550 -3552 -3598 0
3550 3552 -3598 0
-3550 3552 3598 0
3550 -3552 3598 0
-3554 -3556 -3600 0
3554 3556 -3600 0
-3554 3556 3600 0
3554 -3556 3600 0
-3558 -3560 -3602 0
3558 3560 -3602 0
-3558 3560 3602 0
3558 -3560 3602 0
-3562 -3564 -3604 0
3562 3564 -3604 0
-3562 3564 3604 0
3562 -3564 3604 0
-3566 -3567 -3606 0
3566 3567 -3606 0
-3566 3567 3606 0
3566 -3567 3606 0
-3569 -3570 -3609 0
3569 3570 -3609 0
-3569 3570 3609 0
3569 -3570 3609 0
-3572 -3573 -3610 0
3572 3573 -3610 0
-3572 3573 3610 0
3572 -3573 3610 0
-3575 -3577 -3611 0
3575 3577 -3611 0
-3575 3577 3611 0
3575 -3577 3611 0
-3579 -3581 -3613 0
3579 3581 -3613 0
-3579 3581 3613 0
3579 -3581 3613 0
-3583 -3584 -3615 0
3583 3584 -3615 0
-3583 3584 3615 0
3583 -3584 3615 0
-3586 -3588 -3616 0
3586 3588 -3616 0
-3586 3588 3616 0
3586 -3588 3616 0
-3590 -3592 -3618 0
3590 3592 -3618 0
-3590 3592 3618 0
3590 -3592 3618 0
-3594 -3596 -3620 0
3594 3596 -3620 0
-3594 3596 3620 0
3594 -3596 3620 0
-3598 -3600 -3622 0
3598 3600 -3622 0
-3598 3600 3622 0
3598 -3600 3622 0
-3602 -3604 -3624 0
3602 3604 -3624 0
-3602 3604 3624 0
3602 -3604 3624 0
-3565 -3606 -3626 0
3565 3606 -3626 0
3565 -3606 3626 0
-3565 3606 3626 0
-3568 -3608 -3628 0
3568 3608 -3628 0
-3568 3608 3628 0
3568 -3608 3628 0
-3571 -3609 -3630 0
3571 3609 -3630 0
3571 -3609 3630 0
-3571 3609 3630 0
-3610 -3611 -3632 0
3610 3611 -3632 0
-3610 3611 3632 0
3610 -3611 3632 0
-3582 -3613 -3634 0
3582 3613 -3634 0
3582 -3613 3634 0
-3582 3613 3634 0
-3615 -3616 -3636 0
3615 3616 -3636 0
-3615 3616 3636 0
3615 -3616 3636 0
-3618 -3620 -3638 0
3618 3620 -3638 0
-3618 3620 3638 0
3618 -3620 3638 0
-3622 -3624 -3640 0
3622 3624 -3640 0
-3622 3624 3640 0
3622 -3624 3640 0
-3626 -3628 -3642 0
3626 3628 -3642 0
-3626 3628 3642 0
3626 -3628 3642 0
-3630 -3632 -3644 0
3630 3632 -3644 0
-3630 3632 3644 0
3630 -3632 3644 0
-3634 -3636 -3646 0
3634 3636 -3646 0
-3634 3636 3646 0
3634 -3636 3646 0
-3638 -3640 -3648 0
3638 3640 -3648 0
-3638 3640 3648 0
3638 -3640 3648 0
-3642 -3644 -3650 0
3642 3644 -3650 0
-3642 3644 3650 0
3642 -3644 3650 0
-3646 -3648 -3650 0
3646 3648 -3650 0
-3646 3648 3650 0
3646 -3648 3650 0
-3574 -3576 -3693 0
3574 3576 -3693 0
-3574 3576 3693 0
3574 -3576 3693 0
-3578 -3580 -3656 0
3578 3580 -3656 0
-3578 3580 3656 0
3578 -3580 3656 0
-3585 -3587 -3659 0
3585 3587 -3659 0
-3585 3587 3659 0
3585 -3587 3659 0
-3589 -3591 -3660 0
3589 3591 -3660 0
-3589 3591 3660 0
3589 -3591 3660 0
-3593 -3595 -3662 0
3593 3595 -3662 0
-3593 3595 3662 0
3593 -3595 3662 0
-3597 -3599 -3664 0
3597 3599 -3664 0
-3597 3599 3664 0
3597 -3599 3664 0
-3601 -3603 -3666 0
3601 3603 -3666 0
-3601 3603 3666 0
3601 -3603 3666 0
-3605 -3607 -3700 0
3605 3607 -3700 0
-3605 3607 3700 0
3605 -3607 3700 0
-3612 -3614 -3670 0
3612 3614 -3670 0
-3612 3614 3670 0
3612 -3614 3670 0
-3617 -3619 -3672 0
3617 3619 -3672 0
-3617 3619 3672 0
3617 -3619 3672 0
-3621 -3623 -3674 0
3621 3623 -3674 0
-3621 3623 3674 0
3621 -3623 3674 0
-3625 -3627 -3676 0
3625 3627 -3676 0
-3625 3627 3676 0
3625 -3627 3676 0
-3629 -3631 -3678 0
3629 3631 -3678 0
-3629 3631 3678 0
3629 -3631 3678 0
-3633 -3635 -3680 0
3633 3635 -3680 0
-3633 3635 3680 0
3633 -3635 3680 0
-3637 -3639 -3682 0
3637 3639 -3682 0
-3637 3639 3682 0
3637 -3639 3682 0
-3641 -3643 -3684 0
3641 3643 -3684 0
-3641 3643 3684 0
3641 -3643 3684 0
-3645 -3647 -3686 0
3645 3647 -3686 0
-3645 3647 3686 0
3645 -3647 3686 0
-3649 -3651 -3688 0
3649 3651 -3688 0
-3649 3651 3688 0
3649 -3651 3688 0
-3650 -3652 -3690 0
3650 3652 -3690 0
3650 -3652 3690 0
-3650 3652 3690 0
-3654 -3655 -3692 0
3654 3655 -3692 0
-3654 3655 3692 0
3654 -3655 3692 0
-3656 -3657 -3694 0
3656 3657 -3694 0
-3656 3657 3694 0
3656 -3657 3694 0
-3658 -3659 -3695 0
3658 3659 -3695 0
-3658 3659 3695 0
3658 -3659 3695 0
-3660 -3662 -3697 0
3660 3662 -3697 0
-3660 3662 3697 0
3660 -3662 3697 0
-3664 -3666 -3699 0
3664 3666 -3699 0
-3664 3666 3699 0
3664 -3666 3699 0
-3668 -3669 -3701 0
3668 3669 -3701 0
-3668 3669 3701 0
3668 -3669 3701 0
-3670 -3671 -3703 0
3670 3671 -3703 0
-3670 3671 3703 0
3670 -3671 3703 0
-3672 -3674 -3705 0
3672 3674 -3705 0
-3672 3674 3705 0
3672 -3674 3705 0
-3676 -3678 -3707 0
3676 3678 -3707 0
-3676 3678 3707 0
3676 -3678 3707 0
-3680 -3682 -3709 0
3680 3682 -3709 0
-3680 3682 3709 0
3680 -3682 3709 0
-3684 -3686 -3711 0
3684 3686 -3711 0
-3684 3686 3711 0
3684 -3686 3711 0
-3688 -3690 -3713 0
3688 3690 -3713 0
-3688 3690 3713 0
3688 -3690 3713 0
-3653 -3692 -3715 0
3653 3692 -3715 0
-3653 3692 3715 0
3653 -3692 3715 0
-3693 -3694 -3717 0
3693 3694 -3717 0
-3693 3694 3717 0
3693 -3694 3717 0
-3695 -3697 -3719 0
3695 3697 -3719 0
-3695 3697 3719 0
3695 -3697 3719 0
-3699 -3700 -3721 0
3699 3700 -3721 0
-3699 3700 3721 0
3699 -3700 3721 0
-3701 -3703 -3723 0
3701 3703 -3723 0
-3701 3703 3723 0
3701 -3703 3723 0
-3705 -3707 -3725 0
3705 3707 -3725 0
-3705 3707 3725 0
3705 -3707 3725 0
-3709 -3711 -3727 0
3709 3711 -3727 0
-3709 3711 3727 0
3709 -3711 3727 0
-3713 -3715 -3729 0
3713 3715 -3729 0
-3713 3715 3729 0
3713 -3715 3729 0
-3717 -3719 -3731 0
3717 3719 -3731 0
-3717 3719 3731 0
3717 -3719 3731 0
-3721 -3723 -3733 0
3721 3723 -3733 0
-3721 3723 3733 0
3721 -3723 3733 0
-3725 -3727 -3735 0
3725 3727 -3735 0
-3725 3727 3735 0
3725 -3727 3735 0
-3729 -3731 -3737 0
3729 3731 -3737 0
-3729 3731 3737 0
3729 -3731 3737 0
-3733 -3735 -3737 0
3733 3735 -3737 0
-3733 3735 3737 0
3733 -3735 3737 0
-3661 -3663 -3742 0
3661 3663 -3742 0
-3661 3663 3742 0
3661 -3663 3742 0
-3665 -3667 -3743 0
3665 3667 -3743 0
-3665 3667 3743 0
3665 -3667 3743 0
-3673 -3675 -3746 0
3673 3675 -3746 0
-3673 3675 3746 0
3673 -3675 3746 0
-3677 -3679 -3748 0
3677 3679 -3748 0
-3677 3679 3748 0
3677 -3679 3748 0
-3681 -3683 -3750 0
3681 3683 -3750 0
-3681 3683 3750 0
3681 -3683 3750 0
-3685 -3687 -3752 0
3685 3687 -3752 0
-3685 3687 3752 0
3685 -3687 3752 0
-3689 -3691 -3754 0
3689 3691 -3754 0
-3689 3691 3754 0
3689 -3691 3754 0
-3696 -3698 -3757 0
3696 3698 -3757 0
-3696 3698 3757 0
3696 -3698 3757 0
-3702 -3704 -3759 0
3702 3704 -3759 0
-3702 3704 3759 0
3702 -3704 3759 0
-3706 -3708 -3760 0
3706 3708 -3760 0
-3706 3708 3760 0
3706 -3708 3760 0
-3710 -3712 -3762 0
3710 3712 -3762 0
-3710 3712 3762 0
3710 -3712 3762 0
-3714 -3716 -3764 0
3714 3716 -3764 0
-3714 3716 3764 0
3714 -3716 3764 0
-3718 -3720 -3766 0
3718 3720 -3766 0
-3718 3720 3766 0
3718 -3720 3766 0
-3722 -3724 -3768 0
3722 3724 -3768 0
-3722 3724 3768 0
3722 -3724 3768 0
-3726 -3728 -3770 0
3726 3728 -3770 0
-3726 3728 3770 0
3726 -3728 3770 0
-3730 -3732 -3772 0
3730 3732 -3772 0
-3730 3732 3772 0
3730 -3732 3772 0
-3734 -3736 -3774 0
3734 3736 -3774 0
-3734 3736 3774 0
3734 -3736 3774 0
-3738 -3739 -3776 0
3738 3739 -3776 0
-3738 3739 3776 0
3738 -3739 3776 0
-3740 -3741 -3778 0
3740 3741 -3778 0
-3740 3741 3778 0
3740 -3741 3778 0
-3742 -3743 -3779 0
3742 3743 -3779 0
-3742 3743 3779 0
3742 -3743 3779 0
-3745 -3746 -3780 0
3745 3746 -3780 0
-3745 3746 3780 0
3745 -3746 3780 0
-3748 -3750 -3782 0
3748 3750 -3782 0
-3748 3750 3782 0
3748 -3750 3782 0
-3752 -3754 -3784 0
3752 3754 -3784 0
-3752 3754 3784 0
3752 -3754 3784 0
-3755 -3756 -3786 0
3755 3756 -3786 0
-3755 3756 3786 0
3755 -3756 3786 0
-3757 -3758 -3788 0
3757 3758 -3788 0
-3757 3758 3788 0
3757 -3758 3788 0
-3759 -3760 -3790 0
3759 3760 -3790 0
-3759 3760 3790 0
3759 -3760 3790 0
-3762 -3764 -3792 0
3762 3764 -3792 0
-3762 3764 3792 0
3762 -3764 3792 0
-3766 -3768 -3794 0
3766 3768 -3794 0
-3766 3768 3794 0
3766 -3768 3794 0
-3770 -3772 -3796 0
3770 3772 -3796 0
-3770 3772 3796 0
3770 -3772 3796 0
-3774 -3776 -3798 0
3774 3776 -3798 0
-3774 3776 3798 0
3774 -3776 3798 0
-3737 -3777 -3800 0
3737 3777 -3800 0
-3737 3777 3800 0
3737 -3777 3800 0
-3778 -3779 -3802 0
3778 3779 -3802 0
-3778 3779 3802 0
3778 -3779 3802 0
-3744 -3780 -3804 0
3744 3780 -3804 0
-3744 3780 3804 0
3744 -3780 3804 0
-3782 -3784 -3806 0
3782 3784 -3806 0
-3782 3784 3806 0
3782 -3784 3806 0
-3786 -3788 -3808 0
3786 3788 -3808 0
-3786 3788 3808 0
3786 -3788 3808 0
-3790 -3792 -3810 0
3790 3792 -3810 0
-3790 3792 3810 0
3790 -3792 3810 0
-3794 -3796 -3812 0
3794 3796 -3812 0
-3794 3796 3812 0
3794 -3796 3812 0
-3798 -3800 -3814 0
3798 3800 -3814 0
-3798 3800 3814 0
3798 -3800 3814 0
-3802 -3804 -3816 0
3802 3804 -3816 0
-3802 3804 3816 0
3802 -3804 3816 0
-3806 -3808 -3818 0
3806 3808 -3818 0
-3806 3808 3818 0
3806 -3808 3818 0
-3810 -3812 -3820 0
3810 3812 -3820 0
-3810 3812 3820 0
3810 -3812 3820 0
-3814 -3816 -3822 0
3814 3816 -3822 0
-3814 3816 3822 0
3814 -3816 3822 0
-3818 -3820 -3822 0
3818 3820 -3822 0
-3818 3820 3822 0
3818 -3820 3822 0
-3747 -3749 -3864 0
3747 3749 -3864 0
-3747 3749 3864 0
3747 -3749 3864 0
-3751 -3753 -3827 0
3751 3753 -3827 0
-3751 3753 3827 0
3751 -3753 3827 0
-3761 -3763 -3831 0
3761 3763 -3831 0
-3761 3763 3831 0
3761 -3763 3831 0
-3765 -3767 -3833 0
3765 3767 -3833 0
-3765 3767 3833 0
3765 -3767 3833 0
-3769 -3771 -3835 0
3769 3771 -3835 0
-3769 3771 3835 0
3769 -3771 3835 0
-3773 -3775 -3837 0
3773 3775 -3837 0
-3773 3775 3837 0
3773 -3775 3837 0
-3781 -3783 -3842 0
3781 3783 -3842 0
-3781 3783 3842 0
3781 -3783 3842 0
-3785 -3787 -3843 0
3785 3787 -3843 0
-3785 3787 3843 0
3785 -3787 3843 0
-3789 -3791 -3845 0
3789 3791 -3845 0
-3789 3791 3845 0
3789 -3791 3845 0
-3793 -3795 -3847 0
3793 3795 -3847 0
-3793 3795 3847 0
3793 -3795 3847 0
-3797 -3799 -3849 0
3797 3799 -3849 0
-3797 3799 3849 0
3797 -3799 3849 0
-3801 -3803 -3851 0
3801 3803 -3851 0
-3801 3803 3851 0
3801 -3803 3851 0
-3805 -3807 -3853 0
3805 3807 -3853 0
-3805 3807 3853 0
3805 -3807 3853 0
-3809 -3811 -3855 0
3809 3811 -3855 0
-3809 3811 3855 0
3809 -3811 3855 0
-3813 -3815 -3857 0
3813 3815 -3857 0
-3813 3815 3857 0
3813 -3815 3857 0
-3817 -3819 -3859 0
3817 3819 -3859 0
-3817 3819 3859 0
3817 -3819 3859 0
-3821 -3823 -3861 0
3821 3823 -3861 0
-3821 3823 3861 0
3821 -3823 3861 0
-3822 -3824 -3886 0
3822 3824 -3886 0
3822 -3824 3886 0
-3822 3824 3886 0
-3825 -3826 -3863 0
3825 3826 -3863 0
-3825 3826 3863 0
3825 -3826 3863 0
-3827 -3828 -3865 0
3827 3828 -3865 0
-3827 3828 3865 0
3827 -3828 3865 0
-3829 -3830 -3867 0
3829 3830 -3867 0
-3829 3830 3867 0
3829 -3830 3867 0
-3831 -3833 -3869 0
3831 3833 -3869 0
-3831 3833 3869 0
3831 -3833 3869 0
-3835 -3837 -3871 0
3835 3837 -3871 0
-3835 3837 3871 0
3835 -3837 3871 0
-3839 -3840 -3873 0
3839 3840 -3873 0
-3839 3840 3873 0
3839 -3840 3873 0
-3841 -3842 -3875 0
3841 3842 -3875 0
-3841 3842 3875 0
3841 -3842 3875 0
-3843 -3845 -3877 0
3843 3845 -3877 0
-3843 3845 3877 0
3843 -3845 3877 0
-3847 -3849 -3879 0
3847 3849 -3879 0
-3847 3849 3879 0
3847 -3849 3879 0
-3851 -3853 -3881 0
3851 3853 -3881 0
-3851 3853 3881 0
3851 -3853 3881 0
-3855 -3857 -3883 0
3855 3857 -3883 0
-3855 3857 3883 0
3855 -3857 3883 0
-3859 -3861 -3885 0
3859 3861 -3885 0
-3859 3861 3885 0
3859 -3861 3885 0
-3863 -3864 -3887 0
3863 3864 -3887 0
-3863 3864 3887 0
3863 -3864 3887 0
-3865 -3867 -3889 0
3865 3867 -3889 0
-3865 3867 3889 0
3865 -3867 3889 0
-3869 -3871 -3891 0
3869 3871 -3891 0
-3869 3871 3891 0
3869 -3871 3891 0
-3873 -3875 -3893 0
3873 3875 -3893 0
-3873 3875 3893 0
3873 -3875 3893 0
-3877 -3879 -3895 0
3877 3879 -3895 0
-3877 3879 3895 0
3877 -3879 3895 0
-3881 -3883 -3897 0
3881 3883 -3897 0
-3881 3883 3897 0
3881 -3883 3897 0
-3885 -3886 -3899 0
3885 3886 -3899 0
-3885 3886 3899 0
3885 -3886 3899 0
-3887 -3889 -3901 0
3887 3889 -3901 0
-3887 3889 3901 0
3887 -3889 3901 0
-3891 -3893 -3903 0
3891 3893 -3903 0
-3891 3893 3903 0
3891 -3893 3903 0
-3895 -3897 -3905 0
3895 3897 -3905 0
-3895 3897 3905 0
3895 -3897 3905 0
-3899 -3901 -3907 0
3899 3901 -3907 0
-3899 3901 3907 0
3899 -3901 3907 0
-3903 -3905 -3907 0
3903 3905 -3907 0
-3903 3905 3907 0
3903 -3905 3907 0
-3832 -3834 -3912 0
3832 3834 -3912 0
-3832 3834 3912 0
3832 -3834 3912 0
-3836 -3838 -3913 0
3836 3838 -3913 0
-3836 3838 3913 0
3836 -3838 3913 0
-3844 -3846 -3914 0
3844 3846 -3914 0
-3844 3846 3914 0
3844 -3846 3914 0
-3848 -3850 -3915 0
3848 3850 -3915 0
-3848 3850 3915 0
3848 -3850 3915 0
-3852 -3854 -3917 0
3852 3854 -3917 0
-3852 3854 3917 0
3852 -3854 3917 0
-3856 -3858 -3919 0
3856 3858 -3919 0
-3856 3858 3919 0
3856 -3858 3919 0
-3860 -3862 -3921 0
3860 3862 -3921 0
-3860 3862 3921 0
3860 -3862 3921 0
-3866 -3868 -3925 0
3866 3868 -3925 0
-3866 3868 3925 0
3866 -3868 3925 0
-3870 -3872 -3927 0
3870 3872 -3927 0
-3870 3872 3927 0
3870 -3872 3927 0
-3874 -3876 -3929 0
3874 3876 -3929 0
-3874 3876 3929 0
3874 -3876 3929 0
-3878 -3880 -3931 0
3878 3880 -3931 0
-3878 3880 3931 0
3878 -3880 3931 0
-3882 -3884 -3933 0
3882 3884 -3933 0
-3882 3884 3933 0
3882 -3884 3933 0
-3888 -3890 -3935 0
3888 3890 -3935 0
-3888 3890 3935 0
3888 -3890 3935 0
-3892 -3894 -3937 0
3892 3894 -3937 0
-3892 3894 3937 0
3892 -3894 3937 0
-3896 -3898 -3939 0
3896 3898 -3939 0
-3896 3898 3939 0
3896 -3898 3939 0
-3900 -3902 -3941 0
3900 3902 -3941 0
-3900 3902 3941 0
3900 -3902 3941 0
-3904 -3906 -3943 0
3904 3906 -3943 0
-3904 3906 3943 0
3904 -3906 3943 0
-3908 -3909 -3945 0
3908 3909 -3945 0
-3908 3909 3945 0
3908 -3909 3945 0
-3912 -3913 -3947 0
3912 3913 -3947 0
-3912 3913 3947 0
3912 -3913 3947 0
-3914 -3915 -3949 0
3914 3915 -3949 0
-3914 3915 3949 0
3914 -3915 3949 0
-3917 -3919 -3950 0
3917 3919 -3950 0
-3917 3919 3950 0
3917 -3919 3950 0
-3921 -3923 -3952 0
3921 3923 -3952 0
-3921 3923 3952 0
3921 -3923 3952 0
-3924 -3925 -3954 0
3924 3925 -3954 0
-3924 3925 3954 0
3924 -3925 3954 0
-3927 -3929 -3956 0
3927 3929 -3956 0
-3927 3929 3956 0
3927 -3929 3956 0
-3931 -3933 -3958 0
3931 3933 -3958 0
-3931 3933 3958 0
3931 -3933 3958 0
-3934 -3935 -3960 0
3934 3935 -3960 0
-3934 3935 3960 0
3934 -3935 3960 0
-3937 -3939 -3962 0
3937 3939 -3962 0
-3937 3939 3962 0
3937 -3939 3962 0
-3941 -3943 -3964 0
3941 3943 -3964 0
-3941 3943 3964 0
3941 -3943 3964 0
-3907 -3945 -3966 0
3907 3945 -3966 0
3907 -3945 3966 0
-3907 3945 3966 0
-3910 -3911 -3968 0
3910 3911 -3968 0
-3910 3911 3968 0
3910 -3911 3968 0
-3947 -3948 -3970 0
3947 3948 -3970 0
-3947 3948 3970 0
3947 -3948 3970 0
-3949 -3950 -3972 0
3949 3950 -3972 0
-3949 3950 3972 0
3949 -3950 3972 0
-3952 -3954 -3974 0
3952 3954 -3974 0
-3952 3954 3974 0
3952 -3954 3974 0
-3956 -3958 -3976 0
3956 3958 -3976 0
-3956 3958 3976 0
3956 -3958 3976 0
-3960 -3962 -3978 0
3960 3962 -3978 0
-3960 3962 3978 0
3960 -3962 3978 0
-3964 -3966 -3980 0
3964 3966 -3980 0
-3964 3966 3980 0
3964 -3966 3980 0
-3968 -3970 -3982 0
3968 3970 -3982 0
-3968 3970 3982 0
3968 -3970 3982 0
-3972 -3974 -3984 0
3972 3974 -3984 0
-3972 3974 3984 0
3972 -3974 3984 0
-3976 -3978 -3986 0
3976 3978 -3986 0
-3976 3978 3986 0
3976 -3978 3986 0
-3980 -3982 -3988 0
3980 3982 -3988 0
-3980 3982 3988 0
3980 -3982 3988 0
-3984 -3986 -3988 0
3984 3986 -3988 0
-3984 3986 3988 0
3984 -3986 3988 0
-3916 -3918 -3994 0
3916 3918 -3994 0
-3916 3918 3994 0
3916 -3918 3994 0
-3920 -3922 -4028 0
3920 3922 -4028 0
-3920 3922 4028 0
3920 -3922 4028 0
-3926 -3928 -3995 0
3926 3928 -3995 0
-3926 3928 3995 0
3926 -3928 3995 0
-3930 -3932 -3997 0
3930 3932 -3997 0
-3930 3932 3997 0
3930 -3932 3997 0
-3936 -3938 -4000 0
3936 3938 -4000 0
-3936 3938 4000 0
3936 -3938 4000 0
-3940 -3942 -4001 0
3940 3942 -4001 0
-3940 3942 4001 0
3940 -3942 4001 0
-3944 -3946 -4003 0
3944 3946 -4003 0
-3944 3946 4003 0
3944 -3946 4003 0
-3951 -3953 -4006 0
3951 3953 -4006 0
-3951 3953 4006 0
3951 -3953 4006 0
-3955 -3957 -4007 0
3955 3957 -4007 0
-3955 3957 4007 0
3955 -3957 4007 0
-3959 -3961 -4009 0
3959 3961 -4009 0
-3959 3961 4009 0
3959 -3961 4009 0
-3963 -3965 -4011 0
3963 3965 -4011 0
-3963 3965 4011 0
3963 -3965 4011 0
-3967 -3969 -4013 0
3967 3969 -4013 0
-3967 3969 4013 0
3967 -3969 4013 0
-3971 -3973 -4015 0
3971 3973 -4015 0
-3971 3973 4015 0
3971 -3973 4015 0
-3975 -3977 -4017 0
3975 3977 -4017 0
-3975 3977 4017 0
3975 -3977 4017 0
-3979 -3981 -4019 0
3979 3981 -4019 0
-3979 3981 4019 0
3979 -3981 4019 0
-3983 -3985 -4021 0
3983 3985 -4021 0
-3983 3985 4021 0
3983 -3985 4021 0
-3987 -3989 -4023 0
3987 3989 -4023 0
-3987 3989 4023 0
3987 -3989 4023 0
-3988 -3990 -4025 0
3988 3990 -4025 0
3988 -3990 4025 0
-3988 3990 4025 0
-3991 -3992 -4047 0
3991 3992 -4047 0
-3991 3992 4047 0
3991 -3992 4047 0
-3993 -3994 -4027 0
3993 3994 -4027 0
-3993 3994 4027 0
3993 -3994 4027 0
-3995 -3997 -4029 0
3995 3997 -4029 0
-3995 3997 4029 0
3995 -3997 4029 0
-3999 -4000 -4031 0
3999 4000 -4031 0
-3999 4000 4031 0
3999 -4000 4031 0
-4001 -4003 -4033 0
4001 4003 -4033 0
-4001 4003 4033 0
4001 -4003 4033 0
-4005 -4006 -4035 0
4005 4006 -4035 0
-4005 4006 4035 0
4005 -4006 4035 0
-4007 -4009 -4037 0
4007 4009 -4037 0
-4007 4009 4037 0
4007 -4009 4037 0
-4011 -4013 -4039 0
4011 4013 -4039 0
-4011 4013 4039 0
4011 -4013 4039 0
-4015 -4017 -4041 0
4015 4017 -4041 0
-4015 4017 4041 0
4015 -4017 4041 0
-4019 -4021 -4043 0
4019 4021 -4043 0
-4019 4021 4043 0
4019 -4021 4043 0
-4023 -4025 -4045 0
4023 4025 -4045 0
-4023 4025 4045 0
4023 -4025 4045 0
-4027 -4028 -4048 0
4027 4028 -4048 0
-4027 4028 4048 0
4027 -4028 4048 0
-4029 -4031 -4049 0
4029 4031 -4049 0
-4029 4031 4049 0
4029 -4031 4049 0
-4033 -4034 -4051 0
4033 4034 -4051 0
-4033 4034 4051 0
4033 -4034 4051 0
-4035 -4037 -4053 0
4035 4037 -4053 0
-4035 4037 4053 0
4035 -4037 4053 0
-4039 -4041 -4055 0
4039 4041 -4055 0
-4039 4041 4055 0
4039 -4041 4055 0
-4043 -4045 -4057 0
4043 4045 -4057 0
-4043 4045 4057 0
4043 -4045 4057 0
-4047 -4048 -4059 0
4047 4048 -4059 0
-4047 4048 4059 0
4047 -4048 4059 0
-4049 -4051 -4061 0
4049 4051 -4061 0
-4049 4051 4061 0
4049 -4051 4061 0
-4053 -4055 -4063 0
4053 4055 -4063 0
-4053 4055 4063 0
4053 -4055 4063 0
-4057 -4059 -4065 0
4057 4059 -4065 0
-4057 4059 4065 0
4057 -4059 4065 0
-4061 -4063 -4065 0
4061 4063 -4065 0
-4061 4063 4065 0
4061 -4063 4065 0
-3996 -3998 -4069 0
3996 3998 -4069 0
-3996 3998 4069 0
3996 -3998 4069 0
-4002 -4004 -4071 0
4002 4004 -4071 0
-4002 4004 4071 0
4002 -4004 4071 0
-4008 -4010 -4073 0
4008 4010 -4073 0
-4008 4010 4073 0
4008 -4010 4073 0
-4012 -4014 -4074 0
4012 4014 -4074 0
-4012 4014 4074 0
4012 -4014 4074 0
-4016 -4018 -4076 0
4016 4018 -4076 0
-4016 4018 4076 0
4016 -4018 4076 0
-4020 -4022 -4078 0
4020 4022 -4078 0
-4020 4022 4078 0
4020 -4022 4078 0
-4024 -4026 -4080 0
4024 4026 -4080 0
-4024 4026 4080 0
4024 -4026 4080 0
-4030 -4032 -4084 0
4030 4032 -4084 0
-4030 4032 4084 0
4030 -4032 4084 0
-4036 -4038 -4086 0
4036 4038 -4086 0
-4036 4038 4086 0
4036 -4038 4086 0
-4040 -4042 -4088 0
4040 4042 -4088 0
-4040 4042 4088 0
4040 -4042 4088 0
-4044 -4046 -4090 0
4044 4046 -4090 0
-4044 4046 4090 0
4044 -4046 4090 0
-4050 -4052 -4092 0
4050 4052 -4092 0
-4050 4052 4092 0
4050 -4052 4092 0
-4054 -4056 -4094 0
4054 4056 -4094 0
-4054 4056 4094 0
4054 -4056 4094 0
-4058 -4060 -4096 0
4058 4060 -4096 0
-4058 4060 4096 0
4058 -4060 4096 0
-4062 -4064 -4098 0
4062 4064 -4098 0
-4062 4064 4098 0
4062 -4064 4098 0
-4066 -4067 -4100 0
4066 4067 -4100 0
-4066 4067 4100 0
4066 -4067 4100 0
-4068 -4069 -4102 0
4068 4069 -4102 0
-4068 4069 4102 0
4068 -4069 4102 0
-4070 -4071 -4103 0
4070 4071 -4103 0
-4070 4071 4103 0
4070 -4071 4103 0
-4073 -4074 -4104 0
4073 4074 -4104 0
-4073 4074 4104 0
4073 -4074 4104 0
-4076 -4078 -4106 0
4076 4078 -4106 0
-4076 4078 4106 0
4076 -4078 4106 0
-4080 -4082 -4108 0
4080 4082 -4108 0
-4080 4082 4108 0
4080 -4082 4108 0
-4083 -4084 -4110 0
4083 4084 -4110 0
-4083 4084 4110 0
4083 -4084 4110 0
-4085 -4086 -4112 0
4085 4086 -4112 0
-4085 4086 4112 0
4085 -4086 4112 0
-4088 -4090 -4114 0
4088 4090 -4114 0
-4088 4090 4114 0
4088 -4090 4114 0
-4091 -4092 -4116 0
4091 4092 -4116 0
-4091 4092 4116 0
4091 -4092 4116 0
-4094 -4096 -4118 0
4094 4096 -4118 0
-4094 4096 4118 0
4094 -4096 4118 0
-4098 -4100 -4120 0
4098 4100 -4120 0
-4098 4100 4120 0
4098 -4100 4120 0
-4065 -4101 -4122 0
4065 4101 -4122 0
-4065 4101 4122 0
4065 -4101 4122 0
-4102 -4103 -4124 0
4102 4103 -4124 0
-4102 4103 4124 0
4102 -4103 4124 0
-4072 -4104 -4126 0
4072 4104 -4126 0
-4072 4104 4126 0
4072 -4104 4126 0
-4106 -4108 -4128 0
4106 4108 -4128 0
-4106 4108 4128 0
4106 -4108 4128 0
-4110 -4112 -4130 0
4110 4112 -4130 0
-4110 4112 4130 0
4110 -4112 4130 0
-4114 -4116 -4132 0
4114 4116 -4132 0
-4114 4116 4132 0
4114 -4116 4132 0
-4118 -4120 -4134 0
4118 4120 -4134 0
-4118 4120 4134 0
4118 -4120 4134 0
-4122 -4124 -4136 0
4122 4124 -4136 0
-4122 4124 4136 0
4122 -4124 4136 0
-4126 -4128 -4138 0
4126 4128 -4138 0
-4126 4128 4138 0
4126 -4128 4138 0
-4130 -4132 -4140 0
4130 4132 -4140 0
-4130 4132 4140 0
4130 -4132 4140 0
-4134 -4136 -4142 0
4134 4136 -4142 0
-4134 4136 4142 0
4134 -4136 4142 0
-4138 -4140 -4142 0
4138 4140 -4142 0
-4138 4140 4142 0
4138 -4140 4142 0
-4075 -4077 -4148 0
4075 4077 -4148 0
-4075 4077 4148 0
4075 -4077 4148 0
-4079 -4081 -4181 0
4079 4081 -4181 0
-4079 4081 4181 0
4079 -4081 4181 0
-4087 -4089 -4150 0
4087 4089 -4150 0
-4087 4089 4150 0
4087 -4089 4150 0
-4093 -4095 -4152 0
4093 4095 -4152 0
-4093 4095 4152 0
4093 -4095 4152 0
-4097 -4099 -4153 0
4097 4099 -4153 0
-4097 4099 4153 0
4097 -4099 4153 0
-4105 -4107 -4157 0
4105 4107 -4157 0
-4105 4107 4157 0
4105 -4107 4157 0
-4109 -4111 -4159 0
4109 4111 -4159 0
-4109 4111 4159 0
4109 -4111 4159 0
-4113 -4115 -4161 0
4113 4115 -4161 0
-4113 4115 4161 0
4113 -4115 4161 0
-4117 -4119 -4163 0
4117 4119 -4163 0
-4117 4119 4163 0
4117 -4119 4163 0
-4121 -4123 -4165 0
4121 4123 -4165 0
-4121 4123 4165 0
4121 -4123 4165 0
-4125 -4127 -4167 0
4125 4127 -4167 0
-4125 4127 4167 0
4125 -4127 4167 0
-4129 -4131 -4169 0
4129 4131 -4169 0
-4129 4131 4169 0
4129 -4131 4169 0
-4133 -4135 -4171 0
4133 4135 -4171 0
-4133 4135 4171 0
4133 -4135 4171 0
-4137 -4139 -4173 0
4137 4139 -4173 0
-4137 4139 4173 0
4137 -4139 4173 0
-4141 -4143 -4175 0
4141 4143 -4175 0
-4141 4143 4175 0
4141 -4143 4175 0
-4142 -4144 -4199 0
4142 4144 -4199 0
4142 -4144 4199 0
-4142 4144 4199 0
-4145 -4146 -4177 0
4145 4146 -4177 0
-4145 4146 4177 0
4145 -4146 4177 0
-4147 -4148 -4179 0
4147 4148 -4179 0
-4147 4148 4179 0
4147 -4148 4179 0
-4149 -4150 -4182 0
4149 4150 -4182 0
-4149 4150 4182 0
4149 -4150 4182 0
-4151 -4152 -4183 0
4151 4152 -4183 0
-4151 4152 4183 0
4151 -4152 4183 0
-4153 -4154 -4185 0
4153 4154 -4185 0
-4153 4154 4185 0
4153 -4154 4185 0
-4155 -4156 -4187 0
4155 4156 -4187 0
-4155 4156 4187 0
4155 -4156 4187 0
-4157 -4159 -4189 0
4157 4159 -4189 0
-4157 4159 4189 0
4157 -4159 4189 0
-4161 -4163 -4191 0
4161 4163 -4191 0
-4161 4163 4191 0
4161 -4163 4191 0
-4165 -4167 -4193 0
4165 4167 -4193 0
-4165 4167 4193 0
4165 -4167 4193 0
-4169 -4171 -4195 0
4169 4171 -4195 0
-4169 4171 4195 0
4169 -4171 4195 0
-4173 -4175 -4197 0
4173 4175 -4197 0
-4173 4175 4197 0
4173 -4175 4197 0
-4177 -4179 -4200 0
4177 4179 -4200 0
-4177 4179 4200 0
4177 -4179 4200 0
-4181 -4182 -4201 0
4181 4182 -4201 0
-4181 4182 4201 0
4181 -4182 4201 0
-4183 -4185 -4203 0
4183 4185 -4203 0
-4183 4185 4203 0
4183 -4185 4203 0
-4187 -4189 -4205 0
4187 4189 -4205 0
-4187 4189 4205 0
4187 -4189 4205 0
-4191 -4193 -4207 0
4191 4193 -4207 0
-4191 4193 4207 0
4191 -4193 4207 0
-4195 -4197 -4209 0
4195 4197 -4209 0
-4195 4197 4209 0
4195 -4197 4209 0
-4199 -4200 -4211 0
4199 4200 -4211 0
-4199 4200 4211 0
4199 -4200 4211 0
-4201 -4203 -4213 0
4201 4203 -4213 0
-4201 4203 4213 0
4201 -4203 4213 0
-4205 -4207 -4215 0
4205 4207 -4215 0
-4205 4207 4215 0
4205 -4207 4215 0
-4209 -4211 -4217 0
4209 4211 -4217 0
-4209 4211 4217 0
4209 -4211 4217 0
-4213 -4215 -4217 0
4213 4215 -4217 0
-4213 4215 4217 0
4213 -4215 4217 0
-4158 -4160 -4258 0
4158 4160 -4258 0
-4158 4160 4258 0
4158 -4160 4258 0
-4162 -4164 -4226 0
4162 4164 -4226 0
-4162 4164 4226 0
4162 -4164 4226 0
-4166 -4168 -4228 0
4166 4168 -4228 0
-4166 4168 4228 0
4166 -4168 4228 0
-4170 -4172 -4230 0
4170 4172 -4230 0
-4170 4172 4230 0
4170 -4172 4230 0
-4174 -4176 -4232 0
4174 4176 -4232 0
-4174 4176 4232 0
4174 -4176 4232 0
-4178 -4180 -4234 0
4178 4180 -4234 0
-4178 4180 4234 0
4178 -4180 4234 0
-4184 -4186 -4236 0
4184 4186 -4236 0
-4184 4186 4236 0
4184 -4186 4236 0
-4188 -4190 -4238 0
4188 4190 -4238 0
-4188 4190 4238 0
4188 -4190 4238 0
-4192 -4194 -4240 0
4192 4194 -4240 0
-4192 4194 4240 0
4192 -4194 4240 0
-4196 -4198 -4242 0
4196 4198 -4242 0
-4196 4198 4242 0
4196 -4198 4242 0
-4202 -4204 -4245 0
4202 4204 -4245 0
-4202 4204 4245 0
4202 -4204 4245 0
-4206 -4208 -4246 0
4206 4208 -4246 0
-4206 4208 4246 0
4206 -4208 4246 0
-4210 -4212 -4248 0
4210 4212 -4248 0
-4210 4212 4248 0
4210 -4212 4248 0
-4214 -4216 -4250 0
4214 4216 -4250 0
-4214 4216 4250 0
4214 -4216 4250 0
-4218 -4219 -4252 0
4218 4219 -4252 0
-4218 4219 4252 0
4218 -4219 4252 0
-4221 -4222 -4254 0
4221 4222 -4254 0
-4221 4222 4254 0
4221 -4222 4254 0
-4223 -4224 -4256 0
4223 4224 -4256 0
-4223 4224 4256 0
4223 -4224 4256 0
-4226 -4228 -4259 0
4226 4228 -4259 0
-4226 4228 4259 0
4226 -4228 4259 0
-4230 -4232 -4260 0
4230 4232 -4260 0
-4230 4232 4260 0
4230 -4232 4260 0
-4233 -4234 -4262 0
4233 4234 -4262 0
-4233 4234 4262 0
4233 -4234 4262 0
-4235 -4236 -4264 0
4235 4236 -4264 0
-4235 4236 4264 0
4235 -4236 4264 0
-4238 -4240 -4266 0
4238 4240 -4266 0
-4238 4240 4266 0
4238 -4240 4266 0
-4242 -4244 -4268 0
4242 4244 -4268 0
-4242 4244 4268 0
4242 -4244 4268 0
-4245 -4246 -4270 0
4245 4246 -4270 0
-4245 4246 4270 0
4245 -4246 4270 0
-4248 -4250 -4272 0
4248 4250 -4272 0
-4248 4250 4272 0
4248 -4250 4272 0
-4217 -4252 -4274 0
4217 4252 -4274 0
4217 -4252 4274 0
-4217 4252 4274 0
-4220 -4254 -4276 0
4220 4254 -4276 0
-4220 4254 4276 0
4220 -4254 4276 0
-4256 -4258 -4278 0
4256 4258 -4278 0
-4256 4258 4278 0
4256 -4258 4278 0
-4259 -4260 -4280 0
4259 4260 -4280 0
-4259 4260 4280 0
4259 -4260 4280 0
-4262 -4264 -4282 0
4262 4264 -4282 0
-4262 4264 4282 0
4262 -4264 4282 0
-4266 -4268 -4284 0
4266 4268 -4284 0
-4266 4268 4284 0
4266 -4268 4284 0
-4270 -4272 -4286 0
4270 4272 -4286 0
-4270 4272 4286 0
4270 -4272 4286 0
-4274 -4276 -4288 0
4274 4276 -4288 0
-4274 4276 4288 0
4274 -4276 4288 0
-4278 -4280 -4290 0
4278 4280 -4290 0
-4278 4280 4290 0
4278 -4280 4290 0
-4282 -4284 -4292 0
4282 4284 -4292 0
-4282 4284 4292 0
4282 -4284 4292 0
-4286 -4288 -4294 0
4286 4288 -4294 0
-4286 4288 4294 0
4286 -4288 4294 0
-4290 -4292 -4294 0
4290 4292 -4294 0
-4290 4292 4294 0
4290 -4292 4294 0
-4225 -4227 -4297 0
4225 4227 -4297 0
-4225 4227 4297 0
4225 -4227 4297 0
-4229 -4231 -4299 0
4229 4231 -4299 0
-4229 4231 4299 0
4229 -4231 4299 0
-4237 -4239 -4303 0
4237 4239 -4303 0
-4237 4239 4303 0
4237 -4239 4303 0
-4241 -4243 -4305 0
4241 4243 -4305 0
-4241 4243 4305 0
4241 -4243 4305 0
-4247 -4249 -4308 0
4247 4249 -4308 0
-4247 4249 4308 0
4247 -4249 4308 0
-4251 -4253 -4339 0
4251 4253 -4339 0
-4251 4253 4339 0
4251 -4253 4339 0
-4255 -4257 -4309 0
4255 4257 -4309 0
-4255 4257 4309 0
4255 -4257 4309 0
-4261 -4263 -4311 0
4261 4263 -4311 0
-4261 4263 4311 0
4261 -4263 4311 0
-4265 -4267 -4313 0
4265 4267 -4313 0
-4265 4267 4313 0
4265 -4267 4313 0
-4269 -4271 -4315 0
4269 4271 -4315 0
-4269 4271 4315 0
4269 -4271 4315 0
-4273 -4275 -4317 0
4273 4275 -4317 0
-4273 4275 4317 0
4273 -4275 4317 0
-4277 -4279 -4319 0
4277 4279 -4319 0
-4277 4279 4319 0
4277 -4279 4319 0
-4281 -4283 -4321 0
4281 4283 -4321 0
-4281 4283 4321 0
4281 -4283 4321 0
-4285 -4287 -4323 0
4285 4287 -4323 0
-4285 4287 4323 0
4285 -4287 4323 0
-4289 -4291 -4325 0
4289 4291 -4325 0
-4289 4291 4325 0
4289 -4291 4325 0
-4293 -4295 -4327 0
4293 4295 -4327 0
-4293 4295 4327 0
4293 -4295 4327 0
-4294 -4296 -4329 0
4294 4296 -4329 0
4294 -4296 4329 0
-4294 4296 4329 0
-4297 -4299 -4331 0
4297 4299 -4331 0
-4297 4299 4331 0
4297 -4299 4331 0
-4301 -4302 -4333 0
4301 4302 -4333 0
-4301 4302 4333 0
4301 -4302 4333 0
-4303 -4305 -4335 0
4303 4305 -4335 0
-4303 4305 4335 0
4303 -4305 4335 0
-4307 -4308 -4337 0
4307 4308 -4337 0
-4307 4308 4337 0
4307 -4308 4337 0
-4309 -4310 -4340 0
4309 4310 -4340 0
-4309 4310 4340 0
4309 -4310 4340 0
-4311 -4313 -4341 0
4311 4313 -4341 0
-4311 4313 4341 0
4311 -4313 4341 0
-4315 -4317 -4343 0
4315 4317 -4343 0
-4315 4317 4343 0
4315 -4317 4343 0
-4319 -4321 -4345 0
4319 4321 -4345 0
-4319 4321 4345 0
4319 -4321 4345 0
-4323 -4325 -4347 0
4323 4325 -4347 0
-4323 4325 4347 0
4323 -4325 4347 0
-4327 -4329 -4358 0
4327 4329 -4358 0
-4327 4329 4358 0
4327 -4329 4358 0
-4331 -4333 -4349 0
4331 4333 -4349 0
-4331 4333 4349 0
4331 -4333 4349 0
-4335 -4337 -4351 0
4335 4337 -4351 0
-4335 4337 4351 0
4335 -4337 4351 0
-4339 -4340 -4353 0
4339 4340 -4353 0
-4339 4340 4353 0
4339 -4340 4353 0
-4341 -4343 -4355 0
4341 4343 -4355 0
-4341 4343 4355 0
4341 -4343 4355 0
-4345 -4347 -4357 0
4345 4347 -4357 0
-4345 4347 4357 0
4345 -4347 4357 0
-4349 -4351 -4359 0
4349 4351 -4359 0
-4349 4351 4359 0
4349 -4351 4359 0
-4353 -4355 -4361 0
4353 4355 -4361 0
-4353 4355 4361 0
4353 -4355 4361 0
-4357 -4358 -4363 0
4357 4358 -4363 0
-4357 4358 4363 0
4357 -4358 4363 0
-4359 -4361 -4363 0
4359 4361 -4363 0
-4359 4361 4363 0
4359 -4361 4363 0
-4298 -4300 -4392 0
4298 4300 -4392 0
-4298 4300 4392 0
4298 -4300 4392 0
-4304 -4306 -4393 0
4304 4306 -4393 0
-4304 4306 4393 0
4304 -4306 4393 0
-4312 -4314 -4369 0
4312 4314 -4369 0
-4312 4314 4369 0
4312 -4314 4369 0
-4316 -4318 -4371 0
4316 4318 -4371 0
-4316 4318 4371 0
4316 -4318 4371 0
-4320 -4322 -4373 0
4320 4322 -4373 0
-4320 4322 4373 0
4320 -4322 4373 0
-4324 -4326 -4375 0
4324 4326 -4375 0
-4324 4326 4375 0
4324 -4326 4375 0
-4328 -4330 -4377 0
4328 4330 -4377 0
-4328 4330 4377 0
4328 -4330 4377 0
-4332 -4334 -4402 0
4332 4334 -4402 0
-4332 4334 4402 0
4332 -4334 4402 0
-4336 -4338 -4379 0
4336 4338 -4379 0
-4336 4338 4379 0
4336 -4338 4379 0
-4342 -4344 -4382 0
4342 4344 -4382 0
-4342 4344 4382 0
4342 -4344 4382 0
-4346 -4348 -4383 0
4346 4348 -4383 0
-4346 4348 4383 0
4346 -4348 4383 0
-4350 -4352 -4385 0
4350 4352 -4385 0
-4350 4352 4385 0
4350 -4352 4385 0
-4354 -4356 -4387 0
4354 4356 -4387 0
-4354 4356 4387 0
4354 -4356 4387 0
-4360 -4362 -4390 0
4360 4362 -4390 0
-4360 4362 4390 0
4360 -4362 4390 0
-4364 -4365 -4391 0
4364 4365 -4391 0
-4364 4365 4391 0
4364 -4365 4391 0
-4366 -4367 -4394 0
4366 4367 -4394 0
-4366 4367 4394 0
4366 -4367 4394 0
-4368 -4369 -4396 0
4368 4369 -4396 0
-4368 4369 4396 0
4368 -4369 4396 0
-4371 -4373 -4398 0
4371 4373 -4398 0
-4371 4373 4398 0
4371 -4373 4398 0
-4375 -4377 -4400 0
4375 4377 -4400 0
-4375 4377 4400 0
4375 -4377 4400 0
-4379 -4381 -4403 0
4379 4381 -4403 0
-4379 4381 4403 0
4379 -4381 4403 0
-4382 -4383 -4404 0
4382 4383 -4404 0
-4382 4383 4404 0
4382 -4383 4404 0
-4384 -4385 -4406 0
4384 4385 -4406 0
-4384 4385 4406 0
4384 -4385 4406 0
-4387 -4389 -4408 0
4387 4389 -4408 0
-4387 4389 4408 0
4387 -4389 4408 0
-4390 -4391 -4410 0
4390 4391 -4410 0
-4390 4391 4410 0
4390 -4391 4410 0
-4363 -4392 -4412 0
4363 4392 -4412 0
-4363 4392 4412 0
4363 -4392 4412 0
-4393 -4394 -4414 0
4393 4394 -4414 0
-4393 4394 4414 0
4393 -4394 4414 0
-4396 -4398 -4416 0
4396 4398 -4416 0
-4396 4398 4416 0
4396 -4398 4416 0
-4400 -4402 -4418 0
4400 4402 -4418 0
-4400 4402 4418 0
4400 -4402 4418 0
-4403 -4404 -4420 0
4403 4404 -4420 0
-4403 4404 4420 0
4403 -4404 4420 0
-4406 -4408 -4422 0
4406 4408 -4422 0
-4406 4408 4422 0
4406 -4408 4422 0
-4410 -4412 -4424 0
4410 4412 -4424 0
-4410 4412 4424 0
4410 -4412 4424 0
-4414 -4416 -4426 0
4414 4416 -4426 0
-4414 4416 4426 0
4414 -4416 4426 0
-4418 -4420 -4428 0
4418 4420 -4428 0
-4418 4420 4428 0
4418 -4420 4428 0
-4422 -4424 -4430 0
4422 4424 -4430 0
-4422 4424 4430 0
4422 -4424 4430 0
-4426 -4428 -4430 0
4426 4428 -4430 0
-4426 4428 4430 0
4426 -4428 4430 0
-4370 -4372 -4435 0
4370 4372 -4435 0
-4370 4372 4435 0
4370 -4372 4435 0
-4374 -4376 -4437 0
4374 4376 -4437 0
-4374 4376 4437 0
4374 -4376 4437 0
-4378 -4380 -4440 0
4378 4380 -4440 0
-4378 4380 4440 0
4378 -4380 4440 0
-4386 -4388 -4443 0
4386 4388 -4443 0
-4386 4388 4443 0
4386 -4388 4443 0
-4395 -4397 -4446 0
4395 4397 -4446 0
-4395 4397 4446 0
4395 -4397 4446 0
-4399 -4401 -4448 0
4399 4401 -4448 0
-4399 4401 4448 0
4399 -4401 4448 0
-4405 -4407 -4451 0
4405 4407 -4451 0
-4405 4407 4451 0
4405 -4407 4451 0
-4409 -4411 -4452 0
4409 4411 -4452 0
-4409 4411 4452 0
4409 -4411 4452 0
-4413 -4415 -4454 0
4413 4415 -4454 0
-4413 4415 4454 0
4413 -4415 4454 0
-4417 -4419 -4456 0
4417 4419 -4456 0
-4417 4419 4456 0
4417 -4419 4456 0
-4421 -4423 -4458 0
4421 4423 -4458 0
-4421 4423 4458 0
4421 -4423 4458 0
-4425 -4427 -4460 0
4425 4427 -4460 0
-4425 4427 4460 0
4425 -4427 4460 0
-4429 -4431 -4462 0
4429 4431 -4462 0
-4429 4431 4462 0
4429 -4431 4462 0
-4430 -4432 -4464 0
4430 4432 -4464 0
4430 -4432 4464 0
-4430 4432 4464 0
-4435 -4437 -4465 0
4435 4437 -4465 0
-4435 4437 4465 0
4435 -4437 4465 0
-4439 -4440 -4466 0
4439 4440 -4466 0
-4439 4440 4466 0
4439 -4440 4466 0
-4441 -4442 -4468 0
4441 4442 -4468 0
-4441 4442 4468 0
4441 -4442 4468 0
-4443 -4444 -4470 0
4443 4444 -4470 0
-4443 4444 4470 0
4443 -4444 4470 0
-4446 -4448 -4471 0
4446 4448 -4471 0
-4446 4448 4471 0
4446 -4448 4471 0
-4450 -4451 -4473 0
4450 4451 -4473 0
-4450 4451 4473 0
4450 -4451 4473 0
-4452 -4454 -4475 0
4452 4454 -4475 0
-4452 4454 4475 0
4452 -4454 4475 0
-4456 -4458 -4477 0
4456 4458 -4477 0
-4456 4458 4477 0
4456 -4458 4477 0
-4460 -4462 -4479 0
4460 4462 -4479 0
-4460 4462 4479 0
4460 -4462 4479 0
-4433 -4464 -4481 0
4433 4464 -4481 0
4433 -4464 4481 0
-4433 4464 4481 0
-4434 -4465 -4483 0
4434 4465 -4483 0
-4434 4465 4483 0
4434 -4465 4483 0
-4466 -4468 -4485 0
4466 4468 -4485 0
-4466 4468 4485 0
4466 -4468 4485 0
-4445 -4470 -4487 0
4445 4470 -4487 0
4445 -4470 4487 0
-4445 4470 4487 0
-4471 -4473 -4489 0
4471 4473 -4489 0
-4471 4473 4489 0
4471 -4473 4489 0
-4475 -4477 -4491 0
4475 4477 -4491 0
-4475 4477 4491 0
4475 -4477 4491 0
-4479 -4481 -4493 0
4479 4481 -4493 0
-4479 4481 4493 0
4479 -4481 4493 0
-4483 -4485 -4495 0
4483 4485 -4495 0
-4483 4485 4495 0
4483 -4485 4495 0
-4487 -4489 -4497 0
4487 4489 -4497 0
-4487 4489 4497 0
4487 -4489 4497 0
-4491 -4493 -4499 0
4491 4493 -4499 0
-4491 4493 4499 0
4491 -4493 4499 0
-4495 -4497 -4499 0
4495 4497 -4499 0
-4495 4497 4499 0
4495 -4497 4499 0
-4436 -4438 -4530 0
4436 4438 -4530 0
-4436 4438 4530 0
4436 -4438 4530 0
-4447 -4449 -4503 0
4447 4449 -4503 0
-4447 4449 4503 0
4447 -4449 4503 0
-4453 -4455 -4505 0
4453 4455 -4505 0
-4453 4455 4505 0
4453 -4455 4505 0
-4457 -4459 -4506 0
4457 4459 -4506 0
-4457 4459 4506 0
4457 -4459 4506 0
-4461 -4463 -4508 0
4461 4463 -4508 0
-4461 4463 4508 0
4461 -4463 4508 0
-4467 -4469 -4512 0
4467 4469 -4512 0
-4467 4469 4512 0
4467 -4469 4512 0
-4472 -4474 -4514 0
4472 4474 -4514 0
-4472 4474 4514 0
4472 -4474 4514 0
-4476 -4478 -4516 0
4476 4478 -4516 0
-4476 4478 4516 0
4476 -4478 4516 0
-4480 -4482 -4518 0
4480 4482 -4518 0
-4480 4482 4518 0
4480 -4482 4518 0
-4484 -4486 -4520 0
4484 4486 -4520 0
-4484 4486 4520 0
4484 -4486 4520 0
-4488 -4490 -4522 0
4488 4490 -4522 0
-4488 4490 4522 0
4488 -4490 4522 0
-4492 -4494 -4524 0
4492 4494 -4524 0
-4492 4494 4524 0
4492 -4494 4524 0
-4496 -4498 -4526 0
4496 4498 -4526 0
-4496 4498 4526 0
4496 -4498 4526 0
-4500 -4501 -4528 0
4500 4501 -4528 0
-4500 4501 4528 0
4500 -4501 4528 0
-4503 -4504 -4532 0
4503 4504 -4532 0
-4503 4504 4532 0
4503 -4504 4532 0
-4505 -4506 -4534 0
4505 4506 -4534 0
-4505 4506 4534 0
4505 -4506 4534 0
-4508 -4510 -4536 0
4508 4510 -4536 0
-4508 4510 4536 0
4508 -4510 4536 0
-4511 -4512 -4538 0
4511 4512 -4538 0
-4511 4512 4538 0
4511 -4512 4538 0
-4513 -4514 -4540 0
4513 4514 -4540 0
-4513 4514 4540 0
4513 -4514 4540 0
-4516 -4518 -4542 0
4516 4518 -4542 0
-4516 4518 4542 0
4516 -4518 4542 0
-4520 -4522 -4544 0
4520 4522 -4544 0
-4520 4522 4544 0
4520 -4522 4544 0
-4524 -4526 -4546 0
4524 4526 -4546 0
-4524 4526 4546 0
4524 -4526 4546 0
-4499 -4528 -4548 0
4499 4528 -4548 0
4499 -4528 4548 0
-4499 4528 4548 0
-4502 -4530 -4550 0
4502 4530 -4550 0
4502 -4530 4550 0
-4502 4530 4550 0
-4531 -4532 -4552 0
4531 4532 -4552 0
-4531 4532 4552 0
4531 -4532 4552 0
-4534 -4536 -4554 0
4534 4536 -4554 0
-4534 4536 4554 0
4534 -4536 4554 0
-4538 -4540 -4556 0
4538 4540 -4556 0
-4538 4540 4556 0
4538 -4540 4556 0
-4542 -4544 -4558 0
4542 4544 -4558 0
-4542 4544 4558 0
4542 -4544 4558 0
-4546 -4548 -4560 0
4546 4548 -4560 0
-4546 4548 4560 0
4546 -4548 4560 0
-4550 -4552 -4562 0
4550 4552 -4562 0
-4550 4552 4562 0
4550 -4552 4562 0
-4554 -4556 -4564 0
4554 4556 -4564 0
-4554 4556 4564 0
4554 -4556 4564 0
-4558 -4560 -4566 0
4558 4560 -4566 0
-4558 4560 4566 0
4558 -4560 4566 0
-4562 -4564 -4566 0
4562 4564 -4566 0
-4562 4564 4566 0
4562 -4564 4566 0
-4507 -4509 -4572 0
4507 4509 -4572 0
-4507 4509 4572 0
4507 -4509 4572 0
-4515 -4517 -4574 0
4515 4517 -4574 0
-4515 4517 4574 0
4515 -4517 4574 0
-4519 -4521 -4576 0
4519 4521 -4576 0
-4519 4521 4576 0
4519 -4521 4576 0
-4523 -4525 -4578 0
4523 4525 -4578 0
-4523 4525 4578 0
4523 -4525 4578 0
-4527 -4529 -4580 0
4527 4529 -4580 0
-4527 4529 4580 0
4527 -4529 4580 0
-4533 -4535 -4582 0
4533 4535 -4582 0
-4533 4535 4582 0
4533 -4535 4582 0
-4537 -4539 -4584 0
4537 4539 -4584 0
-4537 4539 4584 0
4537 -4539 4584 0
-4541 -4543 -4586 0
4541 4543 -4586 0
-4541 4543 4586 0
4541 -4543 4586 0
-4545 -4547 -4588 0
4545 4547 -4588 0
-4545 4547 4588 0
4545 -4547 4588 0
-4549 -4551 -4590 0
4549 4551 -4590 0
-4549 4551 4590 0
4549 -4551 4590 0
-4553 -4555 -4592 0
4553 4555 -4592 0
-4553 4555 4592 0
4553 -4555 4592 0
-4557 -4559 -4594 0
4557 4559 -4594 0
-4557 4559 4594 0
4557 -4559 4594 0
-4561 -4563 -4596 0
4561 4563 -4596 0
-4561 4563 4596 0
4561 -4563 4596 0
-4565 -4567 -4598 0
4565 4567 -4598 0
-4565 4567 4598 0
4565 -4567 4598 0
-4566 -4568 -4600 0
4566 4568 -4600 0
4566 -4568 4600 0
-4566 4568 4600 0
-4571 -4572 -4602 0
4571 4572 -4602 0
-4571 4572 4602 0
4571 -4572 4602 0
-4574 -4576 -4603 0
4574 4576 -4603 0
-4574 4576 4603 0
4574 -4576 4603 0
-4578 -4580 -4605 0
4578 4580 -4605 0
-4578 4580 4605 0
4578 -4580 4605 0
-4582 -4584 -4620 0
4582 4584 -4620 0
-4582 4584 4620 0
4582 -4584 4620 0
-4586 -4588 -4607 0
4586 4588 -4607 0
-4586 4588 4607 0
4586 -4588 4607 0
-4590 -4592 -4609 0
4590 4592 -4609 0
-4590 4592 4609 0
4590 -4592 4609 0
-4594 -4596 -4611 0
4594 4596 -4611 0
-4594 4596 4611 0
4594 -4596 4611 0
-4598 -4600 -4613 0
4598 4600 -4613 0
-4598 4600 4613 0
4598 -4600 4613 0
-4569 -4570 -4615 0
4569 4570 -4615 0
-4569 4570 4615 0
4569 -4570 4615 0
-4573 -4602 -4617 0
4573 4602 -4617 0
4573 -4602 4617 0
-4573 4602 4617 0
-4603 -4605 -4619 0
4603 4605 -4619 0
-4603 4605 4619 0
4603 -4605 4619 0
-4607 -4609 -4621 0
4607 4609 -4621 0
-4607 4609 4621 0
4607 -4609 4621 0
-4611 -4613 -4623 0
4611 4613 -4623 0
-4611 4613 4623 0
4611 -4613 4623 0
-4615 -4617 -4625 0
4615 4617 -4625 0
-4615 4617 4625 0
4615 -4617 4625 0
-4619 -4620 -4627 0
4619 4620 -4627 0
-4619 4620 4627 0
4619 -4620 4627 0
-4621 -4623 -4629 0
4621 4623 -4629 0
-4621 4623 4629 0
4621 -4623 4629 0
-4625 -4627 -4629 0
4625 4627 -4629 0
-4625 4627 4629 0
4625 -4627 4629 0
-4575 -4577 -4657 0
4575 4577 -4657 0
-4575 4577 4657 0
4575 -4577 4657 0
-4579 -4581 -4658 0
4579 4581 -4658 0
-4579 4581 4658 0
4579 -4581 4658 0
-4583 -4585 -4634 0
4583 4585 -4634 0
-4583 4585 4634 0
4583 -4585 4634 0
-4587 -4589 -4635 0
4587 4589 -4635 0
-4587 4589 4635 0
4587 -4589 4635 0
-4591 -4593 -4637 0
4591 4593 -4637 0
-4591 4593 4637 0
4591 -4593 4637 0
-4595 -4597 -4639 0
4595 4597 -4639 0
-4595 4597 4639 0
4595 -4597 4639 0
-4599 -4601 -4661 0
4599 4601 -4661 0
-4599 4601 4661 0
4599 -4601 4661 0
-4604 -4606 -4643 0
4604 4606 -4643 0
-4604 4606 4643 0
4604 -4606 4643 0
-4608 -4610 -4645 0
4608 4610 -4645 0
-4608 4610 4645 0
4608 -4610 4645 0
-4612 -4614 -4647 0
4612 4614 -4647 0
-4612 4614 4647 0
4612 -4614 4647 0
-4616 -4618 -4649 0
4616 4618 -4649 0
-4616 4618 4649 0
4616 -4618 4649 0
-4622 -4624 -4651 0
4622 4624 -4651 0
-4622 4624 4651 0
4622 -4624 4651 0
-4626 -4628 -4653 0
4626 4628 -4653 0
-4626 4628 4653 0
4626 -4628 4653 0
-4630 -4631 -4655 0
4630 4631 -4655 0
-4630 4631 4655 0
4630 -4631 4655 0
-4634 -4635 -4659 0
4634 4635 -4659 0
-4634 4635 4659 0
4634 -4635 4659 0
-4637 -4639 -4660 0
4637 4639 -4660 0
-4637 4639 4660 0
4637 -4639 4660 0
-4642 -4643 -4662 0
4642 4643 -4662 0
-4642 4643 4662 0
4642 -4643 4662 0
-4644 -4645 -4664 0
4644 4645 -4664 0
-4644 4645 4664 0
4644 -4645 4664 0
-4647 -4649 -4666 0
4647 4649 -4666 0
-4647 4649 4666 0
4647 -4649 4666 0
-4650 -4651 -4668 0
4650 4651 -4668 0
-4650 4651 4668 0
4650 -4651 4668 0
-4653 -4655 -4670 0
4653 4655 -4670 0
-4653 4655 4670 0
4653 -4655 4670 0
-4629 -4656 -4672 0
4629 4656 -4672 0
-4629 4656 4672 0
4629 -4656 4672 0
-4657 -4658 -4674 0
4657 4658 -4674 0
-4657 4658 4674 0
4657 -4658 4674 0
-4659 -4660 -4676 0
4659 4660 -4676 0
-4659 4660 4676 0
4659 -4660 4676 0
-4661 -4662 -4678 0
4661 4662 -4678 0
-4661 4662 4678 0
4661 -4662 4678 0
-4664 -4666 -4680 0
4664 4666 -4680 0
-4664 4666 4680 0
4664 -4666 4680 0
-4668 -4670 -4682 0
4668 4670 -4682 0
-4668 4670 4682 0
4668 -4670 4682 0
-4672 -4674 -4684 0
4672 4674 -4684 0
-4672 4674 4684 0
4672 -4674 4684 0
-4676 -4678 -4686 0
4676 4678 -4686 0
-4676 4678 4686 0
4676 -4678 4686 0
-4680 -4682 -4688 0
4680 4682 -4688 0
-4680 4682 4688 0
4680 -4682 4688 0
-4684 -4686 -4688 0
4684 4686 -4688 0
-4684 4686 4688 0
4684 -4686 4688 0
-4632 -4633 -4691 0
4632 4633 -4691 0
-4632 4633 4691 0
4632 -4633 4691 0
-4636 -4638 -4693 0
4636 4638 -4693 0
-4636 4638 4693 0
4636 -4638 4693 0
-4640 -4641 -4695 0
4640 4641 -4695 0
-4640 4641 4695 0
4640 -4641 4695 0
-4646 -4648 -4698 0
4646 4648 -4698 0
-4646 4648 4698 0
4646 -4648 4698 0
-4652 -4654 -4700 0
4652 4654 -4700 0
-4652 4654 4700 0
4652 -4654 4700 0
-4663 -4665 -4704 0
4663 4665 -4704 0
-4663 4665 4704 0
4663 -4665 4704 0
-4667 -4669 -4705 0
4667 4669 -4705 0
-4667 4669 4705 0
4667 -4669 4705 0
-4671 -4673 -4707 0
4671 4673 -4707 0
-4671 4673 4707 0
4671 -4673 4707 0
-4675 -4677 -4709 0
4675 4677 -4709 0
-4675 4677 4709 0
4675 -4677 4709 0
-4679 -4681 -4711 0
4679 4681 -4711 0
-4679 4681 4711 0
4679 -4681 4711 0
-4683 -4685 -4713 0
4683 4685 -4713 0
-4683 4685 4713 0
4683 -4685 4713 0
-4687 -4689 -4715 0
4687 4689 -4715 0
-4687 4689 4715 0
4687 -4689 4715 0
-4688 -4690 -4731 0
4688 4690 -4731 0
4688 -4690 4731 0
-4688 4690 4731 0
-4691 -4692 -4717 0
4691 4692 -4717 0
-4691 4692 4717 0
4691 -4692 4717 0
-4693 -4695 -4719 0
4693 4695 -4719 0
-4693 4695 4719 0
4693 -4695 4719 0
-4698 -4699 -4721 0
4698 4699 -4721 0
-4698 4699 4721 0
4698 -4699 4721 0
-4700 -4701 -4722 0
4700 4701 -4722 0
-4700 4701 4722 0
4700 -4701 4722 0
-4703 -4704 -4723 0
4703 4704 -4723 0
-4703 4704 4723 0
4703 -4704 4723 0
-4705 -4707 -4725 0
4705 4707 -4725 0
-4705 4707 4725 0
4705 -4707 4725 0
-4709 -4711 -4727 0
4709 4711 -4727 0
-4709 4711 4727 0
4709 -4711 4727 0
-4713 -4715 -4729 0
4713 4715 -4729 0
-4713 4715 4729 0
4713 -4715 4729 0
-4717 -4719 -4732 0
4717 4719 -4732 0
-4717 4719 4732 0
4717 -4719 4732 0
-4697 -4721 -4733 0
4697 4721 -4733 0
-4697 4721 4733 0
4697 -4721 4733 0
-4702 -4722 -4735 0
4702 4722 -4735 0
4702 -4722 4735 0
-4702 4722 4735 0
-4723 -4725 -4737 0
4723 4725 -4737 0
-4723 4725 4737 0
4723 -4725 4737 0
-4727 -4729 -4739 0
4727 4729 -4739 0
-4727 4729 4739 0
4727 -4729 4739 0
-4731 -4732 -4741 0
4731 4732 -4741 0
-4731 4732 4741 0
4731 -4732 4741 0
-4733 -4735 -4743 0
4733 4735 -4743 0
-4733 4735 4743 0
4733 -4735 4743 0
-4737 -4739 -4745 0
4737 4739 -4745 0
-4737 4739 4745 0
4737 -4739 4745 0
-4741 -4743 -4745 0
4741 4743 -4745 0
-4741 4743 4745 0
4741 -4743 4745 0
-4694 -4696 -4749 0
4694 4696 -4749 0
-4694 4696 4749 0
4694 -4696 4749 0
-4706 -4708 -4753 0
4706 4708 -4753 0
-4706 4708 4753 0
4706 -4708 4753 0
-4710 -4712 -4755 0
4710 4712 -4755 0
-4710 4712 4755 0
4710 -4712 4755 0
-4714 -4716 -4757 0
4714 4716 -4757 0
-4714 4716 4757 0
4714 -4716 4757 0
-4718 -4720 -4759 0
4718 4720 -4759 0
-4718 4720 4759 0
4718 -4720 4759 0
-4724 -4726 -4762 0
4724 4726 -4762 0
-4724 4726 4762 0
4724 -4726 4762 0
-4728 -4730 -4763 0
4728 4730 -4763 0
-4728 4730 4763 0
4728 -4730 4763 0
-4734 -4736 -4765 0
4734 4736 -4765 0
-4734 4736 4765 0
4734 -4736 4765 0
-4738 -4740 -4767 0
4738 4740 -4767 0
-4738 4740 4767 0
4738 -4740 4767 0
-4742 -4744 -4769 0
4742 4744 -4769 0
-4742 4744 4769 0
4742 -4744 4769 0
-4746 -4747 -4771 0
4746 4747 -4771 0
-4746 4747 4771 0
4746 -4747 4771 0
-4748 -4749 -4773 0
4748 4749 -4773 0
-4748 4749 4773 0
4748 -4749 4773 0
-4752 -4753 -4774 0
4752 4753 -4774 0
-4752 4753 4774 0
4752 -4753 4774 0
-4755 -4757 -4776 0
4755 4757 -4776 0
-4755 4757 4776 0
4755 -4757 4776 0
-4758 -4759 -4778 0
4758 4759 -4778 0
-4758 4759 4778 0
4758 -4759 4778 0
-4760 -4761 -4780 0
4760 4761 -4780 0
-4760 4761 4780 0
4760 -4761 4780 0
-4762 -4763 -4782 0
4762 4763 -4782 0
-4762 4763 4782 0
4762 -4763 4782 0
-4764 -4765 -4784 0
4764 4765 -4784 0
-4764 4765 4784 0
4764 -4765 4784 0
-4767 -4769 -4786 0
4767 4769 -4786 0
-4767 4769 4786 0
4767 -4769 4786 0
-4745 -4771 -4788 0
4745 4771 -4788 0
4745 -4771 4788 0
-4745 4771 4788 0
-4750 -4773 -4790 0
4750 4773 -4790 0
4750 -4773 4790 0
-4750 4773 4790 0
-4751 -4774 -4792 0
4751 4774 -4792 0
-4751 4774 4792 0
4751 -4774 4792 0
-4776 -4778 -4794 0
4776 4778 -4794 0
-4776 4778 4794 0
4776 -4778 4794 0
-4780 -4782 -4796 0
4780 4782 -4796 0
-4780 4782 4796 0
4780 -4782 4796 0
-4784 -4786 -4798 0
4784 4786 -4798 0
-4784 4786 4798 0
4784 -4786 4798 0
-4788 -4790 -4800 0
4788 4790 -4800 0
-4788 4790 4800 0
4788 -4790 4800 0
-4792 -4794 -4802 0
4792 4794 -4802 0
-4792 4794 4802 0
4792 -4794 4802 0
-4796 -4798 -4804 0
4796 4798 -4804 0
-4796 4798 4804 0
4796 -4798 4804 0
-4800 -4802 -4804 0
4800 4802 -4804 0
-4800 4802 4804 0
4800 -4802 4804 0
-4754 -4756 -4808 0
4754 4756 -4808 0
-4754 4756 4808 0
4754 -4756 4808 0
-4766 -4768 -4813 0
4766 4768 -4813 0
-4766 4768 4813 0
4766 -4768 4813 0
-4770 -4772 -4814 0
4770 4772 -4814 0
-4770 4772 4814 0
4770 -4772 4814 0
-4775 -4777 -4840 0
4775 4777 -4840 0
-4775 4777 4840 0
4775 -4777 4840 0
-4779 -4781 -4816 0
4779 4781 -4816 0
-4779 4781 4816 0
4779 -4781 4816 0
-4783 -4785 -4818 0
4783 4785 -4818 0
-4783 4785 4818 0
4783 -4785 4818 0
-4787 -4789 -4820 0
4787 4789 -4820 0
-4787 4789 4820 0
4787 -4789 4820 0
-4791 -4793 -4822 0
4791 4793 -4822 0
-4791 4793 4822 0
4791 -4793 4822 0
-4795 -4797 -4824 0
4795 4797 -4824 0
-4795 4797 4824 0
4795 -4797 4824 0
-4799 -4801 -4826 0
4799 4801 -4826 0
-4799 4801 4826 0
4799 -4801 4826 0
-4803 -4805 -4828 0
4803 4805 -4828 0
-4803 4805 4828 0
4803 -4805 4828 0
-4804 -4806 -4830 0
4804 4806 -4830 0
4804 -4806 4830 0
-4804 4806 4830 0
-4808 -4809 -4832 0
4808 4809 -4832 0
-4808 4809 4832 0
4808 -4809 4832 0
-4810 -4811 -4834 0
4810 4811 -4834 0
-4810 4811 4834 0
4810 -4811 4834 0
-4812 -4813 -4836 0
4812 4813 -4836 0
-4812 4813 4836 0
4812 -4813 4836 0
-4814 -4815 -4838 0
4814 4815 -4838 0
-4814 4815 4838 0
4814 -4815 4838 0
-4816 -4818 -4841 0
4816 4818 -4841 0
-4816 4818 4841 0
4816 -4818 4841 0
-4820 -4822 -4842 0
4820 4822 -4842 0
-4820 4822 4842 0
4820 -4822 4842 0
-4824 -4826 -4844 0
4824 4826 -4844 0
-4824 4826 4844 0
4824 -4826 4844 0
-4828 -4830 -4846 0
4828 4830 -4846 0
-4828 4830 4846 0
4828 -4830 4846 0
-4832 -4834 -4847 0
4832 4834 -4847 0
-4832 4834 4847 0
4832 -4834 4847 0
-4836 -4838 -4849 0
4836 4838 -4849 0
-4836 4838 4849 0
4836 -4838 4849 0
-4840 -4841 -4851 0
4840 4841 -4851 0
-4840 4841 4851 0
4840 -4841 4851 0
-4842 -4844 -4853 0
4842 4844 -4853 0
-4842 4844 4853 0
4842 -4844 4853 0
-4807 -4846 -4855 0
4807 4846 -4855 0
4807 -4846 4855 0
-4807 4846 4855 0
-4847 -4849 -4857 0
4847 4849 -4857 0
-4847 4849 4857 0
4847 -4849 4857 0
-4851 -4853 -4859 0
4851 4853 -4859 0
-4851 4853 4859 0
4851 -4853 4859 0
-4855 -4857 -4859 0
4855 4857 -4859 0
-4855 4857 4859 0
4855 -4857 4859 0
-4817 -4819 -4866 0
4817 4819 -4866 0
-4817 4819 4866 0
4817 -4819 4866 0
-4821 -4823 -4867 0
4821 4823 -4867 0
-4821 4823 4867 0
4821 -4823 4867 0
-4825 -4827 -4869 0
4825 4827 -4869 0
-4825 4827 4869 0
4825 -4827 4869 0
-4829 -4831 -4871 0
4829 4831 -4871 0
-4829 4831 4871 0
4829 -4831 4871 0
-4833 -4835 -4889 0
4833 4835 -4889 0
-4833 4835 4889 0
4833 -4835 4889 0
-4837 -4839 -4873 0
4837 4839 -4873 0
-4837 4839 4873 0
4837 -4839 4873 0
-4843 -4845 -4876 0
4843 4845 -4876 0
-4843 4845 4876 0
4843 -4845 4876 0
-4848 -4850 -4878 0
4848 4850 -4878 0
-4848 4850 4878 0
4848 -4850 4878 0
-4852 -4854 -4879 0
4852 4854 -4879 0
-4852 4854 4879 0
4852 -4854 4879 0
-4856 -4858 -4881 0
4856 4858 -4881 0
-4856 4858 4881 0
4856 -4858 4881 0
-4860 -4861 -4883 0
4860 4861 -4883 0
-4860 4861 4883 0
4860 -4861 4883 0
-4864 -4865 -4884 0
4864 4865 -4884 0
-4864 4865 4884 0
4864 -4865 4884 0
-4866 -4867 -4886 0
4866 4867 -4886 0
-4866 4867 4886 0
4866 -4867 4886 0
-4869 -4871 -4888 0
4869 4871 -4888 0
-4869 4871 4888 0
4869 -4871 4888 0
-4873 -4875 -4890 0
4873 4875 -4890 0
-4873 4875 4890 0
4873 -4875 4890 0
-4876 -4877 -4892 0
4876 4877 -4892 0
-4876 4877 4892 0
4876 -4877 4892 0
-4878 -4879 -4894 0
4878 4879 -4894 0
-4878 4879 4894 0
4878 -4879 4894 0
-4881 -4883 -4896 0
4881 4883 -4896 0
-4881 4883 4896 0
4881 -4883 4896 0
-4859 -4862 -4898 0
4859 4862 -4898 0
-4859 4862 4898 0
4859 -4862 4898 0
-4863 -4884 -4900 0
4863 4884 -4900 0
-4863 4884 4900 0
4863 -4884 4900 0
-4886 -4888 -4902 0
4886 4888 -4902 0
-4886 4888 4902 0
4886 -4888 4902 0
-4889 -4890 -4904 0
4889 4890 -4904 0
-4889 4890 4904 0
4889 -4890 4904 0
-4892 -4894 -4906 0
4892 4894 -4906 0
-4892 4894 4906 0
4892 -4894 4906 0
-4896 -4898 -4908 0
4896 4898 -4908 0
-4896 4898 4908 0
4896 -4898 4908 0
-4900 -4902 -4910 0
4900 4902 -4910 0
-4900 4902 4910 0
4900 -4902 4910 0
-4904 -4906 -4912 0
4904 4906 -4912 0
-4904 4906 4912 0
4904 -4906 4912 0
-4908 -4910 -4912 0
4908 4910 -4912 0
-4908 4910 4912 0
4908 -4910 4912 0
-4868 -4870 -4916 0
4868 4870 -4916 0
-4868 4870 4916 0
4868 -4870 4916 0
-4872 -4874 -4918 0
4872 4874 -4918 0
-4872 4874 4918 0
4872 -4874 4918 0
-4880 -4882 -4921 0
4880 4882 -4921 0
-4880 4882 4921 0
4880 -4882 4921 0
-4885 -4887 -4923 0
4885 4887 -4923 0
-4885 4887 4923 0
4885 -4887 4923 0
-4891 -4893 -4925 0
4891 4893 -4925 0
-4891 4893 4925 0
4891 -4893 4925 0
-4895 -4897 -4927 0
4895 4897 -4927 0
-4895 4897 4927 0
4895 -4897 4927 0
-4899 -4901 -4929 0
4899 4901 -4929 0
-4899 4901 4929 0
4899 -4901 4929 0
-4903 -4905 -4931 0
4903 4905 -4931 0
-4903 4905 4931 0
4903 -4905 4931 0
-4907 -4909 -4933 0
4907 4909 -4933 0
-4907 4909 4933 0
4907 -4909 4933 0
-4911 -4913 -4935 0
4911 4913 -4935 0
-4911 4913 4935 0
4911 -4913 4935 0
-4912 -4914 -4948 0
4912 4914 -4948 0
4912 -4914 4948 0
-4912 4914 4948 0
-4916 -4917 -4937 0
4916 4917 -4937 0
-4916 4917 4937 0
4916 -4917 4937 0
-4918 -4919 -4938 0
4918 4919 -4938 0
-4918 4919 4938 0
4918 -4919 4938 0
-4920 -4921 -4940 0
4920 4921 -4940 0
-4920 4921 4940 0
4920 -4921 4940 0
-4923 -4924 -4942 0
4923 4924 -4942 0
-4923 4924 4942 0
4923 -4924 4942 0
-4925 -4927 -4943 0
4925 4927 -4943 0
-4925 4927 4943 0
4925 -4927 4943 0
-4929 -4931 -4945 0
4929 4931 -4945 0
-4929 4931 4945 0
4929 -4931 4945 0
-4933 -4935 -4947 0
4933 4935 -4947 0
-4933 4935 4947 0
4933 -4935 4947 0
-4915 -4937 -4949 0
4915 4937 -4949 0
-4915 4937 4949 0
4915 -4937 4949 0
-4938 -4940 -4951 0
4938 4940 -4951 0
-4938 4940 4951 0
4938 -4940 4951 0
-4922 -4942 -4953 0
4922 4942 -4953 0
-4922 4942 4953 0
4922 -4942 4953 0
-4943 -4945 -4955 0
4943 4945 -4955 0
-4943 4945 4955 0
4943 -4945 4955 0
-4947 -4948 -4957 0
4947 4948 -4957 0
-4947 4948 4957 0
4947 -4948 4957 0
-4949 -4951 -4959 0
4949 4951 -4959 0
-4949 4951 4959 0
4949 -4951 4959 0
-4953 -4955 -4961 0
4953 4955 -4961 0
-4953 4955 4961 0
4953 -4955 4961 0
-4957 -4959 -4961 0
4957 4959 -4961 0
-4957 4959 4961 0
4957 -4959 4961 0
-4926 -4928 -4967 0
4926 4928 -4967 0
-4926 4928 4967 0
4926 -4928 4967 0
-4930 -4932 -4968 0
4930 4932 -4968 0
-4930 4932 4968 0
4930 -4932 4968 0
-4934 -4936 -4970 0
4934 4936 -4970 0
-4934 4936 4970 0
4934 -4936 4970 0
-4939 -4941 -4974 0
4939 4941 -4974 0
-4939 4941 4974 0
4939 -4941 4974 0
-4944 -4946 -4976 0
4944 4946 -4976 0
-4944 4946 4976 0
4944 -4946 4976 0
-4950 -4952 -4978 0
4950 4952 -4978 0
-4950 4952 4978 0
4950 -4952 4978 0
-4954 -4956 -4980 0
4954 4956 -4980 0
-4954 4956 4980 0
4954 -4956 4980 0
-4958 -4960 -4982 0
4958 4960 -4982 0
-4958 4960 4982 0
4958 -4960 4982 0
-4962 -4963 -4984 0
4962 4963 -4984 0
-4962 4963 4984 0
4962 -4963 4984 0
-4965 -4966 -4986 0
4965 4966 -4986 0
-4965 4966 4986 0
4965 -4966 4986 0
-4967 -4968 -4988 0
4967 4968 -4988 0
-4967 4968 4988 0
4967 -4968 4988 0
-4970 -4972 -4990 0
4970 4972 -4990 0
-4970 4972 4990 0
4970 -4972 4990 0
-4973 -4974 -4992 0
4973 4974 -4992 0
-4973 4974 4992 0
4973 -4974 4992 0
-4975 -4976 -4994 0
4975 4976 -4994 0
-4975 4976 4994 0
4975 -4976 4994 0
-4977 -4978 -4996 0
4977 4978 -4996 0
-4977 4978 4996 0
4977 -4978 4996 0
-4980 -4982 -4998 0
4980 4982 -4998 0
-4980 4982 4998 0
4980 -4982 4998 0
-4961 -4984 -5000 0
4961 4984 -5000 0
4961 -4984 5000 0
-4961 4984 5000 0
-4964 -4986 -5002 0
4964 4986 -5002 0
-4964 4986 5002 0
4964 -4986 5002 0
-4987 -4988 -5004 0
4987 4988 -5004 0
-4987 4988 5004 0
4987 -4988 5004 0
-4990 -4992 -5006 0
4990 4992 -5006 0
-4990 4992 5006 0
4990 -4992 5006 0
-4994 -4996 -5008 0
4994 4996 -5008 0
-4994 4996 5008 0
4994 -4996 5008 0
-4998 -5000 -5010 0
4998 5000 -5010 0
-4998 5000 5010 0
4998 -5000 5010 0
-5002 -5004 -5012 0
5002 5004 -5012 0
-5002 5004 5012 0
5002 -5004 5012 0
-5006 -5008 -5014 0
5006 5008 -5014 0
-5006 5008 5014 0
5006 -5008 5014 0
-5010 -5012 -5014 0
5010 5012 -5014 0
-5010 5012 5014 0
5010 -5012 5014 0
-4969 -4971 -5040 0
4969 4971 -5040 0
-4969 4971 5040 0
4969 -4971 5040 0
-4979 -4981 -5019 0
4979 4981 -5019 0
-4979 4981 5019 0
4979 -4981 5019 0
-4983 -4985 -5021 0
4983 4985 -5021 0
-4983 4985 5021 0
4983 -4985 5021 0
-4989 -4991 -5024 0
4989 4991 -5024 0
-4989 4991 5024 0
4989 -4991 5024 0
-4993 -4995 -5026 0
4993 4995 -5026 0
-4993 4995 5026 0
4993 -4995 5026 0
-4997 -4999 -5028 0
4997 4999 -5028 0
-4997 4999 5028 0
4997 -4999 5028 0
-5001 -5003 -5030 0
5001 5003 -5030 0
-5001 5003 5030 0
5001 -5003 5030 0
-5005 -5007 -5032 0
5005 5007 -5032 0
-5005 5007 5032 0
5005 -5007 5032 0
-5009 -5011 -5034 0
5009 5011 -5034 0
-5009 5011 5034 0
5009 -5011 5034 0
-5013 -5015 -5036 0
5013 5015 -5036 0
-5013 5015 5036 0
5013 -5015 5036 0
-5014 -5016 -5038 0
5014 5016 -5038 0
5014 -5016 5038 0
-5014 5016 5038 0
-5017 -5018 -5041 0
5017 5018 -5041 0
-5017 5018 5041 0
5017 -5018 5041 0
-5019 -5021 -5042 0
5019 5021 -5042 0
-5019 5021 5042 0
5019 -5021 5042 0
-5024 -5026 -5043 0
5024 5026 -5043 0
-5024 5026 5043 0
5024 -5026 5043 0
-5028 -5030 -5045 0
5028 5030 -5045 0
-5028 5030 5045 0
5028 -5030 5045 0
-5032 -5034 -5047 0
5032 5034 -5047 0
-5032 5034 5047 0
5032 -5034 5047 0
-5036 -5038 -5049 0
5036 5038 -5049 0
-5036 5038 5049 0
5036 -5038 5049 0
-5040 -5041 -5052 0
5040 5041 -5052 0
-5040 5041 5052 0
5040 -5041 5052 0
-5023 -5042 -5053 0
5023 5042 -5053 0
5023 -5042 5053 0
-5023 5042 5053 0
-5043 -5045 -5055 0
5043 5045 -5055 0
-5043 5045 5055 0
5043 -5045 5055 0
-5047 -5049 -5057 0
5047 5049 -5057 0
-5047 5049 5057 0
5047 -5049 5057 0
-5051 -5052 -5059 0
5051 5052 -5059 0
-5051 5052 5059 0
5051 -5052 5059 0
-5053 -5055 -5061 0
5053 5055 -5061 0
-5053 5055 5061 0
5053 -5055 5061 0
-5057 -5059 -5061 0
5057 5059 -5061 0
-5057 5059 5061 0
5057 -5059 5061 0
-5020 -5022 -5081 0
5020 5022 -5081 0
-5020 5022 5081 0
5020 -5022 5081 0
-5025 -5027 -5082 0
5025 5027 -5082 0
-5025 5027 5082 0
5025 -5027 5082 0
-5029 -5031 -5066 0
5029 5031 -5066 0
-5029 5031 5066 0
5029 -5031 5066 0
-5033 -5035 -5068 0
5033 5035 -5068 0
-5033 5035 5068 0
5033 -5035 5068 0
-5037 -5039 -5084 0
5037 5039 -5084 0
-5037 5039 5084 0
5037 -5039 5084 0
-5044 -5046 -5073 0
5044 5046 -5073 0
-5044 5046 5073 0
5044 -5046 5073 0
-5048 -5050 -5074 0
5048 5050 -5074 0
-5048 5050 5074 0
5048 -5050 5074 0
-5054 -5056 -5076 0
5054 5056 -5076 0
-5054 5056 5076 0
5054 -5056 5076 0
-5058 -5060 -5078 0
5058 5060 -5078 0
-5058 5060 5078 0
5058 -5060 5078 0
-5062 -5063 -5080 0
5062 5063 -5080 0
-5062 5063 5080 0
5062 -5063 5080 0
-5066 -5068 -5083 0
5066 5068 -5083 0
-5066 5068 5083 0
5066 -5068 5083 0
-5071 -5072 -5085 0
5071 5072 -5085 0
-5071 5072 5085 0
5071 -5072 5085 0
-5073 -5074 -5086 0
5073 5074 -5086 0
-5073 5074 5086 0
5073 -5074 5086 0
-5075 -5076 -5088 0
5075 5076 -5088 0
-5075 5076 5088 0
5075 -5076 5088 0
-5078 -5080 -5090 0
5078 5080 -5090 0
-5078 5080 5090 0
5078 -5080 5090 0
-5061 -5064 -5092 0
5061 5064 -5092 0
-5061 5064 5092 0
5061 -5064 5092 0
-5081 -5082 -5094 0
5081 5082 -5094 0
-5081 5082 5094 0
5081 -5082 5094 0
-5083 -5084 -5096 0
5083 5084 -5096 0
-5083 5084 5096 0
5083 -5084 5096 0
-5085 -5086 -5098 0
5085 5086 -5098 0
-5085 5086 5098 0
5085 -5086 5098 0
-5088 -5090 -5100 0
5088 5090 -5100 0
-5088 5090 5100 0
5088 -5090 5100 0
-5092 -5094 -5102 0
5092 5094 -5102 0
-5092 5094 5102 0
5092 -5094 5102 0
-5096 -5098 -5104 0
5096 5098 -5104 0
-5096 5098 5104 0
5096 -5098 5104 0
-5100 -5102 -5104 0
5100 5102 -5104 0
-5100 5102 5104 0
5100 -5102 5104 0
-5065 -5067 -5108 0
5065 5067 -5108 0
-5065 5067 5108 0
5065 -5067 5108 0
-5069 -5070 -5125 0
5069 5070 -5125 0
-5069 5070 5125 0
5069 -5070 5125 0
-5077 -5079 -5111 0
5077 5079 -5111 0
-5077 5079 5111 0
5077 -5079 5111 0
-5087 -5089 -5115 0
5087 5089 -5115 0
-5087 5089 5115 0
5087 -5089 5115 0
-5091 -5093 -5116 0
5091 5093 -5116 0
-5091 5093 5116 0
5091 -5093 5116 0
-5095 -5097 -5118 0
5095 5097 -5118 0
-5095 5097 5118 0
5095 -5097 5118 0
-5099 -5101 -5120 0
5099 5101 -5120 0
-5099 5101 5120 0
5099 -5101 5120 0
-5103 -5105 -5122 0
5103 5105 -5122 0
-5103 5105 5122 0
5103 -5105 5122 0
-5104 -5106 -5135 0
5104 5106 -5135 0
5104 -5106 5135 0
-5104 5106 5135 0
-5107 -5108 -5124 0
5107 5108 -5124 0
-5107 5108 5124 0
5107 -5108 5124 0
-5109 -5110 -5126 0
5109 5110 -5126 0
-5109 5110 5126 0
5109 -5110 5126 0
-5111 -5112 -5128 0
5111 5112 -5128 0
-5111 5112 5128 0
5111 -5112 5128 0
-5114 -5115 -5130 0
5114 5115 -5130 0
-5114 5115 5130 0
5114 -5115 5130 0
-5116 -5118 -5131 0
5116 5118 -5131 0
-5116 5118 5131 0
5116 -5118 5131 0
-5120 -5122 -5133 0
5120 5122 -5133 0
-5120 5122 5133 0
5120 -5122 5133 0
-5124 -5125 -5136 0
5124 5125 -5136 0
-5124 5125 5136 0
5124 -5125 5136 0
-5126 -5128 -5137 0
5126 5128 -5137 0
-5126 5128 5137 0
5126 -5128 5137 0
-5113 -5130 -5139 0
5113 5130 -5139 0
-5113 5130 5139 0
5113 -5130 5139 0
-5131 -5133 -5141 0
5131 5133 -5141 0
-5131 5133 5141 0
5131 -5133 5141 0
-5135 -5136 -5143 0
5135 5136 -5143 0
-5135 5136 5143 0
5135 -5136 5143 0
-5137 -5139 -5145 0
5137 5139 -5145 0
-5137 5139 5145 0
5137 -5139 5145 0
-5141 -5143 -5145 0
5141 5143 -5145 0
-5141 5143 5145 0
5141 -5143 5145 0
-5117 -5119 -5151 0
5117 5119 -5151 0
-5117 5119 5151 0
5117 -5119 5151 0
-5121 -5123 -5152 0
5121 5123 -5152 0
-5121 5123 5152 0
5121 -5123 5152 0
-5127 -5129 -5155 0
5127 5129 -5155 0
-5127 5129 5155 0
5127 -5129 5155 0
-5132 -5134 -5157 0
5132 5134 -5157 0
-5132 5134 5157 0
5132 -5134 5157 0
-5138 -5140 -5159 0
5138 5140 -5159 0
-5138 5140 5159 0
5138 -5140 5159 0
-5142 -5144 -5160 0
5142 5144 -5160 0
-5142 5144 5160 0
5142 -5144 5160 0
-5146 -5147 -5162 0
5146 5147 -5162 0
-5146 5147 5162 0
5146 -5147 5162 0
-5148 -5149 -5164 0
5148 5149 -5164 0
-5148 5149 5164 0
5148 -5149 5164 0
-5151 -5152 -5166 0
5151 5152 -5166 0
-5151 5152 5166 0
5151 -5152 5166 0
-5153 -5154 -5168 0
5153 5154 -5168 0
-5153 5154 5168 0
5153 -5154 5168 0
-5155 -5156 -5170 0
5155 5156 -5170 0
-5155 5156 5170 0
5155 -5156 5170 0
-5157 -5158 -5172 0
5157 5158 -5172 0
-5157 5158 5172 0
5157 -5158 5172 0
-5159 -5160 -5174 0
5159 5160 -5174 0
-5159 5160 5174 0
5159 -5160 5174 0
-5145 -5162 -5176 0
5145 5162 -5176 0
5145 -5162 5176 0
-5145 5162 5176 0
-5150 -5164 -5178 0
5150 5164 -5178 0
5150 -5164 5178 0
-5150 5164 5178 0
-5165 -5166 -5180 0
5165 5166 -5180 0
-5165 5166 5180 0
5165 -5166 5180 0
-5168 -5170 -5182 0
5168 5170 -5182 0
-5168 5170 5182 0
5168 -5170 5182 0
-5172 -5174 -5184 0
5172 5174 -5184 0
-5172 5174 5184 0
5172 -5174 5184 0
-5176 -5178 -5186 0
5176 5178 -5186 0
-5176 5178 5186 0
5176 -5178 5186 0
-5180 -5182 -5188 0
5180 5182 -5188 0
-5180 5182 5188 0
5180 -5182 5188 0
-5184 -5186 -5188 0
5184 5186 -5188 0
-5184 5186 5188 0
5184 -5186 5188 0
-5161 -5163 -5195 0
5161 5163 -5195 0
-5161 5163 5195 0
5161 -5163 5195 0
-5167 -5169 -5215 0
5167 5169 -5215 0
-5167 5169 5215 0
5167 -5169 5215 0
-5171 -5173 -5197 0
5171 5173 -5197 0
-5171 5173 5197 0
5171 -5173 5197 0
-5175 -5177 -5199 0
5175 5177 -5199 0
-5175 5177 5199 0
5175 -5177 5199 0
-5179 -5181 -5201 0
5179 5181 -5201 0
-5179 5181 5201 0
5179 -5181 5201 0
-5183 -5185 -5203 0
5183 5185 -5203 0
-5183 5185 5203 0
5183 -5185 5203 0
-5187 -5189 -5205 0
5187 5189 -5205 0
-5187 5189 5205 0
5187 -5189 5205 0
-5188 -5190 -5207 0
5188 5190 -5207 0
5188 -5190 5207 0
-5188 5190 5207 0
-5191 -5192 -5210 0
5191 5192 -5210 0
-5191 5192 5210 0
5191 -5192 5210 0
-5193 -5194 -5212 0
5193 5194 -5212 0
-5193 5194 5212 0
5193 -5194 5212 0
-5195 -5196 -5214 0
5195 5196 -5214 0
-5195 5196 5214 0
5195 -5196 5214 0
-5197 -5199 -5216 0
5197 5199 -5216 0
-5197 5199 5216 0
5197 -5199 5216 0
-5201 -5203 -5218 0
5201 5203 -5218 0
-5201 5203 5218 0
5201 -5203 5218 0
-5205 -5207 -5220 0
5205 5207 -5220 0
-5205 5207 5220 0
5205 -5207 5220 0
-5210 -5212 -5221 0
5210 5212 -5221 0
-5210 5212 5221 0
5210 -5212 5221 0
-5214 -5215 -5223 0
5214 5215 -5223 0
-5214 5215 5223 0
5214 -5215 5223 0
-5216 -5218 -5225 0
5216 5218 -5225 0
-5216 5218 5225 0
5216 -5218 5225 0
-5209 -5220 -5227 0
5209 5220 -5227 0
5209 -5220 5227 0
-5209 5220 5227 0
-5221 -5223 -5229 0
5221 5223 -5229 0
-5221 5223 5229 0
5221 -5223 5229 0
-5225 -5227 -5229 0
5225 5227 -5229 0
-5225 5227 5229 0
5225 -5227 5229 0
-5198 -5200 -5234 0
5198 5200 -5234 0
-5198 5200 5234 0
5198 -5200 5234 0
-5202 -5204 -5236 0
5202 5204 -5236 0
-5202 5204 5236 0
5202 -5204 5236 0
-5206 -5208 -5238 0
5206 5208 -5238 0
-5206 5208 5238 0
5206 -5208 5238 0
-5211 -5213 -5251 0
5211 5213 -5251 0
-5211 5213 5251 0
5211 -5213 5251 0
-5217 -5219 -5240 0
5217 5219 -5240 0
-5217 5219 5240 0
5217 -5219 5240 0
-5222 -5224 -5242 0
5222 5224 -5242 0
-5222 5224 5242 0
5222 -5224 5242 0
-5226 -5228 -5244 0
5226 5228 -5244 0
-5226 5228 5244 0
5226 -5228 5244 0
-5230 -5231 -5246 0
5230 5231 -5246 0
-5230 5231 5246 0
5230 -5231 5246 0
-5233 -5234 -5247 0
5233 5234 -5247 0
-5233 5234 5247 0
5233 -5234 5247 0
-5236 -5238 -5249 0
5236 5238 -5249 0
-5236 5238 5249 0
5236 -5238 5249 0
-5239 -5240 -5252 0
5239 5240 -5252 0
-5239 5240 5252 0
5239 -5240 5252 0
-5241 -5242 -5253 0
5241 5242 -5253 0
-5241 5242 5253 0
5241 -5242 5253 0
-5244 -5246 -5255 0
5244 5246 -5255 0
-5244 5246 5255 0
5244 -5246 5255 0
-5232 -5247 -5257 0
5232 5247 -5257 0
-5232 5247 5257 0
5232 -5247 5257 0
-5249 -5251 -5258 0
5249 5251 -5258 0
-5249 5251 5258 0
5249 -5251 5258 0
-5252 -5253 -5260 0
5252 5253 -5260 0
-5252 5253 5260 0
5252 -5253 5260 0
-5229 -5255 -5262 0
5229 5255 -5262 0
5229 -5255 5262 0
-5229 5255 5262 0
-5257 -5258 -5264 0
5257 5258 -5264 0
-5257 5258 5264 0
5257 -5258 5264 0
-5260 -5262 -5264 0
5260 5262 -5264 0
-5260 5262 5264 0
5260 -5262 5264 0
-5235 -5237 -5280 0
5235 5237 -5280 0
-5235 5237 5280 0
5235 -5237 5280 0
-5243 -5245 -5270 0
5243 5245 -5270 0
-5243 5245 5270 0
5243 -5245 5270 0
-5248 -5250 -5272 0
5248 5250 -5272 0
-5248 5250 5272 0
5248 -5250 5272 0
-5254 -5256 -5274 0
5254 5256 -5274 0
-5254 5256 5274 0
5254 -5256 5274 0
-5259 -5261 -5276 0
5259 5261 -5276 0
-5259 5261 5276 0
5259 -5261 5276 0
-5263 -5265 -5278 0
5263 5265 -5278 0
-5263 5265 5278 0
5263 -5265 5278 0
-5264 -5266 -5288 0
5264 5266 -5288 0
5264 -5266 5288 0
-5264 5266 5288 0
-5267 -5268 -5281 0
5267 5268 -5281 0
-5267 5268 5281 0
5267 -5268 5281 0
-5269 -5270 -5282 0
5269 5270 -5282 0
-5269 5270 5282 0
5269 -5270 5282 0
-5272 -5273 -5283 0
5272 5273 -5283 0
-5272 5273 5283 0
5272 -5273 5283 0
-5274 -5275 -5285 0
5274 5275 -5285 0
-5274 5275 5285 0
5274 -5275 5285 0
-5276 -5278 -5287 0
5276 5278 -5287 0
-5276 5278 5287 0
5276 -5278 5287 0
-5280 -5281 -5289 0
5280 5281 -5289 0
-5280 5281 5289 0
5280 -5281 5289 0
-5271 -5282 -5291 0
5271 5282 -5291 0
5271 -5282 5291 0
-5271 5282 5291 0
-5283 -5285 -5293 0
5283 5285 -5293 0
-5283 5285 5293 0
5283 -5285 5293 0
-5287 -5288 -5295 0
5287 5288 -5295 0
-5287 5288 5295 0
5287 -5288 5295 0
-5289 -5291 -5297 0
5289 5291 -5297 0
-5289 5291 5297 0
5289 -5291 5297 0
-5293 -5295 -5297 0
5293 5295 -5297 0
-5293 5295 5297 0
5293 -5295 5297 0
-5277 -5279 -5304 0
5277 5279 -5304 0
-5277 5279 5304 0
5277 -5279 5304 0
-5284 -5286 -5308 0
5284 5286 -5308 0
-5284 5286 5308 0
5284 -5286 5308 0
-5290 -5292 -5310 0
5290 5292 -5310 0
-5290 5292 5310 0
5290 -5292 5310 0
-5294 -5296 -5311 0
5294 5296 -5311 0
-5294 5296 5311 0
5294 -5296 5311 0
-5298 -5299 -5313 0
5298 5299 -5313 0
-5298 5299 5313 0
5298 -5299 5313 0
-5302 -5303 -5315 0
5302 5303 -5315 0
-5302 5303 5315 0
5302 -5303 5315 0
-5304 -5305 -5316 0
5304 5305 -5316 0
-5304 5305 5316 0
5304 -5305 5316 0
-5306 -5307 -5318 0
5306 5307 -5318 0
-5306 5307 5318 0
5306 -5307 5318 0
-5308 -5309 -5320 0
5308 5309 -5320 0
-5308 5309 5320 0
5308 -5309 5320 0
-5310 -5311 -5322 0
5310 5311 -5322 0
-5310 5311 5322 0
5310 -5311 5322 0
-5297 -5313 -5324 0
5297 5313 -5324 0
5297 -5313 5324 0
-5297 5313 5324 0
-5300 -5301 -5326 0
5300 5301 -5326 0
-5300 5301 5326 0
5300 -5301 5326 0
-5315 -5316 -5328 0
5315 5316 -5328 0
-5315 5316 5328 0
5315 -5316 5328 0
-5318 -5320 -5330 0
5318 5320 -5330 0
-5318 5320 5330 0
5318 -5320 5330 0
-5322 -5324 -5332 0
5322 5324 -5332 0
-5322 5324 5332 0
5322 -5324 5332 0
-5326 -5328 -5334 0
5326 5328 -5334 0
-5326 5328 5334 0
5326 -5328 5334 0
-5330 -5332 -5334 0
5330 5332 -5334 0
-5330 5332 5334 0
5330 -5332 5334 0
-5312 -5314 -5338 0
5312 5314 -5338 0
-5312 5314 5338 0
5312 -5314 5338 0
-5317 -5319 -5340 0
5317 5319 -5340 0
-5317 5319 5340 0
5317 -5319 5340 0
-5321 -5323 -5342 0
5321 5323 -5342 0
-5321 5323 5342 0
5321 -5323 5342 0
-5325 -5327 -5344 0
5325 5327 -5344 0
-5325 5327 5344 0
5325 -5327 5344 0
-5329 -5331 -5346 0
5329 5331 -5346 0
-5329 5331 5346 0
5329 -5331 5346 0
-5333 -5335 -5348 0
5333 5335 -5348 0
-5333 5335 5348 0
5333 -5335 5348 0
-5334 -5336 -5350 0
5334 5336 -5350 0
5334 -5336 5350 0
-5334 5336 5350 0
-5337 -5338 -5354 0
5337 5338 -5354 0
-5337 5338 5354 0
5337 -5338 5354 0
-5340 -5342 -5355 0
5340 5342 -5355 0
-5340 5342 5355 0
5340 -5342 5355 0
-5344 -5346 -5356 0
5344 5346 -5356 0
-5344 5346 5356 0
5344 -5346 5356 0
-5348 -5350 -5358 0
5348 5350 -5358 0
-5348 5350 5358 0
5348 -5350 5358 0
-5353 -5354 -5360 0
5353 5354 -5360 0
-5353 5354 5360 0
5353 -5354 5360 0
-5339 -5355 -5361 0
5339 5355 -5361 0
-5339 5355 5361 0
5339 -5355 5361 0
-5356 -5358 -5363 0
5356 5358 -5363 0
-5356 5358 5363 0
5356 -5358 5363 0
-5352 -5360 -5365 0
5352 5360 -5365 0
-5352 5360 5365 0
5352 -5360 5365 0
-5361 -5363 -5365 0
5361 5363 -5365 0
-5361 5363 5365 0
5361 -5363 5365 0
-5341 -5343 -5368 0
5341 5343 -5368 0
-5341 5343 5368 0
5341 -5343 5368 0
-5345 -5347 -5369 0
5345 5347 -5369 0
-5345 5347 5369 0
5345 -5347 5369 0
-5349 -5351 -5380 0
5349 5351 -5380 0
-5349 5351 5380 0
5349 -5351 5380 0
-5357 -5359 -5374 0
5357 5359 -5374 0
-5357 5359 5374 0
5357 -5359 5374 0
-5362 -5364 -5376 0
5362 5364 -5376 0
-5362 5364 5376 0
5362 -5364 5376 0
-5366 -5367 -5377 0
5366 5367 -5377 0
-5366 5367 5377 0
5366 -5367 5377 0
-5368 -5369 -5379 0
5368 5369 -5379 0
-5368 5369 5379 0
5368 -5369 5379 0
-5372 -5373 -5381 0
5372 5373 -5381 0
-5372 5373 5381 0
5372 -5373 5381 0
-5374 -5375 -5383 0
5374 5375 -5383 0
-5374 5375 5383 0
5374 -5375 5383 0
-5376 -5377 -5385 0
5376 5377 -5385 0
-5376 5377 5385 0
5376 -5377 5385 0
-5378 -5379 -5386 0
5378 5379 -5386 0
-5378 5379 5386 0
5378 -5379 5386 0
-5380 -5381 -5388 0
5380 5381 -5388 0
-5380 5381 5388 0
5380 -5381 5388 0
-5383 -5385 -5390 0
5383 5385 -5390 0
-5383 5385 5390 0
5383 -5385 5390 0
-5365 -5386 -5392 0
5365 5386 -5392 0
-5365 5386 5392 0
5365 -5386 5392 0
-5388 -5390 -5392 0
5388 5390 -5392 0
-5388 5390 5392 0
5388 -5390 5392 0
-5370 -5371 -5396 0
5370 5371 -5396 0
-5370 5371 5396 0
5370 -5371 5396 0
-5382 -5384 -5400 0
5382 5384 -5400 0
-5382 5384 5400 0
5382 -5384 5400 0
-5387 -5389 -5402 0
5387 5389 -5402 0
-5387 5389 5402 0
5387 -5389 5402 0
-5391 -5393 -5404 0
5391 5393 -5404 0
-5391 5393 5404 0
5391 -5393 5404 0
-5392 -5394 -5413 0
5392 5394 -5413 0
5392 -5394 5413 0
-5392 5394 5413 0
-5395 -5396 -5406 0
5395 5396 -5406 0
-5395 5396 5406 0
5395 -5396 5406 0
-5397 -5398 -5408 0
5397 5398 -5408 0
-5397 5398 5408 0
5397 -5398 5408 0
-5400 -5401 -5409 0
5400 5401 -5409 0
-5400 5401 5409 0
5400 -5401 5409 0
-5402 -5404 -5411 0
5402 5404 -5411 0
-5402 5404 5411 0
5402 -5404 5411 0
-5406 -5407 -5414 0
5406 5407 -5414 0
-5406 5407 5414 0
5406 -5407 5414 0
-5399 -5408 -5415 0
5399 5408 -5415 0
5399 -5408 5415 0
-5399 5408 5415 0
-5409 -5411 -5417 0
5409 5411 -5417 0
-5409 5411 5417 0
5409 -5411 5417 0
-5413 -5414 -5419 0
5413 5414 -5419 0
-5413 5414 5419 0
5413 -5414 5419 0
-5415 -5417 -5419 0
5415 5417 -5419 0
-5415 5417 5419 0
5415 -5417 5419 0
-5403 -5405 -5423 0
5403 5405 -5423 0
-5403 5405 5423 0
5403 -5405 5423 0
-5410 -5412 -5427 0
5410 5412 -5427 0
-5410 5412 5427 0
5410 -5412 5427 0
-5416 -5418 -5429 0
5416 5418 -5429 0
-5416 5418 5429 0
5416 -5418 5429 0
-5420 -5421 -5431 0
5420 5421 -5431 0
-5420 5421 5431 0
5420 -5421 5431 0
-5422 -5423 -5433 0
5422 5423 -5433 0
-5422 5423 5433 0
5422 -5423 5433 0
-5424 -5425 -5434 0
5424 5425 -5434 0
-5424 5425 5434 0
5424 -5425 5434 0
-5426 -5427 -5436 0
5426 5427 -5436 0
-5426 5427 5436 0
5426 -5427 5436 0
-5428 -5429 -5438 0
5428 5429 -5438 0
-5428 5429 5438 0
5428 -5429 5438 0
-5419 -5431 -5440 0
5419 5431 -5440 0
5419 -5431 5440 0
-5419 5431 5440 0
-5433 -5434 -5443 0
5433 5434 -5443 0
-5433 5434 5443 0
5433 -5434 5443 0
-5436 -5438 -5444 0
5436 5438 -5444 0
-5436 5438 5444 0
5436 -5438 5444 0
-5440 -5442 -5446 0
5440 5442 -5446 0
-5440 5442 5446 0
5440 -5442 5446 0
-5443 -5444 -5446 0
5443 5444 -5446 0
-5443 5444 5446 0
5443 -5444 5446 0
-5430 -5432 -5458 0
5430 5432 -5458 0
-5430 5432 5458 0
5430 -5432 5458 0
-5435 -5437 -5451 0
5435 5437 -5451 0
-5435 5437 5451 0
5435 -5437 5451 0
-5439 -5441 -5452 0
5439 5441 -5452 0
-5439 5441 5452 0
5439 -5441 5452 0
-5445 -5447 -5454 0
5445 5447 -5454 0
-5445 5447 5454 0
5445 -5447 5454 0
-5446 -5448 -5456 0
5446 5448 -5456 0
5446 -5448 5456 0
-5446 5448 5456 0
-5450 -5451 -5459 0
5450 5451 -5459 0
-5450 5451 5459 0
5450 -5451 5459 0
-5452 -5453 -5461 0
5452 5453 -5461 0
-5452 5453 5461 0
5452 -5453 5461 0
-5454 -5456 -5463 0
5454 5456 -5463 0
-5454 5456 5463 0
5454 -5456 5463 0
-5449 -5458 -5465 0
5449 5458 -5465 0
-5449 5458 5465 0
5449 -5458 5465 0
-5459 -5461 -5467 0
5459 5461 -5467 0
-5459 5461 5467 0
5459 -5461 5467 0
-5463 -5464 -5469 0
5463 5464 -5469 0
-5463 5464 5469 0
5463 -5464 5469 0
-5465 -5467 -5469 0
5465 5467 -5469 0
-5465 5467 5469 0
5465 -5467 5469 0
-5455 -5457 -5475 0
5455 5457 -5475 0
-5455 5457 5475 0
5455 -5457 5475 0
-5460 -5462 -5476 0
5460 5462 -5476 0
-5460 5462 5476 0
5460 -5462 5476 0
-5466 -5468 -5478 0
5466 5468 -5478 0
-5466 5468 5478 0
5466 -5468 5478 0
-5470 -5471 -5479 0
5470 5471 -5479 0
-5470 5471 5479 0
5470 -5471 5479 0
-5472 -5473 -5480 0
5472 5473 -5480 0
-5472 5473 5480 0
5472 -5473 5480 0
-5474 -5475 -5481 0
5474 5475 -5481 0
-5474 5475 5481 0
5474 -5475 5481 0
-5476 -5477 -5486 0
5476 5477 -5486 0
-5476 5477 5486 0
5476 -5477 5486 0
-5478 -5479 -5483 0
5478 5479 -5483 0
-5478 5479 5483 0
5478 -5479 5483 0
-5480 -5481 -5485 0
5480 5481 -5485 0
-5480 5481 5485 0
5480 -5481 5485 0
-5469 -5483 -5487 0
5469 5483 -5487 0
5469 -5483 5487 0
-5469 5483 5487 0
-5485 -5486 -5487 0
5485 5486 -5487 0
-5485 5486 5487 0
5485 -5486 5487 0
-5482 -5484 -5495 0
5482 5484 -5495 0
-5482 5484 5495 0
5482 -5484 5495 0
-5487 -5488 -5504 0
5487 5488 -5504 0
5487 -5488 5504 0
-5487 5488 5504 0
-5490 -5491 -5498 0
5490 5491 -5498 0
-5490 5491 5498 0
5490 -5491 5498 0
-5492 -5493 -5499 0
5492 5493 -5499 0
-5492 5493 5499 0
5492 -5493 5499 0
-5494 -5495 -5501 0
5494 5495 -5501 0
-5494 5495 5501 0
5494 -5495 5501 0
-5496 -5497 -5503 0
5496 5497 -5503 0
-5496 5497 5503 0
5496 -5497 5503 0
-5489 -5498 -5505 0
5489 5498 -5505 0
-5489 5498 5505 0
5489 -5498 5505 0
-5499 -5501 -5507 0
5499 5501 -5507 0
-5499 5501 5507 0
5499 -5501 5507 0
-5503 -5504 -5509 0
5503 5504 -5509 0
-5503 5504 5509 0
5503 -5504 5509 0
-5505 -5507 -5509 0
5505 5507 -5509 0
-5505 5507 5509 0
5505 -5507 5509 0
-5500 -5502 -5514 0
5500 5502 -5514 0
-5500 5502 5514 0
5500 -5502 5514 0
-5506 -5508 -5516 0
5506 5508 -5516 0
-5506 5508 5516 0
5506 -5508 5516 0
-5510 -5511 -5518 0
5510 5511 -5518 0
-5510 5511 5518 0
5510 -5511 5518 0
-5513 -5514 -5521 0
5513 5514 -5521 0
-5513 5514 5521 0
5513 -5514 5521 0
-5515 -5516 -5523 0
5515 5516 -5523 0
-5515 5516 5523 0
5515 -5516 5523 0
-5509 -5518 -5525 0
5509 5518 -5525 0
5509 -5518 5525 0
-5509 5518 5525 0
-5512 -5521 -5526 0
5512 5521 -5526 0
-5512 5521 5526 0
5512 -5521 5526 0
-5523 -5525 -5528 0
5523 5525 -5528 0
-5523 5525 5528 0
5523 -5525 5528 0
-5520 -5526 -5528 0
5520 5526 -5528 0
-5520 5526 5528 0
5520 -5526 5528 0
-5517 -5519 -5532 0
5517 5519 -5532 0
-5517 5519 5532 0
5517 -5519 5532 0
-5522 -5524 -5533 0
5522 5524 -5533 0
-5522 5524 5533 0
5522 -5524 5533 0
-5527 -5529 -5535 0
5527 5529 -5535 0
-5527 5529 5535 0
5527 -5529 5535 0
-5528 -5530 -5537 0
5528 5530 -5537 0
5528 -5530 5537 0
-5528 5530 5537 0
-5531 -5532 -5543 0
5531 5532 -5543 0
-5531 5532 5543 0
5531 -5532 5543 0
-5533 -5534 -5539 0
5533 5534 -5539 0
-5533 5534 5539 0
5533 -5534 5539 0
-5535 -5537 -5541 0
5535 5537 -5541 0
-5535 5537 5541 0
5535 -5537 5541 0
-5539 -5541 -5543 0
5539 5541 -5543 0
-5539 5541 5543 0
5539 -5541 5543 0
-5536 -5538 -5549 0
5536 5538 -5549 0
-5536 5538 5549 0
5536 -5538 5549 0
-5540 -5542 -5546 0
5540 5542 -5546 0
-5540 5542 5546 0
5540 -5542 5546 0
-5545 -5546 -5550 0
5545 5546 -5550 0
-5545 5546 5550 0
5545 -5546 5550 0
-5543 -5544 -5551 0
5543 5544 -5551 0
-5543 5544 5551 0
5543 -5544 5551 0
-5548 -5549 -5552 0
5548 5549 -5552 0
-5548 5549 5552 0
5548 -5549 5552 0
-5547 -5550 -5554 0
5547 5550 -5554 0
5547 -5550 5554 0
-5547 5550 5554 0
-5551 -5552 -5554 0
5551 5552 -5554 0
-5551 5552 5554 0
5551 -5552 5554 0
-5553 -5555 -5560 0
5553 5555 -5560 0
-5553 5555 5560 0
5553 -5555 5560 0
-5554 -5556 -5563 0
5554 5556 -5563 0
5554 -5556 5563 0
-5554 5556 5563 0
-5559 -5560 -5562 0
5559 5560 -5562 0
-5559 5560 5562 0
5559 -5560 5562 0
-5557 -5561 -5564 0
5557 5561 -5564 0
5557 -5561 5564 0
-5557 5561 5564 0
-5558 -5562 -5565 0
5558 5562 -5565 0
-5558 5562 5565 0
5558 -5562 5565 0
-5563 -5564 -5565 0
5563 5564 -5565 0
-5563 5564 5565 0
5563 -5564 5565 0
-5566 -5567 -5571 0
5566 5567 -5571 0
-5566 5567 5571 0
5566 -5567 5571 0
-5569 -5570 -5573 0
5569 5570 -5573 0
-5569 5570 5573 0
5569 -5570 5573 0
-5565 -5571 -5575 0
5565 5571 -5575 0
5565 -5571 5575 0
-5565 5571 5575 0
-5568 -5573 -5577 0
5568 5573 -5577 0
-5568 5573 5577 0
5568 -5573 5577 0
-5572 -5575 -5577 0
5572 5575 -5577 0
5572 -5575 5577 0
-5572 5575 5577 0
-5574 -5576 -5582 0
5574 5576 -5582 0
-5574 5576 5582 0
5574 -5576 5582 0
-5577 -5578 -5580 0
5577 5578 -5580 0
5577 -5578 5580 0
-5577 5578 5580 0
-5579 -5580 -5583 0
5579 5580 -5583 0
-5579 5580 5583 0
5579 -5580 5583 0
-5581 -5582 -5583 0
5581 5582 -5583 0
-5581 5582 5583 0
5581 -5582 5583 0
-5584 -5585 -5589 0
5584 5585 -5589 0
-5584 5585 5589 0
5584 -5585 5589 0
-5586 -5587 -5588 0
5586 5587 -5588 0
-5586 5587 5588 0
5586 -5587 5588 0
-5583 -5588 -5589 0
5583 5588 -5589 0
5583 -5588 5589 0
-5583 5588 5589 0
-5589 -5590 -5592 0
5589 5590 -5592 0
5589 -5590 5592 0
-5589 5590 5592 0
-5591 -5592 -5593 0
5591 5592 -5593 0
-5591 5592 5593 0
5591 -5592 5593 0
5593 -5594 5595 0
-5593 5594 5595 0
