c Factorization SAT instance #36: N = 83971 = 131 x 641
c p = 131 (8 bits), q = 641 (10 bits)
c N = 83971 (17 bits)
c Generator: generate_instances.py  d=3, k=50, seed=None
p cnf 4224 14948
1 9 -75 0
-1 -9 0
-9 75 0
1 -2 10 0
-1 -10 0
2 -10 0
1 -3 11 0
-1 -11 0
3 -11 0
1 -4 12 0
-1 -12 0
4 -12 0
1 -5 13 0
-1 -13 0
5 -13 0
1 -6 14 0
-1 -14 0
6 -14 0
1 -7 15 0
-1 -15 0
7 -15 0
1 -8 16 0
-1 -16 0
8 -16 0
-1 17 -75 0
-17 75 0
1 -17 0
-2 18 -75 0
-18 75 0
2 -18 0
-3 19 -75 0
-19 75 0
3 -19 0
-4 20 -75 0
-20 75 0
4 -20 0
-5 21 -75 0
-21 75 0
5 -21 0
-6 22 -75 0
-22 75 0
6 -22 0
-7 23 -75 0
-23 75 0
7 -23 0
-8 24 -75 0
-24 75 0
8 -24 0
-1 -25 26 0
25 -26 0
1 -26 0
-25 27 -75 0
25 -27 0
-27 75 0
-2 -25 28 0
25 -28 0
2 -28 0
-3 -25 29 0
25 -29 0
3 -29 0
-4 -25 30 0
25 -30 0
4 -30 0
-5 -25 31 0
25 -31 0
5 -31 0
-6 -25 32 0
25 -32 0
6 -32 0
-7 -25 33 0
25 -33 0
7 -33 0
-8 -25 34 0
25 -34 0
8 -34 0
-1 -35 36 0
35 -36 0
1 -36 0
-35 37 -75 0
35 -37 0
-37 75 0
-2 -35 38 0
35 -38 0
2 -38 0
-3 -35 39 0
35 -39 0
3 -39 0
-4 -35 40 0
35 -40 0
4 -40 0
-5 -35 41 0
35 -41 0
5 -41 0
-6 -35 42 0
35 -42 0
6 -42 0
-7 -35 43 0
35 -43 0
7 -43 0
-8 -35 44 0
35 -44 0
8 -44 0
-1 -45 46 0
45 -46 0
1 -46 0
-45 47 -75 0
45 -47 0
-47 75 0
-2 -45 48 0
45 -48 0
2 -48 0
-3 -45 49 0
45 -49 0
3 -49 0
-4 -45 50 0
45 -50 0
4 -50 0
-5 -45 51 0
45 -51 0
5 -51 0
-6 -45 52 0
45 -52 0
6 -52 0
-7 -45 53 0
45 -53 0
7 -53 0
-8 -45 54 0
45 -54 0
8 -54 0
-1 -55 56 0
55 -56 0
1 -56 0
-55 57 -75 0
55 -57 0
-57 75 0
-2 -55 58 0
55 -58 0
2 -58 0
-3 -55 59 0
55 -59 0
3 -59 0
-4 -55 60 0
55 -60 0
4 -60 0
-5 -55 61 0
55 -61 0
5 -61 0
-6 -55 62 0
55 -62 0
6 -62 0
-7 -55 63 0
55 -63 0
7 -63 0
-8 -55 64 0
55 -64 0
8 -64 0
-1 -65 66 0
65 -66 0
1 -66 0
-65 67 -75 0
65 -67 0
-67 75 0
-2 -65 68 0
65 -68 0
2 -68 0
-3 -65 69 0
65 -69 0
3 -69 0
-4 -65 70 0
65 -70 0
4 -70 0
-5 -65 71 0
65 -71 0
5 -71 0
-6 -65 72 0
65 -72 0
6 -72 0
-7 -65 73 0
65 -73 0
7 -73 0
-8 -65 74 0
65 -74 0
8 -74 0
-2 -9 77 0
2 -77 0
9 -77 0
-17 -25 84 0
17 -84 0
25 -84 0
-75 -76 85 0
75 -85 0
76 -85 0
-3 -10 80 0
3 -80 0
10 -80 0
-26 -75 82 0
75 -82 0
26 -82 0
-35 -77 99 0
35 -99 0
77 -99 0
-78 -79 100 0
78 -100 0
79 -100 0
-81 -83 88 0
81 -88 0
83 -88 0
-84 -85 90 0
84 -90 0
85 -90 0
-86 -87 91 0
86 -91 0
87 -91 0
-4 -11 93 0
4 -93 0
11 -93 0
-18 -27 95 0
18 -95 0
27 -95 0
-36 -45 97 0
36 -97 0
45 -97 0
-80 -82 124 0
80 -124 0
82 -124 0
-88 -90 125 0
88 -125 0
90 -125 0
-89 -91 103 0
91 -103 0
89 -103 0
-92 -94 105 0
92 -105 0
94 -105 0
-96 -98 107 0
96 -107 0
98 -107 0
-99 -100 109 0
99 -109 0
100 -109 0
-101 -102 111 0
101 -111 0
102 -111 0
-104 -106 113 0
104 -113 0
106 -113 0
-108 -110 114 0
108 -114 0
110 -114 0
-5 -12 116 0
5 -116 0
12 -116 0
-19 -28 118 0
19 -118 0
28 -118 0
-37 -46 120 0
37 -120 0
46 -120 0
-55 -93 122 0
55 -122 0
93 -122 0
-95 -97 162 0
95 -162 0
97 -162 0
-103 -105 163 0
103 -163 0
105 -163 0
-107 -109 128 0
107 -128 0
109 -128 0
-111 -113 130 0
111 -130 0
113 -130 0
-112 -114 132 0
114 -132 0
112 -132 0
-115 -117 134 0
115 -134 0
117 -134 0
-119 -121 136 0
119 -136 0
121 -136 0
-123 -124 138 0
123 -138 0
124 -138 0
-125 -126 140 0
125 -140 0
126 -140 0
-127 -129 142 0
127 -142 0
129 -142 0
-131 -133 144 0
131 -144 0
133 -144 0
-135 -137 146 0
135 -146 0
137 -146 0
-139 -141 148 0
139 -148 0
141 -148 0
-143 -145 149 0
143 -149 0
145 -149 0
-6 -13 151 0
6 -151 0
13 -151 0
-20 -29 153 0
20 -153 0
29 -153 0
-38 -47 155 0
38 -155 0
47 -155 0
-56 -65 157 0
56 -157 0
65 -157 0
-116 -118 159 0
116 -159 0
118 -159 0
-120 -122 161 0
120 -161 0
122 -161 0
-128 -130 165 0
128 -165 0
130 -165 0
-132 -134 167 0
132 -167 0
134 -167 0
-136 -138 169 0
136 -169 0
138 -169 0
-140 -142 171 0
140 -171 0
142 -171 0
-144 -146 173 0
144 -173 0
146 -173 0
-148 -149 175 0
148 -175 0
149 -175 0
-147 -150 177 0
147 -177 0
150 -177 0
-152 -154 179 0
152 -179 0
154 -179 0
-156 -158 181 0
156 -181 0
158 -181 0
-160 -162 183 0
160 -183 0
162 -183 0
-163 -164 185 0
163 -185 0
164 -185 0
-166 -168 187 0
166 -187 0
168 -187 0
-170 -172 189 0
170 -189 0
172 -189 0
-174 -176 191 0
174 -191 0
176 -191 0
-178 -180 193 0
178 -193 0
180 -193 0
-182 -184 195 0
182 -195 0
184 -195 0
-186 -188 197 0
186 -197 0
188 -197 0
-190 -192 199 0
190 -199 0
192 -199 0
-194 -196 200 0
194 -200 0
196 -200 0
-7 -14 202 0
7 -202 0
14 -202 0
-21 -30 204 0
21 -204 0
30 -204 0
-39 -48 206 0
39 -206 0
48 -206 0
-57 -66 208 0
57 -208 0
66 -208 0
-151 -153 210 0
151 -210 0
153 -210 0
-155 -157 212 0
155 -212 0
157 -212 0
-159 -161 276 0
159 -276 0
161 -276 0
-165 -167 214 0
165 -214 0
167 -214 0
-169 -171 216 0
169 -216 0
171 -216 0
-173 -175 218 0
173 -218 0
175 -218 0
-177 -179 220 0
177 -220 0
179 -220 0
-181 -183 222 0
181 -222 0
183 -222 0
-185 -187 224 0
185 -224 0
187 -224 0
-189 -191 226 0
189 -226 0
191 -226 0
-193 -195 228 0
193 -228 0
195 -228 0
-197 -199 230 0
197 -230 0
199 -230 0
-198 -200 232 0
200 -232 0
198 -232 0
-201 -203 234 0
201 -234 0
203 -234 0
-205 -207 236 0
205 -236 0
207 -236 0
-209 -211 287 0
209 -287 0
211 -287 0
-213 -215 240 0
213 -240 0
215 -240 0
-217 -219 242 0
217 -242 0
219 -242 0
-221 -223 244 0
221 -244 0
223 -244 0
-225 -227 246 0
225 -246 0
227 -246 0
-229 -231 248 0
229 -248 0
231 -248 0
-233 -235 250 0
233 -250 0
235 -250 0
-237 -238 252 0
237 -252 0
238 -252 0
-239 -241 254 0
239 -254 0
241 -254 0
-243 -245 256 0
243 -256 0
245 -256 0
-247 -249 258 0
247 -258 0
249 -258 0
-251 -253 260 0
251 -260 0
253 -260 0
-255 -257 261 0
255 -261 0
257 -261 0
-8 -15 263 0
8 -263 0
15 -263 0
-22 -31 265 0
22 -265 0
31 -265 0
-40 -49 267 0
40 -267 0
49 -267 0
-58 -67 269 0
58 -269 0
67 -269 0
-202 -204 271 0
202 -271 0
204 -271 0
-206 -208 273 0
206 -273 0
208 -273 0
-210 -212 275 0
210 -275 0
212 -275 0
-214 -216 352 0
214 -352 0
216 -352 0
-218 -220 279 0
218 -279 0
220 -279 0
-222 -224 281 0
222 -281 0
224 -281 0
-226 -228 283 0
226 -283 0
228 -283 0
-230 -232 285 0
230 -285 0
232 -285 0
-234 -236 357 0
234 -357 0
236 -357 0
-240 -242 289 0
240 -289 0
242 -289 0
-244 -246 291 0
244 -291 0
246 -291 0
-248 -250 293 0
248 -293 0
250 -293 0
-252 -254 295 0
252 -295 0
254 -295 0
-256 -258 297 0
256 -297 0
258 -297 0
-260 -261 299 0
260 -299 0
261 -299 0
-259 -262 301 0
259 -301 0
262 -301 0
-264 -266 303 0
264 -303 0
266 -303 0
-268 -270 305 0
268 -305 0
270 -305 0
-272 -274 307 0
272 -307 0
274 -307 0
-276 -277 309 0
276 -309 0
277 -309 0
-278 -280 311 0
278 -311 0
280 -311 0
-282 -284 313 0
282 -313 0
284 -313 0
-286 -287 315 0
286 -315 0
287 -315 0
-288 -290 317 0
288 -317 0
290 -317 0
-292 -294 319 0
292 -319 0
294 -319 0
-296 -298 321 0
296 -321 0
298 -321 0
-300 -302 323 0
300 -323 0
302 -323 0
-304 -306 325 0
304 -325 0
306 -325 0
-308 -310 327 0
308 -327 0
310 -327 0
-312 -314 329 0
312 -329 0
314 -329 0
-316 -318 331 0
316 -331 0
318 -331 0
-320 -322 333 0
320 -333 0
322 -333 0
-324 -326 335 0
324 -335 0
326 -335 0
-328 -330 337 0
328 -337 0
330 -337 0
-332 -334 338 0
332 -338 0
334 -338 0
-16 -23 340 0
16 -340 0
23 -340 0
-32 -41 342 0
32 -342 0
41 -342 0
-50 -59 344 0
50 -344 0
59 -344 0
-68 -263 346 0
68 -346 0
263 -346 0
-265 -267 348 0
265 -348 0
267 -348 0
-269 -271 350 0
269 -350 0
271 -350 0
-273 -275 439 0
273 -439 0
275 -439 0
-279 -281 354 0
279 -354 0
281 -354 0
-283 -285 356 0
283 -356 0
285 -356 0
-289 -291 441 0
289 -441 0
291 -441 0
-293 -295 360 0
293 -360 0
295 -360 0
-297 -299 362 0
297 -362 0
299 -362 0
-301 -303 364 0
301 -364 0
303 -364 0
-305 -307 366 0
305 -366 0
307 -366 0
-309 -311 368 0
309 -368 0
311 -368 0
-313 -315 370 0
313 -370 0
315 -370 0
-317 -319 372 0
317 -372 0
319 -372 0
-321 -323 374 0
321 -374 0
323 -374 0
-325 -327 376 0
325 -376 0
327 -376 0
-329 -331 378 0
329 -378 0
331 -378 0
-333 -335 380 0
333 -380 0
335 -380 0
-337 -338 382 0
337 -382 0
338 -382 0
-336 -339 384 0
336 -384 0
339 -384 0
-341 -343 386 0
341 -386 0
343 -386 0
-345 -347 388 0
345 -388 0
347 -388 0
-349 -351 390 0
349 -390 0
351 -390 0
-352 -353 392 0
352 -392 0
353 -392 0
-355 -357 394 0
355 -394 0
357 -394 0
-358 -359 396 0
358 -396 0
359 -396 0
-361 -363 398 0
361 -398 0
363 -398 0
-365 -367 400 0
365 -400 0
367 -400 0
-369 -371 402 0
369 -402 0
371 -402 0
-373 -375 404 0
373 -404 0
375 -404 0
-377 -379 406 0
377 -406 0
379 -406 0
-381 -383 408 0
381 -408 0
383 -408 0
-385 -387 410 0
385 -410 0
387 -410 0
-389 -391 412 0
389 -412 0
391 -412 0
-393 -395 414 0
393 -414 0
395 -414 0
-397 -399 416 0
397 -416 0
399 -416 0
-401 -403 418 0
401 -418 0
403 -418 0
-405 -407 420 0
405 -420 0
407 -420 0
-409 -411 422 0
409 -422 0
411 -422 0
-413 -415 424 0
413 -424 0
415 -424 0
-417 -419 426 0
417 -426 0
419 -426 0
-421 -423 427 0
421 -427 0
423 -427 0
-24 -33 429 0
24 -429 0
33 -429 0
-42 -51 431 0
42 -431 0
51 -431 0
-60 -69 433 0
60 -433 0
69 -433 0
-340 -342 435 0
340 -435 0
342 -435 0
-344 -346 437 0
344 -437 0
346 -437 0
-348 -350 535 0
348 -535 0
350 -535 0
-354 -356 536 0
354 -536 0
356 -536 0
-360 -362 443 0
360 -443 0
362 -443 0
-364 -366 445 0
364 -445 0
366 -445 0
-368 -370 447 0
368 -447 0
370 -447 0
-372 -374 449 0
372 -449 0
374 -449 0
-376 -378 451 0
376 -451 0
378 -451 0
-380 -382 453 0
380 -453 0
382 -453 0
-384 -386 455 0
384 -455 0
386 -455 0
-388 -390 457 0
388 -457 0
390 -457 0
-392 -394 459 0
392 -459 0
394 -459 0
-396 -398 461 0
396 -461 0
398 -461 0
-400 -402 463 0
400 -463 0
402 -463 0
-404 -406 465 0
404 -465 0
406 -465 0
-408 -410 467 0
408 -467 0
410 -467 0
-412 -414 469 0
412 -469 0
414 -469 0
-416 -418 471 0
416 -471 0
418 -471 0
-420 -422 473 0
420 -473 0
422 -473 0
-424 -426 475 0
424 -475 0
426 -475 0
-425 -427 477 0
427 -477 0
425 -477 0
-428 -430 479 0
428 -479 0
430 -479 0
-432 -434 481 0
432 -481 0
434 -481 0
-436 -438 483 0
436 -483 0
438 -483 0
-439 -440 485 0
439 -485 0
440 -485 0
-441 -442 487 0
441 -487 0
442 -487 0
-444 -446 489 0
444 -489 0
446 -489 0
-448 -450 491 0
448 -491 0
450 -491 0
-452 -454 493 0
452 -493 0
454 -493 0
-456 -458 495 0
456 -495 0
458 -495 0
-460 -462 497 0
460 -497 0
462 -497 0
-464 -466 499 0
464 -499 0
466 -499 0
-468 -470 501 0
468 -501 0
470 -501 0
-472 -474 503 0
472 -503 0
474 -503 0
-476 -478 505 0
476 -505 0
478 -505 0
-480 -482 507 0
480 -507 0
482 -507 0
-484 -486 509 0
484 -509 0
486 -509 0
-488 -490 511 0
488 -511 0
490 -511 0
-492 -494 513 0
492 -513 0
494 -513 0
-496 -498 515 0
496 -515 0
498 -515 0
-500 -502 517 0
500 -517 0
502 -517 0
-504 -506 519 0
504 -519 0
506 -519 0
-508 -510 521 0
508 -521 0
510 -521 0
-512 -514 523 0
512 -523 0
514 -523 0
-516 -518 525 0
516 -525 0
518 -525 0
-520 -522 578 0
520 -578 0
522 -578 0
-34 -43 527 0
34 -527 0
43 -527 0
-52 -61 529 0
52 -529 0
61 -529 0
-70 -429 531 0
70 -531 0
429 -531 0
-431 -433 533 0
431 -533 0
433 -533 0
-435 -437 638 0
435 -638 0
437 -638 0
-443 -445 639 0
443 -639 0
445 -639 0
-447 -449 539 0
447 -539 0
449 -539 0
-451 -453 541 0
451 -541 0
453 -541 0
-455 -457 543 0
455 -543 0
457 -543 0
-459 -461 545 0
459 -545 0
461 -545 0
-463 -465 547 0
463 -547 0
465 -547 0
-467 -469 549 0
467 -549 0
469 -549 0
-471 -473 551 0
471 -551 0
473 -551 0
-475 -477 553 0
475 -553 0
477 -553 0
-479 -481 555 0
479 -555 0
481 -555 0
-483 -485 557 0
483 -557 0
485 -557 0
-487 -489 559 0
487 -559 0
489 -559 0
-491 -493 561 0
491 -561 0
493 -561 0
-495 -497 563 0
495 -563 0
497 -563 0
-499 -501 565 0
499 -565 0
501 -565 0
-503 -505 567 0
503 -567 0
505 -567 0
-507 -509 569 0
507 -569 0
509 -569 0
-511 -513 571 0
511 -571 0
513 -571 0
-515 -517 573 0
515 -573 0
517 -573 0
-519 -521 575 0
519 -575 0
521 -575 0
-523 -525 577 0
523 -577 0
525 -577 0
-526 -528 658 0
526 -658 0
528 -658 0
-530 -532 581 0
530 -581 0
532 -581 0
-534 -535 583 0
534 -583 0
535 -583 0
-536 -537 585 0
536 -585 0
537 -585 0
-538 -540 587 0
538 -587 0
540 -587 0
-542 -544 589 0
542 -589 0
544 -589 0
-546 -548 591 0
546 -591 0
548 -591 0
-550 -552 593 0
550 -593 0
552 -593 0
-554 -556 595 0
554 -595 0
556 -595 0
-558 -560 597 0
558 -597 0
560 -597 0
-562 -564 599 0
562 -599 0
564 -599 0
-566 -568 601 0
566 -601 0
568 -601 0
-570 -572 603 0
570 -603 0
572 -603 0
-574 -576 605 0
574 -605 0
576 -605 0
-578 -579 607 0
578 -607 0
579 -607 0
-580 -582 609 0
580 -609 0
582 -609 0
-584 -586 611 0
584 -611 0
586 -611 0
-588 -590 613 0
588 -613 0
590 -613 0
-592 -594 615 0
592 -615 0
594 -615 0
-596 -598 617 0
596 -617 0
598 -617 0
-600 -602 619 0
600 -619 0
602 -619 0
-604 -606 621 0
604 -621 0
606 -621 0
-608 -610 623 0
608 -623 0
610 -623 0
-612 -614 625 0
612 -625 0
614 -625 0
-616 -618 627 0
616 -627 0
618 -627 0
-620 -622 629 0
620 -629 0
622 -629 0
-624 -626 630 0
624 -630 0
626 -630 0
-44 -53 632 0
44 -632 0
53 -632 0
-62 -71 634 0
62 -634 0
71 -634 0
-527 -529 636 0
527 -636 0
529 -636 0
-531 -533 747 0
531 -747 0
533 -747 0
-539 -541 748 0
539 -748 0
541 -748 0
-543 -545 642 0
543 -642 0
545 -642 0
-547 -549 644 0
547 -644 0
549 -644 0
-551 -553 646 0
551 -646 0
553 -646 0
-555 -557 648 0
555 -648 0
557 -648 0
-559 -561 650 0
559 -650 0
561 -650 0
-563 -565 652 0
563 -652 0
565 -652 0
-567 -569 654 0
567 -654 0
569 -654 0
-571 -573 656 0
571 -656 0
573 -656 0
-575 -577 755 0
575 -755 0
577 -755 0
-581 -583 660 0
581 -660 0
583 -660 0
-585 -587 662 0
585 -662 0
587 -662 0
-589 -591 664 0
589 -664 0
591 -664 0
-593 -595 666 0
593 -666 0
595 -666 0
-597 -599 668 0
597 -668 0
599 -668 0
-601 -603 670 0
601 -670 0
603 -670 0
-605 -607 672 0
605 -672 0
607 -672 0
-609 -611 674 0
609 -674 0
611 -674 0
-613 -615 676 0
613 -676 0
615 -676 0
-617 -619 678 0
617 -678 0
619 -678 0
-621 -623 680 0
621 -680 0
623 -680 0
-625 -627 682 0
625 -682 0
627 -682 0
-629 -630 684 0
629 -684 0
630 -684 0
-628 -631 686 0
628 -686 0
631 -686 0
-633 -635 688 0
633 -688 0
635 -688 0
-637 -638 690 0
637 -690 0
638 -690 0
-639 -640 692 0
639 -692 0
640 -692 0
-641 -643 694 0
641 -694 0
643 -694 0
-645 -647 696 0
645 -696 0
647 -696 0
-649 -651 698 0
649 -698 0
651 -698 0
-653 -655 700 0
653 -700 0
655 -700 0
-657 -658 702 0
657 -702 0
658 -702 0
-659 -661 704 0
659 -704 0
661 -704 0
-663 -665 706 0
663 -706 0
665 -706 0
-667 -669 708 0
667 -708 0
669 -708 0
-671 -673 710 0
671 -710 0
673 -710 0
-675 -677 712 0
675 -712 0
677 -712 0
-679 -681 714 0
679 -714 0
681 -714 0
-683 -685 716 0
683 -716 0
685 -716 0
-687 -689 718 0
687 -718 0
689 -718 0
-691 -693 720 0
691 -720 0
693 -720 0
-695 -697 722 0
695 -722 0
697 -722 0
-699 -701 724 0
699 -724 0
701 -724 0
-703 -705 726 0
703 -726 0
705 -726 0
-707 -709 728 0
707 -728 0
709 -728 0
-711 -713 730 0
711 -730 0
713 -730 0
-715 -717 732 0
715 -732 0
717 -732 0
-719 -721 734 0
719 -734 0
721 -734 0
-723 -725 736 0
723 -736 0
725 -736 0
-727 -729 738 0
727 -738 0
729 -738 0
-731 -733 740 0
731 -740 0
733 -740 0
-735 -737 741 0
735 -741 0
737 -741 0
-54 -63 743 0
54 -743 0
63 -743 0
-72 -632 745 0
72 -745 0
632 -745 0
-634 -636 859 0
634 -859 0
636 -859 0
-642 -644 860 0
642 -860 0
644 -860 0
-646 -648 751 0
646 -751 0
648 -751 0
-650 -652 753 0
650 -753 0
652 -753 0
-654 -656 862 0
654 -862 0
656 -862 0
-660 -662 757 0
660 -757 0
662 -757 0
-664 -666 759 0
664 -759 0
666 -759 0
-668 -670 761 0
668 -761 0
670 -761 0
-672 -674 763 0
672 -763 0
674 -763 0
-676 -678 765 0
676 -765 0
678 -765 0
-680 -682 767 0
680 -767 0
682 -767 0
-684 -686 769 0
684 -769 0
686 -769 0
-688 -690 771 0
688 -771 0
690 -771 0
-692 -694 773 0
692 -773 0
694 -773 0
-696 -698 775 0
696 -775 0
698 -775 0
-700 -702 777 0
700 -777 0
702 -777 0
-704 -706 779 0
704 -779 0
706 -779 0
-708 -710 781 0
708 -781 0
710 -781 0
-712 -714 783 0
712 -783 0
714 -783 0
-716 -718 785 0
716 -785 0
718 -785 0
-720 -722 787 0
720 -787 0
722 -787 0
-724 -726 789 0
724 -789 0
726 -789 0
-728 -730 791 0
728 -791 0
730 -791 0
-732 -734 793 0
732 -793 0
734 -793 0
-736 -738 795 0
736 -795 0
738 -795 0
-740 -741 797 0
740 -797 0
741 -797 0
-739 -742 799 0
739 -799 0
742 -799 0
-744 -746 801 0
744 -801 0
746 -801 0
-747 -748 803 0
747 -803 0
748 -803 0
-749 -750 805 0
749 -805 0
750 -805 0
-752 -754 807 0
752 -807 0
754 -807 0
-755 -756 809 0
755 -809 0
756 -809 0
-758 -760 811 0
758 -811 0
760 -811 0
-762 -764 813 0
762 -813 0
764 -813 0
-766 -768 815 0
766 -815 0
768 -815 0
-770 -772 817 0
770 -817 0
772 -817 0
-774 -776 819 0
774 -819 0
776 -819 0
-778 -780 821 0
778 -821 0
780 -821 0
-782 -784 823 0
782 -823 0
784 -823 0
-786 -788 825 0
786 -825 0
788 -825 0
-790 -792 827 0
790 -827 0
792 -827 0
-794 -796 829 0
794 -829 0
796 -829 0
-798 -800 831 0
798 -831 0
800 -831 0
-802 -804 833 0
802 -833 0
804 -833 0
-806 -808 835 0
806 -835 0
808 -835 0
-810 -812 837 0
810 -837 0
812 -837 0
-814 -816 839 0
814 -839 0
816 -839 0
-818 -820 841 0
818 -841 0
820 -841 0
-822 -824 843 0
822 -843 0
824 -843 0
-826 -828 845 0
826 -845 0
828 -845 0
-830 -832 847 0
830 -847 0
832 -847 0
-834 -836 849 0
834 -849 0
836 -849 0
-838 -840 851 0
838 -851 0
840 -851 0
-842 -844 853 0
842 -853 0
844 -853 0
-846 -848 855 0
846 -855 0
848 -855 0
-850 -852 912 0
850 -912 0
852 -912 0
-64 -73 857 0
64 -857 0
73 -857 0
-743 -745 972 0
743 -972 0
745 -972 0
-751 -753 973 0
751 -973 0
753 -973 0
-757 -759 974 0
757 -974 0
759 -974 0
-761 -763 865 0
761 -865 0
763 -865 0
-765 -767 867 0
765 -867 0
767 -867 0
-769 -771 869 0
769 -869 0
771 -869 0
-773 -775 871 0
773 -871 0
775 -871 0
-777 -779 873 0
777 -873 0
779 -873 0
-781 -783 875 0
781 -875 0
783 -875 0
-785 -787 877 0
785 -877 0
787 -877 0
-789 -791 879 0
789 -879 0
791 -879 0
-793 -795 881 0
793 -881 0
795 -881 0
-797 -799 883 0
797 -883 0
799 -883 0
-801 -803 885 0
801 -885 0
803 -885 0
-805 -807 887 0
805 -887 0
807 -887 0
-809 -811 889 0
809 -889 0
811 -889 0
-813 -815 891 0
813 -891 0
815 -891 0
-817 -819 893 0
817 -893 0
819 -893 0
-821 -823 895 0
821 -895 0
823 -895 0
-825 -827 897 0
825 -897 0
827 -897 0
-829 -831 899 0
829 -899 0
831 -899 0
-833 -835 901 0
833 -901 0
835 -901 0
-837 -839 903 0
837 -903 0
839 -903 0
-841 -843 905 0
841 -905 0
843 -905 0
-845 -847 907 0
845 -907 0
847 -907 0
-849 -851 909 0
849 -909 0
851 -909 0
-853 -855 911 0
853 -911 0
855 -911 0
-856 -858 999 0
856 -999 0
858 -999 0
-859 -860 915 0
859 -915 0
860 -915 0
-861 -862 917 0
861 -917 0
862 -917 0
-863 -864 919 0
863 -919 0
864 -919 0
-866 -868 921 0
866 -921 0
868 -921 0
-870 -872 923 0
870 -923 0
872 -923 0
-874 -876 925 0
874 -925 0
876 -925 0
-878 -880 927 0
878 -927 0
880 -927 0
-882 -884 929 0
882 -929 0
884 -929 0
-886 -888 931 0
886 -931 0
888 -931 0
-890 -892 933 0
890 -933 0
892 -933 0
-894 -896 935 0
894 -935 0
896 -935 0
-898 -900 937 0
898 -937 0
900 -937 0
-902 -904 939 0
902 -939 0
904 -939 0
-906 -908 941 0
906 -941 0
908 -941 0
-910 -912 943 0
910 -943 0
912 -943 0
-913 -914 945 0
913 -945 0
914 -945 0
-916 -918 947 0
916 -947 0
918 -947 0
-920 -922 949 0
920 -949 0
922 -949 0
-924 -926 951 0
924 -951 0
926 -951 0
-928 -930 953 0
928 -953 0
930 -953 0
-932 -934 955 0
932 -955 0
934 -955 0
-936 -938 957 0
936 -957 0
938 -957 0
-940 -942 959 0
940 -959 0
942 -959 0
-944 -946 961 0
944 -961 0
946 -961 0
-948 -950 963 0
948 -963 0
950 -963 0
-952 -954 965 0
952 -965 0
954 -965 0
-956 -958 967 0
956 -967 0
958 -967 0
-960 -962 969 0
960 -969 0
962 -969 0
-964 -966 970 0
964 -970 0
966 -970 0
-74 -857 1088 0
74 -1088 0
857 -1088 0
-865 -867 976 0
865 -976 0
867 -976 0
-869 -871 978 0
869 -978 0
871 -978 0
-873 -875 980 0
873 -980 0
875 -980 0
-877 -879 982 0
877 -982 0
879 -982 0
-881 -883 984 0
881 -984 0
883 -984 0
-885 -887 986 0
885 -986 0
887 -986 0
-889 -891 988 0
889 -988 0
891 -988 0
-893 -895 990 0
893 -990 0
895 -990 0
-897 -899 992 0
897 -992 0
899 -992 0
-901 -903 994 0
901 -994 0
903 -994 0
-905 -907 996 0
905 -996 0
907 -996 0
-909 -911 998 0
909 -998 0
911 -998 0
-915 -917 1100 0
915 -1100 0
917 -1100 0
-919 -921 1002 0
919 -1002 0
921 -1002 0
-923 -925 1004 0
923 -1004 0
925 -1004 0
-927 -929 1006 0
927 -1006 0
929 -1006 0
-931 -933 1008 0
931 -1008 0
933 -1008 0
-935 -937 1010 0
935 -1010 0
937 -1010 0
-939 -941 1012 0
939 -1012 0
941 -1012 0
-943 -945 1014 0
943 -1014 0
945 -1014 0
-947 -949 1016 0
947 -1016 0
949 -1016 0
-951 -953 1018 0
951 -1018 0
953 -1018 0
-955 -957 1020 0
955 -1020 0
957 -1020 0
-959 -961 1022 0
959 -1022 0
961 -1022 0
-963 -965 1024 0
963 -1024 0
965 -1024 0
-967 -969 1026 0
967 -1026 0
969 -1026 0
-968 -970 1028 0
970 -1028 0
968 -1028 0
-971 -972 1030 0
971 -1030 0
972 -1030 0
-973 -974 1032 0
973 -1032 0
974 -1032 0
-975 -977 1034 0
975 -1034 0
977 -1034 0
-979 -981 1036 0
979 -1036 0
981 -1036 0
-983 -985 1038 0
983 -1038 0
985 -1038 0
-987 -989 1040 0
987 -1040 0
989 -1040 0
-991 -993 1042 0
991 -1042 0
993 -1042 0
-995 -997 1044 0
995 -1044 0
997 -1044 0
-999 -1000 1046 0
999 -1046 0
1000 -1046 0
-1001 -1003 1048 0
1001 -1048 0
1003 -1048 0
-1005 -1007 1050 0
1005 -1050 0
1007 -1050 0
-1009 -1011 1052 0
1009 -1052 0
1011 -1052 0
-1013 -1015 1054 0
1013 -1054 0
1015 -1054 0
-1017 -1019 1056 0
1017 -1056 0
1019 -1056 0
-1021 -1023 1058 0
1021 -1058 0
1023 -1058 0
-1025 -1027 1060 0
1025 -1060 0
1027 -1060 0
-1029 -1031 1062 0
1029 -1062 0
1031 -1062 0
-1033 -1035 1064 0
1033 -1064 0
1035 -1064 0
-1037 -1039 1066 0
1037 -1066 0
1039 -1066 0
-1041 -1043 1068 0
1041 -1068 0
1043 -1068 0
-1045 -1047 1070 0
1045 -1070 0
1047 -1070 0
-1049 -1051 1072 0
1049 -1072 0
1051 -1072 0
-1053 -1055 1074 0
1053 -1074 0
1055 -1074 0
-1057 -1059 1076 0
1057 -1076 0
1059 -1076 0
-1061 -1063 1078 0
1061 -1078 0
1063 -1078 0
-1065 -1067 1080 0
1065 -1080 0
1067 -1080 0
-1069 -1071 1082 0
1069 -1082 0
1071 -1082 0
-1073 -1075 1084 0
1073 -1084 0
1075 -1084 0
-1077 -1079 1086 0
1077 -1086 0
1079 -1086 0
-1081 -1083 1087 0
1081 -1087 0
1083 -1087 0
-976 -978 1089 0
976 -1089 0
978 -1089 0
-980 -982 1091 0
980 -1091 0
982 -1091 0
-984 -986 1093 0
984 -1093 0
986 -1093 0
-988 -990 1095 0
988 -1095 0
990 -1095 0
-992 -994 1097 0
992 -1097 0
994 -1097 0
-996 -998 1099 0
996 -1099 0
998 -1099 0
-1002 -1004 1202 0
1002 -1202 0
1004 -1202 0
-1006 -1008 1103 0
1006 -1103 0
1008 -1103 0
-1010 -1012 1105 0
1010 -1105 0
1012 -1105 0
-1014 -1016 1107 0
1014 -1107 0
1016 -1107 0
-1018 -1020 1109 0
1018 -1109 0
1020 -1109 0
-1022 -1024 1111 0
1022 -1111 0
1024 -1111 0
-1026 -1028 1113 0
1026 -1113 0
1028 -1113 0
-1030 -1032 1115 0
1030 -1115 0
1032 -1115 0
-1034 -1036 1117 0
1034 -1117 0
1036 -1117 0
-1038 -1040 1119 0
1038 -1119 0
1040 -1119 0
-1042 -1044 1121 0
1042 -1121 0
1044 -1121 0
-1046 -1048 1123 0
1046 -1123 0
1048 -1123 0
-1050 -1052 1125 0
1050 -1125 0
1052 -1125 0
-1054 -1056 1127 0
1054 -1127 0
1056 -1127 0
-1058 -1060 1129 0
1058 -1129 0
1060 -1129 0
-1062 -1064 1131 0
1062 -1131 0
1064 -1131 0
-1066 -1068 1133 0
1066 -1133 0
1068 -1133 0
-1070 -1072 1135 0
1070 -1135 0
1072 -1135 0
-1074 -1076 1137 0
1074 -1137 0
1076 -1137 0
-1078 -1080 1139 0
1078 -1139 0
1080 -1139 0
-1082 -1084 1141 0
1082 -1141 0
1084 -1141 0
-1086 -1087 1221 0
1086 -1221 0
1087 -1221 0
-1090 -1092 1222 0
1090 -1222 0
1092 -1222 0
-1094 -1096 1146 0
1094 -1146 0
1096 -1146 0
-1098 -1100 1148 0
1098 -1148 0
1100 -1148 0
-1101 -1102 1150 0
1101 -1150 0
1102 -1150 0
-1104 -1106 1152 0
1104 -1152 0
1106 -1152 0
-1108 -1110 1154 0
1108 -1154 0
1110 -1154 0
-1112 -1114 1156 0
1112 -1156 0
1114 -1156 0
-1116 -1118 1158 0
1116 -1158 0
1118 -1158 0
-1120 -1122 1160 0
1120 -1160 0
1122 -1160 0
-1124 -1126 1162 0
1124 -1162 0
1126 -1162 0
-1128 -1130 1164 0
1128 -1164 0
1130 -1164 0
-1132 -1134 1166 0
1132 -1166 0
1134 -1166 0
-1136 -1138 1168 0
1136 -1168 0
1138 -1168 0
-1140 -1142 1170 0
1140 -1170 0
1142 -1170 0
-1088 -1143 1172 0
1088 -1172 0
1143 -1172 0
-1144 -1145 1174 0
1144 -1174 0
1145 -1174 0
-1147 -1149 1176 0
1147 -1176 0
1149 -1176 0
-1151 -1153 1178 0
1151 -1178 0
1153 -1178 0
-1155 -1157 1180 0
1155 -1180 0
1157 -1180 0
-1159 -1161 1182 0
1159 -1182 0
1161 -1182 0
-1163 -1165 1184 0
1163 -1184 0
1165 -1184 0
-1167 -1169 1186 0
1167 -1186 0
1169 -1186 0
-1171 -1173 1188 0
1171 -1188 0
1173 -1188 0
-1175 -1177 1190 0
1175 -1190 0
1177 -1190 0
-1179 -1181 1192 0
1179 -1192 0
1181 -1192 0
-1183 -1185 1194 0
1183 -1194 0
1185 -1194 0
-1187 -1189 1196 0
1187 -1196 0
1189 -1196 0
-1191 -1193 1197 0
1191 -1197 0
1193 -1197 0
-1089 -1091 1305 0
1089 -1305 0
1091 -1305 0
-1093 -1095 1199 0
1093 -1199 0
1095 -1199 0
-1097 -1099 1201 0
1097 -1201 0
1099 -1201 0
-1103 -1105 1307 0
1103 -1307 0
1105 -1307 0
-1107 -1109 1205 0
1107 -1205 0
1109 -1205 0
-1111 -1113 1207 0
1111 -1207 0
1113 -1207 0
-1115 -1117 1209 0
1115 -1209 0
1117 -1209 0
-1119 -1121 1211 0
1119 -1211 0
1121 -1211 0
-1123 -1125 1213 0
1123 -1213 0
1125 -1213 0
-1127 -1129 1215 0
1127 -1215 0
1129 -1215 0
-1131 -1133 1217 0
1131 -1217 0
1133 -1217 0
-1135 -1137 1219 0
1135 -1219 0
1137 -1219 0
-1139 -1141 1314 0
1139 -1314 0
1141 -1314 0
-1146 -1148 1315 0
1146 -1315 0
1148 -1315 0
-1150 -1152 1225 0
1150 -1225 0
1152 -1225 0
-1154 -1156 1227 0
1154 -1227 0
1156 -1227 0
-1158 -1160 1229 0
1158 -1229 0
1160 -1229 0
-1162 -1164 1231 0
1162 -1231 0
1164 -1231 0
-1166 -1168 1233 0
1166 -1233 0
1168 -1233 0
-1170 -1172 1235 0
1170 -1235 0
1172 -1235 0
-1174 -1176 1237 0
1174 -1237 0
1176 -1237 0
-1178 -1180 1239 0
1178 -1239 0
1180 -1239 0
-1182 -1184 1241 0
1182 -1241 0
1184 -1241 0
-1186 -1188 1243 0
1186 -1243 0
1188 -1243 0
-1190 -1192 1245 0
1190 -1245 0
1192 -1245 0
-1194 -1196 1247 0
1194 -1247 0
1196 -1247 0
-1195 -1197 1326 0
1197 -1326 0
1195 -1326 0
-1198 -1200 1251 0
1198 -1251 0
1200 -1251 0
-1202 -1203 1253 0
1202 -1253 0
1203 -1253 0
-1204 -1206 1255 0
1204 -1255 0
1206 -1255 0
-1208 -1210 1257 0
1208 -1257 0
1210 -1257 0
-1212 -1214 1259 0
1212 -1259 0
1214 -1259 0
-1216 -1218 1261 0
1216 -1261 0
1218 -1261 0
-1220 -1221 1263 0
1220 -1263 0
1221 -1263 0
-1222 -1223 1265 0
1222 -1265 0
1223 -1265 0
-1224 -1226 1267 0
1224 -1267 0
1226 -1267 0
-1228 -1230 1269 0
1228 -1269 0
1230 -1269 0
-1232 -1234 1271 0
1232 -1271 0
1234 -1271 0
-1236 -1238 1273 0
1236 -1273 0
1238 -1273 0
-1240 -1242 1275 0
1240 -1275 0
1242 -1275 0
-1244 -1246 1277 0
1244 -1277 0
1246 -1277 0
-1248 -1249 1279 0
1248 -1279 0
1249 -1279 0
-1250 -1252 1281 0
1250 -1281 0
1252 -1281 0
-1254 -1256 1283 0
1254 -1283 0
1256 -1283 0
-1258 -1260 1285 0
1258 -1285 0
1260 -1285 0
-1262 -1264 1287 0
1262 -1287 0
1264 -1287 0
-1266 -1268 1289 0
1266 -1289 0
1268 -1289 0
-1270 -1272 1291 0
1270 -1291 0
1272 -1291 0
-1274 -1276 1293 0
1274 -1293 0
1276 -1293 0
-1278 -1280 1295 0
1278 -1295 0
1280 -1295 0
-1282 -1284 1297 0
1282 -1297 0
1284 -1297 0
-1286 -1288 1299 0
1286 -1299 0
1288 -1299 0
-1290 -1292 1301 0
1290 -1301 0
1292 -1301 0
-1294 -1296 1303 0
1294 -1303 0
1296 -1303 0
-1298 -1300 1304 0
1298 -1304 0
1300 -1304 0
-1199 -1201 1412 0
1199 -1412 0
1201 -1412 0
-1205 -1207 1413 0
1205 -1413 0
1207 -1413 0
-1209 -1211 1310 0
1209 -1310 0
1211 -1310 0
-1213 -1215 1312 0
1213 -1312 0
1215 -1312 0
-1217 -1219 1415 0
1217 -1415 0
1219 -1415 0
-1225 -1227 1416 0
1225 -1416 0
1227 -1416 0
-1229 -1231 1318 0
1229 -1318 0
1231 -1318 0
-1233 -1235 1320 0
1233 -1320 0
1235 -1320 0
-1237 -1239 1322 0
1237 -1322 0
1239 -1322 0
-1241 -1243 1324 0
1241 -1324 0
1243 -1324 0
-1245 -1247 1419 0
1245 -1419 0
1247 -1419 0
-1251 -1253 1328 0
1251 -1328 0
1253 -1328 0
-1255 -1257 1330 0
1255 -1330 0
1257 -1330 0
-1259 -1261 1332 0
1259 -1332 0
1261 -1332 0
-1263 -1265 1334 0
1263 -1334 0
1265 -1334 0
-1267 -1269 1336 0
1267 -1336 0
1269 -1336 0
-1271 -1273 1338 0
1271 -1338 0
1273 -1338 0
-1275 -1277 1340 0
1275 -1340 0
1277 -1340 0
-1279 -1281 1342 0
1279 -1342 0
1281 -1342 0
-1283 -1285 1344 0
1283 -1344 0
1285 -1344 0
-1287 -1289 1346 0
1287 -1346 0
1289 -1346 0
-1291 -1293 1348 0
1291 -1348 0
1293 -1348 0
-1295 -1297 1350 0
1295 -1350 0
1297 -1350 0
-1299 -1301 1352 0
1299 -1352 0
1301 -1352 0
-1303 -1304 1354 0
1303 -1354 0
1304 -1354 0
-1302 -1305 1356 0
1302 -1356 0
1305 -1356 0
-1306 -1307 1358 0
1306 -1358 0
1307 -1358 0
-1308 -1309 1360 0
1308 -1360 0
1309 -1360 0
-1311 -1313 1362 0
1311 -1362 0
1313 -1362 0
-1314 -1315 1364 0
1314 -1364 0
1315 -1364 0
-1316 -1317 1366 0
1316 -1366 0
1317 -1366 0
-1319 -1321 1368 0
1319 -1368 0
1321 -1368 0
-1323 -1325 1370 0
1323 -1370 0
1325 -1370 0
-1326 -1327 1372 0
1326 -1372 0
1327 -1372 0
-1329 -1331 1374 0
1329 -1374 0
1331 -1374 0
-1333 -1335 1376 0
1333 -1376 0
1335 -1376 0
-1337 -1339 1378 0
1337 -1378 0
1339 -1378 0
-1341 -1343 1380 0
1341 -1380 0
1343 -1380 0
-1345 -1347 1382 0
1345 -1382 0
1347 -1382 0
-1349 -1351 1384 0
1349 -1384 0
1351 -1384 0
-1353 -1355 1386 0
1353 -1386 0
1355 -1386 0
-1357 -1359 1388 0
1357 -1388 0
1359 -1388 0
-1361 -1363 1390 0
1361 -1390 0
1363 -1390 0
-1365 -1367 1392 0
1365 -1392 0
1367 -1392 0
-1369 -1371 1394 0
1369 -1394 0
1371 -1394 0
-1373 -1375 1396 0
1373 -1396 0
1375 -1396 0
-1377 -1379 1398 0
1377 -1398 0
1379 -1398 0
-1381 -1383 1400 0
1381 -1400 0
1383 -1400 0
-1385 -1387 1402 0
1385 -1402 0
1387 -1402 0
-1389 -1391 1404 0
1389 -1404 0
1391 -1404 0
-1393 -1395 1406 0
1393 -1406 0
1395 -1406 0
-1397 -1399 1408 0
1397 -1408 0
1399 -1408 0
-1401 -1403 1410 0
1401 -1410 0
1403 -1410 0
-1405 -1407 1411 0
1405 -1411 0
1407 -1411 0
-1310 -1312 1519 0
1310 -1519 0
1312 -1519 0
-1318 -1320 1520 0
1318 -1520 0
1320 -1520 0
-1322 -1324 1521 0
1322 -1521 0
1324 -1521 0
-1328 -1330 1421 0
1328 -1421 0
1330 -1421 0
-1332 -1334 1423 0
1332 -1423 0
1334 -1423 0
-1336 -1338 1425 0
1336 -1425 0
1338 -1425 0
-1340 -1342 1427 0
1340 -1427 0
1342 -1427 0
-1344 -1346 1429 0
1344 -1429 0
1346 -1429 0
-1348 -1350 1431 0
1348 -1431 0
1350 -1431 0
-1352 -1354 1433 0
1352 -1433 0
1354 -1433 0
-1356 -1358 1435 0
1356 -1435 0
1358 -1435 0
-1360 -1362 1437 0
1360 -1437 0
1362 -1437 0
-1364 -1366 1439 0
1364 -1439 0
1366 -1439 0
-1368 -1370 1441 0
1368 -1441 0
1370 -1441 0
-1372 -1374 1443 0
1372 -1443 0
1374 -1443 0
-1376 -1378 1445 0
1376 -1445 0
1378 -1445 0
-1380 -1382 1447 0
1380 -1447 0
1382 -1447 0
-1384 -1386 1449 0
1384 -1449 0
1386 -1449 0
-1388 -1390 1451 0
1388 -1451 0
1390 -1451 0
-1392 -1394 1453 0
1392 -1453 0
1394 -1453 0
-1396 -1398 1455 0
1396 -1455 0
1398 -1455 0
-1400 -1402 1457 0
1400 -1457 0
1402 -1457 0
-1404 -1406 1459 0
1404 -1459 0
1406 -1459 0
-1408 -1410 1461 0
1408 -1461 0
1410 -1461 0
-1409 -1411 1463 0
1411 -1463 0
1409 -1463 0
-1412 -1413 1465 0
1412 -1465 0
1413 -1465 0
-1414 -1415 1467 0
1414 -1467 0
1415 -1467 0
-1416 -1417 1469 0
1416 -1469 0
1417 -1469 0
-1418 -1419 1471 0
1418 -1471 0
1419 -1471 0
-1420 -1422 1473 0
1420 -1473 0
1422 -1473 0
-1424 -1426 1475 0
1424 -1475 0
1426 -1475 0
-1428 -1430 1477 0
1428 -1477 0
1430 -1477 0
-1432 -1434 1479 0
1432 -1479 0
1434 -1479 0
-1436 -1438 1481 0
1436 -1481 0
1438 -1481 0
-1440 -1442 1483 0
1440 -1483 0
1442 -1483 0
-1444 -1446 1485 0
1444 -1485 0
1446 -1485 0
-1448 -1450 1487 0
1448 -1487 0
1450 -1487 0
-1452 -1454 1489 0
1452 -1489 0
1454 -1489 0
-1456 -1458 1491 0
1456 -1491 0
1458 -1491 0
-1460 -1462 1493 0
1460 -1493 0
1462 -1493 0
-1464 -1466 1495 0
1464 -1495 0
1466 -1495 0
-1468 -1470 1497 0
1468 -1497 0
1470 -1497 0
-1472 -1474 1499 0
1472 -1499 0
1474 -1499 0
-1476 -1478 1501 0
1476 -1501 0
1478 -1501 0
-1480 -1482 1503 0
1480 -1503 0
1482 -1503 0
-1484 -1486 1505 0
1484 -1505 0
1486 -1505 0
-1488 -1490 1507 0
1488 -1507 0
1490 -1507 0
-1492 -1494 1509 0
1492 -1509 0
1494 -1509 0
-1496 -1498 1511 0
1496 -1511 0
1498 -1511 0
-1500 -1502 1513 0
1500 -1513 0
1502 -1513 0
-1504 -1506 1515 0
1504 -1515 0
1506 -1515 0
-1508 -1510 1517 0
1508 -1517 0
1510 -1517 0
-1512 -1514 1518 0
1512 -1518 0
1514 -1518 0
-1421 -1423 1523 0
1421 -1523 0
1423 -1523 0
-1425 -1427 1525 0
1425 -1525 0
1427 -1525 0
-1429 -1431 1527 0
1429 -1527 0
1431 -1527 0
-1433 -1435 1529 0
1433 -1529 0
1435 -1529 0
-1437 -1439 1531 0
1437 -1531 0
1439 -1531 0
-1441 -1443 1533 0
1441 -1533 0
1443 -1533 0
-1445 -1447 1535 0
1445 -1535 0
1447 -1535 0
-1449 -1451 1537 0
1449 -1537 0
1451 -1537 0
-1453 -1455 1539 0
1453 -1539 0
1455 -1539 0
-1457 -1459 1541 0
1457 -1541 0
1459 -1541 0
-1461 -1463 1543 0
1461 -1543 0
1463 -1543 0
-1465 -1467 1545 0
1465 -1545 0
1467 -1545 0
-1469 -1471 1547 0
1469 -1547 0
1471 -1547 0
-1473 -1475 1549 0
1473 -1549 0
1475 -1549 0
-1477 -1479 1551 0
1477 -1551 0
1479 -1551 0
-1481 -1483 1553 0
1481 -1553 0
1483 -1553 0
-1485 -1487 1555 0
1485 -1555 0
1487 -1555 0
-1489 -1491 1557 0
1489 -1557 0
1491 -1557 0
-1493 -1495 1559 0
1493 -1559 0
1495 -1559 0
-1497 -1499 1561 0
1497 -1561 0
1499 -1561 0
-1501 -1503 1563 0
1501 -1563 0
1503 -1563 0
-1505 -1507 1565 0
1505 -1565 0
1507 -1565 0
-1509 -1511 1567 0
1509 -1567 0
1511 -1567 0
-1513 -1515 1569 0
1513 -1569 0
1515 -1569 0
-1517 -1518 1648 0
1517 -1648 0
1518 -1648 0
-1519 -1520 1572 0
1519 -1572 0
1520 -1572 0
-1521 -1522 1574 0
1521 -1574 0
1522 -1574 0
-1524 -1526 1576 0
1524 -1576 0
1526 -1576 0
-1528 -1530 1578 0
1528 -1578 0
1530 -1578 0
-1532 -1534 1580 0
1532 -1580 0
1534 -1580 0
-1536 -1538 1582 0
1536 -1582 0
1538 -1582 0
-1540 -1542 1584 0
1540 -1584 0
1542 -1584 0
-1544 -1546 1586 0
1544 -1586 0
1546 -1586 0
-1548 -1550 1588 0
1548 -1588 0
1550 -1588 0
-1552 -1554 1590 0
1552 -1590 0
1554 -1590 0
-1556 -1558 1592 0
1556 -1592 0
1558 -1592 0
-1560 -1562 1594 0
1560 -1594 0
1562 -1594 0
-1564 -1566 1596 0
1564 -1596 0
1566 -1596 0
-1568 -1570 1598 0
1568 -1598 0
1570 -1598 0
-1516 -1571 1600 0
1516 -1600 0
1571 -1600 0
-1573 -1575 1602 0
1573 -1602 0
1575 -1602 0
-1577 -1579 1604 0
1577 -1604 0
1579 -1604 0
-1581 -1583 1606 0
1581 -1606 0
1583 -1606 0
-1585 -1587 1608 0
1585 -1608 0
1587 -1608 0
-1589 -1591 1610 0
1589 -1610 0
1591 -1610 0
-1593 -1595 1612 0
1593 -1612 0
1595 -1612 0
-1597 -1599 1614 0
1597 -1614 0
1599 -1614 0
-1601 -1603 1616 0
1601 -1616 0
1603 -1616 0
-1605 -1607 1618 0
1605 -1618 0
1607 -1618 0
-1609 -1611 1620 0
1609 -1620 0
1611 -1620 0
-1613 -1615 1622 0
1613 -1622 0
1615 -1622 0
-1617 -1619 1623 0
1617 -1623 0
1619 -1623 0
-1523 -1525 1625 0
1523 -1625 0
1525 -1625 0
-1527 -1529 1627 0
1527 -1627 0
1529 -1627 0
-1531 -1533 1629 0
1531 -1629 0
1533 -1629 0
-1535 -1537 1631 0
1535 -1631 0
1537 -1631 0
-1539 -1541 1633 0
1539 -1633 0
1541 -1633 0
-1543 -1545 1635 0
1543 -1635 0
1545 -1635 0
-1547 -1549 1637 0
1547 -1637 0
1549 -1637 0
-1551 -1553 1639 0
1551 -1639 0
1553 -1639 0
-1555 -1557 1641 0
1555 -1641 0
1557 -1641 0
-1559 -1561 1643 0
1559 -1643 0
1561 -1643 0
-1563 -1565 1645 0
1563 -1645 0
1565 -1645 0
-1567 -1569 1647 0
1567 -1647 0
1569 -1647 0
-1572 -1574 1733 0
1572 -1733 0
1574 -1733 0
-1576 -1578 1651 0
1576 -1651 0
1578 -1651 0
-1580 -1582 1653 0
1580 -1653 0
1582 -1653 0
-1584 -1586 1655 0
1584 -1655 0
1586 -1655 0
-1588 -1590 1657 0
1588 -1657 0
1590 -1657 0
-1592 -1594 1659 0
1592 -1659 0
1594 -1659 0
-1596 -1598 1661 0
1596 -1661 0
1598 -1661 0
-1600 -1602 1663 0
1600 -1663 0
1602 -1663 0
-1604 -1606 1665 0
1604 -1665 0
1606 -1665 0
-1608 -1610 1667 0
1608 -1667 0
1610 -1667 0
-1612 -1614 1669 0
1612 -1669 0
1614 -1669 0
-1616 -1618 1671 0
1616 -1671 0
1618 -1671 0
-1620 -1622 1673 0
1620 -1673 0
1622 -1673 0
-1621 -1623 1746 0
1623 -1746 0
1621 -1746 0
-1624 -1626 1675 0
1624 -1675 0
1626 -1675 0
-1628 -1630 1677 0
1628 -1677 0
1630 -1677 0
-1632 -1634 1679 0
1632 -1679 0
1634 -1679 0
-1636 -1638 1681 0
1636 -1681 0
1638 -1681 0
-1640 -1642 1683 0
1640 -1683 0
1642 -1683 0
-1644 -1646 1685 0
1644 -1685 0
1646 -1685 0
-1648 -1649 1687 0
1648 -1687 0
1649 -1687 0
-1650 -1652 1689 0
1650 -1689 0
1652 -1689 0
-1654 -1656 1691 0
1654 -1691 0
1656 -1691 0
-1658 -1660 1693 0
1658 -1693 0
1660 -1693 0
-1662 -1664 1695 0
1662 -1695 0
1664 -1695 0
-1666 -1668 1697 0
1666 -1697 0
1668 -1697 0
-1670 -1672 1757 0
1670 -1757 0
1672 -1757 0
-1674 -1676 1701 0
1674 -1701 0
1676 -1701 0
-1678 -1680 1703 0
1678 -1703 0
1680 -1703 0
-1682 -1684 1705 0
1682 -1705 0
1684 -1705 0
-1686 -1688 1707 0
1686 -1707 0
1688 -1707 0
-1690 -1692 1709 0
1690 -1709 0
1692 -1709 0
-1694 -1696 1711 0
1694 -1711 0
1696 -1711 0
-1698 -1699 1713 0
1698 -1713 0
1699 -1713 0
-1700 -1702 1715 0
1700 -1715 0
1702 -1715 0
-1704 -1706 1717 0
1704 -1717 0
1706 -1717 0
-1708 -1710 1719 0
1708 -1719 0
1710 -1719 0
-1712 -1714 1721 0
1712 -1721 0
1714 -1721 0
-1716 -1718 1722 0
1716 -1722 0
1718 -1722 0
-1625 -1627 1820 0
1625 -1820 0
1627 -1820 0
-1629 -1631 1725 0
1629 -1725 0
1631 -1725 0
-1633 -1635 1727 0
1633 -1727 0
1635 -1727 0
-1637 -1639 1729 0
1637 -1729 0
1639 -1729 0
-1641 -1643 1731 0
1641 -1731 0
1643 -1731 0
-1645 -1647 1823 0
1645 -1823 0
1647 -1823 0
-1651 -1653 1735 0
1651 -1735 0
1653 -1735 0
-1655 -1657 1737 0
1655 -1737 0
1657 -1737 0
-1659 -1661 1739 0
1659 -1739 0
1661 -1739 0
-1663 -1665 1741 0
1663 -1741 0
1665 -1741 0
-1667 -1669 1743 0
1667 -1743 0
1669 -1743 0
-1671 -1673 1745 0
1671 -1745 0
1673 -1745 0
-1675 -1677 1829 0
1675 -1829 0
1677 -1829 0
-1679 -1681 1749 0
1679 -1749 0
1681 -1749 0
-1683 -1685 1751 0
1683 -1751 0
1685 -1751 0
-1687 -1689 1753 0
1687 -1753 0
1689 -1753 0
-1691 -1693 1755 0
1691 -1755 0
1693 -1755 0
-1695 -1697 1834 0
1695 -1834 0
1697 -1834 0
-1701 -1703 1759 0
1701 -1759 0
1703 -1759 0
-1705 -1707 1761 0
1705 -1761 0
1707 -1761 0
-1709 -1711 1763 0
1709 -1763 0
1711 -1763 0
-1713 -1715 1765 0
1713 -1765 0
1715 -1765 0
-1717 -1719 1767 0
1717 -1767 0
1719 -1767 0
-1721 -1722 1769 0
1721 -1769 0
1722 -1769 0
-1723 -1724 1840 0
1723 -1840 0
1724 -1840 0
-1726 -1728 1772 0
1726 -1772 0
1728 -1772 0
-1730 -1732 1774 0
1730 -1774 0
1732 -1774 0
-1733 -1734 1776 0
1733 -1776 0
1734 -1776 0
-1736 -1738 1778 0
1736 -1778 0
1738 -1778 0
-1740 -1742 1780 0
1740 -1780 0
1742 -1780 0
-1744 -1746 1782 0
1744 -1782 0
1746 -1782 0
-1747 -1748 1784 0
1747 -1784 0
1748 -1784 0
-1750 -1752 1786 0
1750 -1786 0
1752 -1786 0
-1754 -1756 1788 0
1754 -1788 0
1756 -1788 0
-1757 -1758 1790 0
1757 -1790 0
1758 -1790 0
-1760 -1762 1792 0
1760 -1792 0
1762 -1792 0
-1764 -1766 1794 0
1764 -1794 0
1766 -1794 0
-1720 -1768 1796 0
1768 -1796 0
1720 -1796 0
-1770 -1771 1798 0
1770 -1798 0
1771 -1798 0
-1773 -1775 1800 0
1773 -1800 0
1775 -1800 0
-1777 -1779 1802 0
1777 -1802 0
1779 -1802 0
-1781 -1783 1804 0
1781 -1804 0
1783 -1804 0
-1785 -1787 1806 0
1785 -1806 0
1787 -1806 0
-1789 -1791 1808 0
1789 -1808 0
1791 -1808 0
-1793 -1795 1810 0
1793 -1810 0
1795 -1810 0
-1797 -1799 1812 0
1797 -1812 0
1799 -1812 0
-1801 -1803 1814 0
1801 -1814 0
1803 -1814 0
-1805 -1807 1816 0
1805 -1816 0
1807 -1816 0
-1809 -1811 1818 0
1809 -1818 0
1811 -1818 0
-1813 -1815 1819 0
1813 -1819 0
1815 -1819 0
-1725 -1727 1917 0
1725 -1917 0
1727 -1917 0
-1729 -1731 1918 0
1729 -1918 0
1731 -1918 0
-1735 -1737 1825 0
1735 -1825 0
1737 -1825 0
-1739 -1741 1827 0
1739 -1827 0
1741 -1827 0
-1743 -1745 1920 0
1743 -1920 0
1745 -1920 0
-1749 -1751 1831 0
1749 -1831 0
1751 -1831 0
-1753 -1755 1833 0
1753 -1833 0
1755 -1833 0
-1759 -1761 1922 0
1759 -1922 0
1761 -1922 0
-1763 -1765 1837 0
1763 -1837 0
1765 -1837 0
-1767 -1769 1839 0
1767 -1839 0
1769 -1839 0
-1772 -1774 1924 0
1772 -1924 0
1774 -1924 0
-1776 -1778 1843 0
1776 -1843 0
1778 -1843 0
-1780 -1782 1845 0
1780 -1845 0
1782 -1845 0
-1784 -1786 1847 0
1784 -1847 0
1786 -1847 0
-1788 -1790 1849 0
1788 -1849 0
1790 -1849 0
-1792 -1794 1851 0
1792 -1851 0
1794 -1851 0
-1796 -1798 1853 0
1796 -1853 0
1798 -1853 0
-1800 -1802 1855 0
1800 -1855 0
1802 -1855 0
-1804 -1806 1857 0
1804 -1857 0
1806 -1857 0
-1808 -1810 1859 0
1808 -1859 0
1810 -1859 0
-1812 -1814 1861 0
1812 -1861 0
1814 -1861 0
-1816 -1818 1863 0
1816 -1863 0
1818 -1863 0
-1817 -1819 1865 0
1819 -1865 0
1817 -1865 0
-1820 -1821 1867 0
1820 -1867 0
1821 -1867 0
-1822 -1823 1869 0
1822 -1869 0
1823 -1869 0
-1824 -1826 1871 0
1824 -1871 0
1826 -1871 0
-1828 -1829 1873 0
1828 -1873 0
1829 -1873 0
-1830 -1832 1875 0
1830 -1875 0
1832 -1875 0
-1834 -1835 1877 0
1834 -1877 0
1835 -1877 0
-1836 -1838 1879 0
1836 -1879 0
1838 -1879 0
-1840 -1841 1881 0
1840 -1881 0
1841 -1881 0
-1842 -1844 1883 0
1842 -1883 0
1844 -1883 0
-1846 -1848 1885 0
1846 -1885 0
1848 -1885 0
-1850 -1852 1887 0
1850 -1887 0
1852 -1887 0
-1854 -1856 1889 0
1854 -1889 0
1856 -1889 0
-1858 -1860 1891 0
1858 -1891 0
1860 -1891 0
-1862 -1864 1893 0
1862 -1893 0
1864 -1893 0
-1866 -1868 1895 0
1866 -1895 0
1868 -1895 0
-1870 -1872 1897 0
1870 -1897 0
1872 -1897 0
-1874 -1876 1899 0
1874 -1899 0
1876 -1899 0
-1878 -1880 1901 0
1878 -1901 0
1880 -1901 0
-1882 -1884 1903 0
1882 -1903 0
1884 -1903 0
-1886 -1888 1905 0
1886 -1905 0
1888 -1905 0
-1890 -1892 1907 0
1890 -1907 0
1892 -1907 0
-1894 -1896 1909 0
1894 -1909 0
1896 -1909 0
-1898 -1900 1911 0
1898 -1911 0
1900 -1911 0
-1902 -1904 1913 0
1902 -1913 0
1904 -1913 0
-1906 -1908 1915 0
1906 -1915 0
1908 -1915 0
-1910 -1912 1916 0
1910 -1916 0
1912 -1916 0
-1825 -1827 2014 0
1825 -2014 0
1827 -2014 0
-1831 -1833 2015 0
1831 -2015 0
1833 -2015 0
-1837 -1839 2016 0
1837 -2016 0
1839 -2016 0
-1843 -1845 1926 0
1843 -1926 0
1845 -1926 0
-1847 -1849 1928 0
1847 -1928 0
1849 -1928 0
-1851 -1853 1930 0
1851 -1930 0
1853 -1930 0
-1855 -1857 1932 0
1855 -1932 0
1857 -1932 0
-1859 -1861 1934 0
1859 -1934 0
1861 -1934 0
-1863 -1865 1936 0
1863 -1936 0
1865 -1936 0
-1867 -1869 1938 0
1867 -1938 0
1869 -1938 0
-1871 -1873 1940 0
1871 -1940 0
1873 -1940 0
-1875 -1877 1942 0
1875 -1942 0
1877 -1942 0
-1879 -1881 1944 0
1879 -1944 0
1881 -1944 0
-1883 -1885 1946 0
1883 -1946 0
1885 -1946 0
-1887 -1889 1948 0
1887 -1948 0
1889 -1948 0
-1891 -1893 1950 0
1891 -1950 0
1893 -1950 0
-1895 -1897 1952 0
1895 -1952 0
1897 -1952 0
-1899 -1901 1954 0
1899 -1954 0
1901 -1954 0
-1903 -1905 1956 0
1903 -1956 0
1905 -1956 0
-1907 -1909 1958 0
1907 -1958 0
1909 -1958 0
-1911 -1913 1960 0
1911 -1960 0
1913 -1960 0
-1915 -1916 1962 0
1915 -1962 0
1916 -1962 0
-1914 -1917 1964 0
1914 -1964 0
1917 -1964 0
-1918 -1919 1966 0
1918 -1966 0
1919 -1966 0
-1920 -1921 1968 0
1920 -1968 0
1921 -1968 0
-1922 -1923 1970 0
1922 -1970 0
1923 -1970 0
-1924 -1925 1972 0
1924 -1972 0
1925 -1972 0
-1927 -1929 1974 0
1927 -1974 0
1929 -1974 0
-1931 -1933 1976 0
1931 -1976 0
1933 -1976 0
-1935 -1937 1978 0
1935 -1978 0
1937 -1978 0
-1939 -1941 1980 0
1939 -1980 0
1941 -1980 0
-1943 -1945 1982 0
1943 -1982 0
1945 -1982 0
-1947 -1949 1984 0
1947 -1984 0
1949 -1984 0
-1951 -1953 1986 0
1951 -1986 0
1953 -1986 0
-1955 -1957 1988 0
1955 -1988 0
1957 -1988 0
-1959 -1961 1990 0
1959 -1990 0
1961 -1990 0
-1963 -1965 1992 0
1963 -1992 0
1965 -1992 0
-1967 -1969 1994 0
1967 -1994 0
1969 -1994 0
-1971 -1973 1996 0
1971 -1996 0
1973 -1996 0
-1975 -1977 1998 0
1975 -1998 0
1977 -1998 0
-1979 -1981 2000 0
1979 -2000 0
1981 -2000 0
-1983 -1985 2002 0
1983 -2002 0
1985 -2002 0
-1987 -1989 2004 0
1987 -2004 0
1989 -2004 0
-1991 -1993 2006 0
1991 -2006 0
1993 -2006 0
-1995 -1997 2008 0
1995 -2008 0
1997 -2008 0
-1999 -2001 2010 0
1999 -2010 0
2001 -2010 0
-2003 -2005 2012 0
2003 -2012 0
2005 -2012 0
-2007 -2009 2013 0
2007 -2013 0
2009 -2013 0
-1926 -1928 2018 0
1926 -2018 0
1928 -2018 0
-1930 -1932 2020 0
1930 -2020 0
1932 -2020 0
-1934 -1936 2022 0
1934 -2022 0
1936 -2022 0
-1938 -1940 2024 0
1938 -2024 0
1940 -2024 0
-1942 -1944 2026 0
1942 -2026 0
1944 -2026 0
-1946 -1948 2028 0
1946 -2028 0
1948 -2028 0
-1950 -1952 2030 0
1950 -2030 0
1952 -2030 0
-1954 -1956 2032 0
1954 -2032 0
1956 -2032 0
-1958 -1960 2034 0
1958 -2034 0
1960 -2034 0
-1962 -1964 2036 0
1962 -2036 0
1964 -2036 0
-1966 -1968 2038 0
1966 -2038 0
1968 -2038 0
-1970 -1972 2040 0
1970 -2040 0
1972 -2040 0
-1974 -1976 2042 0
1974 -2042 0
1976 -2042 0
-1978 -1980 2044 0
1978 -2044 0
1980 -2044 0
-1982 -1984 2046 0
1982 -2046 0
1984 -2046 0
-1986 -1988 2048 0
1986 -2048 0
1988 -2048 0
-1990 -1992 2050 0
1990 -2050 0
1992 -2050 0
-1994 -1996 2052 0
1994 -2052 0
1996 -2052 0
-1998 -2000 2054 0
1998 -2054 0
2000 -2054 0
-2002 -2004 2056 0
2002 -2056 0
2004 -2056 0
-2006 -2008 2058 0
2006 -2058 0
2008 -2058 0
-2010 -2012 2060 0
2010 -2060 0
2012 -2060 0
-2011 -2013 2129 0
2013 -2129 0
2011 -2129 0
-2015 -2016 2063 0
2015 -2063 0
2016 -2063 0
-2017 -2019 2065 0
2017 -2065 0
2019 -2065 0
-2021 -2023 2067 0
2021 -2067 0
2023 -2067 0
-2025 -2027 2069 0
2025 -2069 0
2027 -2069 0
-2029 -2031 2071 0
2029 -2071 0
2031 -2071 0
-2033 -2035 2073 0
2033 -2073 0
2035 -2073 0
-2037 -2039 2075 0
2037 -2075 0
2039 -2075 0
-2041 -2043 2077 0
2041 -2077 0
2043 -2077 0
-2045 -2047 2079 0
2045 -2079 0
2047 -2079 0
-2049 -2051 2081 0
2049 -2081 0
2051 -2081 0
-2053 -2055 2083 0
2053 -2083 0
2055 -2083 0
-2057 -2059 2085 0
2057 -2085 0
2059 -2085 0
-2014 -2061 2087 0
2061 -2087 0
2014 -2087 0
-2062 -2064 2089 0
2062 -2089 0
2064 -2089 0
-2066 -2068 2091 0
2066 -2091 0
2068 -2091 0
-2070 -2072 2093 0
2070 -2093 0
2072 -2093 0
-2074 -2076 2095 0
2074 -2095 0
2076 -2095 0
-2078 -2080 2097 0
2078 -2097 0
2080 -2097 0
-2082 -2084 2099 0
2082 -2099 0
2084 -2099 0
-2086 -2088 2101 0
2086 -2101 0
2088 -2101 0
-2090 -2092 2103 0
2090 -2103 0
2092 -2103 0
-2094 -2096 2105 0
2094 -2105 0
2096 -2105 0
-2098 -2100 2107 0
2098 -2107 0
2100 -2107 0
-2102 -2104 2108 0
2102 -2108 0
2104 -2108 0
-2018 -2020 2109 0
2018 -2109 0
2020 -2109 0
-2022 -2024 2111 0
2022 -2111 0
2024 -2111 0
-2026 -2028 2113 0
2026 -2113 0
2028 -2113 0
-2030 -2032 2115 0
2030 -2115 0
2032 -2115 0
-2034 -2036 2117 0
2034 -2117 0
2036 -2117 0
-2038 -2040 2119 0
2038 -2119 0
2040 -2119 0
-2042 -2044 2121 0
2042 -2121 0
2044 -2121 0
-2046 -2048 2123 0
2046 -2123 0
2048 -2123 0
-2050 -2052 2125 0
2050 -2125 0
2052 -2125 0
-2054 -2056 2127 0
2054 -2127 0
2056 -2127 0
-2058 -2060 2208 0
2058 -2208 0
2060 -2208 0
-2063 -2065 2131 0
2063 -2131 0
2065 -2131 0
-2067 -2069 2133 0
2067 -2133 0
2069 -2133 0
-2071 -2073 2135 0
2071 -2135 0
2073 -2135 0
-2075 -2077 2137 0
2075 -2137 0
2077 -2137 0
-2079 -2081 2139 0
2079 -2139 0
2081 -2139 0
-2083 -2085 2141 0
2083 -2141 0
2085 -2141 0
-2087 -2089 2143 0
2087 -2143 0
2089 -2143 0
-2091 -2093 2145 0
2091 -2145 0
2093 -2145 0
-2095 -2097 2147 0
2095 -2147 0
2097 -2147 0
-2099 -2101 2149 0
2099 -2149 0
2101 -2149 0
-2103 -2105 2151 0
2103 -2151 0
2105 -2151 0
-2107 -2108 2153 0
2107 -2153 0
2108 -2153 0
-2110 -2112 2156 0
2110 -2156 0
2112 -2156 0
-2114 -2116 2158 0
2114 -2158 0
2116 -2158 0
-2118 -2120 2160 0
2118 -2160 0
2120 -2160 0
-2122 -2124 2162 0
2122 -2162 0
2124 -2162 0
-2126 -2128 2164 0
2126 -2164 0
2128 -2164 0
-2129 -2130 2166 0
2129 -2166 0
2130 -2166 0
-2132 -2134 2168 0
2132 -2168 0
2134 -2168 0
-2136 -2138 2170 0
2136 -2170 0
2138 -2170 0
-2140 -2142 2172 0
2140 -2172 0
2142 -2172 0
-2144 -2146 2174 0
2144 -2174 0
2146 -2174 0
-2148 -2150 2176 0
2148 -2176 0
2150 -2176 0
-2106 -2152 2178 0
2152 -2178 0
2106 -2178 0
-2154 -2155 2180 0
2154 -2180 0
2155 -2180 0
-2157 -2159 2182 0
2157 -2182 0
2159 -2182 0
-2161 -2163 2184 0
2161 -2184 0
2163 -2184 0
-2165 -2167 2186 0
2165 -2186 0
2167 -2186 0
-2169 -2171 2188 0
2169 -2188 0
2171 -2188 0
-2173 -2175 2190 0
2173 -2190 0
2175 -2190 0
-2177 -2179 2192 0
2177 -2192 0
2179 -2192 0
-2181 -2183 2194 0
2181 -2194 0
2183 -2194 0
-2185 -2187 2196 0
2185 -2196 0
2187 -2196 0
-2189 -2191 2198 0
2189 -2198 0
2191 -2198 0
-2193 -2195 2199 0
2193 -2199 0
2195 -2199 0
-2109 -2111 2285 0
2109 -2285 0
2111 -2285 0
-2113 -2115 2201 0
2113 -2201 0
2115 -2201 0
-2117 -2119 2203 0
2117 -2203 0
2119 -2203 0
-2121 -2123 2205 0
2121 -2205 0
2123 -2205 0
-2125 -2127 2207 0
2125 -2207 0
2127 -2207 0
-2131 -2133 2288 0
2131 -2288 0
2133 -2288 0
-2135 -2137 2211 0
2135 -2211 0
2137 -2211 0
-2139 -2141 2213 0
2139 -2213 0
2141 -2213 0
-2143 -2145 2215 0
2143 -2215 0
2145 -2215 0
-2147 -2149 2217 0
2147 -2217 0
2149 -2217 0
-2151 -2153 2293 0
2151 -2293 0
2153 -2293 0
-2156 -2158 2219 0
2156 -2219 0
2158 -2219 0
-2160 -2162 2221 0
2160 -2221 0
2162 -2221 0
-2164 -2166 2223 0
2164 -2223 0
2166 -2223 0
-2168 -2170 2225 0
2168 -2225 0
2170 -2225 0
-2172 -2174 2227 0
2172 -2227 0
2174 -2227 0
-2176 -2178 2229 0
2176 -2229 0
2178 -2229 0
-2180 -2182 2231 0
2180 -2231 0
2182 -2231 0
-2184 -2186 2233 0
2184 -2233 0
2186 -2233 0
-2188 -2190 2235 0
2188 -2235 0
2190 -2235 0
-2192 -2194 2237 0
2192 -2237 0
2194 -2237 0
-2196 -2198 2239 0
2196 -2239 0
2198 -2239 0
-2197 -2199 2241 0
2199 -2241 0
2197 -2241 0
-2200 -2202 2304 0
2200 -2304 0
2202 -2304 0
-2204 -2206 2245 0
2204 -2245 0
2206 -2245 0
-2208 -2209 2247 0
2208 -2247 0
2209 -2247 0
-2210 -2212 2249 0
2210 -2249 0
2212 -2249 0
-2214 -2216 2251 0
2214 -2251 0
2216 -2251 0
-2218 -2220 2309 0
2218 -2309 0
2220 -2309 0
-2222 -2224 2255 0
2222 -2255 0
2224 -2255 0
-2226 -2228 2257 0
2226 -2257 0
2228 -2257 0
-2230 -2232 2259 0
2230 -2259 0
2232 -2259 0
-2234 -2236 2261 0
2234 -2261 0
2236 -2261 0
-2238 -2240 2263 0
2238 -2263 0
2240 -2263 0
-2242 -2243 2265 0
2242 -2265 0
2243 -2265 0
-2244 -2246 2267 0
2244 -2267 0
2246 -2267 0
-2248 -2250 2269 0
2248 -2269 0
2250 -2269 0
-2252 -2253 2271 0
2252 -2271 0
2253 -2271 0
-2254 -2256 2273 0
2254 -2273 0
2256 -2273 0
-2258 -2260 2275 0
2258 -2275 0
2260 -2275 0
-2262 -2264 2277 0
2262 -2277 0
2264 -2277 0
-2266 -2268 2279 0
2266 -2279 0
2268 -2279 0
-2270 -2272 2281 0
2270 -2281 0
2272 -2281 0
-2274 -2276 2283 0
2274 -2283 0
2276 -2283 0
-2278 -2280 2284 0
2278 -2284 0
2280 -2284 0
-2201 -2203 2372 0
2201 -2372 0
2203 -2372 0
-2205 -2207 2373 0
2205 -2373 0
2207 -2373 0
-2211 -2213 2290 0
2211 -2290 0
2213 -2290 0
-2215 -2217 2292 0
2215 -2292 0
2217 -2292 0
-2219 -2221 2375 0
2219 -2375 0
2221 -2375 0
-2223 -2225 2296 0
2223 -2296 0
2225 -2296 0
-2227 -2229 2298 0
2227 -2298 0
2229 -2298 0
-2231 -2233 2300 0
2231 -2300 0
2233 -2300 0
-2235 -2237 2302 0
2235 -2302 0
2237 -2302 0
-2239 -2241 2380 0
2239 -2380 0
2241 -2380 0
-2245 -2247 2306 0
2245 -2306 0
2247 -2306 0
-2249 -2251 2308 0
2249 -2308 0
2251 -2308 0
-2255 -2257 2382 0
2255 -2382 0
2257 -2382 0
-2259 -2261 2312 0
2259 -2312 0
2261 -2312 0
-2263 -2265 2314 0
2263 -2314 0
2265 -2314 0
-2267 -2269 2316 0
2267 -2316 0
2269 -2316 0
-2271 -2273 2318 0
2271 -2318 0
2273 -2318 0
-2275 -2277 2320 0
2275 -2320 0
2277 -2320 0
-2279 -2281 2322 0
2279 -2322 0
2281 -2322 0
-2283 -2284 2324 0
2283 -2324 0
2284 -2324 0
-2282 -2285 2326 0
2282 -2326 0
2285 -2326 0
-2286 -2287 2328 0
2286 -2328 0
2287 -2328 0
-2288 -2289 2330 0
2288 -2330 0
2289 -2330 0
-2291 -2293 2332 0
2291 -2332 0
2293 -2332 0
-2294 -2295 2334 0
2294 -2334 0
2295 -2334 0
-2297 -2299 2336 0
2297 -2336 0
2299 -2336 0
-2301 -2303 2338 0
2301 -2338 0
2303 -2338 0
-2304 -2305 2340 0
2304 -2340 0
2305 -2340 0
-2307 -2309 2342 0
2307 -2342 0
2309 -2342 0
-2310 -2311 2344 0
2310 -2344 0
2311 -2344 0
-2313 -2315 2346 0
2313 -2346 0
2315 -2346 0
-2317 -2319 2348 0
2317 -2348 0
2319 -2348 0
-2321 -2323 2350 0
2321 -2350 0
2323 -2350 0
-2325 -2327 2352 0
2325 -2352 0
2327 -2352 0
-2329 -2331 2354 0
2329 -2354 0
2331 -2354 0
-2333 -2335 2356 0
2333 -2356 0
2335 -2356 0
-2337 -2339 2358 0
2337 -2358 0
2339 -2358 0
-2341 -2343 2360 0
2341 -2360 0
2343 -2360 0
-2345 -2347 2362 0
2345 -2362 0
2347 -2362 0
-2349 -2351 2364 0
2349 -2364 0
2351 -2364 0
-2353 -2355 2366 0
2353 -2366 0
2355 -2366 0
-2357 -2359 2368 0
2357 -2368 0
2359 -2368 0
-2361 -2363 2370 0
2361 -2370 0
2363 -2370 0
-2365 -2367 2371 0
2365 -2371 0
2367 -2371 0
-2290 -2292 2459 0
2290 -2459 0
2292 -2459 0
-2296 -2298 2377 0
2296 -2377 0
2298 -2377 0
-2300 -2302 2379 0
2300 -2379 0
2302 -2379 0
-2306 -2308 2461 0
2306 -2461 0
2308 -2461 0
-2312 -2314 2462 0
2312 -2462 0
2314 -2462 0
-2316 -2318 2385 0
2316 -2385 0
2318 -2385 0
-2320 -2322 2387 0
2320 -2387 0
2322 -2387 0
-2324 -2326 2389 0
2324 -2389 0
2326 -2389 0
-2328 -2330 2391 0
2328 -2391 0
2330 -2391 0
-2332 -2334 2393 0
2332 -2393 0
2334 -2393 0
-2336 -2338 2395 0
2336 -2395 0
2338 -2395 0
-2340 -2342 2397 0
2340 -2397 0
2342 -2397 0
-2344 -2346 2399 0
2344 -2399 0
2346 -2399 0
-2348 -2350 2401 0
2348 -2401 0
2350 -2401 0
-2352 -2354 2403 0
2352 -2403 0
2354 -2403 0
-2356 -2358 2405 0
2356 -2405 0
2358 -2405 0
-2360 -2362 2407 0
2360 -2407 0
2362 -2407 0
-2364 -2366 2409 0
2364 -2409 0
2366 -2409 0
-2368 -2370 2411 0
2368 -2411 0
2370 -2411 0
-2369 -2371 2413 0
2371 -2413 0
2369 -2413 0
-2372 -2373 2415 0
2372 -2415 0
2373 -2415 0
-2374 -2375 2417 0
2374 -2417 0
2375 -2417 0
-2376 -2378 2419 0
2376 -2419 0
2378 -2419 0
-2380 -2381 2421 0
2380 -2421 0
2381 -2421 0
-2382 -2383 2423 0
2382 -2423 0
2383 -2423 0
-2384 -2386 2425 0
2384 -2425 0
2386 -2425 0
-2388 -2390 2427 0
2388 -2427 0
2390 -2427 0
-2392 -2394 2429 0
2392 -2429 0
2394 -2429 0
-2396 -2398 2431 0
2396 -2431 0
2398 -2431 0
-2400 -2402 2433 0
2400 -2433 0
2402 -2433 0
-2404 -2406 2435 0
2404 -2435 0
2406 -2435 0
-2408 -2410 2437 0
2408 -2437 0
2410 -2437 0
-2412 -2414 2439 0
2412 -2439 0
2414 -2439 0
-2416 -2418 2441 0
2416 -2441 0
2418 -2441 0
-2420 -2422 2443 0
2420 -2443 0
2422 -2443 0
-2424 -2426 2445 0
2424 -2445 0
2426 -2445 0
-2428 -2430 2447 0
2428 -2447 0
2430 -2447 0
-2432 -2434 2449 0
2432 -2449 0
2434 -2449 0
-2436 -2438 2451 0
2436 -2451 0
2438 -2451 0
-2440 -2442 2453 0
2440 -2453 0
2442 -2453 0
-2444 -2446 2455 0
2444 -2455 0
2446 -2455 0
-2448 -2450 2457 0
2448 -2457 0
2450 -2457 0
-2452 -2454 2458 0
2452 -2458 0
2454 -2458 0
-2377 -2379 2542 0
2377 -2542 0
2379 -2542 0
-2385 -2387 2543 0
2385 -2543 0
2387 -2543 0
-2389 -2391 2465 0
2389 -2465 0
2391 -2465 0
-2393 -2395 2467 0
2393 -2467 0
2395 -2467 0
-2397 -2399 2469 0
2397 -2469 0
2399 -2469 0
-2401 -2403 2471 0
2401 -2471 0
2403 -2471 0
-2405 -2407 2473 0
2405 -2473 0
2407 -2473 0
-2409 -2411 2475 0
2409 -2475 0
2411 -2475 0
-2413 -2415 2477 0
2413 -2477 0
2415 -2477 0
-2417 -2419 2479 0
2417 -2479 0
2419 -2479 0
-2421 -2423 2481 0
2421 -2481 0
2423 -2481 0
-2425 -2427 2483 0
2425 -2483 0
2427 -2483 0
-2429 -2431 2485 0
2429 -2485 0
2431 -2485 0
-2433 -2435 2487 0
2433 -2487 0
2435 -2487 0
-2437 -2439 2489 0
2437 -2489 0
2439 -2489 0
-2441 -2443 2491 0
2441 -2491 0
2443 -2491 0
-2445 -2447 2493 0
2445 -2493 0
2447 -2493 0
-2449 -2451 2495 0
2449 -2495 0
2451 -2495 0
-2453 -2455 2497 0
2453 -2497 0
2455 -2497 0
-2457 -2458 2499 0
2457 -2499 0
2458 -2499 0
-2459 -2460 2561 0
2459 -2561 0
2460 -2561 0
-2461 -2462 2502 0
2461 -2502 0
2462 -2502 0
-2463 -2464 2504 0
2463 -2504 0
2464 -2504 0
-2466 -2468 2506 0
2466 -2506 0
2468 -2506 0
-2470 -2472 2508 0
2470 -2508 0
2472 -2508 0
-2474 -2476 2510 0
2474 -2510 0
2476 -2510 0
-2478 -2480 2512 0
2478 -2512 0
2480 -2512 0
-2482 -2484 2514 0
2482 -2514 0
2484 -2514 0
-2486 -2488 2516 0
2486 -2516 0
2488 -2516 0
-2490 -2492 2518 0
2490 -2518 0
2492 -2518 0
-2494 -2496 2520 0
2494 -2520 0
2496 -2520 0
-2456 -2498 2522 0
2498 -2522 0
2456 -2522 0
-2500 -2501 2524 0
2500 -2524 0
2501 -2524 0
-2503 -2505 2526 0
2503 -2526 0
2505 -2526 0
-2507 -2509 2528 0
2507 -2528 0
2509 -2528 0
-2511 -2513 2530 0
2511 -2530 0
2513 -2530 0
-2515 -2517 2532 0
2515 -2532 0
2517 -2532 0
-2519 -2521 2534 0
2519 -2534 0
2521 -2534 0
-2523 -2525 2536 0
2523 -2536 0
2525 -2536 0
-2527 -2529 2538 0
2527 -2538 0
2529 -2538 0
-2531 -2533 2540 0
2531 -2540 0
2533 -2540 0
-2535 -2537 2541 0
2535 -2541 0
2537 -2541 0
-2465 -2467 2623 0
2465 -2623 0
2467 -2623 0
-2469 -2471 2546 0
2469 -2546 0
2471 -2546 0
-2473 -2475 2548 0
2473 -2548 0
2475 -2548 0
-2477 -2479 2550 0
2477 -2550 0
2479 -2550 0
-2481 -2483 2552 0
2481 -2552 0
2483 -2552 0
-2485 -2487 2554 0
2485 -2554 0
2487 -2554 0
-2489 -2491 2556 0
2489 -2556 0
2491 -2556 0
-2493 -2495 2558 0
2493 -2558 0
2495 -2558 0
-2497 -2499 2560 0
2497 -2560 0
2499 -2560 0
-2502 -2504 2632 0
2502 -2632 0
2504 -2632 0
-2506 -2508 2564 0
2506 -2564 0
2508 -2564 0
-2510 -2512 2566 0
2510 -2566 0
2512 -2566 0
-2514 -2516 2568 0
2514 -2568 0
2516 -2568 0
-2518 -2520 2570 0
2518 -2570 0
2520 -2570 0
-2522 -2524 2572 0
2522 -2572 0
2524 -2572 0
-2526 -2528 2574 0
2526 -2574 0
2528 -2574 0
-2530 -2532 2576 0
2530 -2576 0
2532 -2576 0
-2534 -2536 2578 0
2534 -2578 0
2536 -2578 0
-2538 -2540 2580 0
2538 -2580 0
2540 -2580 0
-2539 -2541 2582 0
2541 -2582 0
2539 -2582 0
-2543 -2544 2642 0
2543 -2642 0
2544 -2642 0
-2545 -2547 2585 0
2545 -2585 0
2547 -2585 0
-2549 -2551 2587 0
2549 -2587 0
2551 -2587 0
-2553 -2555 2589 0
2553 -2589 0
2555 -2589 0
-2557 -2559 2591 0
2557 -2591 0
2559 -2591 0
-2561 -2562 2593 0
2561 -2593 0
2562 -2593 0
-2563 -2565 2595 0
2563 -2595 0
2565 -2595 0
-2567 -2569 2597 0
2567 -2597 0
2569 -2597 0
-2571 -2573 2599 0
2571 -2599 0
2573 -2599 0
-2575 -2577 2601 0
2575 -2601 0
2577 -2601 0
-2579 -2581 2603 0
2579 -2603 0
2581 -2603 0
-2542 -2583 2605 0
2542 -2605 0
2583 -2605 0
-2584 -2586 2607 0
2584 -2607 0
2586 -2607 0
-2588 -2590 2609 0
2588 -2609 0
2590 -2609 0
-2592 -2594 2611 0
2592 -2611 0
2594 -2611 0
-2596 -2598 2613 0
2596 -2613 0
2598 -2613 0
-2600 -2602 2615 0
2600 -2615 0
2602 -2615 0
-2604 -2606 2617 0
2604 -2617 0
2606 -2617 0
-2608 -2610 2619 0
2608 -2619 0
2610 -2619 0
-2612 -2614 2621 0
2612 -2621 0
2614 -2621 0
-2616 -2618 2622 0
2616 -2622 0
2618 -2622 0
-2546 -2548 2625 0
2546 -2625 0
2548 -2625 0
-2550 -2552 2627 0
2550 -2627 0
2552 -2627 0
-2554 -2556 2629 0
2554 -2629 0
2556 -2629 0
-2558 -2560 2631 0
2558 -2631 0
2560 -2631 0
-2564 -2566 2703 0
2564 -2703 0
2566 -2703 0
-2568 -2570 2635 0
2568 -2635 0
2570 -2635 0
-2572 -2574 2637 0
2572 -2637 0
2574 -2637 0
-2576 -2578 2639 0
2576 -2639 0
2578 -2639 0
-2580 -2582 2641 0
2580 -2641 0
2582 -2641 0
-2585 -2587 2708 0
2585 -2708 0
2587 -2708 0
-2589 -2591 2645 0
2589 -2645 0
2591 -2645 0
-2593 -2595 2647 0
2593 -2647 0
2595 -2647 0
-2597 -2599 2649 0
2597 -2649 0
2599 -2649 0
-2601 -2603 2651 0
2601 -2651 0
2603 -2651 0
-2605 -2607 2653 0
2605 -2653 0
2607 -2653 0
-2609 -2611 2655 0
2609 -2655 0
2611 -2655 0
-2613 -2615 2657 0
2613 -2657 0
2615 -2657 0
-2617 -2619 2659 0
2617 -2659 0
2619 -2659 0
-2621 -2622 2715 0
2621 -2715 0
2622 -2715 0
-2623 -2624 2662 0
2623 -2662 0
2624 -2662 0
-2626 -2628 2664 0
2626 -2664 0
2628 -2664 0
-2630 -2632 2666 0
2630 -2666 0
2632 -2666 0
-2633 -2634 2668 0
2633 -2668 0
2634 -2668 0
-2636 -2638 2670 0
2636 -2670 0
2638 -2670 0
-2640 -2642 2672 0
2640 -2672 0
2642 -2672 0
-2643 -2644 2674 0
2643 -2674 0
2644 -2674 0
-2646 -2648 2676 0
2646 -2676 0
2648 -2676 0
-2650 -2652 2678 0
2650 -2678 0
2652 -2678 0
-2654 -2656 2680 0
2654 -2680 0
2656 -2680 0
-2658 -2660 2682 0
2658 -2682 0
2660 -2682 0
-2620 -2661 2684 0
2620 -2684 0
2661 -2684 0
-2663 -2665 2686 0
2663 -2686 0
2665 -2686 0
-2667 -2669 2688 0
2667 -2688 0
2669 -2688 0
-2671 -2673 2690 0
2671 -2690 0
2673 -2690 0
-2675 -2677 2692 0
2675 -2692 0
2677 -2692 0
-2679 -2681 2694 0
2679 -2694 0
2681 -2694 0
-2683 -2685 2696 0
2683 -2696 0
2685 -2696 0
-2687 -2689 2698 0
2687 -2698 0
2689 -2698 0
-2691 -2693 2700 0
2691 -2700 0
2693 -2700 0
-2695 -2697 2701 0
2695 -2701 0
2697 -2701 0
-2625 -2627 2777 0
2625 -2777 0
2627 -2777 0
-2629 -2631 2778 0
2629 -2778 0
2631 -2778 0
-2635 -2637 2705 0
2635 -2705 0
2637 -2705 0
-2639 -2641 2707 0
2639 -2707 0
2641 -2707 0
-2645 -2647 2780 0
2645 -2780 0
2647 -2780 0
-2649 -2651 2711 0
2649 -2711 0
2651 -2711 0
-2653 -2655 2713 0
2653 -2713 0
2655 -2713 0
-2657 -2659 2782 0
2657 -2782 0
2659 -2782 0
-2662 -2664 2717 0
2662 -2717 0
2664 -2717 0
-2666 -2668 2719 0
2666 -2719 0
2668 -2719 0
-2670 -2672 2721 0
2670 -2721 0
2672 -2721 0
-2674 -2676 2723 0
2674 -2723 0
2676 -2723 0
-2678 -2680 2725 0
2678 -2725 0
2680 -2725 0
-2682 -2684 2727 0
2682 -2727 0
2684 -2727 0
-2686 -2688 2729 0
2686 -2729 0
2688 -2729 0
-2690 -2692 2731 0
2690 -2731 0
2692 -2731 0
-2694 -2696 2733 0
2694 -2733 0
2696 -2733 0
-2698 -2700 2735 0
2698 -2735 0
2700 -2735 0
-2699 -2701 2792 0
2701 -2792 0
2699 -2792 0
-2702 -2703 2739 0
2702 -2739 0
2703 -2739 0
-2704 -2706 2741 0
2704 -2741 0
2706 -2741 0
-2708 -2709 2743 0
2708 -2743 0
2709 -2743 0
-2710 -2712 2745 0
2710 -2745 0
2712 -2745 0
-2714 -2715 2747 0
2714 -2747 0
2715 -2747 0
-2716 -2718 2749 0
2716 -2749 0
2718 -2749 0
-2720 -2722 2751 0
2720 -2751 0
2722 -2751 0
-2724 -2726 2753 0
2724 -2753 0
2726 -2753 0
-2728 -2730 2755 0
2728 -2755 0
2730 -2755 0
-2732 -2734 2757 0
2732 -2757 0
2734 -2757 0
-2736 -2737 2759 0
2736 -2759 0
2737 -2759 0
-2738 -2740 2761 0
2738 -2761 0
2740 -2761 0
-2742 -2744 2763 0
2742 -2763 0
2744 -2763 0
-2746 -2748 2765 0
2746 -2765 0
2748 -2765 0
-2750 -2752 2767 0
2750 -2767 0
2752 -2767 0
-2754 -2756 2769 0
2754 -2769 0
2756 -2769 0
-2758 -2760 2771 0
2758 -2771 0
2760 -2771 0
-2762 -2764 2773 0
2762 -2773 0
2764 -2773 0
-2766 -2768 2775 0
2766 -2775 0
2768 -2775 0
-2770 -2772 2776 0
2770 -2776 0
2772 -2776 0
-2705 -2707 2854 0
2705 -2854 0
2707 -2854 0
-2711 -2713 2855 0
2711 -2855 0
2713 -2855 0
-2717 -2719 2784 0
2717 -2784 0
2719 -2784 0
-2721 -2723 2786 0
2721 -2786 0
2723 -2786 0
-2725 -2727 2788 0
2725 -2788 0
2727 -2788 0
-2729 -2731 2790 0
2729 -2790 0
2731 -2790 0
-2733 -2735 2858 0
2733 -2858 0
2735 -2858 0
-2739 -2741 2794 0
2739 -2794 0
2741 -2794 0
-2743 -2745 2796 0
2743 -2796 0
2745 -2796 0
-2747 -2749 2798 0
2747 -2798 0
2749 -2798 0
-2751 -2753 2800 0
2751 -2800 0
2753 -2800 0
-2755 -2757 2802 0
2755 -2802 0
2757 -2802 0
-2759 -2761 2804 0
2759 -2804 0
2761 -2804 0
-2763 -2765 2806 0
2763 -2806 0
2765 -2806 0
-2767 -2769 2808 0
2767 -2808 0
2769 -2808 0
-2771 -2773 2810 0
2771 -2810 0
2773 -2810 0
-2775 -2776 2812 0
2775 -2812 0
2776 -2812 0
-2774 -2777 2814 0
2774 -2814 0
2777 -2814 0
-2778 -2779 2816 0
2778 -2816 0
2779 -2816 0
-2780 -2781 2818 0
2780 -2818 0
2781 -2818 0
-2782 -2783 2820 0
2782 -2820 0
2783 -2820 0
-2785 -2787 2822 0
2785 -2822 0
2787 -2822 0
-2789 -2791 2824 0
2789 -2824 0
2791 -2824 0
-2792 -2793 2826 0
2792 -2826 0
2793 -2826 0
-2795 -2797 2828 0
2795 -2828 0
2797 -2828 0
-2799 -2801 2830 0
2799 -2830 0
2801 -2830 0
-2803 -2805 2832 0
2803 -2832 0
2805 -2832 0
-2807 -2809 2834 0
2807 -2834 0
2809 -2834 0
-2811 -2813 2836 0
2811 -2836 0
2813 -2836 0
-2815 -2817 2838 0
2815 -2838 0
2817 -2838 0
-2819 -2821 2840 0
2819 -2840 0
2821 -2840 0
-2823 -2825 2842 0
2823 -2842 0
2825 -2842 0
-2827 -2829 2844 0
2827 -2844 0
2829 -2844 0
-2831 -2833 2846 0
2831 -2846 0
2833 -2846 0
-2835 -2837 2848 0
2835 -2848 0
2837 -2848 0
-2839 -2841 2850 0
2839 -2850 0
2841 -2850 0
-2843 -2845 2852 0
2843 -2852 0
2845 -2852 0
-2847 -2849 2853 0
2847 -2853 0
2849 -2853 0
-2784 -2786 2927 0
2784 -2927 0
2786 -2927 0
-2788 -2790 2928 0
2788 -2928 0
2790 -2928 0
-2794 -2796 2860 0
2794 -2860 0
2796 -2860 0
-2798 -2800 2862 0
2798 -2862 0
2800 -2862 0
-2802 -2804 2864 0
2802 -2864 0
2804 -2864 0
-2806 -2808 2866 0
2806 -2866 0
2808 -2866 0
-2810 -2812 2868 0
2810 -2868 0
2812 -2868 0
-2814 -2816 2870 0
2814 -2870 0
2816 -2870 0
-2818 -2820 2872 0
2818 -2872 0
2820 -2872 0
-2822 -2824 2874 0
2822 -2874 0
2824 -2874 0
-2826 -2828 2876 0
2826 -2876 0
2828 -2876 0
-2830 -2832 2878 0
2830 -2878 0
2832 -2878 0
-2834 -2836 2880 0
2834 -2880 0
2836 -2880 0
-2838 -2840 2882 0
2838 -2882 0
2840 -2882 0
-2842 -2844 2884 0
2842 -2884 0
2844 -2884 0
-2846 -2848 2886 0
2846 -2886 0
2848 -2886 0
-2850 -2852 2888 0
2850 -2888 0
2852 -2888 0
-2851 -2853 2890 0
2853 -2890 0
2851 -2890 0
-2855 -2856 2943 0
2855 -2943 0
2856 -2943 0
-2857 -2858 2893 0
2857 -2893 0
2858 -2893 0
-2859 -2861 2895 0
2859 -2895 0
2861 -2895 0
-2863 -2865 2897 0
2863 -2897 0
2865 -2897 0
-2867 -2869 2899 0
2867 -2899 0
2869 -2899 0
-2871 -2873 2901 0
2871 -2901 0
2873 -2901 0
-2875 -2877 2903 0
2875 -2903 0
2877 -2903 0
-2879 -2881 2905 0
2879 -2905 0
2881 -2905 0
-2883 -2885 2907 0
2883 -2907 0
2885 -2907 0
-2887 -2889 2909 0
2887 -2909 0
2889 -2909 0
-2854 -2891 2911 0
2854 -2911 0
2891 -2911 0
-2892 -2894 2913 0
2892 -2913 0
2894 -2913 0
-2896 -2898 2915 0
2896 -2915 0
2898 -2915 0
-2900 -2902 2917 0
2900 -2917 0
2902 -2917 0
-2904 -2906 2919 0
2904 -2919 0
2906 -2919 0
-2908 -2910 2921 0
2908 -2921 0
2910 -2921 0
-2912 -2914 2923 0
2912 -2923 0
2914 -2923 0
-2916 -2918 2925 0
2916 -2925 0
2918 -2925 0
-2920 -2922 2926 0
2920 -2926 0
2922 -2926 0
-2860 -2862 3031 0
2860 -3031 0
2862 -3031 0
-2864 -2866 2931 0
2864 -2931 0
2866 -2931 0
-2868 -2870 2933 0
2868 -2933 0
2870 -2933 0
-2872 -2874 2935 0
2872 -2935 0
2874 -2935 0
-2876 -2878 2937 0
2876 -2937 0
2878 -2937 0
-2880 -2882 2939 0
2880 -2939 0
2882 -2939 0
-2884 -2886 2941 0
2884 -2941 0
2886 -2941 0
-2888 -2890 3003 0
2888 -3003 0
2890 -3003 0
-2893 -2895 2945 0
2893 -2945 0
2895 -2945 0
-2897 -2899 2947 0
2897 -2947 0
2899 -2947 0
-2901 -2903 2949 0
2901 -2949 0
2903 -2949 0
-2905 -2907 2951 0
2905 -2951 0
2907 -2951 0
-2909 -2911 2953 0
2909 -2953 0
2911 -2953 0
-2913 -2915 2955 0
2913 -2955 0
2915 -2955 0
-2917 -2919 2957 0
2917 -2957 0
2919 -2957 0
-2921 -2923 2959 0
2921 -2959 0
2923 -2959 0
-2925 -2926 3012 0
2925 -3012 0
2926 -3012 0
-2927 -2928 2962 0
2927 -2962 0
2928 -2962 0
-2929 -2930 2964 0
2929 -2964 0
2930 -2964 0
-2932 -2934 2966 0
2932 -2966 0
2934 -2966 0
-2936 -2938 2968 0
2936 -2968 0
2938 -2968 0
-2940 -2942 2970 0
2940 -2970 0
2942 -2970 0
-2943 -2944 2972 0
2943 -2972 0
2944 -2972 0
-2946 -2948 2974 0
2946 -2974 0
2948 -2974 0
-2950 -2952 2976 0
2950 -2976 0
2952 -2976 0
-2954 -2956 2978 0
2954 -2978 0
2956 -2978 0
-2958 -2960 2980 0
2958 -2980 0
2960 -2980 0
-2924 -2961 2982 0
2924 -2982 0
2961 -2982 0
-2963 -2965 2984 0
2963 -2984 0
2965 -2984 0
-2967 -2969 2986 0
2967 -2986 0
2969 -2986 0
-2971 -2973 2988 0
2971 -2988 0
2973 -2988 0
-2975 -2977 2990 0
2975 -2990 0
2977 -2990 0
-2979 -2981 2992 0
2979 -2992 0
2981 -2992 0
-2983 -2985 2994 0
2983 -2994 0
2985 -2994 0
-2987 -2989 2996 0
2987 -2996 0
2989 -2996 0
-2991 -2993 2997 0
2991 -2997 0
2993 -2997 0
-2931 -2933 2999 0
2931 -2999 0
2933 -2999 0
-2935 -2937 3001 0
2935 -3001 0
2937 -3001 0
-2939 -2941 3068 0
2939 -3068 0
2941 -3068 0
-2945 -2947 3005 0
2945 -3005 0
2947 -3005 0
-2949 -2951 3007 0
2949 -3007 0
2951 -3007 0
-2953 -2955 3009 0
2953 -3009 0
2955 -3009 0
-2957 -2959 3011 0
2957 -3011 0
2959 -3011 0
-2962 -2964 3071 0
2962 -3071 0
2964 -3071 0
-2966 -2968 3015 0
2966 -3015 0
2968 -3015 0
-2970 -2972 3017 0
2970 -3017 0
2972 -3017 0
-2974 -2976 3019 0
2974 -3019 0
2976 -3019 0
-2978 -2980 3021 0
2978 -3021 0
2980 -3021 0
-2982 -2984 3023 0
2982 -3023 0
2984 -3023 0
-2986 -2988 3025 0
2986 -3025 0
2988 -3025 0
-2990 -2992 3027 0
2990 -3027 0
2992 -3027 0
-2994 -2996 3029 0
2994 -3029 0
2996 -3029 0
-2995 -2997 3080 0
2997 -3080 0
2995 -3080 0
-2998 -3000 3033 0
2998 -3033 0
3000 -3033 0
-3002 -3003 3035 0
3002 -3035 0
3003 -3035 0
-3004 -3006 3037 0
3004 -3037 0
3006 -3037 0
-3008 -3010 3039 0
3008 -3039 0
3010 -3039 0
-3012 -3013 3041 0
3012 -3041 0
3013 -3041 0
-3014 -3016 3043 0
3014 -3043 0
3016 -3043 0
-3018 -3020 3045 0
3018 -3045 0
3020 -3045 0
-3022 -3024 3047 0
3022 -3047 0
3024 -3047 0
-3026 -3028 3049 0
3026 -3049 0
3028 -3049 0
-3030 -3031 3051 0
3030 -3051 0
3031 -3051 0
-3032 -3034 3053 0
3032 -3053 0
3034 -3053 0
-3036 -3038 3055 0
3036 -3055 0
3038 -3055 0
-3040 -3042 3057 0
3040 -3057 0
3042 -3057 0
-3044 -3046 3059 0
3044 -3059 0
3046 -3059 0
-3048 -3050 3061 0
3048 -3061 0
3050 -3061 0
-3052 -3054 3063 0
3052 -3063 0
3054 -3063 0
-3056 -3058 3065 0
3056 -3065 0
3058 -3065 0
-3060 -3062 3066 0
3060 -3066 0
3062 -3066 0
-2999 -3001 3132 0
2999 -3132 0
3001 -3132 0
-3005 -3007 3133 0
3005 -3133 0
3007 -3133 0
-3009 -3011 3134 0
3009 -3134 0
3011 -3134 0
-3015 -3017 3073 0
3015 -3073 0
3017 -3073 0
-3019 -3021 3075 0
3019 -3075 0
3021 -3075 0
-3023 -3025 3077 0
3023 -3077 0
3025 -3077 0
-3027 -3029 3079 0
3027 -3079 0
3029 -3079 0
-3033 -3035 3137 0
3033 -3137 0
3035 -3137 0
-3037 -3039 3083 0
3037 -3083 0
3039 -3083 0
-3041 -3043 3085 0
3041 -3085 0
3043 -3085 0
-3045 -3047 3087 0
3045 -3087 0
3047 -3087 0
-3049 -3051 3089 0
3049 -3089 0
3051 -3089 0
-3053 -3055 3091 0
3053 -3091 0
3055 -3091 0
-3057 -3059 3093 0
3057 -3093 0
3059 -3093 0
-3061 -3063 3095 0
3061 -3095 0
3063 -3095 0
-3065 -3066 3097 0
3065 -3097 0
3066 -3097 0
-3067 -3068 3146 0
3067 -3146 0
3068 -3146 0
-3069 -3070 3100 0
3069 -3100 0
3070 -3100 0
-3071 -3072 3102 0
3071 -3102 0
3072 -3102 0
-3074 -3076 3104 0
3074 -3104 0
3076 -3104 0
-3078 -3080 3106 0
3078 -3106 0
3080 -3106 0
-3081 -3082 3108 0
3081 -3108 0
3082 -3108 0
-3084 -3086 3110 0
3084 -3110 0
3086 -3110 0
-3088 -3090 3112 0
3088 -3112 0
3090 -3112 0
-3092 -3094 3114 0
3092 -3114 0
3094 -3114 0
-3064 -3096 3116 0
3096 -3116 0
3064 -3116 0
-3098 -3099 3118 0
3098 -3118 0
3099 -3118 0
-3101 -3103 3120 0
3101 -3120 0
3103 -3120 0
-3105 -3107 3122 0
3105 -3122 0
3107 -3122 0
-3109 -3111 3124 0
3109 -3124 0
3111 -3124 0
-3113 -3115 3126 0
3113 -3126 0
3115 -3126 0
-3117 -3119 3128 0
3117 -3128 0
3119 -3128 0
-3121 -3123 3130 0
3121 -3130 0
3123 -3130 0
-3125 -3127 3131 0
3125 -3131 0
3127 -3131 0
-3073 -3075 3199 0
3073 -3199 0
3075 -3199 0
-3077 -3079 3200 0
3077 -3200 0
3079 -3200 0
-3083 -3085 3139 0
3083 -3139 0
3085 -3139 0
-3087 -3089 3141 0
3087 -3141 0
3089 -3141 0
-3091 -3093 3143 0
3091 -3143 0
3093 -3143 0
-3095 -3097 3145 0
3095 -3145 0
3097 -3145 0
-3100 -3102 3203 0
3100 -3203 0
3102 -3203 0
-3104 -3106 3149 0
3104 -3149 0
3106 -3149 0
-3108 -3110 3151 0
3108 -3151 0
3110 -3151 0
-3112 -3114 3153 0
3112 -3153 0
3114 -3153 0
-3116 -3118 3155 0
3116 -3155 0
3118 -3155 0
-3120 -3122 3157 0
3120 -3157 0
3122 -3157 0
-3124 -3126 3159 0
3124 -3159 0
3126 -3159 0
-3128 -3130 3161 0
3128 -3161 0
3130 -3161 0
-3129 -3131 3163 0
3131 -3163 0
3129 -3163 0
-3132 -3133 3165 0
3132 -3165 0
3133 -3165 0
-3134 -3135 3167 0
3134 -3167 0
3135 -3167 0
-3136 -3137 3169 0
3136 -3169 0
3137 -3169 0
-3138 -3140 3171 0
3138 -3171 0
3140 -3171 0
-3142 -3144 3173 0
3142 -3173 0
3144 -3173 0
-3146 -3147 3175 0
3146 -3175 0
3147 -3175 0
-3148 -3150 3177 0
3148 -3177 0
3150 -3177 0
-3152 -3154 3179 0
3152 -3179 0
3154 -3179 0
-3156 -3158 3181 0
3156 -3181 0
3158 -3181 0
-3160 -3162 3183 0
3160 -3183 0
3162 -3183 0
-3164 -3166 3185 0
3164 -3185 0
3166 -3185 0
-3168 -3170 3187 0
3168 -3187 0
3170 -3187 0
-3172 -3174 3189 0
3172 -3189 0
3174 -3189 0
-3176 -3178 3191 0
3176 -3191 0
3178 -3191 0
-3180 -3182 3193 0
3180 -3193 0
3182 -3193 0
-3184 -3186 3195 0
3184 -3195 0
3186 -3195 0
-3188 -3190 3197 0
3188 -3197 0
3190 -3197 0
-3192 -3194 3198 0
3192 -3198 0
3194 -3198 0
-3139 -3141 3262 0
3139 -3262 0
3141 -3262 0
-3143 -3145 3263 0
3143 -3263 0
3145 -3263 0
-3149 -3151 3205 0
3149 -3205 0
3151 -3205 0
-3153 -3155 3207 0
3153 -3207 0
3155 -3207 0
-3157 -3159 3209 0
3157 -3209 0
3159 -3209 0
-3161 -3163 3211 0
3161 -3211 0
3163 -3211 0
-3165 -3167 3213 0
3165 -3213 0
3167 -3213 0
-3169 -3171 3215 0
3169 -3215 0
3171 -3215 0
-3173 -3175 3217 0
3173 -3217 0
3175 -3217 0
-3177 -3179 3219 0
3177 -3219 0
3179 -3219 0
-3181 -3183 3221 0
3181 -3221 0
3183 -3221 0
-3185 -3187 3223 0
3185 -3223 0
3187 -3223 0
-3189 -3191 3225 0
3189 -3225 0
3191 -3225 0
-3193 -3195 3227 0
3193 -3227 0
3195 -3227 0
-3197 -3198 3274 0
3197 -3274 0
3198 -3274 0
-3199 -3200 3230 0
3199 -3230 0
3200 -3230 0
-3201 -3202 3232 0
3201 -3232 0
3202 -3232 0
-3203 -3204 3234 0
3203 -3234 0
3204 -3234 0
-3206 -3208 3236 0
3206 -3236 0
3208 -3236 0
-3210 -3212 3238 0
3210 -3238 0
3212 -3238 0
-3214 -3216 3240 0
3214 -3240 0
3216 -3240 0
-3218 -3220 3242 0
3218 -3242 0
3220 -3242 0
-3222 -3224 3244 0
3222 -3244 0
3224 -3244 0
-3226 -3228 3246 0
3226 -3246 0
3228 -3246 0
-3196 -3229 3248 0
3196 -3248 0
3229 -3248 0
-3231 -3233 3250 0
3231 -3250 0
3233 -3250 0
-3235 -3237 3252 0
3235 -3252 0
3237 -3252 0
-3239 -3241 3254 0
3239 -3254 0
3241 -3254 0
-3243 -3245 3256 0
3243 -3256 0
3245 -3256 0
-3247 -3249 3258 0
3247 -3258 0
3249 -3258 0
-3251 -3253 3260 0
3251 -3260 0
3253 -3260 0
-3255 -3257 3261 0
3255 -3261 0
3257 -3261 0
-3205 -3207 3323 0
3205 -3323 0
3207 -3323 0
-3209 -3211 3266 0
3209 -3266 0
3211 -3266 0
-3213 -3215 3268 0
3213 -3268 0
3215 -3268 0
-3217 -3219 3270 0
3217 -3270 0
3219 -3270 0
-3221 -3223 3272 0
3221 -3272 0
3223 -3272 0
-3225 -3227 3328 0
3225 -3328 0
3227 -3328 0
-3230 -3232 3276 0
3230 -3276 0
3232 -3276 0
-3234 -3236 3278 0
3234 -3278 0
3236 -3278 0
-3238 -3240 3280 0
3238 -3280 0
3240 -3280 0
-3242 -3244 3282 0
3242 -3282 0
3244 -3282 0
-3246 -3248 3284 0
3246 -3284 0
3248 -3284 0
-3250 -3252 3286 0
3250 -3286 0
3252 -3286 0
-3254 -3256 3288 0
3254 -3288 0
3256 -3288 0
-3258 -3260 3290 0
3258 -3290 0
3260 -3290 0
-3259 -3261 3335 0
3261 -3335 0
3259 -3335 0
-3263 -3264 3293 0
3263 -3293 0
3264 -3293 0
-3265 -3267 3295 0
3265 -3295 0
3267 -3295 0
-3269 -3271 3297 0
3269 -3297 0
3271 -3297 0
-3273 -3274 3299 0
3273 -3299 0
3274 -3299 0
-3275 -3277 3301 0
3275 -3301 0
3277 -3301 0
-3279 -3281 3303 0
3279 -3303 0
3281 -3303 0
-3283 -3285 3305 0
3283 -3305 0
3285 -3305 0
-3287 -3289 3307 0
3287 -3307 0
3289 -3307 0
-3262 -3291 3309 0
3291 -3309 0
3262 -3309 0
-3292 -3294 3311 0
3292 -3311 0
3294 -3311 0
-3296 -3298 3313 0
3296 -3313 0
3298 -3313 0
-3300 -3302 3315 0
3300 -3315 0
3302 -3315 0
-3304 -3306 3317 0
3304 -3317 0
3306 -3317 0
-3308 -3310 3319 0
3308 -3319 0
3310 -3319 0
-3312 -3314 3321 0
3312 -3321 0
3314 -3321 0
-3316 -3318 3322 0
3316 -3322 0
3318 -3322 0
-3266 -3268 3325 0
3266 -3325 0
3268 -3325 0
-3270 -3272 3327 0
3270 -3327 0
3272 -3327 0
-3276 -3278 3382 0
3276 -3382 0
3278 -3382 0
-3280 -3282 3331 0
3280 -3331 0
3282 -3331 0
-3284 -3286 3333 0
3284 -3333 0
3286 -3333 0
-3288 -3290 3384 0
3288 -3384 0
3290 -3384 0
-3293 -3295 3337 0
3293 -3337 0
3295 -3337 0
-3297 -3299 3339 0
3297 -3339 0
3299 -3339 0
-3301 -3303 3341 0
3301 -3341 0
3303 -3341 0
-3305 -3307 3343 0
3305 -3343 0
3307 -3343 0
-3309 -3311 3345 0
3309 -3345 0
3311 -3345 0
-3313 -3315 3347 0
3313 -3347 0
3315 -3347 0
-3317 -3319 3349 0
3317 -3349 0
3319 -3349 0
-3321 -3322 3351 0
3321 -3351 0
3322 -3351 0
-3323 -3324 3391 0
3323 -3391 0
3324 -3391 0
-3326 -3328 3354 0
3326 -3354 0
3328 -3354 0
-3329 -3330 3356 0
3329 -3356 0
3330 -3356 0
-3332 -3334 3358 0
3332 -3358 0
3334 -3358 0
-3335 -3336 3360 0
3335 -3360 0
3336 -3360 0
-3338 -3340 3362 0
3338 -3362 0
3340 -3362 0
-3342 -3344 3364 0
3342 -3364 0
3344 -3364 0
-3346 -3348 3366 0
3346 -3366 0
3348 -3366 0
-3320 -3350 3368 0
3350 -3368 0
3320 -3368 0
-3352 -3353 3370 0
3352 -3370 0
3353 -3370 0
-3355 -3357 3372 0
3355 -3372 0
3357 -3372 0
-3359 -3361 3374 0
3359 -3374 0
3361 -3374 0
-3363 -3365 3376 0
3363 -3376 0
3365 -3376 0
-3367 -3369 3378 0
3367 -3378 0
3369 -3378 0
-3371 -3373 3380 0
3371 -3380 0
3373 -3380 0
-3375 -3377 3381 0
3375 -3381 0
3377 -3381 0
-3325 -3327 3437 0
3325 -3437 0
3327 -3437 0
-3331 -3333 3438 0
3331 -3438 0
3333 -3438 0
-3337 -3339 3439 0
3337 -3439 0
3339 -3439 0
-3341 -3343 3387 0
3341 -3387 0
3343 -3387 0
-3345 -3347 3389 0
3345 -3389 0
3347 -3389 0
-3349 -3351 3441 0
3349 -3441 0
3351 -3441 0
-3354 -3356 3393 0
3354 -3393 0
3356 -3393 0
-3358 -3360 3395 0
3358 -3395 0
3360 -3395 0
-3362 -3364 3397 0
3362 -3397 0
3364 -3397 0
-3366 -3368 3399 0
3366 -3399 0
3368 -3399 0
-3370 -3372 3401 0
3370 -3401 0
3372 -3401 0
-3374 -3376 3403 0
3374 -3403 0
3376 -3403 0
-3378 -3380 3405 0
3378 -3405 0
3380 -3405 0
-3379 -3381 3407 0
3381 -3407 0
3379 -3407 0
-3382 -3383 3448 0
3382 -3448 0
3383 -3448 0
-3384 -3385 3411 0
3384 -3411 0
3385 -3411 0
-3386 -3388 3413 0
3386 -3413 0
3388 -3413 0
-3390 -3391 3415 0
3390 -3415 0
3391 -3415 0
-3392 -3394 3417 0
3392 -3417 0
3394 -3417 0
-3396 -3398 3419 0
3396 -3419 0
3398 -3419 0
-3400 -3402 3421 0
3400 -3421 0
3402 -3421 0
-3404 -3406 3423 0
3404 -3423 0
3406 -3423 0
-3408 -3409 3425 0
3408 -3425 0
3409 -3425 0
-3410 -3412 3427 0
3410 -3427 0
3412 -3427 0
-3414 -3416 3429 0
3414 -3429 0
3416 -3429 0
-3418 -3420 3431 0
3418 -3431 0
3420 -3431 0
-3422 -3424 3433 0
3422 -3433 0
3424 -3433 0
-3426 -3428 3435 0
3426 -3435 0
3428 -3435 0
-3430 -3432 3436 0
3430 -3436 0
3432 -3436 0
-3387 -3389 3494 0
3387 -3494 0
3389 -3494 0
-3393 -3395 3495 0
3393 -3495 0
3395 -3495 0
-3397 -3399 3444 0
3397 -3444 0
3399 -3444 0
-3401 -3403 3446 0
3401 -3446 0
3403 -3446 0
-3405 -3407 3497 0
3405 -3497 0
3407 -3497 0
-3411 -3413 3450 0
3411 -3450 0
3413 -3450 0
-3415 -3417 3452 0
3415 -3452 0
3417 -3452 0
-3419 -3421 3454 0
3419 -3454 0
3421 -3454 0
-3423 -3425 3456 0
3423 -3456 0
3425 -3456 0
-3427 -3429 3458 0
3427 -3458 0
3429 -3458 0
-3431 -3433 3460 0
3431 -3460 0
3433 -3460 0
-3435 -3436 3462 0
3435 -3462 0
3436 -3462 0
-3434 -3437 3464 0
3434 -3464 0
3437 -3464 0
-3438 -3439 3466 0
3438 -3466 0
3439 -3466 0
-3440 -3441 3468 0
3440 -3468 0
3441 -3468 0
-3442 -3443 3470 0
3442 -3470 0
3443 -3470 0
-3445 -3447 3472 0
3445 -3472 0
3447 -3472 0
-3448 -3449 3474 0
3448 -3474 0
3449 -3474 0
-3451 -3453 3476 0
3451 -3476 0
3453 -3476 0
-3455 -3457 3478 0
3455 -3478 0
3457 -3478 0
-3459 -3461 3480 0
3459 -3480 0
3461 -3480 0
-3463 -3465 3482 0
3463 -3482 0
3465 -3482 0
-3467 -3469 3484 0
3467 -3484 0
3469 -3484 0
-3471 -3473 3486 0
3471 -3486 0
3473 -3486 0
-3475 -3477 3488 0
3475 -3488 0
3477 -3488 0
-3479 -3481 3490 0
3479 -3490 0
3481 -3490 0
-3483 -3485 3492 0
3483 -3492 0
3485 -3492 0
-3487 -3489 3493 0
3487 -3493 0
3489 -3493 0
-3444 -3446 3547 0
3444 -3547 0
3446 -3547 0
-3450 -3452 3548 0
3450 -3548 0
3452 -3548 0
-3454 -3456 3500 0
3454 -3500 0
3456 -3500 0
-3458 -3460 3502 0
3458 -3502 0
3460 -3502 0
-3462 -3464 3504 0
3462 -3504 0
3464 -3504 0
-3466 -3468 3506 0
3466 -3506 0
3468 -3506 0
-3470 -3472 3508 0
3470 -3508 0
3472 -3508 0
-3474 -3476 3510 0
3474 -3510 0
3476 -3510 0
-3478 -3480 3512 0
3478 -3512 0
3480 -3512 0
-3482 -3484 3514 0
3482 -3514 0
3484 -3514 0
-3486 -3488 3516 0
3486 -3516 0
3488 -3516 0
-3490 -3492 3518 0
3490 -3518 0
3492 -3518 0
-3491 -3493 3558 0
3493 -3558 0
3491 -3558 0
-3495 -3496 3521 0
3495 -3521 0
3496 -3521 0
-3497 -3498 3523 0
3497 -3523 0
3498 -3523 0
-3499 -3501 3525 0
3499 -3525 0
3501 -3525 0
-3503 -3505 3527 0
3503 -3527 0
3505 -3527 0
-3507 -3509 3529 0
3507 -3529 0
3509 -3529 0
-3511 -3513 3531 0
3511 -3531 0
3513 -3531 0
-3515 -3517 3533 0
3515 -3533 0
3517 -3533 0
-3494 -3519 3535 0
3519 -3535 0
3494 -3535 0
-3520 -3522 3537 0
3520 -3537 0
3522 -3537 0
-3524 -3526 3539 0
3524 -3539 0
3526 -3539 0
-3528 -3530 3541 0
3528 -3541 0
3530 -3541 0
-3532 -3534 3543 0
3532 -3543 0
3534 -3543 0
-3536 -3538 3545 0
3536 -3545 0
3538 -3545 0
-3540 -3542 3546 0
3540 -3546 0
3542 -3546 0
-3500 -3502 3622 0
3500 -3622 0
3502 -3622 0
-3504 -3506 3551 0
3504 -3551 0
3506 -3551 0
-3508 -3510 3553 0
3508 -3553 0
3510 -3553 0
-3512 -3514 3555 0
3512 -3555 0
3514 -3555 0
-3516 -3518 3557 0
3516 -3557 0
3518 -3557 0
-3521 -3523 3602 0
3521 -3602 0
3523 -3602 0
-3525 -3527 3561 0
3525 -3561 0
3527 -3561 0
-3529 -3531 3563 0
3529 -3563 0
3531 -3563 0
-3533 -3535 3565 0
3533 -3565 0
3535 -3565 0
-3537 -3539 3567 0
3537 -3567 0
3539 -3567 0
-3541 -3543 3569 0
3541 -3569 0
3543 -3569 0
-3545 -3546 3571 0
3545 -3571 0
3546 -3571 0
-3547 -3548 3608 0
3547 -3608 0
3548 -3608 0
-3549 -3550 3574 0
3549 -3574 0
3550 -3574 0
-3552 -3554 3576 0
3552 -3576 0
3554 -3576 0
-3556 -3558 3578 0
3556 -3578 0
3558 -3578 0
-3559 -3560 3580 0
3559 -3580 0
3560 -3580 0
-3562 -3564 3582 0
3562 -3582 0
3564 -3582 0
-3566 -3568 3584 0
3566 -3584 0
3568 -3584 0
-3544 -3570 3586 0
3570 -3586 0
3544 -3586 0
-3572 -3573 3588 0
3572 -3588 0
3573 -3588 0
-3575 -3577 3590 0
3575 -3590 0
3577 -3590 0
-3579 -3581 3592 0
3579 -3592 0
3581 -3592 0
-3583 -3585 3594 0
3583 -3594 0
3585 -3594 0
-3587 -3589 3596 0
3587 -3596 0
3589 -3596 0
-3591 -3593 3597 0
3591 -3597 0
3593 -3597 0
-3551 -3553 3599 0
3551 -3599 0
3553 -3599 0
-3555 -3557 3601 0
3555 -3601 0
3557 -3601 0
-3561 -3563 3648 0
3561 -3648 0
3563 -3648 0
-3565 -3567 3605 0
3565 -3605 0
3567 -3605 0
-3569 -3571 3607 0
3569 -3607 0
3571 -3607 0
-3574 -3576 3650 0
3574 -3650 0
3576 -3650 0
-3578 -3580 3611 0
3578 -3611 0
3580 -3611 0
-3582 -3584 3613 0
3582 -3613 0
3584 -3613 0
-3586 -3588 3615 0
3586 -3615 0
3588 -3615 0
-3590 -3592 3617 0
3590 -3617 0
3592 -3617 0
-3594 -3596 3619 0
3594 -3619 0
3596 -3619 0
-3595 -3597 3621 0
3597 -3621 0
3595 -3621 0
-3598 -3600 3656 0
3598 -3656 0
3600 -3656 0
-3602 -3603 3625 0
3602 -3625 0
3603 -3625 0
-3604 -3606 3627 0
3604 -3627 0
3606 -3627 0
-3608 -3609 3629 0
3608 -3629 0
3609 -3629 0
-3610 -3612 3631 0
3610 -3631 0
3612 -3631 0
-3614 -3616 3633 0
3614 -3633 0
3616 -3633 0
-3618 -3620 3635 0
3618 -3635 0
3620 -3635 0
-3622 -3623 3637 0
3622 -3637 0
3623 -3637 0
-3624 -3626 3639 0
3624 -3639 0
3626 -3639 0
-3628 -3630 3641 0
3628 -3641 0
3630 -3641 0
-3632 -3634 3643 0
3632 -3643 0
3634 -3643 0
-3636 -3638 3645 0
3636 -3645 0
3638 -3645 0
-3640 -3642 3646 0
3640 -3646 0
3642 -3646 0
-3599 -3601 3692 0
3599 -3692 0
3601 -3692 0
-3605 -3607 3693 0
3605 -3693 0
3607 -3693 0
-3611 -3613 3694 0
3611 -3694 0
3613 -3694 0
-3615 -3617 3653 0
3615 -3653 0
3617 -3653 0
-3619 -3621 3655 0
3619 -3655 0
3621 -3655 0
-3625 -3627 3696 0
3625 -3696 0
3627 -3696 0
-3629 -3631 3659 0
3629 -3659 0
3631 -3659 0
-3633 -3635 3661 0
3633 -3661 0
3635 -3661 0
-3637 -3639 3663 0
3637 -3663 0
3639 -3663 0
-3641 -3643 3665 0
3641 -3665 0
3643 -3665 0
-3645 -3646 3699 0
3645 -3699 0
3646 -3699 0
-3647 -3648 3668 0
3647 -3668 0
3648 -3668 0
-3649 -3650 3670 0
3649 -3670 0
3650 -3670 0
-3651 -3652 3672 0
3651 -3672 0
3652 -3672 0
-3654 -3656 3674 0
3654 -3674 0
3656 -3674 0
-3657 -3658 3676 0
3657 -3676 0
3658 -3676 0
-3660 -3662 3678 0
3660 -3678 0
3662 -3678 0
-3664 -3666 3680 0
3664 -3680 0
3666 -3680 0
-3644 -3667 3682 0
3644 -3682 0
3667 -3682 0
-3669 -3671 3684 0
3669 -3684 0
3671 -3684 0
-3673 -3675 3686 0
3673 -3686 0
3675 -3686 0
-3677 -3679 3688 0
3677 -3688 0
3679 -3688 0
-3681 -3683 3690 0
3681 -3690 0
3683 -3690 0
-3685 -3687 3691 0
3685 -3691 0
3687 -3691 0
-3653 -3655 3739 0
3653 -3739 0
3655 -3739 0
-3659 -3661 3740 0
3659 -3740 0
3661 -3740 0
-3663 -3665 3741 0
3663 -3741 0
3665 -3741 0
-3668 -3670 3701 0
3668 -3701 0
3670 -3701 0
-3672 -3674 3703 0
3672 -3703 0
3674 -3703 0
-3676 -3678 3705 0
3676 -3705 0
3678 -3705 0
-3680 -3682 3707 0
3680 -3707 0
3682 -3707 0
-3684 -3686 3709 0
3684 -3709 0
3686 -3709 0
-3688 -3690 3711 0
3688 -3711 0
3690 -3711 0
-3689 -3691 3713 0
3691 -3713 0
3689 -3713 0
-3692 -3693 3715 0
3692 -3715 0
3693 -3715 0
-3694 -3695 3717 0
3694 -3717 0
3695 -3717 0
-3696 -3697 3719 0
3696 -3719 0
3697 -3719 0
-3698 -3699 3721 0
3698 -3721 0
3699 -3721 0
-3700 -3702 3723 0
3700 -3723 0
3702 -3723 0
-3704 -3706 3725 0
3704 -3725 0
3706 -3725 0
-3708 -3710 3727 0
3708 -3727 0
3710 -3727 0
-3712 -3714 3729 0
3712 -3729 0
3714 -3729 0
-3716 -3718 3731 0
3716 -3731 0
3718 -3731 0
-3720 -3722 3733 0
3720 -3733 0
3722 -3733 0
-3724 -3726 3735 0
3724 -3735 0
3726 -3735 0
-3728 -3730 3737 0
3728 -3737 0
3730 -3737 0
-3732 -3734 3738 0
3732 -3738 0
3734 -3738 0
-3701 -3703 3743 0
3701 -3743 0
3703 -3743 0
-3705 -3707 3745 0
3705 -3745 0
3707 -3745 0
-3709 -3711 3747 0
3709 -3747 0
3711 -3747 0
-3713 -3715 3749 0
3713 -3749 0
3715 -3749 0
-3717 -3719 3751 0
3717 -3751 0
3719 -3751 0
-3721 -3723 3753 0
3721 -3753 0
3723 -3753 0
-3725 -3727 3755 0
3725 -3755 0
3727 -3755 0
-3729 -3731 3757 0
3729 -3757 0
3731 -3757 0
-3733 -3735 3759 0
3733 -3759 0
3735 -3759 0
-3737 -3738 3761 0
3737 -3761 0
3738 -3761 0
-3739 -3740 3793 0
3739 -3793 0
3740 -3793 0
-3741 -3742 3764 0
3741 -3764 0
3742 -3764 0
-3744 -3746 3766 0
3744 -3766 0
3746 -3766 0
-3748 -3750 3768 0
3748 -3768 0
3750 -3768 0
-3752 -3754 3770 0
3752 -3770 0
3754 -3770 0
-3756 -3758 3772 0
3756 -3772 0
3758 -3772 0
-3736 -3760 3774 0
3760 -3774 0
3736 -3774 0
-3762 -3763 3776 0
3762 -3776 0
3763 -3776 0
-3765 -3767 3778 0
3765 -3778 0
3767 -3778 0
-3769 -3771 3780 0
3769 -3780 0
3771 -3780 0
-3773 -3775 3782 0
3773 -3782 0
3775 -3782 0
-3777 -3779 3783 0
3777 -3783 0
3779 -3783 0
-3743 -3745 3785 0
3743 -3785 0
3745 -3785 0
-3747 -3749 3787 0
3747 -3787 0
3749 -3787 0
-3751 -3753 3789 0
3751 -3789 0
3753 -3789 0
-3755 -3757 3791 0
3755 -3791 0
3757 -3791 0
-3759 -3761 3825 0
3759 -3825 0
3761 -3825 0
-3764 -3766 3795 0
3764 -3795 0
3766 -3795 0
-3768 -3770 3797 0
3768 -3797 0
3770 -3797 0
-3772 -3774 3799 0
3772 -3799 0
3774 -3799 0
-3776 -3778 3801 0
3776 -3801 0
3778 -3801 0
-3780 -3782 3803 0
3780 -3803 0
3782 -3803 0
-3781 -3783 3805 0
3783 -3805 0
3781 -3805 0
-3784 -3786 3831 0
3784 -3831 0
3786 -3831 0
-3788 -3790 3807 0
3788 -3807 0
3790 -3807 0
-3792 -3793 3809 0
3792 -3809 0
3793 -3809 0
-3794 -3796 3811 0
3794 -3811 0
3796 -3811 0
-3798 -3800 3813 0
3798 -3813 0
3800 -3813 0
-3802 -3804 3836 0
3802 -3836 0
3804 -3836 0
-3806 -3808 3817 0
3806 -3817 0
3808 -3817 0
-3810 -3812 3819 0
3810 -3819 0
3812 -3819 0
-3814 -3815 3821 0
3814 -3821 0
3815 -3821 0
-3816 -3818 3822 0
3816 -3822 0
3818 -3822 0
-3785 -3787 3860 0
3785 -3860 0
3787 -3860 0
-3789 -3791 3861 0
3789 -3861 0
3791 -3861 0
-3795 -3797 3827 0
3795 -3827 0
3797 -3827 0
-3799 -3801 3829 0
3799 -3829 0
3801 -3829 0
-3803 -3805 3863 0
3803 -3863 0
3805 -3863 0
-3807 -3809 3833 0
3807 -3833 0
3809 -3833 0
-3811 -3813 3835 0
3811 -3835 0
3813 -3835 0
-3817 -3819 3865 0
3817 -3865 0
3819 -3865 0
-3821 -3822 3866 0
3821 -3866 0
3822 -3866 0
-3823 -3824 3840 0
3823 -3840 0
3824 -3840 0
-3825 -3826 3842 0
3825 -3842 0
3826 -3842 0
-3828 -3830 3844 0
3828 -3844 0
3830 -3844 0
-3831 -3832 3846 0
3831 -3846 0
3832 -3846 0
-3834 -3836 3848 0
3834 -3848 0
3836 -3848 0
-3837 -3838 3850 0
3837 -3850 0
3838 -3850 0
-3820 -3839 3852 0
3820 -3852 0
3839 -3852 0
-3841 -3843 3854 0
3841 -3854 0
3843 -3854 0
-3845 -3847 3856 0
3845 -3856 0
3847 -3856 0
-3849 -3851 3858 0
3849 -3858 0
3851 -3858 0
-3853 -3855 3859 0
3853 -3859 0
3855 -3859 0
-3827 -3829 3899 0
3827 -3899 0
3829 -3899 0
-3833 -3835 3900 0
3833 -3900 0
3835 -3900 0
-3840 -3842 3901 0
3840 -3901 0
3842 -3901 0
-3844 -3846 3869 0
3844 -3869 0
3846 -3869 0
-3848 -3850 3871 0
3848 -3871 0
3850 -3871 0
-3852 -3854 3873 0
3852 -3873 0
3854 -3873 0
-3856 -3858 3875 0
3856 -3875 0
3858 -3875 0
-3857 -3859 3877 0
3859 -3877 0
3857 -3877 0
-3860 -3861 3879 0
3860 -3879 0
3861 -3879 0
-3862 -3863 3881 0
3862 -3881 0
3863 -3881 0
-3864 -3865 3883 0
3864 -3883 0
3865 -3883 0
-3866 -3867 3885 0
3866 -3885 0
3867 -3885 0
-3868 -3870 3887 0
3868 -3887 0
3870 -3887 0
-3872 -3874 3889 0
3872 -3889 0
3874 -3889 0
-3876 -3878 3891 0
3876 -3891 0
3878 -3891 0
-3880 -3882 3893 0
3880 -3893 0
3882 -3893 0
-3884 -3886 3895 0
3884 -3895 0
3886 -3895 0
-3888 -3890 3897 0
3888 -3897 0
3890 -3897 0
-3892 -3894 3898 0
3892 -3898 0
3894 -3898 0
-3869 -3871 3903 0
3869 -3903 0
3871 -3903 0
-3873 -3875 3905 0
3873 -3905 0
3875 -3905 0
-3877 -3879 3907 0
3877 -3907 0
3879 -3907 0
-3881 -3883 3909 0
3881 -3909 0
3883 -3909 0
-3885 -3887 3911 0
3885 -3911 0
3887 -3911 0
-3889 -3891 3913 0
3889 -3913 0
3891 -3913 0
-3893 -3895 3915 0
3893 -3915 0
3895 -3915 0
-3897 -3898 3917 0
3897 -3917 0
3898 -3917 0
-3899 -3900 3944 0
3899 -3944 0
3900 -3944 0
-3901 -3902 3920 0
3901 -3920 0
3902 -3920 0
-3904 -3906 3922 0
3904 -3922 0
3906 -3922 0
-3908 -3910 3924 0
3908 -3924 0
3910 -3924 0
-3912 -3914 3926 0
3912 -3926 0
3914 -3926 0
-3896 -3916 3928 0
3916 -3928 0
3896 -3928 0
-3918 -3919 3930 0
3918 -3930 0
3919 -3930 0
-3921 -3923 3932 0
3921 -3932 0
3923 -3932 0
-3925 -3927 3934 0
3925 -3934 0
3927 -3934 0
-3929 -3931 3935 0
3929 -3935 0
3931 -3935 0
-3903 -3905 3937 0
3903 -3937 0
3905 -3937 0
-3907 -3909 3939 0
3907 -3939 0
3909 -3939 0
-3911 -3913 3941 0
3911 -3941 0
3913 -3941 0
-3915 -3917 3943 0
3915 -3943 0
3917 -3943 0
-3920 -3922 3969 0
3920 -3969 0
3922 -3969 0
-3924 -3926 3947 0
3924 -3947 0
3926 -3947 0
-3928 -3930 3949 0
3928 -3949 0
3930 -3949 0
-3932 -3934 3951 0
3932 -3951 0
3934 -3951 0
-3933 -3935 3953 0
3935 -3953 0
3933 -3953 0
-3936 -3938 3974 0
3936 -3974 0
3938 -3974 0
-3940 -3942 3955 0
3940 -3955 0
3942 -3955 0
-3944 -3945 3957 0
3944 -3957 0
3945 -3957 0
-3946 -3948 3959 0
3946 -3959 0
3948 -3959 0
-3950 -3952 3961 0
3950 -3961 0
3952 -3961 0
-3954 -3956 3977 0
3954 -3977 0
3956 -3977 0
-3958 -3960 3965 0
3958 -3965 0
3960 -3965 0
-3962 -3963 3966 0
3962 -3966 0
3963 -3966 0
-3937 -3939 3996 0
3937 -3996 0
3939 -3996 0
-3941 -3943 3997 0
3941 -3997 0
3943 -3997 0
-3947 -3949 3971 0
3947 -3971 0
3949 -3971 0
-3951 -3953 3973 0
3951 -3973 0
3953 -3973 0
-3955 -3957 3999 0
3955 -3999 0
3957 -3999 0
-3959 -3961 4000 0
3959 -4000 0
3961 -4000 0
-3965 -3966 4001 0
3965 -4001 0
3966 -4001 0
-3967 -3968 3980 0
3967 -3980 0
3968 -3980 0
-3969 -3970 3982 0
3969 -3982 0
3970 -3982 0
-3972 -3974 3984 0
3972 -3984 0
3974 -3984 0
-3975 -3976 3986 0
3975 -3986 0
3976 -3986 0
-3977 -3978 3988 0
3977 -3988 0
3978 -3988 0
-3964 -3979 3990 0
3964 -3990 0
3979 -3990 0
-3981 -3983 3992 0
3981 -3992 0
3983 -3992 0
-3985 -3987 3994 0
3985 -3994 0
3987 -3994 0
-3989 -3991 3995 0
3989 -3995 0
3991 -3995 0
-3971 -3973 4029 0
3971 -4029 0
3973 -4029 0
-3980 -3982 4003 0
3980 -4003 0
3982 -4003 0
-3984 -3986 4005 0
3984 -4005 0
3986 -4005 0
-3988 -3990 4007 0
3988 -4007 0
3990 -4007 0
-3992 -3994 4009 0
3992 -4009 0
3994 -4009 0
-3993 -3995 4011 0
3995 -4011 0
3993 -4011 0
-3996 -3997 4013 0
3996 -4013 0
3997 -4013 0
-3998 -3999 4015 0
3998 -4015 0
3999 -4015 0
-4000 -4001 4017 0
4000 -4017 0
4001 -4017 0
-4002 -4004 4019 0
4002 -4019 0
4004 -4019 0
-4006 -4008 4021 0
4006 -4021 0
4008 -4021 0
-4010 -4012 4023 0
4010 -4023 0
4012 -4023 0
-4014 -4016 4025 0
4014 -4025 0
4016 -4025 0
-4018 -4020 4027 0
4018 -4027 0
4020 -4027 0
-4022 -4024 4028 0
4022 -4028 0
4024 -4028 0
-4003 -4005 4056 0
4003 -4056 0
4005 -4056 0
-4007 -4009 4032 0
4007 -4032 0
4009 -4032 0
-4011 -4013 4034 0
4011 -4034 0
4013 -4034 0
-4015 -4017 4036 0
4015 -4036 0
4017 -4036 0
-4019 -4021 4038 0
4019 -4038 0
4021 -4038 0
-4023 -4025 4040 0
4023 -4040 0
4025 -4040 0
-4027 -4028 4042 0
4027 -4042 0
4028 -4042 0
-4030 -4031 4044 0
4030 -4044 0
4031 -4044 0
-4033 -4035 4046 0
4033 -4046 0
4035 -4046 0
-4037 -4039 4048 0
4037 -4048 0
4039 -4048 0
-4026 -4041 4050 0
4041 -4050 0
4026 -4050 0
-4029 -4043 4052 0
4029 -4052 0
4043 -4052 0
-4045 -4047 4054 0
4045 -4054 0
4047 -4054 0
-4049 -4051 4055 0
4049 -4055 0
4051 -4055 0
-4032 -4034 4058 0
4032 -4058 0
4034 -4058 0
-4036 -4038 4060 0
4036 -4060 0
4038 -4060 0
-4040 -4042 4080 0
4040 -4080 0
4042 -4080 0
-4044 -4046 4062 0
4044 -4062 0
4046 -4062 0
-4048 -4050 4064 0
4048 -4064 0
4050 -4064 0
-4052 -4054 4066 0
4052 -4066 0
4054 -4066 0
-4053 -4055 4068 0
4055 -4068 0
4053 -4068 0
-4057 -4059 4083 0
4057 -4083 0
4059 -4083 0
-4061 -4063 4084 0
4061 -4084 0
4063 -4084 0
-4065 -4067 4073 0
4065 -4073 0
4067 -4073 0
-4056 -4069 4075 0
4056 -4075 0
4069 -4075 0
-4070 -4071 4077 0
4070 -4077 0
4071 -4077 0
-4072 -4074 4078 0
4072 -4078 0
4074 -4078 0
-4058 -4060 4100 0
4058 -4100 0
4060 -4100 0
-4062 -4064 4101 0
4062 -4101 0
4064 -4101 0
-4066 -4068 4102 0
4066 -4102 0
4068 -4102 0
-4073 -4075 4103 0
4073 -4103 0
4075 -4103 0
-4077 -4078 4104 0
4077 -4104 0
4078 -4104 0
-4079 -4080 4088 0
4079 -4088 0
4080 -4088 0
-4081 -4082 4090 0
4081 -4090 0
4082 -4090 0
-4083 -4084 4092 0
4083 -4092 0
4084 -4092 0
-4085 -4086 4094 0
4085 -4094 0
4086 -4094 0
-4076 -4087 4096 0
4076 -4096 0
4087 -4096 0
-4089 -4091 4098 0
4089 -4098 0
4091 -4098 0
-4093 -4095 4099 0
4093 -4099 0
4095 -4099 0
-4088 -4090 4125 0
4088 -4125 0
4090 -4125 0
-4092 -4094 4107 0
4092 -4107 0
4094 -4107 0
-4096 -4098 4109 0
4096 -4109 0
4098 -4109 0
-4097 -4099 4111 0
4099 -4111 0
4097 -4111 0
-4100 -4101 4113 0
4100 -4113 0
4101 -4113 0
-4102 -4103 4115 0
4102 -4115 0
4103 -4115 0
-4104 -4105 4117 0
4104 -4117 0
4105 -4117 0
-4106 -4108 4119 0
4106 -4119 0
4108 -4119 0
-4110 -4112 4121 0
4110 -4121 0
4112 -4121 0
-4114 -4116 4123 0
4114 -4123 0
4116 -4123 0
-4118 -4120 4124 0
4118 -4124 0
4120 -4124 0
-4107 -4109 4144 0
4107 -4144 0
4109 -4144 0
-4111 -4113 4128 0
4111 -4128 0
4113 -4128 0
-4115 -4117 4130 0
4115 -4130 0
4117 -4130 0
-4119 -4121 4132 0
4119 -4132 0
4121 -4132 0
-4123 -4124 4134 0
4123 -4134 0
4124 -4134 0
-4126 -4127 4136 0
4126 -4136 0
4127 -4136 0
-4129 -4131 4138 0
4129 -4138 0
4131 -4138 0
-4122 -4133 4140 0
4133 -4140 0
4122 -4140 0
-4125 -4135 4142 0
4125 -4142 0
4135 -4142 0
-4137 -4139 4143 0
4137 -4143 0
4139 -4143 0
-4128 -4130 4146 0
4128 -4146 0
4130 -4146 0
-4132 -4134 4148 0
4132 -4148 0
4134 -4148 0
-4136 -4138 4160 0
4136 -4160 0
4138 -4160 0
-4140 -4142 4150 0
4140 -4150 0
4142 -4150 0
-4141 -4143 4152 0
4143 -4152 0
4141 -4152 0
-4145 -4147 4162 0
4145 -4162 0
4147 -4162 0
-4149 -4151 4163 0
4149 -4163 0
4151 -4163 0
-4144 -4153 4157 0
4144 -4157 0
4153 -4157 0
-4154 -4155 4158 0
4154 -4158 0
4155 -4158 0
-4146 -4148 4174 0
4146 -4174 0
4148 -4174 0
-4150 -4152 4175 0
4150 -4175 0
4152 -4175 0
-4157 -4158 4176 0
4157 -4176 0
4158 -4176 0
-4159 -4160 4166 0
4159 -4166 0
4160 -4166 0
-4161 -4162 4168 0
4161 -4168 0
4162 -4168 0
-4163 -4164 4170 0
4163 -4170 0
4164 -4170 0
-4156 -4165 4172 0
4156 -4172 0
4165 -4172 0
-4167 -4169 4173 0
4167 -4173 0
4169 -4173 0
-4166 -4168 4178 0
4166 -4178 0
4168 -4178 0
-4170 -4172 4180 0
4170 -4180 0
4172 -4180 0
-4171 -4173 4182 0
4173 -4182 0
4171 -4182 0
-4174 -4175 4184 0
4174 -4184 0
4175 -4184 0
-4177 -4179 4192 0
4177 -4192 0
4179 -4192 0
-4181 -4183 4187 0
4181 -4187 0
4183 -4187 0
-4176 -4185 4188 0
4176 -4188 0
4185 -4188 0
-4178 -4180 4189 0
4178 -4189 0
4180 -4189 0
-4182 -4184 4191 0
4182 -4191 0
4184 -4191 0
-4187 -4188 4200 0
4187 -4200 0
4188 -4200 0
-4190 -4192 4196 0
4190 -4196 0
4192 -4196 0
-4186 -4193 4198 0
4193 -4198 0
4186 -4198 0
-4194 -4195 4199 0
4194 -4199 0
4195 -4199 0
-4189 -4191 4209 0
4189 -4209 0
4191 -4209 0
-4196 -4198 4202 0
4196 -4202 0
4198 -4202 0
-4197 -4199 4204 0
4199 -4204 0
4197 -4204 0
-4201 -4203 4207 0
4201 -4207 0
4203 -4207 0
-4200 -4205 4208 0
4205 -4208 0
4200 -4208 0
-4202 -4204 4216 0
4202 -4216 0
4204 -4216 0
-4207 -4208 4210 0
4207 -4210 0
4208 -4210 0
-4206 -4209 4212 0
4206 -4212 0
4209 -4212 0
-4211 -4213 4215 0
4211 -4215 0
4213 -4215 0
-4210 -4212 4219 0
4210 -4219 0
4212 -4219 0
-4214 -4215 4220 0
4215 -4220 0
4214 -4220 0
-4216 -4217 4221 0
4217 -4221 0
4216 -4221 0
-4219 -4220 4224 0
-4218 -4221 4223 0
4221 -4223 0
4218 -4223 0
-4222 -4223 4224 0
-4224 0
-2 -9 -76 0
2 9 -76 0
-2 9 76 0
2 -9 76 0
-17 -25 -78 0
17 25 -78 0
-17 25 78 0
17 -25 78 0
-75 -76 -78 0
75 76 -78 0
-75 76 78 0
75 -76 78 0
-3 -10 -79 0
3 10 -79 0
-3 10 79 0
3 -10 79 0
-26 -75 -81 0
26 75 -81 0
26 -75 81 0
-26 75 81 0
-35 -77 -83 0
35 77 -83 0
-35 77 83 0
35 -77 83 0
-78 -79 -86 0
78 79 -86 0
-78 79 86 0
78 -79 86 0
-81 -83 -87 0
81 83 -87 0
-81 83 87 0
81 -83 87 0
-84 -85 -89 0
84 85 -89 0
-84 85 89 0
84 -85 89 0
-86 -87 -89 0
86 87 -89 0
-86 87 89 0
86 -87 89 0
-4 -11 -92 0
4 11 -92 0
-4 11 92 0
4 -11 92 0
-18 -27 -94 0
18 27 -94 0
-18 27 94 0
18 -27 94 0
-36 -45 -96 0
36 45 -96 0
-36 45 96 0
36 -45 96 0
-80 -82 -98 0
80 82 -98 0
-80 82 98 0
80 -82 98 0
-88 -90 -101 0
88 90 -101 0
-88 90 101 0
88 -90 101 0
-89 -91 -102 0
89 91 -102 0
89 -91 102 0
-89 91 102 0
-92 -94 -104 0
92 94 -104 0
-92 94 104 0
92 -94 104 0
-96 -98 -106 0
96 98 -106 0
-96 98 106 0
96 -98 106 0
-99 -100 -108 0
99 100 -108 0
-99 100 108 0
99 -100 108 0
-101 -102 -110 0
101 102 -110 0
-101 102 110 0
101 -102 110 0
-104 -106 -112 0
104 106 -112 0
-104 106 112 0
104 -106 112 0
-108 -110 -112 0
108 110 -112 0
-108 110 112 0
108 -110 112 0
-5 -12 -115 0
5 12 -115 0
-5 12 115 0
5 -12 115 0
-19 -28 -117 0
19 28 -117 0
-19 28 117 0
19 -28 117 0
-37 -46 -119 0
37 46 -119 0
-37 46 119 0
37 -46 119 0
-55 -93 -121 0
55 93 -121 0
-55 93 121 0
55 -93 121 0
-95 -97 -123 0
95 97 -123 0
-95 97 123 0
95 -97 123 0
-103 -105 -126 0
103 105 -126 0
-103 105 126 0
103 -105 126 0
-107 -109 -127 0
107 109 -127 0
-107 109 127 0
107 -109 127 0
-111 -113 -129 0
111 113 -129 0
-111 113 129 0
111 -113 129 0
-112 -114 -131 0
112 114 -131 0
112 -114 131 0
-112 114 131 0
-115 -117 -133 0
115 117 -133 0
-115 117 133 0
115 -117 133 0
-119 -121 -135 0
119 121 -135 0
-119 121 135 0
119 -121 135 0
-123 -124 -137 0
123 124 -137 0
-123 124 137 0
123 -124 137 0
-125 -126 -139 0
125 126 -139 0
-125 126 139 0
125 -126 139 0
-127 -129 -141 0
127 129 -141 0
-127 129 141 0
127 -129 141 0
-131 -133 -143 0
131 133 -143 0
-131 133 143 0
131 -133 143 0
-135 -137 -145 0
135 137 -145 0
-135 137 145 0
135 -137 145 0
-139 -141 -147 0
139 141 -147 0
-139 141 147 0
139 -141 147 0
-143 -145 -147 0
143 145 -147 0
-143 145 147 0
143 -145 147 0
-6 -13 -150 0
6 13 -150 0
-6 13 150 0
6 -13 150 0
-20 -29 -152 0
20 29 -152 0
-20 29 152 0
20 -29 152 0
-38 -47 -154 0
38 47 -154 0
-38 47 154 0
38 -47 154 0
-56 -65 -156 0
56 65 -156 0
-56 65 156 0
56 -65 156 0
-116 -118 -158 0
116 118 -158 0
-116 118 158 0
116 -118 158 0
-120 -122 -160 0
120 122 -160 0
-120 122 160 0
120 -122 160 0
-128 -130 -164 0
128 130 -164 0
-128 130 164 0
128 -130 164 0
-132 -134 -166 0
132 134 -166 0
-132 134 166 0
132 -134 166 0
-136 -138 -168 0
136 138 -168 0
-136 138 168 0
136 -138 168 0
-140 -142 -170 0
140 142 -170 0
-140 142 170 0
140 -142 170 0
-144 -146 -172 0
144 146 -172 0
-144 146 172 0
144 -146 172 0
-148 -149 -174 0
148 149 -174 0
-148 149 174 0
148 -149 174 0
-147 -150 -176 0
147 150 -176 0
-147 150 176 0
147 -150 176 0
-152 -154 -178 0
152 154 -178 0
-152 154 178 0
152 -154 178 0
-156 -158 -180 0
156 158 -180 0
-156 158 180 0
156 -158 180 0
-160 -162 -182 0
160 162 -182 0
-160 162 182 0
160 -162 182 0
-163 -164 -184 0
163 164 -184 0
-163 164 184 0
163 -164 184 0
-166 -168 -186 0
166 168 -186 0
-166 168 186 0
166 -168 186 0
-170 -172 -188 0
170 172 -188 0
-170 172 188 0
170 -172 188 0
-174 -176 -190 0
174 176 -190 0
-174 176 190 0
174 -176 190 0
-178 -180 -192 0
178 180 -192 0
-178 180 192 0
178 -180 192 0
-182 -184 -194 0
182 184 -194 0
-182 184 194 0
182 -184 194 0
-186 -188 -196 0
186 188 -196 0
-186 188 196 0
186 -188 196 0
-190 -192 -198 0
190 192 -198 0
-190 192 198 0
190 -192 198 0
-194 -196 -198 0
194 196 -198 0
-194 196 198 0
194 -196 198 0
-7 -14 -201 0
7 14 -201 0
-7 14 201 0
7 -14 201 0
-21 -30 -203 0
21 30 -203 0
-21 30 203 0
21 -30 203 0
-39 -48 -205 0
39 48 -205 0
-39 48 205 0
39 -48 205 0
-57 -66 -207 0
57 66 -207 0
-57 66 207 0
57 -66 207 0
-151 -153 -209 0
151 153 -209 0
-151 153 209 0
151 -153 209 0
-155 -157 -211 0
155 157 -211 0
-155 157 211 0
155 -157 211 0
-159 -161 -238 0
159 161 -238 0
-159 161 238 0
159 -161 238 0
-165 -167 -213 0
165 167 -213 0
-165 167 213 0
165 -167 213 0
-169 -171 -215 0
169 171 -215 0
-169 171 215 0
169 -171 215 0
-173 -175 -217 0
173 175 -217 0
-173 175 217 0
173 -175 217 0
-177 -179 -219 0
177 179 -219 0
-177 179 219 0
177 -179 219 0
-181 -183 -221 0
181 183 -221 0
-181 183 221 0
181 -183 221 0
-185 -187 -223 0
185 187 -223 0
-185 187 223 0
185 -187 223 0
-189 -191 -225 0
189 191 -225 0
-189 191 225 0
189 -191 225 0
-193 -195 -227 0
193 195 -227 0
-193 195 227 0
193 -195 227 0
-197 -199 -229 0
197 199 -229 0
-197 199 229 0
197 -199 229 0
-198 -200 -231 0
198 200 -231 0
198 -200 231 0
-198 200 231 0
-201 -203 -233 0
201 203 -233 0
-201 203 233 0
201 -203 233 0
-205 -207 -235 0
205 207 -235 0
-205 207 235 0
205 -207 235 0
-209 -211 -237 0
209 211 -237 0
-209 211 237 0
209 -211 237 0
-213 -215 -239 0
213 215 -239 0
-213 215 239 0
213 -215 239 0
-217 -219 -241 0
217 219 -241 0
-217 219 241 0
217 -219 241 0
-221 -223 -243 0
221 223 -243 0
-221 223 243 0
221 -223 243 0
-225 -227 -245 0
225 227 -245 0
-225 227 245 0
225 -227 245 0
-229 -231 -247 0
229 231 -247 0
-229 231 247 0
229 -231 247 0
-233 -235 -249 0
233 235 -249 0
-233 235 249 0
233 -235 249 0
-237 -238 -251 0
237 238 -251 0
-237 238 251 0
237 -238 251 0
-239 -241 -253 0
239 241 -253 0
-239 241 253 0
239 -241 253 0
-243 -245 -255 0
243 245 -255 0
-243 245 255 0
243 -245 255 0
-247 -249 -257 0
247 249 -257 0
-247 249 257 0
247 -249 257 0
-251 -253 -259 0
251 253 -259 0
-251 253 259 0
251 -253 259 0
-255 -257 -259 0
255 257 -259 0
-255 257 259 0
255 -257 259 0
-8 -15 -262 0
8 15 -262 0
-8 15 262 0
8 -15 262 0
-22 -31 -264 0
22 31 -264 0
-22 31 264 0
22 -31 264 0
-40 -49 -266 0
40 49 -266 0
-40 49 266 0
40 -49 266 0
-58 -67 -268 0
58 67 -268 0
-58 67 268 0
58 -67 268 0
-202 -204 -270 0
202 204 -270 0
-202 204 270 0
202 -204 270 0
-206 -208 -272 0
206 208 -272 0
-206 208 272 0
206 -208 272 0
-210 -212 -274 0
210 212 -274 0
-210 212 274 0
210 -212 274 0
-214 -216 -277 0
214 216 -277 0
-214 216 277 0
214 -216 277 0
-218 -220 -278 0
218 220 -278 0
-218 220 278 0
218 -220 278 0
-222 -224 -280 0
222 224 -280 0
-222 224 280 0
222 -224 280 0
-226 -228 -282 0
226 228 -282 0
-226 228 282 0
226 -228 282 0
-230 -232 -284 0
230 232 -284 0
-230 232 284 0
230 -232 284 0
-234 -236 -286 0
234 236 -286 0
-234 236 286 0
234 -236 286 0
-240 -242 -288 0
240 242 -288 0
-240 242 288 0
240 -242 288 0
-244 -246 -290 0
244 246 -290 0
-244 246 290 0
244 -246 290 0
-248 -250 -292 0
248 250 -292 0
-248 250 292 0
248 -250 292 0
-252 -254 -294 0
252 254 -294 0
-252 254 294 0
252 -254 294 0
-256 -258 -296 0
256 258 -296 0
-256 258 296 0
256 -258 296 0
-260 -261 -298 0
260 261 -298 0
-260 261 298 0
260 -261 298 0
-259 -262 -300 0
259 262 -300 0
-259 262 300 0
259 -262 300 0
-264 -266 -302 0
264 266 -302 0
-264 266 302 0
264 -266 302 0
-268 -270 -304 0
268 270 -304 0
-268 270 304 0
268 -270 304 0
-272 -274 -306 0
272 274 -306 0
-272 274 306 0
272 -274 306 0
-276 -277 -308 0
276 277 -308 0
-276 277 308 0
276 -277 308 0
-278 -280 -310 0
278 280 -310 0
-278 280 310 0
278 -280 310 0
-282 -284 -312 0
282 284 -312 0
-282 284 312 0
282 -284 312 0
-286 -287 -314 0
286 287 -314 0
-286 287 314 0
286 -287 314 0
-288 -290 -316 0
288 290 -316 0
-288 290 316 0
288 -290 316 0
-292 -294 -318 0
292 294 -318 0
-292 294 318 0
292 -294 318 0
-296 -298 -320 0
296 298 -320 0
-296 298 320 0
296 -298 320 0
-300 -302 -322 0
300 302 -322 0
-300 302 322 0
300 -302 322 0
-304 -306 -324 0
304 306 -324 0
-304 306 324 0
304 -306 324 0
-308 -310 -326 0
308 310 -326 0
-308 310 326 0
308 -310 326 0
-312 -314 -328 0
312 314 -328 0
-312 314 328 0
312 -314 328 0
-316 -318 -330 0
316 318 -330 0
-316 318 330 0
316 -318 330 0
-320 -322 -332 0
320 322 -332 0
-320 322 332 0
320 -322 332 0
-324 -326 -334 0
324 326 -334 0
-324 326 334 0
324 -326 334 0
-328 -330 -336 0
328 330 -336 0
-328 330 336 0
328 -330 336 0
-332 -334 -336 0
332 334 -336 0
-332 334 336 0
332 -334 336 0
-16 -23 -339 0
16 23 -339 0
-16 23 339 0
16 -23 339 0
-32 -41 -341 0
32 41 -341 0
-32 41 341 0
32 -41 341 0
-50 -59 -343 0
50 59 -343 0
-50 59 343 0
50 -59 343 0
-68 -263 -345 0
68 263 -345 0
-68 263 345 0
68 -263 345 0
-265 -267 -347 0
265 267 -347 0
-265 267 347 0
265 -267 347 0
-269 -271 -349 0
269 271 -349 0
-269 271 349 0
269 -271 349 0
-273 -275 -351 0
273 275 -351 0
-273 275 351 0
273 -275 351 0
-279 -281 -353 0
279 281 -353 0
-279 281 353 0
279 -281 353 0
-283 -285 -355 0
283 285 -355 0
-283 285 355 0
283 -285 355 0
-289 -291 -358 0
289 291 -358 0
-289 291 358 0
289 -291 358 0
-293 -295 -359 0
293 295 -359 0
-293 295 359 0
293 -295 359 0
-297 -299 -361 0
297 299 -361 0
-297 299 361 0
297 -299 361 0
-301 -303 -363 0
301 303 -363 0
-301 303 363 0
301 -303 363 0
-305 -307 -365 0
305 307 -365 0
-305 307 365 0
305 -307 365 0
-309 -311 -367 0
309 311 -367 0
-309 311 367 0
309 -311 367 0
-313 -315 -369 0
313 315 -369 0
-313 315 369 0
313 -315 369 0
-317 -319 -371 0
317 319 -371 0
-317 319 371 0
317 -319 371 0
-321 -323 -373 0
321 323 -373 0
-321 323 373 0
321 -323 373 0
-325 -327 -375 0
325 327 -375 0
-325 327 375 0
325 -327 375 0
-329 -331 -377 0
329 331 -377 0
-329 331 377 0
329 -331 377 0
-333 -335 -379 0
333 335 -379 0
-333 335 379 0
333 -335 379 0
-337 -338 -381 0
337 338 -381 0
-337 338 381 0
337 -338 381 0
-336 -339 -383 0
336 339 -383 0
-336 339 383 0
336 -339 383 0
-341 -343 -385 0
341 343 -385 0
-341 343 385 0
341 -343 385 0
-345 -347 -387 0
345 347 -387 0
-345 347 387 0
345 -347 387 0
-349 -351 -389 0
349 351 -389 0
-349 351 389 0
349 -351 389 0
-352 -353 -391 0
352 353 -391 0
-352 353 391 0
352 -353 391 0
-355 -357 -393 0
355 357 -393 0
-355 357 393 0
355 -357 393 0
-358 -359 -395 0
358 359 -395 0
-358 359 395 0
358 -359 395 0
-361 -363 -397 0
361 363 -397 0
-361 363 397 0
361 -363 397 0
-365 -367 -399 0
365 367 -399 0
-365 367 399 0
365 -367 399 0
-369 -371 -401 0
369 371 -401 0
-369 371 401 0
369 -371 401 0
-373 -375 -403 0
373 375 -403 0
-373 375 403 0
373 -375 403 0
-377 -379 -405 0
377 379 -405 0
-377 379 405 0
377 -379 405 0
-381 -383 -407 0
381 383 -407 0
-381 383 407 0
381 -383 407 0
-385 -387 -409 0
385 387 -409 0
-385 387 409 0
385 -387 409 0
-389 -391 -411 0
389 391 -411 0
-389 391 411 0
389 -391 411 0
-393 -395 -413 0
393 395 -413 0
-393 395 413 0
393 -395 413 0
-397 -399 -415 0
397 399 -415 0
-397 399 415 0
397 -399 415 0
-401 -403 -417 0
401 403 -417 0
-401 403 417 0
401 -403 417 0
-405 -407 -419 0
405 407 -419 0
-405 407 419 0
405 -407 419 0
-409 -411 -421 0
409 411 -421 0
-409 411 421 0
409 -411 421 0
-413 -415 -423 0
413 415 -423 0
-413 415 423 0
413 -415 423 0
-417 -419 -425 0
417 419 -425 0
-417 419 425 0
417 -419 425 0
-421 -423 -425 0
421 423 -425 0
-421 423 425 0
421 -423 425 0
-24 -33 -428 0
24 33 -428 0
-24 33 428 0
24 -33 428 0
-42 -51 -430 0
42 51 -430 0
-42 51 430 0
42 -51 430 0
-60 -69 -432 0
60 69 -432 0
-60 69 432 0
60 -69 432 0
-340 -342 -434 0
340 342 -434 0
-340 342 434 0
340 -342 434 0
-344 -346 -436 0
344 346 -436 0
-344 346 436 0
344 -346 436 0
-348 -350 -438 0
348 350 -438 0
-348 350 438 0
348 -350 438 0
-354 -356 -440 0
354 356 -440 0
-354 356 440 0
354 -356 440 0
-360 -362 -442 0
360 362 -442 0
-360 362 442 0
360 -362 442 0
-364 -366 -444 0
364 366 -444 0
-364 366 444 0
364 -366 444 0
-368 -370 -446 0
368 370 -446 0
-368 370 446 0
368 -370 446 0
-372 -374 -448 0
372 374 -448 0
-372 374 448 0
372 -374 448 0
-376 -378 -450 0
376 378 -450 0
-376 378 450 0
376 -378 450 0
-380 -382 -452 0
380 382 -452 0
-380 382 452 0
380 -382 452 0
-384 -386 -454 0
384 386 -454 0
-384 386 454 0
384 -386 454 0
-388 -390 -456 0
388 390 -456 0
-388 390 456 0
388 -390 456 0
-392 -394 -458 0
392 394 -458 0
-392 394 458 0
392 -394 458 0
-396 -398 -460 0
396 398 -460 0
-396 398 460 0
396 -398 460 0
-400 -402 -462 0
400 402 -462 0
-400 402 462 0
400 -402 462 0
-404 -406 -464 0
404 406 -464 0
-404 406 464 0
404 -406 464 0
-408 -410 -466 0
408 410 -466 0
-408 410 466 0
408 -410 466 0
-412 -414 -468 0
412 414 -468 0
-412 414 468 0
412 -414 468 0
-416 -418 -470 0
416 418 -470 0
-416 418 470 0
416 -418 470 0
-420 -422 -472 0
420 422 -472 0
-420 422 472 0
420 -422 472 0
-424 -426 -474 0
424 426 -474 0
-424 426 474 0
424 -426 474 0
-425 -427 -476 0
425 427 -476 0
425 -427 476 0
-425 427 476 0
-428 -430 -478 0
428 430 -478 0
-428 430 478 0
428 -430 478 0
-432 -434 -480 0
432 434 -480 0
-432 434 480 0
432 -434 480 0
-436 -438 -482 0
436 438 -482 0
-436 438 482 0
436 -438 482 0
-439 -440 -484 0
439 440 -484 0
-439 440 484 0
439 -440 484 0
-441 -442 -486 0
441 442 -486 0
-441 442 486 0
441 -442 486 0
-444 -446 -488 0
444 446 -488 0
-444 446 488 0
444 -446 488 0
-448 -450 -490 0
448 450 -490 0
-448 450 490 0
448 -450 490 0
-452 -454 -492 0
452 454 -492 0
-452 454 492 0
452 -454 492 0
-456 -458 -494 0
456 458 -494 0
-456 458 494 0
456 -458 494 0
-460 -462 -496 0
460 462 -496 0
-460 462 496 0
460 -462 496 0
-464 -466 -498 0
464 466 -498 0
-464 466 498 0
464 -466 498 0
-468 -470 -500 0
468 470 -500 0
-468 470 500 0
468 -470 500 0
-472 -474 -502 0
472 474 -502 0
-472 474 502 0
472 -474 502 0
-476 -478 -504 0
476 478 -504 0
-476 478 504 0
476 -478 504 0
-480 -482 -506 0
480 482 -506 0
-480 482 506 0
480 -482 506 0
-484 -486 -508 0
484 486 -508 0
-484 486 508 0
484 -486 508 0
-488 -490 -510 0
488 490 -510 0
-488 490 510 0
488 -490 510 0
-492 -494 -512 0
492 494 -512 0
-492 494 512 0
492 -494 512 0
-496 -498 -514 0
496 498 -514 0
-496 498 514 0
496 -498 514 0
-500 -502 -516 0
500 502 -516 0
-500 502 516 0
500 -502 516 0
-504 -506 -518 0
504 506 -518 0
-504 506 518 0
504 -506 518 0
-508 -510 -520 0
508 510 -520 0
-508 510 520 0
508 -510 520 0
-512 -514 -522 0
512 514 -522 0
-512 514 522 0
512 -514 522 0
-516 -518 -524 0
516 518 -524 0
-516 518 524 0
516 -518 524 0
-520 -522 524 0
520 522 524 0
-520 522 -524 0
520 -522 -524 0
-34 -43 -526 0
34 43 -526 0
-34 43 526 0
34 -43 526 0
-52 -61 -528 0
52 61 -528 0
-52 61 528 0
52 -61 528 0
-70 -429 -530 0
70 429 -530 0
-70 429 530 0
70 -429 530 0
-431 -433 -532 0
431 433 -532 0
-431 433 532 0
431 -433 532 0
-435 -437 -534 0
435 437 -534 0
-435 437 534 0
435 -437 534 0
-443 -445 -537 0
443 445 -537 0
-443 445 537 0
443 -445 537 0
-447 -449 -538 0
447 449 -538 0
-447 449 538 0
447 -449 538 0
-451 -453 -540 0
451 453 -540 0
-451 453 540 0
451 -453 540 0
-455 -457 -542 0
455 457 -542 0
-455 457 542 0
455 -457 542 0
-459 -461 -544 0
459 461 -544 0
-459 461 544 0
459 -461 544 0
-463 -465 -546 0
463 465 -546 0
-463 465 546 0
463 -465 546 0
-467 -469 -548 0
467 469 -548 0
-467 469 548 0
467 -469 548 0
-471 -473 -550 0
471 473 -550 0
-471 473 550 0
471 -473 550 0
-475 -477 -552 0
475 477 -552 0
-475 477 552 0
475 -477 552 0
-479 -481 -554 0
479 481 -554 0
-479 481 554 0
479 -481 554 0
-483 -485 -556 0
483 485 -556 0
-483 485 556 0
483 -485 556 0
-487 -489 -558 0
487 489 -558 0
-487 489 558 0
487 -489 558 0
-491 -493 -560 0
491 493 -560 0
-491 493 560 0
491 -493 560 0
-495 -497 -562 0
495 497 -562 0
-495 497 562 0
495 -497 562 0
-499 -501 -564 0
499 501 -564 0
-499 501 564 0
499 -501 564 0
-503 -505 -566 0
503 505 -566 0
-503 505 566 0
503 -505 566 0
-507 -509 -568 0
507 509 -568 0
-507 509 568 0
507 -509 568 0
-511 -513 -570 0
511 513 -570 0
-511 513 570 0
511 -513 570 0
-515 -517 -572 0
515 517 -572 0
-515 517 572 0
515 -517 572 0
-519 -521 -574 0
519 521 -574 0
-519 521 574 0
519 -521 574 0
-523 -525 -576 0
523 525 -576 0
-523 525 576 0
523 -525 576 0
-526 -528 -579 0
526 528 -579 0
-526 528 579 0
526 -528 579 0
-530 -532 -580 0
530 532 -580 0
-530 532 580 0
530 -532 580 0
-534 -535 -582 0
534 535 -582 0
-534 535 582 0
534 -535 582 0
-536 -537 -584 0
536 537 -584 0
-536 537 584 0
536 -537 584 0
-538 -540 -586 0
538 540 -586 0
-538 540 586 0
538 -540 586 0
-542 -544 -588 0
542 544 -588 0
-542 544 588 0
542 -544 588 0
-546 -548 -590 0
546 548 -590 0
-546 548 590 0
546 -548 590 0
-550 -552 -592 0
550 552 -592 0
-550 552 592 0
550 -552 592 0
-554 -556 -594 0
554 556 -594 0
-554 556 594 0
554 -556 594 0
-558 -560 -596 0
558 560 -596 0
-558 560 596 0
558 -560 596 0
-562 -564 -598 0
562 564 -598 0
-562 564 598 0
562 -564 598 0
-566 -568 -600 0
566 568 -600 0
-566 568 600 0
566 -568 600 0
-570 -572 -602 0
570 572 -602 0
-570 572 602 0
570 -572 602 0
-574 -576 -604 0
574 576 -604 0
-574 576 604 0
574 -576 604 0
-578 -579 -606 0
578 579 -606 0
-578 579 606 0
578 -579 606 0
-580 -582 -608 0
580 582 -608 0
-580 582 608 0
580 -582 608 0
-584 -586 -610 0
584 586 -610 0
-584 586 610 0
584 -586 610 0
-588 -590 -612 0
588 590 -612 0
-588 590 612 0
588 -590 612 0
-592 -594 -614 0
592 594 -614 0
-592 594 614 0
592 -594 614 0
-596 -598 -616 0
596 598 -616 0
-596 598 616 0
596 -598 616 0
-600 -602 -618 0
600 602 -618 0
-600 602 618 0
600 -602 618 0
-604 -606 -620 0
604 606 -620 0
-604 606 620 0
604 -606 620 0
-608 -610 -622 0
608 610 -622 0
-608 610 622 0
608 -610 622 0
-612 -614 -624 0
612 614 -624 0
-612 614 624 0
612 -614 624 0
-616 -618 -626 0
616 618 -626 0
-616 618 626 0
616 -618 626 0
-620 -622 -628 0
620 622 -628 0
-620 622 628 0
620 -622 628 0
-624 -626 -628 0
624 626 -628 0
-624 626 628 0
624 -626 628 0
-44 -53 -631 0
44 53 -631 0
-44 53 631 0
44 -53 631 0
-62 -71 -633 0
62 71 -633 0
-62 71 633 0
62 -71 633 0
-527 -529 -635 0
527 529 -635 0
-527 529 635 0
527 -529 635 0
-531 -533 -637 0
531 533 -637 0
-531 533 637 0
531 -533 637 0
-539 -541 -640 0
539 541 -640 0
-539 541 640 0
539 -541 640 0
-543 -545 -641 0
543 545 -641 0
-543 545 641 0
543 -545 641 0
-547 -549 -643 0
547 549 -643 0
-547 549 643 0
547 -549 643 0
-551 -553 -645 0
551 553 -645 0
-551 553 645 0
551 -553 645 0
-555 -557 -647 0
555 557 -647 0
-555 557 647 0
555 -557 647 0
-559 -561 -649 0
559 561 -649 0
-559 561 649 0
559 -561 649 0
-563 -565 -651 0
563 565 -651 0
-563 565 651 0
563 -565 651 0
-567 -569 -653 0
567 569 -653 0
-567 569 653 0
567 -569 653 0
-571 -573 -655 0
571 573 -655 0
-571 573 655 0
571 -573 655 0
-575 -577 -657 0
575 577 -657 0
-575 577 657 0
575 -577 657 0
-581 -583 -659 0
581 583 -659 0
-581 583 659 0
581 -583 659 0
-585 -587 -661 0
585 587 -661 0
-585 587 661 0
585 -587 661 0
-589 -591 -663 0
589 591 -663 0
-589 591 663 0
589 -591 663 0
-593 -595 -665 0
593 595 -665 0
-593 595 665 0
593 -595 665 0
-597 -599 -667 0
597 599 -667 0
-597 599 667 0
597 -599 667 0
-601 -603 -669 0
601 603 -669 0
-601 603 669 0
601 -603 669 0
-605 -607 -671 0
605 607 -671 0
-605 607 671 0
605 -607 671 0
-609 -611 -673 0
609 611 -673 0
-609 611 673 0
609 -611 673 0
-613 -615 -675 0
613 615 -675 0
-613 615 675 0
613 -615 675 0
-617 -619 -677 0
617 619 -677 0
-617 619 677 0
617 -619 677 0
-621 -623 -679 0
621 623 -679 0
-621 623 679 0
621 -623 679 0
-625 -627 -681 0
625 627 -681 0
-625 627 681 0
625 -627 681 0
-629 -630 -683 0
629 630 -683 0
-629 630 683 0
629 -630 683 0
-628 -631 -685 0
628 631 -685 0
-628 631 685 0
628 -631 685 0
-633 -635 -687 0
633 635 -687 0
-633 635 687 0
633 -635 687 0
-637 -638 -689 0
637 638 -689 0
-637 638 689 0
637 -638 689 0
-639 -640 -691 0
639 640 -691 0
-639 640 691 0
639 -640 691 0
-641 -643 -693 0
641 643 -693 0
-641 643 693 0
641 -643 693 0
-645 -647 -695 0
645 647 -695 0
-645 647 695 0
645 -647 695 0
-649 -651 -697 0
649 651 -697 0
-649 651 697 0
649 -651 697 0
-653 -655 -699 0
653 655 -699 0
-653 655 699 0
653 -655 699 0
-657 -658 -701 0
657 658 -701 0
-657 658 701 0
657 -658 701 0
-659 -661 -703 0
659 661 -703 0
-659 661 703 0
659 -661 703 0
-663 -665 -705 0
663 665 -705 0
-663 665 705 0
663 -665 705 0
-667 -669 -707 0
667 669 -707 0
-667 669 707 0
667 -669 707 0
-671 -673 -709 0
671 673 -709 0
-671 673 709 0
671 -673 709 0
-675 -677 -711 0
675 677 -711 0
-675 677 711 0
675 -677 711 0
-679 -681 -713 0
679 681 -713 0
-679 681 713 0
679 -681 713 0
-683 -685 -715 0
683 685 -715 0
-683 685 715 0
683 -685 715 0
-687 -689 -717 0
687 689 -717 0
-687 689 717 0
687 -689 717 0
-691 -693 -719 0
691 693 -719 0
-691 693 719 0
691 -693 719 0
-695 -697 -721 0
695 697 -721 0
-695 697 721 0
695 -697 721 0
-699 -701 -723 0
699 701 -723 0
-699 701 723 0
699 -701 723 0
-703 -705 -725 0
703 705 -725 0
-703 705 725 0
703 -705 725 0
-707 -709 -727 0
707 709 -727 0
-707 709 727 0
707 -709 727 0
-711 -713 -729 0
711 713 -729 0
-711 713 729 0
711 -713 729 0
-715 -717 -731 0
715 717 -731 0
-715 717 731 0
715 -717 731 0
-719 -721 -733 0
719 721 -733 0
-719 721 733 0
719 -721 733 0
-723 -725 -735 0
723 725 -735 0
-723 725 735 0
723 -725 735 0
-727 -729 -737 0
727 729 -737 0
-727 729 737 0
727 -729 737 0
-731 -733 -739 0
731 733 -739 0
-731 733 739 0
731 -733 739 0
-735 -737 -739 0
735 737 -739 0
-735 737 739 0
735 -737 739 0
-54 -63 -742 0
54 63 -742 0
-54 63 742 0
54 -63 742 0
-72 -632 -744 0
72 632 -744 0
-72 632 744 0
72 -632 744 0
-634 -636 -746 0
634 636 -746 0
-634 636 746 0
634 -636 746 0
-642 -644 -749 0
642 644 -749 0
-642 644 749 0
642 -644 749 0
-646 -648 -750 0
646 648 -750 0
-646 648 750 0
646 -648 750 0
-650 -652 -752 0
650 652 -752 0
-650 652 752 0
650 -652 752 0
-654 -656 -754 0
654 656 -754 0
-654 656 754 0
654 -656 754 0
-660 -662 -756 0
660 662 -756 0
-660 662 756 0
660 -662 756 0
-664 -666 -758 0
664 666 -758 0
-664 666 758 0
664 -666 758 0
-668 -670 -760 0
668 670 -760 0
-668 670 760 0
668 -670 760 0
-672 -674 -762 0
672 674 -762 0
-672 674 762 0
672 -674 762 0
-676 -678 -764 0
676 678 -764 0
-676 678 764 0
676 -678 764 0
-680 -682 -766 0
680 682 -766 0
-680 682 766 0
680 -682 766 0
-684 -686 -768 0
684 686 -768 0
-684 686 768 0
684 -686 768 0
-688 -690 -770 0
688 690 -770 0
-688 690 770 0
688 -690 770 0
-692 -694 -772 0
692 694 -772 0
-692 694 772 0
692 -694 772 0
-696 -698 -774 0
696 698 -774 0
-696 698 774 0
696 -698 774 0
-700 -702 -776 0
700 702 -776 0
-700 702 776 0
700 -702 776 0
-704 -706 -778 0
704 706 -778 0
-704 706 778 0
704 -706 778 0
-708 -710 -780 0
708 710 -780 0
-708 710 780 0
708 -710 780 0
-712 -714 -782 0
712 714 -782 0
-712 714 782 0
712 -714 782 0
-716 -718 -784 0
716 718 -784 0
-716 718 784 0
716 -718 784 0
-720 -722 -786 0
720 722 -786 0
-720 722 786 0
720 -722 786 0
-724 -726 -788 0
724 726 -788 0
-724 726 788 0
724 -726 788 0
-728 -730 -790 0
728 730 -790 0
-728 730 790 0
728 -730 790 0
-732 -734 -792 0
732 734 -792 0
-732 734 792 0
732 -734 792 0
-736 -738 -794 0
736 738 -794 0
-736 738 794 0
736 -738 794 0
-740 -741 -796 0
740 741 -796 0
-740 741 796 0
740 -741 796 0
-739 -742 -798 0
739 742 -798 0
-739 742 798 0
739 -742 798 0
-744 -746 -800 0
744 746 -800 0
-744 746 800 0
744 -746 800 0
-747 -748 -802 0
747 748 -802 0
-747 748 802 0
747 -748 802 0
-749 -750 -804 0
749 750 -804 0
-749 750 804 0
749 -750 804 0
-752 -754 -806 0
752 754 -806 0
-752 754 806 0
752 -754 806 0
-755 -756 -808 0
755 756 -808 0
-755 756 808 0
755 -756 808 0
-758 -760 -810 0
758 760 -810 0
-758 760 810 0
758 -760 810 0
-762 -764 -812 0
762 764 -812 0
-762 764 812 0
762 -764 812 0
-766 -768 -814 0
766 768 -814 0
-766 768 814 0
766 -768 814 0
-770 -772 -816 0
770 772 -816 0
-770 772 816 0
770 -772 816 0
-774 -776 -818 0
774 776 -818 0
-774 776 818 0
774 -776 818 0
-778 -780 -820 0
778 780 -820 0
-778 780 820 0
778 -780 820 0
-782 -784 -822 0
782 784 -822 0
-782 784 822 0
782 -784 822 0
-786 -788 -824 0
786 788 -824 0
-786 788 824 0
786 -788 824 0
-790 -792 -826 0
790 792 -826 0
-790 792 826 0
790 -792 826 0
-794 -796 -828 0
794 796 -828 0
-794 796 828 0
794 -796 828 0
-798 -800 -830 0
798 800 -830 0
-798 800 830 0
798 -800 830 0
-802 -804 -832 0
802 804 -832 0
-802 804 832 0
802 -804 832 0
-806 -808 -834 0
806 808 -834 0
-806 808 834 0
806 -808 834 0
-810 -812 -836 0
810 812 -836 0
-810 812 836 0
810 -812 836 0
-814 -816 -838 0
814 816 -838 0
-814 816 838 0
814 -816 838 0
-818 -820 -840 0
818 820 -840 0
-818 820 840 0
818 -820 840 0
-822 -824 -842 0
822 824 -842 0
-822 824 842 0
822 -824 842 0
-826 -828 -844 0
826 828 -844 0
-826 828 844 0
826 -828 844 0
-830 -832 -846 0
830 832 -846 0
-830 832 846 0
830 -832 846 0
-834 -836 -848 0
834 836 -848 0
-834 836 848 0
834 -836 848 0
-838 -840 -850 0
838 840 -850 0
-838 840 850 0
838 -840 850 0
-842 -844 -852 0
842 844 -852 0
-842 844 852 0
842 -844 852 0
-846 -848 -854 0
846 848 -854 0
-846 848 854 0
846 -848 854 0
-850 -852 854 0
850 852 854 0
-850 852 -854 0
850 -852 -854 0
-64 -73 -856 0
64 73 -856 0
-64 73 856 0
64 -73 856 0
-743 -745 -858 0
743 745 -858 0
-743 745 858 0
743 -745 858 0
-751 -753 -861 0
751 753 -861 0
-751 753 861 0
751 -753 861 0
-757 -759 -863 0
757 759 -863 0
-757 759 863 0
757 -759 863 0
-761 -763 -864 0
761 763 -864 0
-761 763 864 0
761 -763 864 0
-765 -767 -866 0
765 767 -866 0
-765 767 866 0
765 -767 866 0
-769 -771 -868 0
769 771 -868 0
-769 771 868 0
769 -771 868 0
-773 -775 -870 0
773 775 -870 0
-773 775 870 0
773 -775 870 0
-777 -779 -872 0
777 779 -872 0
-777 779 872 0
777 -779 872 0
-781 -783 -874 0
781 783 -874 0
-781 783 874 0
781 -783 874 0
-785 -787 -876 0
785 787 -876 0
-785 787 876 0
785 -787 876 0
-789 -791 -878 0
789 791 -878 0
-789 791 878 0
789 -791 878 0
-793 -795 -880 0
793 795 -880 0
-793 795 880 0
793 -795 880 0
-797 -799 -882 0
797 799 -882 0
-797 799 882 0
797 -799 882 0
-801 -803 -884 0
801 803 -884 0
-801 803 884 0
801 -803 884 0
-805 -807 -886 0
805 807 -886 0
-805 807 886 0
805 -807 886 0
-809 -811 -888 0
809 811 -888 0
-809 811 888 0
809 -811 888 0
-813 -815 -890 0
813 815 -890 0
-813 815 890 0
813 -815 890 0
-817 -819 -892 0
817 819 -892 0
-817 819 892 0
817 -819 892 0
-821 -823 -894 0
821 823 -894 0
-821 823 894 0
821 -823 894 0
-825 -827 -896 0
825 827 -896 0
-825 827 896 0
825 -827 896 0
-829 -831 -898 0
829 831 -898 0
-829 831 898 0
829 -831 898 0
-833 -835 -900 0
833 835 -900 0
-833 835 900 0
833 -835 900 0
-837 -839 -902 0
837 839 -902 0
-837 839 902 0
837 -839 902 0
-841 -843 -904 0
841 843 -904 0
-841 843 904 0
841 -843 904 0
-845 -847 -906 0
845 847 -906 0
-845 847 906 0
845 -847 906 0
-849 -851 -908 0
849 851 -908 0
-849 851 908 0
849 -851 908 0
-853 -855 -910 0
853 855 -910 0
-853 855 910 0
853 -855 910 0
-856 -858 -913 0
856 858 -913 0
-856 858 913 0
856 -858 913 0
-859 -860 -914 0
859 860 -914 0
-859 860 914 0
859 -860 914 0
-861 -862 -916 0
861 862 -916 0
-861 862 916 0
861 -862 916 0
-863 -864 -918 0
863 864 -918 0
-863 864 918 0
863 -864 918 0
-866 -868 -920 0
866 868 -920 0
-866 868 920 0
866 -868 920 0
-870 -872 -922 0
870 872 -922 0
-870 872 922 0
870 -872 922 0
-874 -876 -924 0
874 876 -924 0
-874 876 924 0
874 -876 924 0
-878 -880 -926 0
878 880 -926 0
-878 880 926 0
878 -880 926 0
-882 -884 -928 0
882 884 -928 0
-882 884 928 0
882 -884 928 0
-886 -888 -930 0
886 888 -930 0
-886 888 930 0
886 -888 930 0
-890 -892 -932 0
890 892 -932 0
-890 892 932 0
890 -892 932 0
-894 -896 -934 0
894 896 -934 0
-894 896 934 0
894 -896 934 0
-898 -900 -936 0
898 900 -936 0
-898 900 936 0
898 -900 936 0
-902 -904 -938 0
902 904 -938 0
-902 904 938 0
902 -904 938 0
-906 -908 -940 0
906 908 -940 0
-906 908 940 0
906 -908 940 0
-910 -912 -942 0
910 912 -942 0
-910 912 942 0
910 -912 942 0
-913 -914 -944 0
913 914 -944 0
-913 914 944 0
913 -914 944 0
-916 -918 -946 0
916 918 -946 0
-916 918 946 0
916 -918 946 0
-920 -922 -948 0
920 922 -948 0
-920 922 948 0
920 -922 948 0
-924 -926 -950 0
924 926 -950 0
-924 926 950 0
924 -926 950 0
-928 -930 -952 0
928 930 -952 0
-928 930 952 0
928 -930 952 0
-932 -934 -954 0
932 934 -954 0
-932 934 954 0
932 -934 954 0
-936 -938 -956 0
936 938 -956 0
-936 938 956 0
936 -938 956 0
-940 -942 -958 0
940 942 -958 0
-940 942 958 0
940 -942 958 0
-944 -946 -960 0
944 946 -960 0
-944 946 960 0
944 -946 960 0
-948 -950 -962 0
948 950 -962 0
-948 950 962 0
948 -950 962 0
-952 -954 -964 0
952 954 -964 0
-952 954 964 0
952 -954 964 0
-956 -958 -966 0
956 958 -966 0
-956 958 966 0
956 -958 966 0
-960 -962 -968 0
960 962 -968 0
-960 962 968 0
960 -962 968 0
-964 -966 -968 0
964 966 -968 0
-964 966 968 0
964 -966 968 0
-74 -857 -971 0
74 857 -971 0
-74 857 971 0
74 -857 971 0
-865 -867 -975 0
865 867 -975 0
-865 867 975 0
865 -867 975 0
-869 -871 -977 0
869 871 -977 0
-869 871 977 0
869 -871 977 0
-873 -875 -979 0
873 875 -979 0
-873 875 979 0
873 -875 979 0
-877 -879 -981 0
877 879 -981 0
-877 879 981 0
877 -879 981 0
-881 -883 -983 0
881 883 -983 0
-881 883 983 0
881 -883 983 0
-885 -887 -985 0
885 887 -985 0
-885 887 985 0
885 -887 985 0
-889 -891 -987 0
889 891 -987 0
-889 891 987 0
889 -891 987 0
-893 -895 -989 0
893 895 -989 0
-893 895 989 0
893 -895 989 0
-897 -899 -991 0
897 899 -991 0
-897 899 991 0
897 -899 991 0
-901 -903 -993 0
901 903 -993 0
-901 903 993 0
901 -903 993 0
-905 -907 -995 0
905 907 -995 0
-905 907 995 0
905 -907 995 0
-909 -911 -997 0
909 911 -997 0
-909 911 997 0
909 -911 997 0
-915 -917 -1000 0
915 917 -1000 0
-915 917 1000 0
915 -917 1000 0
-919 -921 -1001 0
919 921 -1001 0
-919 921 1001 0
919 -921 1001 0
-923 -925 -1003 0
923 925 -1003 0
-923 925 1003 0
923 -925 1003 0
-927 -929 -1005 0
927 929 -1005 0
-927 929 1005 0
927 -929 1005 0
-931 -933 -1007 0
931 933 -1007 0
-931 933 1007 0
931 -933 1007 0
-935 -937 -1009 0
935 937 -1009 0
-935 937 1009 0
935 -937 1009 0
-939 -941 -1011 0
939 941 -1011 0
-939 941 1011 0
939 -941 1011 0
-943 -945 -1013 0
943 945 -1013 0
-943 945 1013 0
943 -945 1013 0
-947 -949 -1015 0
947 949 -1015 0
-947 949 1015 0
947 -949 1015 0
-951 -953 -1017 0
951 953 -1017 0
-951 953 1017 0
951 -953 1017 0
-955 -957 -1019 0
955 957 -1019 0
-955 957 1019 0
955 -957 1019 0
-959 -961 -1021 0
959 961 -1021 0
-959 961 1021 0
959 -961 1021 0
-963 -965 -1023 0
963 965 -1023 0
-963 965 1023 0
963 -965 1023 0
-967 -969 -1025 0
967 969 -1025 0
-967 969 1025 0
967 -969 1025 0
-968 -970 -1027 0
968 970 -1027 0
968 -970 1027 0
-968 970 1027 0
-971 -972 -1029 0
971 972 -1029 0
-971 972 1029 0
971 -972 1029 0
-973 -974 -1031 0
973 974 -1031 0
-973 974 1031 0
973 -974 1031 0
-975 -977 -1033 0
975 977 -1033 0
-975 977 1033 0
975 -977 1033 0
-979 -981 -1035 0
979 981 -1035 0
-979 981 1035 0
979 -981 1035 0
-983 -985 -1037 0
983 985 -1037 0
-983 985 1037 0
983 -985 1037 0
-987 -989 -1039 0
987 989 -1039 0
-987 989 1039 0
987 -989 1039 0
-991 -993 -1041 0
991 993 -1041 0
-991 993 1041 0
991 -993 1041 0
-995 -997 -1043 0
995 997 -1043 0
-995 997 1043 0
995 -997 1043 0
-999 -1000 -1045 0
999 1000 -1045 0
-999 1000 1045 0
999 -1000 1045 0
-1001 -1003 -1047 0
1001 1003 -1047 0
-1001 1003 1047 0
1001 -1003 1047 0
-1005 -1007 -1049 0
1005 1007 -1049 0
-1005 1007 1049 0
1005 -1007 1049 0
-1009 -1011 -1051 0
1009 1011 -1051 0
-1009 1011 1051 0
1009 -1011 1051 0
-1013 -1015 -1053 0
1013 1015 -1053 0
-1013 1015 1053 0
1013 -1015 1053 0
-1017 -1019 -1055 0
1017 1019 -1055 0
-1017 1019 1055 0
1017 -1019 1055 0
-1021 -1023 -1057 0
1021 1023 -1057 0
-1021 1023 1057 0
1021 -1023 1057 0
-1025 -1027 -1059 0
1025 1027 -1059 0
-1025 1027 1059 0
1025 -1027 1059 0
-1029 -1031 -1061 0
1029 1031 -1061 0
-1029 1031 1061 0
1029 -1031 1061 0
-1033 -1035 -1063 0
1033 1035 -1063 0
-1033 1035 1063 0
1033 -1035 1063 0
-1037 -1039 -1065 0
1037 1039 -1065 0
-1037 1039 1065 0
1037 -1039 1065 0
-1041 -1043 -1067 0
1041 1043 -1067 0
-1041 1043 1067 0
1041 -1043 1067 0
-1045 -1047 -1069 0
1045 1047 -1069 0
-1045 1047 1069 0
1045 -1047 1069 0
-1049 -1051 -1071 0
1049 1051 -1071 0
-1049 1051 1071 0
1049 -1051 1071 0
-1053 -1055 -1073 0
1053 1055 -1073 0
-1053 1055 1073 0
1053 -1055 1073 0
-1057 -1059 -1075 0
1057 1059 -1075 0
-1057 1059 1075 0
1057 -1059 1075 0
-1061 -1063 -1077 0
1061 1063 -1077 0
-1061 1063 1077 0
1061 -1063 1077 0
-1065 -1067 -1079 0
1065 1067 -1079 0
-1065 1067 1079 0
1065 -1067 1079 0
-1069 -1071 -1081 0
1069 1071 -1081 0
-1069 1071 1081 0
1069 -1071 1081 0
-1073 -1075 -1083 0
1073 1075 -1083 0
-1073 1075 1083 0
1073 -1075 1083 0
-1077 -1079 -1085 0
1077 1079 -1085 0
-1077 1079 1085 0
1077 -1079 1085 0
-1081 -1083 1085 0
1081 1083 1085 0
-1081 1083 -1085 0
1081 -1083 -1085 0
-976 -978 -1143 0
976 978 -1143 0
-976 978 1143 0
976 -978 1143 0
-980 -982 -1090 0
980 982 -1090 0
-980 982 1090 0
980 -982 1090 0
-984 -986 -1092 0
984 986 -1092 0
-984 986 1092 0
984 -986 1092 0
-988 -990 -1094 0
988 990 -1094 0
-988 990 1094 0
988 -990 1094 0
-992 -994 -1096 0
992 994 -1096 0
-992 994 1096 0
992 -994 1096 0
-996 -998 -1098 0
996 998 -1098 0
-996 998 1098 0
996 -998 1098 0
-1002 -1004 -1101 0
1002 1004 -1101 0
-1002 1004 1101 0
1002 -1004 1101 0
-1006 -1008 -1102 0
1006 1008 -1102 0
-1006 1008 1102 0
1006 -1008 1102 0
-1010 -1012 -1104 0
1010 1012 -1104 0
-1010 1012 1104 0
1010 -1012 1104 0
-1014 -1016 -1106 0
1014 1016 -1106 0
-1014 1016 1106 0
1014 -1016 1106 0
-1018 -1020 -1108 0
1018 1020 -1108 0
-1018 1020 1108 0
1018 -1020 1108 0
-1022 -1024 -1110 0
1022 1024 -1110 0
-1022 1024 1110 0
1022 -1024 1110 0
-1026 -1028 -1112 0
1026 1028 -1112 0
-1026 1028 1112 0
1026 -1028 1112 0
-1030 -1032 -1114 0
1030 1032 -1114 0
-1030 1032 1114 0
1030 -1032 1114 0
-1034 -1036 -1116 0
1034 1036 -1116 0
-1034 1036 1116 0
1034 -1036 1116 0
-1038 -1040 -1118 0
1038 1040 -1118 0
-1038 1040 1118 0
1038 -1040 1118 0
-1042 -1044 -1120 0
1042 1044 -1120 0
-1042 1044 1120 0
1042 -1044 1120 0
-1046 -1048 -1122 0
1046 1048 -1122 0
-1046 1048 1122 0
1046 -1048 1122 0
-1050 -1052 -1124 0
1050 1052 -1124 0
-1050 1052 1124 0
1050 -1052 1124 0
-1054 -1056 -1126 0
1054 1056 -1126 0
-1054 1056 1126 0
1054 -1056 1126 0
-1058 -1060 -1128 0
1058 1060 -1128 0
-1058 1060 1128 0
1058 -1060 1128 0
-1062 -1064 -1130 0
1062 1064 -1130 0
-1062 1064 1130 0
1062 -1064 1130 0
-1066 -1068 -1132 0
1066 1068 -1132 0
-1066 1068 1132 0
1066 -1068 1132 0
-1070 -1072 -1134 0
1070 1072 -1134 0
-1070 1072 1134 0
1070 -1072 1134 0
-1074 -1076 -1136 0
1074 1076 -1136 0
-1074 1076 1136 0
1074 -1076 1136 0
-1078 -1080 -1138 0
1078 1080 -1138 0
-1078 1080 1138 0
1078 -1080 1138 0
-1082 -1084 -1140 0
1082 1084 -1140 0
-1082 1084 1140 0
1082 -1084 1140 0
-1086 -1087 -1142 0
1086 1087 -1142 0
-1086 1087 1142 0
1086 -1087 1142 0
-1090 -1092 -1144 0
1090 1092 -1144 0
-1090 1092 1144 0
1090 -1092 1144 0
-1094 -1096 -1145 0
1094 1096 -1145 0
-1094 1096 1145 0
1094 -1096 1145 0
-1098 -1100 -1147 0
1098 1100 -1147 0
-1098 1100 1147 0
1098 -1100 1147 0
-1101 -1102 -1149 0
1101 1102 -1149 0
-1101 1102 1149 0
1101 -1102 1149 0
-1104 -1106 -1151 0
1104 1106 -1151 0
-1104 1106 1151 0
1104 -1106 1151 0
-1108 -1110 -1153 0
1108 1110 -1153 0
-1108 1110 1153 0
1108 -1110 1153 0
-1112 -1114 -1155 0
1112 1114 -1155 0
-1112 1114 1155 0
1112 -1114 1155 0
-1116 -1118 -1157 0
1116 1118 -1157 0
-1116 1118 1157 0
1116 -1118 1157 0
-1120 -1122 -1159 0
1120 1122 -1159 0
-1120 1122 1159 0
1120 -1122 1159 0
-1124 -1126 -1161 0
1124 1126 -1161 0
-1124 1126 1161 0
1124 -1126 1161 0
-1128 -1130 -1163 0
1128 1130 -1163 0
-1128 1130 1163 0
1128 -1130 1163 0
-1132 -1134 -1165 0
1132 1134 -1165 0
-1132 1134 1165 0
1132 -1134 1165 0
-1136 -1138 -1167 0
1136 1138 -1167 0
-1136 1138 1167 0
1136 -1138 1167 0
-1140 -1142 -1169 0
1140 1142 -1169 0
-1140 1142 1169 0
1140 -1142 1169 0
-1088 -1143 -1171 0
1088 1143 -1171 0
-1088 1143 1171 0
1088 -1143 1171 0
-1144 -1145 -1173 0
1144 1145 -1173 0
-1144 1145 1173 0
1144 -1145 1173 0
-1147 -1149 -1175 0
1147 1149 -1175 0
-1147 1149 1175 0
1147 -1149 1175 0
-1151 -1153 -1177 0
1151 1153 -1177 0
-1151 1153 1177 0
1151 -1153 1177 0
-1155 -1157 -1179 0
1155 1157 -1179 0
-1155 1157 1179 0
1155 -1157 1179 0
-1159 -1161 -1181 0
1159 1161 -1181 0
-1159 1161 1181 0
1159 -1161 1181 0
-1163 -1165 -1183 0
1163 1165 -1183 0
-1163 1165 1183 0
1163 -1165 1183 0
-1167 -1169 -1185 0
1167 1169 -1185 0
-1167 1169 1185 0
1167 -1169 1185 0
-1171 -1173 -1187 0
1171 1173 -1187 0
-1171 1173 1187 0
1171 -1173 1187 0
-1175 -1177 -1189 0
1175 1177 -1189 0
-1175 1177 1189 0
1175 -1177 1189 0
-1179 -1181 -1191 0
1179 1181 -1191 0
-1179 1181 1191 0
1179 -1181 1191 0
-1183 -1185 -1193 0
1183 1185 -1193 0
-1183 1185 1193 0
1183 -1185 1193 0
-1187 -1189 -1195 0
1187 1189 -1195 0
-1187 1189 1195 0
1187 -1189 1195 0
-1191 -1193 -1195 0
1191 1193 -1195 0
-1191 1193 1195 0
1191 -1193 1195 0
-1089 -1091 -1249 0
1089 1091 -1249 0
-1089 1091 1249 0
1089 -1091 1249 0
-1093 -1095 -1198 0
1093 1095 -1198 0
-1093 1095 1198 0
1093 -1095 1198 0
-1097 -1099 -1200 0
1097 1099 -1200 0
-1097 1099 1200 0
1097 -1099 1200 0
-1103 -1105 -1203 0
1103 1105 -1203 0
-1103 1105 1203 0
1103 -1105 1203 0
-1107 -1109 -1204 0
1107 1109 -1204 0
-1107 1109 1204 0
1107 -1109 1204 0
-1111 -1113 -1206 0
1111 1113 -1206 0
-1111 1113 1206 0
1111 -1113 1206 0
-1115 -1117 -1208 0
1115 1117 -1208 0
-1115 1117 1208 0
1115 -1117 1208 0
-1119 -1121 -1210 0
1119 1121 -1210 0
-1119 1121 1210 0
1119 -1121 1210 0
-1123 -1125 -1212 0
1123 1125 -1212 0
-1123 1125 1212 0
1123 -1125 1212 0
-1127 -1129 -1214 0
1127 1129 -1214 0
-1127 1129 1214 0
1127 -1129 1214 0
-1131 -1133 -1216 0
1131 1133 -1216 0
-1131 1133 1216 0
1131 -1133 1216 0
-1135 -1137 -1218 0
1135 1137 -1218 0
-1135 1137 1218 0
1135 -1137 1218 0
-1139 -1141 -1220 0
1139 1141 -1220 0
-1139 1141 1220 0
1139 -1141 1220 0
-1146 -1148 -1223 0
1146 1148 -1223 0
-1146 1148 1223 0
1146 -1148 1223 0
-1150 -1152 -1224 0
1150 1152 -1224 0
-1150 1152 1224 0
1150 -1152 1224 0
-1154 -1156 -1226 0
1154 1156 -1226 0
-1154 1156 1226 0
1154 -1156 1226 0
-1158 -1160 -1228 0
1158 1160 -1228 0
-1158 1160 1228 0
1158 -1160 1228 0
-1162 -1164 -1230 0
1162 1164 -1230 0
-1162 1164 1230 0
1162 -1164 1230 0
-1166 -1168 -1232 0
1166 1168 -1232 0
-1166 1168 1232 0
1166 -1168 1232 0
-1170 -1172 -1234 0
1170 1172 -1234 0
-1170 1172 1234 0
1170 -1172 1234 0
-1174 -1176 -1236 0
1174 1176 -1236 0
-1174 1176 1236 0
1174 -1176 1236 0
-1178 -1180 -1238 0
1178 1180 -1238 0
-1178 1180 1238 0
1178 -1180 1238 0
-1182 -1184 -1240 0
1182 1184 -1240 0
-1182 1184 1240 0
1182 -1184 1240 0
-1186 -1188 -1242 0
1186 1188 -1242 0
-1186 1188 1242 0
1186 -1188 1242 0
-1190 -1192 -1244 0
1190 1192 -1244 0
-1190 1192 1244 0
1190 -1192 1244 0
-1194 -1196 -1246 0
1194 1196 -1246 0
-1194 1196 1246 0
1194 -1196 1246 0
-1195 -1197 -1248 0
1195 1197 -1248 0
1195 -1197 1248 0
-1195 1197 1248 0
-1198 -1200 -1250 0
1198 1200 -1250 0
-1198 1200 1250 0
1198 -1200 1250 0
-1202 -1203 -1252 0
1202 1203 -1252 0
-1202 1203 1252 0
1202 -1203 1252 0
-1204 -1206 -1254 0
1204 1206 -1254 0
-1204 1206 1254 0
1204 -1206 1254 0
-1208 -1210 -1256 0
1208 1210 -1256 0
-1208 1210 1256 0
1208 -1210 1256 0
-1212 -1214 -1258 0
1212 1214 -1258 0
-1212 1214 1258 0
1212 -1214 1258 0
-1216 -1218 -1260 0
1216 1218 -1260 0
-1216 1218 1260 0
1216 -1218 1260 0
-1220 -1221 -1262 0
1220 1221 -1262 0
-1220 1221 1262 0
1220 -1221 1262 0
-1222 -1223 -1264 0
1222 1223 -1264 0
-1222 1223 1264 0
1222 -1223 1264 0
-1224 -1226 -1266 0
1224 1226 -1266 0
-1224 1226 1266 0
1224 -1226 1266 0
-1228 -1230 -1268 0
1228 1230 -1268 0
-1228 1230 1268 0
1228 -1230 1268 0
-1232 -1234 -1270 0
1232 1234 -1270 0
-1232 1234 1270 0
1232 -1234 1270 0
-1236 -1238 -1272 0
1236 1238 -1272 0
-1236 1238 1272 0
1236 -1238 1272 0
-1240 -1242 -1274 0
1240 1242 -1274 0
-1240 1242 1274 0
1240 -1242 1274 0
-1244 -1246 -1276 0
1244 1246 -1276 0
-1244 1246 1276 0
1244 -1246 1276 0
-1248 -1249 -1278 0
1248 1249 -1278 0
-1248 1249 1278 0
1248 -1249 1278 0
-1250 -1252 -1280 0
1250 1252 -1280 0
-1250 1252 1280 0
1250 -1252 1280 0
-1254 -1256 -1282 0
1254 1256 -1282 0
-1254 1256 1282 0
1254 -1256 1282 0
-1258 -1260 -1284 0
1258 1260 -1284 0
-1258 1260 1284 0
1258 -1260 1284 0
-1262 -1264 -1286 0
1262 1264 -1286 0
-1262 1264 1286 0
1262 -1264 1286 0
-1266 -1268 -1288 0
1266 1268 -1288 0
-1266 1268 1288 0
1266 -1268 1288 0
-1270 -1272 -1290 0
1270 1272 -1290 0
-1270 1272 1290 0
1270 -1272 1290 0
-1274 -1276 -1292 0
1274 1276 -1292 0
-1274 1276 1292 0
1274 -1276 1292 0
-1278 -1280 -1294 0
1278 1280 -1294 0
-1278 1280 1294 0
1278 -1280 1294 0
-1282 -1284 -1296 0
1282 1284 -1296 0
-1282 1284 1296 0
1282 -1284 1296 0
-1286 -1288 -1298 0
1286 1288 -1298 0
-1286 1288 1298 0
1286 -1288 1298 0
-1290 -1292 -1300 0
1290 1292 -1300 0
-1290 1292 1300 0
1290 -1292 1300 0
-1294 -1296 -1302 0
1294 1296 -1302 0
-1294 1296 1302 0
1294 -1296 1302 0
-1298 -1300 -1302 0
1298 1300 -1302 0
-1298 1300 1302 0
1298 -1300 1302 0
-1199 -1201 -1306 0
1199 1201 -1306 0
-1199 1201 1306 0
1199 -1201 1306 0
-1205 -1207 -1308 0
1205 1207 -1308 0
-1205 1207 1308 0
1205 -1207 1308 0
-1209 -1211 -1309 0
1209 1211 -1309 0
-1209 1211 1309 0
1209 -1211 1309 0
-1213 -1215 -1311 0
1213 1215 -1311 0
-1213 1215 1311 0
1213 -1215 1311 0
-1217 -1219 -1313 0
1217 1219 -1313 0
-1217 1219 1313 0
1217 -1219 1313 0
-1225 -1227 -1316 0
1225 1227 -1316 0
-1225 1227 1316 0
1225 -1227 1316 0
-1229 -1231 -1317 0
1229 1231 -1317 0
-1229 1231 1317 0
1229 -1231 1317 0
-1233 -1235 -1319 0
1233 1235 -1319 0
-1233 1235 1319 0
1233 -1235 1319 0
-1237 -1239 -1321 0
1237 1239 -1321 0
-1237 1239 1321 0
1237 -1239 1321 0
-1241 -1243 -1323 0
1241 1243 -1323 0
-1241 1243 1323 0
1241 -1243 1323 0
-1245 -1247 -1325 0
1245 1247 -1325 0
-1245 1247 1325 0
1245 -1247 1325 0
-1251 -1253 -1327 0
1251 1253 -1327 0
-1251 1253 1327 0
1251 -1253 1327 0
-1255 -1257 -1329 0
1255 1257 -1329 0
-1255 1257 1329 0
1255 -1257 1329 0
-1259 -1261 -1331 0
1259 1261 -1331 0
-1259 1261 1331 0
1259 -1261 1331 0
-1263 -1265 -1333 0
1263 1265 -1333 0
-1263 1265 1333 0
1263 -1265 1333 0
-1267 -1269 -1335 0
1267 1269 -1335 0
-1267 1269 1335 0
1267 -1269 1335 0
-1271 -1273 -1337 0
1271 1273 -1337 0
-1271 1273 1337 0
1271 -1273 1337 0
-1275 -1277 -1339 0
1275 1277 -1339 0
-1275 1277 1339 0
1275 -1277 1339 0
-1279 -1281 -1341 0
1279 1281 -1341 0
-1279 1281 1341 0
1279 -1281 1341 0
-1283 -1285 -1343 0
1283 1285 -1343 0
-1283 1285 1343 0
1283 -1285 1343 0
-1287 -1289 -1345 0
1287 1289 -1345 0
-1287 1289 1345 0
1287 -1289 1345 0
-1291 -1293 -1347 0
1291 1293 -1347 0
-1291 1293 1347 0
1291 -1293 1347 0
-1295 -1297 -1349 0
1295 1297 -1349 0
-1295 1297 1349 0
1295 -1297 1349 0
-1299 -1301 -1351 0
1299 1301 -1351 0
-1299 1301 1351 0
1299 -1301 1351 0
-1303 -1304 -1353 0
1303 1304 -1353 0
-1303 1304 1353 0
1303 -1304 1353 0
-1302 -1305 -1355 0
1302 1305 -1355 0
-1302 1305 1355 0
1302 -1305 1355 0
-1306 -1307 -1357 0
1306 1307 -1357 0
-1306 1307 1357 0
1306 -1307 1357 0
-1308 -1309 -1359 0
1308 1309 -1359 0
-1308 1309 1359 0
1308 -1309 1359 0
-1311 -1313 -1361 0
1311 1313 -1361 0
-1311 1313 1361 0
1311 -1313 1361 0
-1314 -1315 -1363 0
1314 1315 -1363 0
-1314 1315 1363 0
1314 -1315 1363 0
-1316 -1317 -1365 0
1316 1317 -1365 0
-1316 1317 1365 0
1316 -1317 1365 0
-1319 -1321 -1367 0
1319 1321 -1367 0
-1319 1321 1367 0
1319 -1321 1367 0
-1323 -1325 -1369 0
1323 1325 -1369 0
-1323 1325 1369 0
1323 -1325 1369 0
-1326 -1327 -1371 0
1326 1327 -1371 0
-1326 1327 1371 0
1326 -1327 1371 0
-1329 -1331 -1373 0
1329 1331 -1373 0
-1329 1331 1373 0
1329 -1331 1373 0
-1333 -1335 -1375 0
1333 1335 -1375 0
-1333 1335 1375 0
1333 -1335 1375 0
-1337 -1339 -1377 0
1337 1339 -1377 0
-1337 1339 1377 0
1337 -1339 1377 0
-1341 -1343 -1379 0
1341 1343 -1379 0
-1341 1343 1379 0
1341 -1343 1379 0
-1345 -1347 -1381 0
1345 1347 -1381 0
-1345 1347 1381 0
1345 -1347 1381 0
-1349 -1351 -1383 0
1349 1351 -1383 0
-1349 1351 1383 0
1349 -1351 1383 0
-1353 -1355 -1385 0
1353 1355 -1385 0
-1353 1355 1385 0
1353 -1355 1385 0
-1357 -1359 -1387 0
1357 1359 -1387 0
-1357 1359 1387 0
1357 -1359 1387 0
-1361 -1363 -1389 0
1361 1363 -1389 0
-1361 1363 1389 0
1361 -1363 1389 0
-1365 -1367 -1391 0
1365 1367 -1391 0
-1365 1367 1391 0
1365 -1367 1391 0
-1369 -1371 -1393 0
1369 1371 -1393 0
-1369 1371 1393 0
1369 -1371 1393 0
-1373 -1375 -1395 0
1373 1375 -1395 0
-1373 1375 1395 0
1373 -1375 1395 0
-1377 -1379 -1397 0
1377 1379 -1397 0
-1377 1379 1397 0
1377 -1379 1397 0
-1381 -1383 -1399 0
1381 1383 -1399 0
-1381 1383 1399 0
1381 -1383 1399 0
-1385 -1387 -1401 0
1385 1387 -1401 0
-1385 1387 1401 0
1385 -1387 1401 0
-1389 -1391 -1403 0
1389 1391 -1403 0
-1389 1391 1403 0
1389 -1391 1403 0
-1393 -1395 -1405 0
1393 1395 -1405 0
-1393 1395 1405 0
1393 -1395 1405 0
-1397 -1399 -1407 0
1397 1399 -1407 0
-1397 1399 1407 0
1397 -1399 1407 0
-1401 -1403 -1409 0
1401 1403 -1409 0
-1401 1403 1409 0
1401 -1403 1409 0
-1405 -1407 -1409 0
1405 1407 -1409 0
-1405 1407 1409 0
1405 -1407 1409 0
-1310 -1312 -1414 0
1310 1312 -1414 0
-1310 1312 1414 0
1310 -1312 1414 0
-1318 -1320 -1417 0
1318 1320 -1417 0
-1318 1320 1417 0
1318 -1320 1417 0
-1322 -1324 -1418 0
1322 1324 -1418 0
-1322 1324 1418 0
1322 -1324 1418 0
-1328 -1330 -1420 0
1328 1330 -1420 0
-1328 1330 1420 0
1328 -1330 1420 0
-1332 -1334 -1422 0
1332 1334 -1422 0
-1332 1334 1422 0
1332 -1334 1422 0
-1336 -1338 -1424 0
1336 1338 -1424 0
-1336 1338 1424 0
1336 -1338 1424 0
-1340 -1342 -1426 0
1340 1342 -1426 0
-1340 1342 1426 0
1340 -1342 1426 0
-1344 -1346 -1428 0
1344 1346 -1428 0
-1344 1346 1428 0
1344 -1346 1428 0
-1348 -1350 -1430 0
1348 1350 -1430 0
-1348 1350 1430 0
1348 -1350 1430 0
-1352 -1354 -1432 0
1352 1354 -1432 0
-1352 1354 1432 0
1352 -1354 1432 0
-1356 -1358 -1434 0
1356 1358 -1434 0
-1356 1358 1434 0
1356 -1358 1434 0
-1360 -1362 -1436 0
1360 1362 -1436 0
-1360 1362 1436 0
1360 -1362 1436 0
-1364 -1366 -1438 0
1364 1366 -1438 0
-1364 1366 1438 0
1364 -1366 1438 0
-1368 -1370 -1440 0
1368 1370 -1440 0
-1368 1370 1440 0
1368 -1370 1440 0
-1372 -1374 -1442 0
1372 1374 -1442 0
-1372 1374 1442 0
1372 -1374 1442 0
-1376 -1378 -1444 0
1376 1378 -1444 0
-1376 1378 1444 0
1376 -1378 1444 0
-1380 -1382 -1446 0
1380 1382 -1446 0
-1380 1382 1446 0
1380 -1382 1446 0
-1384 -1386 -1448 0
1384 1386 -1448 0
-1384 1386 1448 0
1384 -1386 1448 0
-1388 -1390 -1450 0
1388 1390 -1450 0
-1388 1390 1450 0
1388 -1390 1450 0
-1392 -1394 -1452 0
1392 1394 -1452 0
-1392 1394 1452 0
1392 -1394 1452 0
-1396 -1398 -1454 0
1396 1398 -1454 0
-1396 1398 1454 0
1396 -1398 1454 0
-1400 -1402 -1456 0
1400 1402 -1456 0
-1400 1402 1456 0
1400 -1402 1456 0
-1404 -1406 -1458 0
1404 1406 -1458 0
-1404 1406 1458 0
1404 -1406 1458 0
-1408 -1410 -1460 0
1408 1410 -1460 0
-1408 1410 1460 0
1408 -1410 1460 0
-1409 -1411 -1462 0
1409 1411 -1462 0
1409 -1411 1462 0
-1409 1411 1462 0
-1412 -1413 -1464 0
1412 1413 -1464 0
-1412 1413 1464 0
1412 -1413 1464 0
-1414 -1415 -1466 0
1414 1415 -1466 0
-1414 1415 1466 0
1414 -1415 1466 0
-1416 -1417 -1468 0
1416 1417 -1468 0
-1416 1417 1468 0
1416 -1417 1468 0
-1418 -1419 -1470 0
1418 1419 -1470 0
-1418 1419 1470 0
1418 -1419 1470 0
-1420 -1422 -1472 0
1420 1422 -1472 0
-1420 1422 1472 0
1420 -1422 1472 0
-1424 -1426 -1474 0
1424 1426 -1474 0
-1424 1426 1474 0
1424 -1426 1474 0
-1428 -1430 -1476 0
1428 1430 -1476 0
-1428 1430 1476 0
1428 -1430 1476 0
-1432 -1434 -1478 0
1432 1434 -1478 0
-1432 1434 1478 0
1432 -1434 1478 0
-1436 -1438 -1480 0
1436 1438 -1480 0
-1436 1438 1480 0
1436 -1438 1480 0
-1440 -1442 -1482 0
1440 1442 -1482 0
-1440 1442 1482 0
1440 -1442 1482 0
-1444 -1446 -1484 0
1444 1446 -1484 0
-1444 1446 1484 0
1444 -1446 1484 0
-1448 -1450 -1486 0
1448 1450 -1486 0
-1448 1450 1486 0
1448 -1450 1486 0
-1452 -1454 -1488 0
1452 1454 -1488 0
-1452 1454 1488 0
1452 -1454 1488 0
-1456 -1458 -1490 0
1456 1458 -1490 0
-1456 1458 1490 0
1456 -1458 1490 0
-1460 -1462 -1492 0
1460 1462 -1492 0
-1460 1462 1492 0
1460 -1462 1492 0
-1464 -1466 -1494 0
1464 1466 -1494 0
-1464 1466 1494 0
1464 -1466 1494 0
-1468 -1470 -1496 0
1468 1470 -1496 0
-1468 1470 1496 0
1468 -1470 1496 0
-1472 -1474 -1498 0
1472 1474 -1498 0
-1472 1474 1498 0
1472 -1474 1498 0
-1476 -1478 -1500 0
1476 1478 -1500 0
-1476 1478 1500 0
1476 -1478 1500 0
-1480 -1482 -1502 0
1480 1482 -1502 0
-1480 1482 1502 0
1480 -1482 1502 0
-1484 -1486 -1504 0
1484 1486 -1504 0
-1484 1486 1504 0
1484 -1486 1504 0
-1488 -1490 -1506 0
1488 1490 -1506 0
-1488 1490 1506 0
1488 -1490 1506 0
-1492 -1494 -1508 0
1492 1494 -1508 0
-1492 1494 1508 0
1492 -1494 1508 0
-1496 -1498 -1510 0
1496 1498 -1510 0
-1496 1498 1510 0
1496 -1498 1510 0
-1500 -1502 -1512 0
1500 1502 -1512 0
-1500 1502 1512 0
1500 -1502 1512 0
-1504 -1506 -1514 0
1504 1506 -1514 0
-1504 1506 1514 0
1504 -1506 1514 0
-1508 -1510 -1516 0
1508 1510 -1516 0
-1508 1510 1516 0
1508 -1510 1516 0
-1512 -1514 -1516 0
1512 1514 -1516 0
-1512 1514 1516 0
1512 -1514 1516 0
-1421 -1423 -1522 0
1421 1423 -1522 0
-1421 1423 1522 0
1421 -1423 1522 0
-1425 -1427 -1524 0
1425 1427 -1524 0
-1425 1427 1524 0
1425 -1427 1524 0
-1429 -1431 -1526 0
1429 1431 -1526 0
-1429 1431 1526 0
1429 -1431 1526 0
-1433 -1435 -1528 0
1433 1435 -1528 0
-1433 1435 1528 0
1433 -1435 1528 0
-1437 -1439 -1530 0
1437 1439 -1530 0
-1437 1439 1530 0
1437 -1439 1530 0
-1441 -1443 -1532 0
1441 1443 -1532 0
-1441 1443 1532 0
1441 -1443 1532 0
-1445 -1447 -1534 0
1445 1447 -1534 0
-1445 1447 1534 0
1445 -1447 1534 0
-1449 -1451 -1536 0
1449 1451 -1536 0
-1449 1451 1536 0
1449 -1451 1536 0
-1453 -1455 -1538 0
1453 1455 -1538 0
-1453 1455 1538 0
1453 -1455 1538 0
-1457 -1459 -1540 0
1457 1459 -1540 0
-1457 1459 1540 0
1457 -1459 1540 0
-1461 -1463 -1542 0
1461 1463 -1542 0
-1461 1463 1542 0
1461 -1463 1542 0
-1465 -1467 -1544 0
1465 1467 -1544 0
-1465 1467 1544 0
1465 -1467 1544 0
-1469 -1471 -1546 0
1469 1471 -1546 0
-1469 1471 1546 0
1469 -1471 1546 0
-1473 -1475 -1548 0
1473 1475 -1548 0
-1473 1475 1548 0
1473 -1475 1548 0
-1477 -1479 -1550 0
1477 1479 -1550 0
-1477 1479 1550 0
1477 -1479 1550 0
-1481 -1483 -1552 0
1481 1483 -1552 0
-1481 1483 1552 0
1481 -1483 1552 0
-1485 -1487 -1554 0
1485 1487 -1554 0
-1485 1487 1554 0
1485 -1487 1554 0
-1489 -1491 -1556 0
1489 1491 -1556 0
-1489 1491 1556 0
1489 -1491 1556 0
-1493 -1495 -1558 0
1493 1495 -1558 0
-1493 1495 1558 0
1493 -1495 1558 0
-1497 -1499 -1560 0
1497 1499 -1560 0
-1497 1499 1560 0
1497 -1499 1560 0
-1501 -1503 -1562 0
1501 1503 -1562 0
-1501 1503 1562 0
1501 -1503 1562 0
-1505 -1507 -1564 0
1505 1507 -1564 0
-1505 1507 1564 0
1505 -1507 1564 0
-1509 -1511 -1566 0
1509 1511 -1566 0
-1509 1511 1566 0
1509 -1511 1566 0
-1513 -1515 -1568 0
1513 1515 -1568 0
-1513 1515 1568 0
1513 -1515 1568 0
-1517 -1518 -1570 0
1517 1518 -1570 0
-1517 1518 1570 0
1517 -1518 1570 0
-1519 -1520 -1571 0
1519 1520 -1571 0
-1519 1520 1571 0
1519 -1520 1571 0
-1521 -1522 -1573 0
1521 1522 -1573 0
-1521 1522 1573 0
1521 -1522 1573 0
-1524 -1526 -1575 0
1524 1526 -1575 0
-1524 1526 1575 0
1524 -1526 1575 0
-1528 -1530 -1577 0
1528 1530 -1577 0
-1528 1530 1577 0
1528 -1530 1577 0
-1532 -1534 -1579 0
1532 1534 -1579 0
-1532 1534 1579 0
1532 -1534 1579 0
-1536 -1538 -1581 0
1536 1538 -1581 0
-1536 1538 1581 0
1536 -1538 1581 0
-1540 -1542 -1583 0
1540 1542 -1583 0
-1540 1542 1583 0
1540 -1542 1583 0
-1544 -1546 -1585 0
1544 1546 -1585 0
-1544 1546 1585 0
1544 -1546 1585 0
-1548 -1550 -1587 0
1548 1550 -1587 0
-1548 1550 1587 0
1548 -1550 1587 0
-1552 -1554 -1589 0
1552 1554 -1589 0
-1552 1554 1589 0
1552 -1554 1589 0
-1556 -1558 -1591 0
1556 1558 -1591 0
-1556 1558 1591 0
1556 -1558 1591 0
-1560 -1562 -1593 0
1560 1562 -1593 0
-1560 1562 1593 0
1560 -1562 1593 0
-1564 -1566 -1595 0
1564 1566 -1595 0
-1564 1566 1595 0
1564 -1566 1595 0
-1568 -1570 -1597 0
1568 1570 -1597 0
-1568 1570 1597 0
1568 -1570 1597 0
-1516 -1571 -1599 0
1516 1571 -1599 0
-1516 1571 1599 0
1516 -1571 1599 0
-1573 -1575 -1601 0
1573 1575 -1601 0
-1573 1575 1601 0
1573 -1575 1601 0
-1577 -1579 -1603 0
1577 1579 -1603 0
-1577 1579 1603 0
1577 -1579 1603 0
-1581 -1583 -1605 0
1581 1583 -1605 0
-1581 1583 1605 0
1581 -1583 1605 0
-1585 -1587 -1607 0
1585 1587 -1607 0
-1585 1587 1607 0
1585 -1587 1607 0
-1589 -1591 -1609 0
1589 1591 -1609 0
-1589 1591 1609 0
1589 -1591 1609 0
-1593 -1595 -1611 0
1593 1595 -1611 0
-1593 1595 1611 0
1593 -1595 1611 0
-1597 -1599 -1613 0
1597 1599 -1613 0
-1597 1599 1613 0
1597 -1599 1613 0
-1601 -1603 -1615 0
1601 1603 -1615 0
-1601 1603 1615 0
1601 -1603 1615 0
-1605 -1607 -1617 0
1605 1607 -1617 0
-1605 1607 1617 0
1605 -1607 1617 0
-1609 -1611 -1619 0
1609 1611 -1619 0
-1609 1611 1619 0
1609 -1611 1619 0
-1613 -1615 -1621 0
1613 1615 -1621 0
-1613 1615 1621 0
1613 -1615 1621 0
-1617 -1619 -1621 0
1617 1619 -1621 0
-1617 1619 1621 0
1617 -1619 1621 0
-1523 -1525 -1624 0
1523 1525 -1624 0
-1523 1525 1624 0
1523 -1525 1624 0
-1527 -1529 -1626 0
1527 1529 -1626 0
-1527 1529 1626 0
1527 -1529 1626 0
-1531 -1533 -1628 0
1531 1533 -1628 0
-1531 1533 1628 0
1531 -1533 1628 0
-1535 -1537 -1630 0
1535 1537 -1630 0
-1535 1537 1630 0
1535 -1537 1630 0
-1539 -1541 -1632 0
1539 1541 -1632 0
-1539 1541 1632 0
1539 -1541 1632 0
-1543 -1545 -1634 0
1543 1545 -1634 0
-1543 1545 1634 0
1543 -1545 1634 0
-1547 -1549 -1636 0
1547 1549 -1636 0
-1547 1549 1636 0
1547 -1549 1636 0
-1551 -1553 -1638 0
1551 1553 -1638 0
-1551 1553 1638 0
1551 -1553 1638 0
-1555 -1557 -1640 0
1555 1557 -1640 0
-1555 1557 1640 0
1555 -1557 1640 0
-1559 -1561 -1642 0
1559 1561 -1642 0
-1559 1561 1642 0
1559 -1561 1642 0
-1563 -1565 -1644 0
1563 1565 -1644 0
-1563 1565 1644 0
1563 -1565 1644 0
-1567 -1569 -1646 0
1567 1569 -1646 0
-1567 1569 1646 0
1567 -1569 1646 0
-1572 -1574 -1649 0
1572 1574 -1649 0
-1572 1574 1649 0
1572 -1574 1649 0
-1576 -1578 -1650 0
1576 1578 -1650 0
-1576 1578 1650 0
1576 -1578 1650 0
-1580 -1582 -1652 0
1580 1582 -1652 0
-1580 1582 1652 0
1580 -1582 1652 0
-1584 -1586 -1654 0
1584 1586 -1654 0
-1584 1586 1654 0
1584 -1586 1654 0
-1588 -1590 -1656 0
1588 1590 -1656 0
-1588 1590 1656 0
1588 -1590 1656 0
-1592 -1594 -1658 0
1592 1594 -1658 0
-1592 1594 1658 0
1592 -1594 1658 0
-1596 -1598 -1660 0
1596 1598 -1660 0
-1596 1598 1660 0
1596 -1598 1660 0
-1600 -1602 -1662 0
1600 1602 -1662 0
-1600 1602 1662 0
1600 -1602 1662 0
-1604 -1606 -1664 0
1604 1606 -1664 0
-1604 1606 1664 0
1604 -1606 1664 0
-1608 -1610 -1666 0
1608 1610 -1666 0
-1608 1610 1666 0
1608 -1610 1666 0
-1612 -1614 -1668 0
1612 1614 -1668 0
-1612 1614 1668 0
1612 -1614 1668 0
-1616 -1618 -1670 0
1616 1618 -1670 0
-1616 1618 1670 0
1616 -1618 1670 0
-1620 -1622 -1672 0
1620 1622 -1672 0
-1620 1622 1672 0
1620 -1622 1672 0
-1621 -1623 -1699 0
1621 1623 -1699 0
1621 -1623 1699 0
-1621 1623 1699 0
-1624 -1626 -1674 0
1624 1626 -1674 0
-1624 1626 1674 0
1624 -1626 1674 0
-1628 -1630 -1676 0
1628 1630 -1676 0
-1628 1630 1676 0
1628 -1630 1676 0
-1632 -1634 -1678 0
1632 1634 -1678 0
-1632 1634 1678 0
1632 -1634 1678 0
-1636 -1638 -1680 0
1636 1638 -1680 0
-1636 1638 1680 0
1636 -1638 1680 0
-1640 -1642 -1682 0
1640 1642 -1682 0
-1640 1642 1682 0
1640 -1642 1682 0
-1644 -1646 -1684 0
1644 1646 -1684 0
-1644 1646 1684 0
1644 -1646 1684 0
-1648 -1649 -1686 0
1648 1649 -1686 0
-1648 1649 1686 0
1648 -1649 1686 0
-1650 -1652 -1688 0
1650 1652 -1688 0
-1650 1652 1688 0
1650 -1652 1688 0
-1654 -1656 -1690 0
1654 1656 -1690 0
-1654 1656 1690 0
1654 -1656 1690 0
-1658 -1660 -1692 0
1658 1660 -1692 0
-1658 1660 1692 0
1658 -1660 1692 0
-1662 -1664 -1694 0
1662 1664 -1694 0
-1662 1664 1694 0
1662 -1664 1694 0
-1666 -1668 -1696 0
1666 1668 -1696 0
-1666 1668 1696 0
1666 -1668 1696 0
-1670 -1672 -1698 0
1670 1672 -1698 0
-1670 1672 1698 0
1670 -1672 1698 0
-1674 -1676 -1700 0
1674 1676 -1700 0
-1674 1676 1700 0
1674 -1676 1700 0
-1678 -1680 -1702 0
1678 1680 -1702 0
-1678 1680 1702 0
1678 -1680 1702 0
-1682 -1684 -1704 0
1682 1684 -1704 0
-1682 1684 1704 0
1682 -1684 1704 0
-1686 -1688 -1706 0
1686 1688 -1706 0
-1686 1688 1706 0
1686 -1688 1706 0
-1690 -1692 -1708 0
1690 1692 -1708 0
-1690 1692 1708 0
1690 -1692 1708 0
-1694 -1696 -1710 0
1694 1696 -1710 0
-1694 1696 1710 0
1694 -1696 1710 0
-1698 -1699 -1712 0
1698 1699 -1712 0
-1698 1699 1712 0
1698 -1699 1712 0
-1700 -1702 -1714 0
1700 1702 -1714 0
-1700 1702 1714 0
1700 -1702 1714 0
-1704 -1706 -1716 0
1704 1706 -1716 0
-1704 1706 1716 0
1704 -1706 1716 0
-1708 -1710 -1718 0
1708 1710 -1718 0
-1708 1710 1718 0
1708 -1710 1718 0
-1712 -1714 -1720 0
1712 1714 -1720 0
-1712 1714 1720 0
1712 -1714 1720 0
-1716 -1718 -1720 0
1716 1718 -1720 0
-1716 1718 1720 0
1716 -1718 1720 0
-1625 -1627 -1723 0
1625 1627 -1723 0
-1625 1627 1723 0
1625 -1627 1723 0
-1629 -1631 -1724 0
1629 1631 -1724 0
-1629 1631 1724 0
1629 -1631 1724 0
-1633 -1635 -1726 0
1633 1635 -1726 0
-1633 1635 1726 0
1633 -1635 1726 0
-1637 -1639 -1728 0
1637 1639 -1728 0
-1637 1639 1728 0
1637 -1639 1728 0
-1641 -1643 -1730 0
1641 1643 -1730 0
-1641 1643 1730 0
1641 -1643 1730 0
-1645 -1647 -1732 0
1645 1647 -1732 0
-1645 1647 1732 0
1645 -1647 1732 0
-1651 -1653 -1734 0
1651 1653 -1734 0
-1651 1653 1734 0
1651 -1653 1734 0
-1655 -1657 -1736 0
1655 1657 -1736 0
-1655 1657 1736 0
1655 -1657 1736 0
-1659 -1661 -1738 0
1659 1661 -1738 0
-1659 1661 1738 0
1659 -1661 1738 0
-1663 -1665 -1740 0
1663 1665 -1740 0
-1663 1665 1740 0
1663 -1665 1740 0
-1667 -1669 -1742 0
1667 1669 -1742 0
-1667 1669 1742 0
1667 -1669 1742 0
-1671 -1673 -1744 0
1671 1673 -1744 0
-1671 1673 1744 0
1671 -1673 1744 0
-1675 -1677 -1747 0
1675 1677 -1747 0
-1675 1677 1747 0
1675 -1677 1747 0
-1679 -1681 -1748 0
1679 1681 -1748 0
-1679 1681 1748 0
1679 -1681 1748 0
-1683 -1685 -1750 0
1683 1685 -1750 0
-1683 1685 1750 0
1683 -1685 1750 0
-1687 -1689 -1752 0
1687 1689 -1752 0
-1687 1689 1752 0
1687 -1689 1752 0
-1691 -1693 -1754 0
1691 1693 -1754 0
-1691 1693 1754 0
1691 -1693 1754 0
-1695 -1697 -1756 0
1695 1697 -1756 0
-1695 1697 1756 0
1695 -1697 1756 0
-1701 -1703 -1758 0
1701 1703 -1758 0
-1701 1703 1758 0
1701 -1703 1758 0
-1705 -1707 -1760 0
1705 1707 -1760 0
-1705 1707 1760 0
1705 -1707 1760 0
-1709 -1711 -1762 0
1709 1711 -1762 0
-1709 1711 1762 0
1709 -1711 1762 0
-1713 -1715 -1764 0
1713 1715 -1764 0
-1713 1715 1764 0
1713 -1715 1764 0
-1717 -1719 -1766 0
1717 1719 -1766 0
-1717 1719 1766 0
1717 -1719 1766 0
-1721 -1722 -1768 0
1721 1722 -1768 0
-1721 1722 1768 0
1721 -1722 1768 0
-1723 -1724 -1770 0
1723 1724 -1770 0
-1723 1724 1770 0
1723 -1724 1770 0
-1726 -1728 -1771 0
1726 1728 -1771 0
-1726 1728 1771 0
1726 -1728 1771 0
-1730 -1732 -1773 0
1730 1732 -1773 0
-1730 1732 1773 0
1730 -1732 1773 0
-1733 -1734 -1775 0
1733 1734 -1775 0
-1733 1734 1775 0
1733 -1734 1775 0
-1736 -1738 -1777 0
1736 1738 -1777 0
-1736 1738 1777 0
1736 -1738 1777 0
-1740 -1742 -1779 0
1740 1742 -1779 0
-1740 1742 1779 0
1740 -1742 1779 0
-1744 -1746 -1781 0
1744 1746 -1781 0
-1744 1746 1781 0
1744 -1746 1781 0
-1747 -1748 -1783 0
1747 1748 -1783 0
-1747 1748 1783 0
1747 -1748 1783 0
-1750 -1752 -1785 0
1750 1752 -1785 0
-1750 1752 1785 0
1750 -1752 1785 0
-1754 -1756 -1787 0
1754 1756 -1787 0
-1754 1756 1787 0
1754 -1756 1787 0
-1757 -1758 -1789 0
1757 1758 -1789 0
-1757 1758 1789 0
1757 -1758 1789 0
-1760 -1762 -1791 0
1760 1762 -1791 0
-1760 1762 1791 0
1760 -1762 1791 0
-1764 -1766 -1793 0
1764 1766 -1793 0
-1764 1766 1793 0
1764 -1766 1793 0
-1720 -1768 -1795 0
1720 1768 -1795 0
1720 -1768 1795 0
-1720 1768 1795 0
-1770 -1771 -1797 0
1770 1771 -1797 0
-1770 1771 1797 0
1770 -1771 1797 0
-1773 -1775 -1799 0
1773 1775 -1799 0
-1773 1775 1799 0
1773 -1775 1799 0
-1777 -1779 -1801 0
1777 1779 -1801 0
-1777 1779 1801 0
1777 -1779 1801 0
-1781 -1783 -1803 0
1781 1783 -1803 0
-1781 1783 1803 0
1781 -1783 1803 0
-1785 -1787 -1805 0
1785 1787 -1805 0
-1785 1787 1805 0
1785 -1787 1805 0
-1789 -1791 -1807 0
1789 1791 -1807 0
-1789 1791 1807 0
1789 -1791 1807 0
-1793 -1795 -1809 0
1793 1795 -1809 0
-1793 1795 1809 0
1793 -1795 1809 0
-1797 -1799 -1811 0
1797 1799 -1811 0
-1797 1799 1811 0
1797 -1799 1811 0
-1801 -1803 -1813 0
1801 1803 -1813 0
-1801 1803 1813 0
1801 -1803 1813 0
-1805 -1807 -1815 0
1805 1807 -1815 0
-1805 1807 1815 0
1805 -1807 1815 0
-1809 -1811 -1817 0
1809 1811 -1817 0
-1809 1811 1817 0
1809 -1811 1817 0
-1813 -1815 -1817 0
1813 1815 -1817 0
-1813 1815 1817 0
1813 -1815 1817 0
-1725 -1727 -1821 0
1725 1727 -1821 0
-1725 1727 1821 0
1725 -1727 1821 0
-1729 -1731 -1822 0
1729 1731 -1822 0
-1729 1731 1822 0
1729 -1731 1822 0
-1735 -1737 -1824 0
1735 1737 -1824 0
-1735 1737 1824 0
1735 -1737 1824 0
-1739 -1741 -1826 0
1739 1741 -1826 0
-1739 1741 1826 0
1739 -1741 1826 0
-1743 -1745 -1828 0
1743 1745 -1828 0
-1743 1745 1828 0
1743 -1745 1828 0
-1749 -1751 -1830 0
1749 1751 -1830 0
-1749 1751 1830 0
1749 -1751 1830 0
-1753 -1755 -1832 0
1753 1755 -1832 0
-1753 1755 1832 0
1753 -1755 1832 0
-1759 -1761 -1835 0
1759 1761 -1835 0
-1759 1761 1835 0
1759 -1761 1835 0
-1763 -1765 -1836 0
1763 1765 -1836 0
-1763 1765 1836 0
1763 -1765 1836 0
-1767 -1769 -1838 0
1767 1769 -1838 0
-1767 1769 1838 0
1767 -1769 1838 0
-1772 -1774 -1841 0
1772 1774 -1841 0
-1772 1774 1841 0
1772 -1774 1841 0
-1776 -1778 -1842 0
1776 1778 -1842 0
-1776 1778 1842 0
1776 -1778 1842 0
-1780 -1782 -1844 0
1780 1782 -1844 0
-1780 1782 1844 0
1780 -1782 1844 0
-1784 -1786 -1846 0
1784 1786 -1846 0
-1784 1786 1846 0
1784 -1786 1846 0
-1788 -1790 -1848 0
1788 1790 -1848 0
-1788 1790 1848 0
1788 -1790 1848 0
-1792 -1794 -1850 0
1792 1794 -1850 0
-1792 1794 1850 0
1792 -1794 1850 0
-1796 -1798 -1852 0
1796 1798 -1852 0
-1796 1798 1852 0
1796 -1798 1852 0
-1800 -1802 -1854 0
1800 1802 -1854 0
-1800 1802 1854 0
1800 -1802 1854 0
-1804 -1806 -1856 0
1804 1806 -1856 0
-1804 1806 1856 0
1804 -1806 1856 0
-1808 -1810 -1858 0
1808 1810 -1858 0
-1808 1810 1858 0
1808 -1810 1858 0
-1812 -1814 -1860 0
1812 1814 -1860 0
-1812 1814 1860 0
1812 -1814 1860 0
-1816 -1818 -1862 0
1816 1818 -1862 0
-1816 1818 1862 0
1816 -1818 1862 0
-1817 -1819 -1864 0
1817 1819 -1864 0
1817 -1819 1864 0
-1817 1819 1864 0
-1820 -1821 -1866 0
1820 1821 -1866 0
-1820 1821 1866 0
1820 -1821 1866 0
-1822 -1823 -1868 0
1822 1823 -1868 0
-1822 1823 1868 0
1822 -1823 1868 0
-1824 -1826 -1870 0
1824 1826 -1870 0
-1824 1826 1870 0
1824 -1826 1870 0
-1828 -1829 -1872 0
1828 1829 -1872 0
-1828 1829 1872 0
1828 -1829 1872 0
-1830 -1832 -1874 0
1830 1832 -1874 0
-1830 1832 1874 0
1830 -1832 1874 0
-1834 -1835 -1876 0
1834 1835 -1876 0
-1834 1835 1876 0
1834 -1835 1876 0
-1836 -1838 -1878 0
1836 1838 -1878 0
-1836 1838 1878 0
1836 -1838 1878 0
-1840 -1841 -1880 0
1840 1841 -1880 0
-1840 1841 1880 0
1840 -1841 1880 0
-1842 -1844 -1882 0
1842 1844 -1882 0
-1842 1844 1882 0
1842 -1844 1882 0
-1846 -1848 -1884 0
1846 1848 -1884 0
-1846 1848 1884 0
1846 -1848 1884 0
-1850 -1852 -1886 0
1850 1852 -1886 0
-1850 1852 1886 0
1850 -1852 1886 0
-1854 -1856 -1888 0
1854 1856 -1888 0
-1854 1856 1888 0
1854 -1856 1888 0
-1858 -1860 -1890 0
1858 1860 -1890 0
-1858 1860 1890 0
1858 -1860 1890 0
-1862 -1864 -1892 0
1862 1864 -1892 0
-1862 1864 1892 0
1862 -1864 1892 0
-1866 -1868 -1894 0
1866 1868 -1894 0
-1866 1868 1894 0
1866 -1868 1894 0
-1870 -1872 -1896 0
1870 1872 -1896 0
-1870 1872 1896 0
1870 -1872 1896 0
-1874 -1876 -1898 0
1874 1876 -1898 0
-1874 1876 1898 0
1874 -1876 1898 0
-1878 -1880 -1900 0
1878 1880 -1900 0
-1878 1880 1900 0
1878 -1880 1900 0
-1882 -1884 -1902 0
1882 1884 -1902 0
-1882 1884 1902 0
1882 -1884 1902 0
-1886 -1888 -1904 0
1886 1888 -1904 0
-1886 1888 1904 0
1886 -1888 1904 0
-1890 -1892 -1906 0
1890 1892 -1906 0
-1890 1892 1906 0
1890 -1892 1906 0
-1894 -1896 -1908 0
1894 1896 -1908 0
-1894 1896 1908 0
1894 -1896 1908 0
-1898 -1900 -1910 0
1898 1900 -1910 0
-1898 1900 1910 0
1898 -1900 1910 0
-1902 -1904 -1912 0
1902 1904 -1912 0
-1902 1904 1912 0
1902 -1904 1912 0
-1906 -1908 -1914 0
1906 1908 -1914 0
-1906 1908 1914 0
1906 -1908 1914 0
-1910 -1912 -1914 0
1910 1912 -1914 0
-1910 1912 1914 0
1910 -1912 1914 0
-1825 -1827 -1919 0
1825 1827 -1919 0
-1825 1827 1919 0
1825 -1827 1919 0
-1831 -1833 -1921 0
1831 1833 -1921 0
-1831 1833 1921 0
1831 -1833 1921 0
-1837 -1839 -1923 0
1837 1839 -1923 0
-1837 1839 1923 0
1837 -1839 1923 0
-1843 -1845 -1925 0
1843 1845 -1925 0
-1843 1845 1925 0
1843 -1845 1925 0
-1847 -1849 -1927 0
1847 1849 -1927 0
-1847 1849 1927 0
1847 -1849 1927 0
-1851 -1853 -1929 0
1851 1853 -1929 0
-1851 1853 1929 0
1851 -1853 1929 0
-1855 -1857 -1931 0
1855 1857 -1931 0
-1855 1857 1931 0
1855 -1857 1931 0
-1859 -1861 -1933 0
1859 1861 -1933 0
-1859 1861 1933 0
1859 -1861 1933 0
-1863 -1865 -1935 0
1863 1865 -1935 0
-1863 1865 1935 0
1863 -1865 1935 0
-1867 -1869 -1937 0
1867 1869 -1937 0
-1867 1869 1937 0
1867 -1869 1937 0
-1871 -1873 -1939 0
1871 1873 -1939 0
-1871 1873 1939 0
1871 -1873 1939 0
-1875 -1877 -1941 0
1875 1877 -1941 0
-1875 1877 1941 0
1875 -1877 1941 0
-1879 -1881 -1943 0
1879 1881 -1943 0
-1879 1881 1943 0
1879 -1881 1943 0
-1883 -1885 -1945 0
1883 1885 -1945 0
-1883 1885 1945 0
1883 -1885 1945 0
-1887 -1889 -1947 0
1887 1889 -1947 0
-1887 1889 1947 0
1887 -1889 1947 0
-1891 -1893 -1949 0
1891 1893 -1949 0
-1891 1893 1949 0
1891 -1893 1949 0
-1895 -1897 -1951 0
1895 1897 -1951 0
-1895 1897 1951 0
1895 -1897 1951 0
-1899 -1901 -1953 0
1899 1901 -1953 0
-1899 1901 1953 0
1899 -1901 1953 0
-1903 -1905 -1955 0
1903 1905 -1955 0
-1903 1905 1955 0
1903 -1905 1955 0
-1907 -1909 -1957 0
1907 1909 -1957 0
-1907 1909 1957 0
1907 -1909 1957 0
-1911 -1913 -1959 0
1911 1913 -1959 0
-1911 1913 1959 0
1911 -1913 1959 0
-1915 -1916 -1961 0
1915 1916 -1961 0
-1915 1916 1961 0
1915 -1916 1961 0
-1914 -1917 -1963 0
1914 1917 -1963 0
-1914 1917 1963 0
1914 -1917 1963 0
-1918 -1919 -1965 0
1918 1919 -1965 0
-1918 1919 1965 0
1918 -1919 1965 0
-1920 -1921 -1967 0
1920 1921 -1967 0
-1920 1921 1967 0
1920 -1921 1967 0
-1922 -1923 -1969 0
1922 1923 -1969 0
-1922 1923 1969 0
1922 -1923 1969 0
-1924 -1925 -1971 0
1924 1925 -1971 0
-1924 1925 1971 0
1924 -1925 1971 0
-1927 -1929 -1973 0
1927 1929 -1973 0
-1927 1929 1973 0
1927 -1929 1973 0
-1931 -1933 -1975 0
1931 1933 -1975 0
-1931 1933 1975 0
1931 -1933 1975 0
-1935 -1937 -1977 0
1935 1937 -1977 0
-1935 1937 1977 0
1935 -1937 1977 0
-1939 -1941 -1979 0
1939 1941 -1979 0
-1939 1941 1979 0
1939 -1941 1979 0
-1943 -1945 -1981 0
1943 1945 -1981 0
-1943 1945 1981 0
1943 -1945 1981 0
-1947 -1949 -1983 0
1947 1949 -1983 0
-1947 1949 1983 0
1947 -1949 1983 0
-1951 -1953 -1985 0
1951 1953 -1985 0
-1951 1953 1985 0
1951 -1953 1985 0
-1955 -1957 -1987 0
1955 1957 -1987 0
-1955 1957 1987 0
1955 -1957 1987 0
-1959 -1961 -1989 0
1959 1961 -1989 0
-1959 1961 1989 0
1959 -1961 1989 0
-1963 -1965 -1991 0
1963 1965 -1991 0
-1963 1965 1991 0
1963 -1965 1991 0
-1967 -1969 -1993 0
1967 1969 -1993 0
-1967 1969 1993 0
1967 -1969 1993 0
-1971 -1973 -1995 0
1971 1973 -1995 0
-1971 1973 1995 0
1971 -1973 1995 0
-1975 -1977 -1997 0
1975 1977 -1997 0
-1975 1977 1997 0
1975 -1977 1997 0
-1979 -1981 -1999 0
1979 1981 -1999 0
-1979 1981 1999 0
1979 -1981 1999 0
-1983 -1985 -2001 0
1983 1985 -2001 0
-1983 1985 2001 0
1983 -1985 2001 0
-1987 -1989 -2003 0
1987 1989 -2003 0
-1987 1989 2003 0
1987 -1989 2003 0
-1991 -1993 -2005 0
1991 1993 -2005 0
-1991 1993 2005 0
1991 -1993 2005 0
-1995 -1997 -2007 0
1995 1997 -2007 0
-1995 1997 2007 0
1995 -1997 2007 0
-1999 -2001 -2009 0
1999 2001 -2009 0
-1999 2001 2009 0
1999 -2001 2009 0
-2003 -2005 -2011 0
2003 2005 -2011 0
-2003 2005 2011 0
2003 -2005 2011 0
-2007 -2009 -2011 0
2007 2009 -2011 0
-2007 2009 2011 0
2007 -2009 2011 0
-1926 -1928 -2017 0
1926 1928 -2017 0
-1926 1928 2017 0
1926 -1928 2017 0
-1930 -1932 -2019 0
1930 1932 -2019 0
-1930 1932 2019 0
1930 -1932 2019 0
-1934 -1936 -2021 0
1934 1936 -2021 0
-1934 1936 2021 0
1934 -1936 2021 0
-1938 -1940 -2023 0
1938 1940 -2023 0
-1938 1940 2023 0
1938 -1940 2023 0
-1942 -1944 -2025 0
1942 1944 -2025 0
-1942 1944 2025 0
1942 -1944 2025 0
-1946 -1948 -2027 0
1946 1948 -2027 0
-1946 1948 2027 0
1946 -1948 2027 0
-1950 -1952 -2029 0
1950 1952 -2029 0
-1950 1952 2029 0
1950 -1952 2029 0
-1954 -1956 -2031 0
1954 1956 -2031 0
-1954 1956 2031 0
1954 -1956 2031 0
-1958 -1960 -2033 0
1958 1960 -2033 0
-1958 1960 2033 0
1958 -1960 2033 0
-1962 -1964 -2035 0
1962 1964 -2035 0
-1962 1964 2035 0
1962 -1964 2035 0
-1966 -1968 -2037 0
1966 1968 -2037 0
-1966 1968 2037 0
1966 -1968 2037 0
-1970 -1972 -2039 0
1970 1972 -2039 0
-1970 1972 2039 0
1970 -1972 2039 0
-1974 -1976 -2041 0
1974 1976 -2041 0
-1974 1976 2041 0
1974 -1976 2041 0
-1978 -1980 -2043 0
1978 1980 -2043 0
-1978 1980 2043 0
1978 -1980 2043 0
-1982 -1984 -2045 0
1982 1984 -2045 0
-1982 1984 2045 0
1982 -1984 2045 0
-1986 -1988 -2047 0
1986 1988 -2047 0
-1986 1988 2047 0
1986 -1988 2047 0
-1990 -1992 -2049 0
1990 1992 -2049 0
-1990 1992 2049 0
1990 -1992 2049 0
-1994 -1996 -2051 0
1994 1996 -2051 0
-1994 1996 2051 0
1994 -1996 2051 0
-1998 -2000 -2053 0
1998 2000 -2053 0
-1998 2000 2053 0
1998 -2000 2053 0
-2002 -2004 -2055 0
2002 2004 -2055 0
-2002 2004 2055 0
2002 -2004 2055 0
-2006 -2008 -2057 0
2006 2008 -2057 0
-2006 2008 2057 0
2006 -2008 2057 0
-2010 -2012 -2059 0
2010 2012 -2059 0
-2010 2012 2059 0
2010 -2012 2059 0
-2011 -2013 -2061 0
2011 2013 -2061 0
2011 -2013 2061 0
-2011 2013 2061 0
-2015 -2016 -2062 0
2015 2016 -2062 0
-2015 2016 2062 0
2015 -2016 2062 0
-2017 -2019 -2064 0
2017 2019 -2064 0
-2017 2019 2064 0
2017 -2019 2064 0
-2021 -2023 -2066 0
2021 2023 -2066 0
-2021 2023 2066 0
2021 -2023 2066 0
-2025 -2027 -2068 0
2025 2027 -2068 0
-2025 2027 2068 0
2025 -2027 2068 0
-2029 -2031 -2070 0
2029 2031 -2070 0
-2029 2031 2070 0
2029 -2031 2070 0
-2033 -2035 -2072 0
2033 2035 -2072 0
-2033 2035 2072 0
2033 -2035 2072 0
-2037 -2039 -2074 0
2037 2039 -2074 0
-2037 2039 2074 0
2037 -2039 2074 0
-2041 -2043 -2076 0
2041 2043 -2076 0
-2041 2043 2076 0
2041 -2043 2076 0
-2045 -2047 -2078 0
2045 2047 -2078 0
-2045 2047 2078 0
2045 -2047 2078 0
-2049 -2051 -2080 0
2049 2051 -2080 0
-2049 2051 2080 0
2049 -2051 2080 0
-2053 -2055 -2082 0
2053 2055 -2082 0
-2053 2055 2082 0
2053 -2055 2082 0
-2057 -2059 -2084 0
2057 2059 -2084 0
-2057 2059 2084 0
2057 -2059 2084 0
-2014 -2061 -2086 0
2014 2061 -2086 0
2014 -2061 2086 0
-2014 2061 2086 0
-2062 -2064 -2088 0
2062 2064 -2088 0
-2062 2064 2088 0
2062 -2064 2088 0
-2066 -2068 -2090 0
2066 2068 -2090 0
-2066 2068 2090 0
2066 -2068 2090 0
-2070 -2072 -2092 0
2070 2072 -2092 0
-2070 2072 2092 0
2070 -2072 2092 0
-2074 -2076 -2094 0
2074 2076 -2094 0
-2074 2076 2094 0
2074 -2076 2094 0
-2078 -2080 -2096 0
2078 2080 -2096 0
-2078 2080 2096 0
2078 -2080 2096 0
-2082 -2084 -2098 0
2082 2084 -2098 0
-2082 2084 2098 0
2082 -2084 2098 0
-2086 -2088 -2100 0
2086 2088 -2100 0
-2086 2088 2100 0
2086 -2088 2100 0
-2090 -2092 -2102 0
2090 2092 -2102 0
-2090 2092 2102 0
2090 -2092 2102 0
-2094 -2096 -2104 0
2094 2096 -2104 0
-2094 2096 2104 0
2094 -2096 2104 0
-2098 -2100 -2106 0
2098 2100 -2106 0
-2098 2100 2106 0
2098 -2100 2106 0
-2102 -2104 -2106 0
2102 2104 -2106 0
-2102 2104 2106 0
2102 -2104 2106 0
-2018 -2020 -2154 0
2018 2020 -2154 0
-2018 2020 2154 0
2018 -2020 2154 0
-2022 -2024 -2110 0
2022 2024 -2110 0
-2022 2024 2110 0
2022 -2024 2110 0
-2026 -2028 -2112 0
2026 2028 -2112 0
-2026 2028 2112 0
2026 -2028 2112 0
-2030 -2032 -2114 0
2030 2032 -2114 0
-2030 2032 2114 0
2030 -2032 2114 0
-2034 -2036 -2116 0
2034 2036 -2116 0
-2034 2036 2116 0
2034 -2036 2116 0
-2038 -2040 -2118 0
2038 2040 -2118 0
-2038 2040 2118 0
2038 -2040 2118 0
-2042 -2044 -2120 0
2042 2044 -2120 0
-2042 2044 2120 0
2042 -2044 2120 0
-2046 -2048 -2122 0
2046 2048 -2122 0
-2046 2048 2122 0
2046 -2048 2122 0
-2050 -2052 -2124 0
2050 2052 -2124 0
-2050 2052 2124 0
2050 -2052 2124 0
-2054 -2056 -2126 0
2054 2056 -2126 0
-2054 2056 2126 0
2054 -2056 2126 0
-2058 -2060 -2128 0
2058 2060 -2128 0
-2058 2060 2128 0
2058 -2060 2128 0
-2063 -2065 -2130 0
2063 2065 -2130 0
-2063 2065 2130 0
2063 -2065 2130 0
-2067 -2069 -2132 0
2067 2069 -2132 0
-2067 2069 2132 0
2067 -2069 2132 0
-2071 -2073 -2134 0
2071 2073 -2134 0
-2071 2073 2134 0
2071 -2073 2134 0
-2075 -2077 -2136 0
2075 2077 -2136 0
-2075 2077 2136 0
2075 -2077 2136 0
-2079 -2081 -2138 0
2079 2081 -2138 0
-2079 2081 2138 0
2079 -2081 2138 0
-2083 -2085 -2140 0
2083 2085 -2140 0
-2083 2085 2140 0
2083 -2085 2140 0
-2087 -2089 -2142 0
2087 2089 -2142 0
-2087 2089 2142 0
2087 -2089 2142 0
-2091 -2093 -2144 0
2091 2093 -2144 0
-2091 2093 2144 0
2091 -2093 2144 0
-2095 -2097 -2146 0
2095 2097 -2146 0
-2095 2097 2146 0
2095 -2097 2146 0
-2099 -2101 -2148 0
2099 2101 -2148 0
-2099 2101 2148 0
2099 -2101 2148 0
-2103 -2105 -2150 0
2103 2105 -2150 0
-2103 2105 2150 0
2103 -2105 2150 0
-2107 -2108 -2152 0
2107 2108 -2152 0
-2107 2108 2152 0
2107 -2108 2152 0
-2110 -2112 -2155 0
2110 2112 -2155 0
-2110 2112 2155 0
2110 -2112 2155 0
-2114 -2116 -2157 0
2114 2116 -2157 0
-2114 2116 2157 0
2114 -2116 2157 0
-2118 -2120 -2159 0
2118 2120 -2159 0
-2118 2120 2159 0
2118 -2120 2159 0
-2122 -2124 -2161 0
2122 2124 -2161 0
-2122 2124 2161 0
2122 -2124 2161 0
-2126 -2128 -2163 0
2126 2128 -2163 0
-2126 2128 2163 0
2126 -2128 2163 0
-2129 -2130 -2165 0
2129 2130 -2165 0
-2129 2130 2165 0
2129 -2130 2165 0
-2132 -2134 -2167 0
2132 2134 -2167 0
-2132 2134 2167 0
2132 -2134 2167 0
-2136 -2138 -2169 0
2136 2138 -2169 0
-2136 2138 2169 0
2136 -2138 2169 0
-2140 -2142 -2171 0
2140 2142 -2171 0
-2140 2142 2171 0
2140 -2142 2171 0
-2144 -2146 -2173 0
2144 2146 -2173 0
-2144 2146 2173 0
2144 -2146 2173 0
-2148 -2150 -2175 0
2148 2150 -2175 0
-2148 2150 2175 0
2148 -2150 2175 0
-2106 -2152 -2177 0
2106 2152 -2177 0
2106 -2152 2177 0
-2106 2152 2177 0
-2154 -2155 -2179 0
2154 2155 -2179 0
-2154 2155 2179 0
2154 -2155 2179 0
-2157 -2159 -2181 0
2157 2159 -2181 0
-2157 2159 2181 0
2157 -2159 2181 0
-2161 -2163 -2183 0
2161 2163 -2183 0
-2161 2163 2183 0
2161 -2163 2183 0
-2165 -2167 -2185 0
2165 2167 -2185 0
-2165 2167 2185 0
2165 -2167 2185 0
-2169 -2171 -2187 0
2169 2171 -2187 0
-2169 2171 2187 0
2169 -2171 2187 0
-2173 -2175 -2189 0
2173 2175 -2189 0
-2173 2175 2189 0
2173 -2175 2189 0
-2177 -2179 -2191 0
2177 2179 -2191 0
-2177 2179 2191 0
2177 -2179 2191 0
-2181 -2183 -2193 0
2181 2183 -2193 0
-2181 2183 2193 0
2181 -2183 2193 0
-2185 -2187 -2195 0
2185 2187 -2195 0
-2185 2187 2195 0
2185 -2187 2195 0
-2189 -2191 -2197 0
2189 2191 -2197 0
-2189 2191 2197 0
2189 -2191 2197 0
-2193 -2195 -2197 0
2193 2195 -2197 0
-2193 2195 2197 0
2193 -2195 2197 0
-2109 -2111 -2242 0
2109 2111 -2242 0
-2109 2111 2242 0
2109 -2111 2242 0
-2113 -2115 -2200 0
2113 2115 -2200 0
-2113 2115 2200 0
2113 -2115 2200 0
-2117 -2119 -2202 0
2117 2119 -2202 0
-2117 2119 2202 0
2117 -2119 2202 0
-2121 -2123 -2204 0
2121 2123 -2204 0
-2121 2123 2204 0
2121 -2123 2204 0
-2125 -2127 -2206 0
2125 2127 -2206 0
-2125 2127 2206 0
2125 -2127 2206 0
-2131 -2133 -2209 0
2131 2133 -2209 0
-2131 2133 2209 0
2131 -2133 2209 0
-2135 -2137 -2210 0
2135 2137 -2210 0
-2135 2137 2210 0
2135 -2137 2210 0
-2139 -2141 -2212 0
2139 2141 -2212 0
-2139 2141 2212 0
2139 -2141 2212 0
-2143 -2145 -2214 0
2143 2145 -2214 0
-2143 2145 2214 0
2143 -2145 2214 0
-2147 -2149 -2216 0
2147 2149 -2216 0
-2147 2149 2216 0
2147 -2149 2216 0
-2151 -2153 -2252 0
2151 2153 -2252 0
-2151 2153 2252 0
2151 -2153 2252 0
-2156 -2158 -2218 0
2156 2158 -2218 0
-2156 2158 2218 0
2156 -2158 2218 0
-2160 -2162 -2220 0
2160 2162 -2220 0
-2160 2162 2220 0
2160 -2162 2220 0
-2164 -2166 -2222 0
2164 2166 -2222 0
-2164 2166 2222 0
2164 -2166 2222 0
-2168 -2170 -2224 0
2168 2170 -2224 0
-2168 2170 2224 0
2168 -2170 2224 0
-2172 -2174 -2226 0
2172 2174 -2226 0
-2172 2174 2226 0
2172 -2174 2226 0
-2176 -2178 -2228 0
2176 2178 -2228 0
-2176 2178 2228 0
2176 -2178 2228 0
-2180 -2182 -2230 0
2180 2182 -2230 0
-2180 2182 2230 0
2180 -2182 2230 0
-2184 -2186 -2232 0
2184 2186 -2232 0
-2184 2186 2232 0
2184 -2186 2232 0
-2188 -2190 -2234 0
2188 2190 -2234 0
-2188 2190 2234 0
2188 -2190 2234 0
-2192 -2194 -2236 0
2192 2194 -2236 0
-2192 2194 2236 0
2192 -2194 2236 0
-2196 -2198 -2238 0
2196 2198 -2238 0
-2196 2198 2238 0
2196 -2198 2238 0
-2197 -2199 -2240 0
2197 2199 -2240 0
2197 -2199 2240 0
-2197 2199 2240 0
-2200 -2202 -2243 0
2200 2202 -2243 0
-2200 2202 2243 0
2200 -2202 2243 0
-2204 -2206 -2244 0
2204 2206 -2244 0
-2204 2206 2244 0
2204 -2206 2244 0
-2208 -2209 -2246 0
2208 2209 -2246 0
-2208 2209 2246 0
2208 -2209 2246 0
-2210 -2212 -2248 0
2210 2212 -2248 0
-2210 2212 2248 0
2210 -2212 2248 0
-2214 -2216 -2250 0
2214 2216 -2250 0
-2214 2216 2250 0
2214 -2216 2250 0
-2218 -2220 -2253 0
2218 2220 -2253 0
-2218 2220 2253 0
2218 -2220 2253 0
-2222 -2224 -2254 0
2222 2224 -2254 0
-2222 2224 2254 0
2222 -2224 2254 0
-2226 -2228 -2256 0
2226 2228 -2256 0
-2226 2228 2256 0
2226 -2228 2256 0
-2230 -2232 -2258 0
2230 2232 -2258 0
-2230 2232 2258 0
2230 -2232 2258 0
-2234 -2236 -2260 0
2234 2236 -2260 0
-2234 2236 2260 0
2234 -2236 2260 0
-2238 -2240 -2262 0
2238 2240 -2262 0
-2238 2240 2262 0
2238 -2240 2262 0
-2242 -2243 -2264 0
2242 2243 -2264 0
-2242 2243 2264 0
2242 -2243 2264 0
-2244 -2246 -2266 0
2244 2246 -2266 0
-2244 2246 2266 0
2244 -2246 2266 0
-2248 -2250 -2268 0
2248 2250 -2268 0
-2248 2250 2268 0
2248 -2250 2268 0
-2252 -2253 -2270 0
2252 2253 -2270 0
-2252 2253 2270 0
2252 -2253 2270 0
-2254 -2256 -2272 0
2254 2256 -2272 0
-2254 2256 2272 0
2254 -2256 2272 0
-2258 -2260 -2274 0
2258 2260 -2274 0
-2258 2260 2274 0
2258 -2260 2274 0
-2262 -2264 -2276 0
2262 2264 -2276 0
-2262 2264 2276 0
2262 -2264 2276 0
-2266 -2268 -2278 0
2266 2268 -2278 0
-2266 2268 2278 0
2266 -2268 2278 0
-2270 -2272 -2280 0
2270 2272 -2280 0
-2270 2272 2280 0
2270 -2272 2280 0
-2274 -2276 -2282 0
2274 2276 -2282 0
-2274 2276 2282 0
2274 -2276 2282 0
-2278 -2280 -2282 0
2278 2280 -2282 0
-2278 2280 2282 0
2278 -2280 2282 0
-2201 -2203 -2286 0
2201 2203 -2286 0
-2201 2203 2286 0
2201 -2203 2286 0
-2205 -2207 -2287 0
2205 2207 -2287 0
-2205 2207 2287 0
2205 -2207 2287 0
-2211 -2213 -2289 0
2211 2213 -2289 0
-2211 2213 2289 0
2211 -2213 2289 0
-2215 -2217 -2291 0
2215 2217 -2291 0
-2215 2217 2291 0
2215 -2217 2291 0
-2219 -2221 -2294 0
2219 2221 -2294 0
-2219 2221 2294 0
2219 -2221 2294 0
-2223 -2225 -2295 0
2223 2225 -2295 0
-2223 2225 2295 0
2223 -2225 2295 0
-2227 -2229 -2297 0
2227 2229 -2297 0
-2227 2229 2297 0
2227 -2229 2297 0
-2231 -2233 -2299 0
2231 2233 -2299 0
-2231 2233 2299 0
2231 -2233 2299 0
-2235 -2237 -2301 0
2235 2237 -2301 0
-2235 2237 2301 0
2235 -2237 2301 0
-2239 -2241 -2303 0
2239 2241 -2303 0
-2239 2241 2303 0
2239 -2241 2303 0
-2245 -2247 -2305 0
2245 2247 -2305 0
-2245 2247 2305 0
2245 -2247 2305 0
-2249 -2251 -2307 0
2249 2251 -2307 0
-2249 2251 2307 0
2249 -2251 2307 0
-2255 -2257 -2310 0
2255 2257 -2310 0
-2255 2257 2310 0
2255 -2257 2310 0
-2259 -2261 -2311 0
2259 2261 -2311 0
-2259 2261 2311 0
2259 -2261 2311 0
-2263 -2265 -2313 0
2263 2265 -2313 0
-2263 2265 2313 0
2263 -2265 2313 0
-2267 -2269 -2315 0
2267 2269 -2315 0
-2267 2269 2315 0
2267 -2269 2315 0
-2271 -2273 -2317 0
2271 2273 -2317 0
-2271 2273 2317 0
2271 -2273 2317 0
-2275 -2277 -2319 0
2275 2277 -2319 0
-2275 2277 2319 0
2275 -2277 2319 0
-2279 -2281 -2321 0
2279 2281 -2321 0
-2279 2281 2321 0
2279 -2281 2321 0
-2283 -2284 -2323 0
2283 2284 -2323 0
-2283 2284 2323 0
2283 -2284 2323 0
-2282 -2285 -2325 0
2282 2285 -2325 0
-2282 2285 2325 0
2282 -2285 2325 0
-2286 -2287 -2327 0
2286 2287 -2327 0
-2286 2287 2327 0
2286 -2287 2327 0
-2288 -2289 -2329 0
2288 2289 -2329 0
-2288 2289 2329 0
2288 -2289 2329 0
-2291 -2293 -2331 0
2291 2293 -2331 0
-2291 2293 2331 0
2291 -2293 2331 0
-2294 -2295 -2333 0
2294 2295 -2333 0
-2294 2295 2333 0
2294 -2295 2333 0
-2297 -2299 -2335 0
2297 2299 -2335 0
-2297 2299 2335 0
2297 -2299 2335 0
-2301 -2303 -2337 0
2301 2303 -2337 0
-2301 2303 2337 0
2301 -2303 2337 0
-2304 -2305 -2339 0
2304 2305 -2339 0
-2304 2305 2339 0
2304 -2305 2339 0
-2307 -2309 -2341 0
2307 2309 -2341 0
-2307 2309 2341 0
2307 -2309 2341 0
-2310 -2311 -2343 0
2310 2311 -2343 0
-2310 2311 2343 0
2310 -2311 2343 0
-2313 -2315 -2345 0
2313 2315 -2345 0
-2313 2315 2345 0
2313 -2315 2345 0
-2317 -2319 -2347 0
2317 2319 -2347 0
-2317 2319 2347 0
2317 -2319 2347 0
-2321 -2323 -2349 0
2321 2323 -2349 0
-2321 2323 2349 0
2321 -2323 2349 0
-2325 -2327 -2351 0
2325 2327 -2351 0
-2325 2327 2351 0
2325 -2327 2351 0
-2329 -2331 -2353 0
2329 2331 -2353 0
-2329 2331 2353 0
2329 -2331 2353 0
-2333 -2335 -2355 0
2333 2335 -2355 0
-2333 2335 2355 0
2333 -2335 2355 0
-2337 -2339 -2357 0
2337 2339 -2357 0
-2337 2339 2357 0
2337 -2339 2357 0
-2341 -2343 -2359 0
2341 2343 -2359 0
-2341 2343 2359 0
2341 -2343 2359 0
-2345 -2347 -2361 0
2345 2347 -2361 0
-2345 2347 2361 0
2345 -2347 2361 0
-2349 -2351 -2363 0
2349 2351 -2363 0
-2349 2351 2363 0
2349 -2351 2363 0
-2353 -2355 -2365 0
2353 2355 -2365 0
-2353 2355 2365 0
2353 -2355 2365 0
-2357 -2359 -2367 0
2357 2359 -2367 0
-2357 2359 2367 0
2357 -2359 2367 0
-2361 -2363 -2369 0
2361 2363 -2369 0
-2361 2363 2369 0
2361 -2363 2369 0
-2365 -2367 -2369 0
2365 2367 -2369 0
-2365 2367 2369 0
2365 -2367 2369 0
-2290 -2292 -2374 0
2290 2292 -2374 0
-2290 2292 2374 0
2290 -2292 2374 0
-2296 -2298 -2376 0
2296 2298 -2376 0
-2296 2298 2376 0
2296 -2298 2376 0
-2300 -2302 -2378 0
2300 2302 -2378 0
-2300 2302 2378 0
2300 -2302 2378 0
-2306 -2308 -2381 0
2306 2308 -2381 0
-2306 2308 2381 0
2306 -2308 2381 0
-2312 -2314 -2383 0
2312 2314 -2383 0
-2312 2314 2383 0
2312 -2314 2383 0
-2316 -2318 -2384 0
2316 2318 -2384 0
-2316 2318 2384 0
2316 -2318 2384 0
-2320 -2322 -2386 0
2320 2322 -2386 0
-2320 2322 2386 0
2320 -2322 2386 0
-2324 -2326 -2388 0
2324 2326 -2388 0
-2324 2326 2388 0
2324 -2326 2388 0
-2328 -2330 -2390 0
2328 2330 -2390 0
-2328 2330 2390 0
2328 -2330 2390 0
-2332 -2334 -2392 0
2332 2334 -2392 0
-2332 2334 2392 0
2332 -2334 2392 0
-2336 -2338 -2394 0
2336 2338 -2394 0
-2336 2338 2394 0
2336 -2338 2394 0
-2340 -2342 -2396 0
2340 2342 -2396 0
-2340 2342 2396 0
2340 -2342 2396 0
-2344 -2346 -2398 0
2344 2346 -2398 0
-2344 2346 2398 0
2344 -2346 2398 0
-2348 -2350 -2400 0
2348 2350 -2400 0
-2348 2350 2400 0
2348 -2350 2400 0
-2352 -2354 -2402 0
2352 2354 -2402 0
-2352 2354 2402 0
2352 -2354 2402 0
-2356 -2358 -2404 0
2356 2358 -2404 0
-2356 2358 2404 0
2356 -2358 2404 0
-2360 -2362 -2406 0
2360 2362 -2406 0
-2360 2362 2406 0
2360 -2362 2406 0
-2364 -2366 -2408 0
2364 2366 -2408 0
-2364 2366 2408 0
2364 -2366 2408 0
-2368 -2370 -2410 0
2368 2370 -2410 0
-2368 2370 2410 0
2368 -2370 2410 0
-2369 -2371 -2412 0
2369 2371 -2412 0
2369 -2371 2412 0
-2369 2371 2412 0
-2372 -2373 -2414 0
2372 2373 -2414 0
-2372 2373 2414 0
2372 -2373 2414 0
-2374 -2375 -2416 0
2374 2375 -2416 0
-2374 2375 2416 0
2374 -2375 2416 0
-2376 -2378 -2418 0
2376 2378 -2418 0
-2376 2378 2418 0
2376 -2378 2418 0
-2380 -2381 -2420 0
2380 2381 -2420 0
-2380 2381 2420 0
2380 -2381 2420 0
-2382 -2383 -2422 0
2382 2383 -2422 0
-2382 2383 2422 0
2382 -2383 2422 0
-2384 -2386 -2424 0
2384 2386 -2424 0
-2384 2386 2424 0
2384 -2386 2424 0
-2388 -2390 -2426 0
2388 2390 -2426 0
-2388 2390 2426 0
2388 -2390 2426 0
-2392 -2394 -2428 0
2392 2394 -2428 0
-2392 2394 2428 0
2392 -2394 2428 0
-2396 -2398 -2430 0
2396 2398 -2430 0
-2396 2398 2430 0
2396 -2398 2430 0
-2400 -2402 -2432 0
2400 2402 -2432 0
-2400 2402 2432 0
2400 -2402 2432 0
-2404 -2406 -2434 0
2404 2406 -2434 0
-2404 2406 2434 0
2404 -2406 2434 0
-2408 -2410 -2436 0
2408 2410 -2436 0
-2408 2410 2436 0
2408 -2410 2436 0
-2412 -2414 -2438 0
2412 2414 -2438 0
-2412 2414 2438 0
2412 -2414 2438 0
-2416 -2418 -2440 0
2416 2418 -2440 0
-2416 2418 2440 0
2416 -2418 2440 0
-2420 -2422 -2442 0
2420 2422 -2442 0
-2420 2422 2442 0
2420 -2422 2442 0
-2424 -2426 -2444 0
2424 2426 -2444 0
-2424 2426 2444 0
2424 -2426 2444 0
-2428 -2430 -2446 0
2428 2430 -2446 0
-2428 2430 2446 0
2428 -2430 2446 0
-2432 -2434 -2448 0
2432 2434 -2448 0
-2432 2434 2448 0
2432 -2434 2448 0
-2436 -2438 -2450 0
2436 2438 -2450 0
-2436 2438 2450 0
2436 -2438 2450 0
-2440 -2442 -2452 0
2440 2442 -2452 0
-2440 2442 2452 0
2440 -2442 2452 0
-2444 -2446 -2454 0
2444 2446 -2454 0
-2444 2446 2454 0
2444 -2446 2454 0
-2448 -2450 -2456 0
2448 2450 -2456 0
-2448 2450 2456 0
2448 -2450 2456 0
-2452 -2454 -2456 0
2452 2454 -2456 0
-2452 2454 2456 0
2452 -2454 2456 0
-2377 -2379 -2460 0
2377 2379 -2460 0
-2377 2379 2460 0
2377 -2379 2460 0
-2385 -2387 -2463 0
2385 2387 -2463 0
-2385 2387 2463 0
2385 -2387 2463 0
-2389 -2391 -2464 0
2389 2391 -2464 0
-2389 2391 2464 0
2389 -2391 2464 0
-2393 -2395 -2466 0
2393 2395 -2466 0
-2393 2395 2466 0
2393 -2395 2466 0
-2397 -2399 -2468 0
2397 2399 -2468 0
-2397 2399 2468 0
2397 -2399 2468 0
-2401 -2403 -2470 0
2401 2403 -2470 0
-2401 2403 2470 0
2401 -2403 2470 0
-2405 -2407 -2472 0
2405 2407 -2472 0
-2405 2407 2472 0
2405 -2407 2472 0
-2409 -2411 -2474 0
2409 2411 -2474 0
-2409 2411 2474 0
2409 -2411 2474 0
-2413 -2415 -2476 0
2413 2415 -2476 0
-2413 2415 2476 0
2413 -2415 2476 0
-2417 -2419 -2478 0
2417 2419 -2478 0
-2417 2419 2478 0
2417 -2419 2478 0
-2421 -2423 -2480 0
2421 2423 -2480 0
-2421 2423 2480 0
2421 -2423 2480 0
-2425 -2427 -2482 0
2425 2427 -2482 0
-2425 2427 2482 0
2425 -2427 2482 0
-2429 -2431 -2484 0
2429 2431 -2484 0
-2429 2431 2484 0
2429 -2431 2484 0
-2433 -2435 -2486 0
2433 2435 -2486 0
-2433 2435 2486 0
2433 -2435 2486 0
-2437 -2439 -2488 0
2437 2439 -2488 0
-2437 2439 2488 0
2437 -2439 2488 0
-2441 -2443 -2490 0
2441 2443 -2490 0
-2441 2443 2490 0
2441 -2443 2490 0
-2445 -2447 -2492 0
2445 2447 -2492 0
-2445 2447 2492 0
2445 -2447 2492 0
-2449 -2451 -2494 0
2449 2451 -2494 0
-2449 2451 2494 0
2449 -2451 2494 0
-2453 -2455 -2496 0
2453 2455 -2496 0
-2453 2455 2496 0
2453 -2455 2496 0
-2457 -2458 -2498 0
2457 2458 -2498 0
-2457 2458 2498 0
2457 -2458 2498 0
-2459 -2460 -2500 0
2459 2460 -2500 0
-2459 2460 2500 0
2459 -2460 2500 0
-2461 -2462 -2501 0
2461 2462 -2501 0
-2461 2462 2501 0
2461 -2462 2501 0
-2463 -2464 -2503 0
2463 2464 -2503 0
-2463 2464 2503 0
2463 -2464 2503 0
-2466 -2468 -2505 0
2466 2468 -2505 0
-2466 2468 2505 0
2466 -2468 2505 0
-2470 -2472 -2507 0
2470 2472 -2507 0
-2470 2472 2507 0
2470 -2472 2507 0
-2474 -2476 -2509 0
2474 2476 -2509 0
-2474 2476 2509 0
2474 -2476 2509 0
-2478 -2480 -2511 0
2478 2480 -2511 0
-2478 2480 2511 0
2478 -2480 2511 0
-2482 -2484 -2513 0
2482 2484 -2513 0
-2482 2484 2513 0
2482 -2484 2513 0
-2486 -2488 -2515 0
2486 2488 -2515 0
-2486 2488 2515 0
2486 -2488 2515 0
-2490 -2492 -2517 0
2490 2492 -2517 0
-2490 2492 2517 0
2490 -2492 2517 0
-2494 -2496 -2519 0
2494 2496 -2519 0
-2494 2496 2519 0
2494 -2496 2519 0
-2456 -2498 -2521 0
2456 2498 -2521 0
2456 -2498 2521 0
-2456 2498 2521 0
-2500 -2501 -2523 0
2500 2501 -2523 0
-2500 2501 2523 0
2500 -2501 2523 0
-2503 -2505 -2525 0
2503 2505 -2525 0
-2503 2505 2525 0
2503 -2505 2525 0
-2507 -2509 -2527 0
2507 2509 -2527 0
-2507 2509 2527 0
2507 -2509 2527 0
-2511 -2513 -2529 0
2511 2513 -2529 0
-2511 2513 2529 0
2511 -2513 2529 0
-2515 -2517 -2531 0
2515 2517 -2531 0
-2515 2517 2531 0
2515 -2517 2531 0
-2519 -2521 -2533 0
2519 2521 -2533 0
-2519 2521 2533 0
2519 -2521 2533 0
-2523 -2525 -2535 0
2523 2525 -2535 0
-2523 2525 2535 0
2523 -2525 2535 0
-2527 -2529 -2537 0
2527 2529 -2537 0
-2527 2529 2537 0
2527 -2529 2537 0
-2531 -2533 -2539 0
2531 2533 -2539 0
-2531 2533 2539 0
2531 -2533 2539 0
-2535 -2537 -2539 0
2535 2537 -2539 0
-2535 2537 2539 0
2535 -2537 2539 0
-2465 -2467 -2544 0
2465 2467 -2544 0
-2465 2467 2544 0
2465 -2467 2544 0
-2469 -2471 -2545 0
2469 2471 -2545 0
-2469 2471 2545 0
2469 -2471 2545 0
-2473 -2475 -2547 0
2473 2475 -2547 0
-2473 2475 2547 0
2473 -2475 2547 0
-2477 -2479 -2549 0
2477 2479 -2549 0
-2477 2479 2549 0
2477 -2479 2549 0
-2481 -2483 -2551 0
2481 2483 -2551 0
-2481 2483 2551 0
2481 -2483 2551 0
-2485 -2487 -2553 0
2485 2487 -2553 0
-2485 2487 2553 0
2485 -2487 2553 0
-2489 -2491 -2555 0
2489 2491 -2555 0
-2489 2491 2555 0
2489 -2491 2555 0
-2493 -2495 -2557 0
2493 2495 -2557 0
-2493 2495 2557 0
2493 -2495 2557 0
-2497 -2499 -2559 0
2497 2499 -2559 0
-2497 2499 2559 0
2497 -2499 2559 0
-2502 -2504 -2562 0
2502 2504 -2562 0
-2502 2504 2562 0
2502 -2504 2562 0
-2506 -2508 -2563 0
2506 2508 -2563 0
-2506 2508 2563 0
2506 -2508 2563 0
-2510 -2512 -2565 0
2510 2512 -2565 0
-2510 2512 2565 0
2510 -2512 2565 0
-2514 -2516 -2567 0
2514 2516 -2567 0
-2514 2516 2567 0
2514 -2516 2567 0
-2518 -2520 -2569 0
2518 2520 -2569 0
-2518 2520 2569 0
2518 -2520 2569 0
-2522 -2524 -2571 0
2522 2524 -2571 0
-2522 2524 2571 0
2522 -2524 2571 0
-2526 -2528 -2573 0
2526 2528 -2573 0
-2526 2528 2573 0
2526 -2528 2573 0
-2530 -2532 -2575 0
2530 2532 -2575 0
-2530 2532 2575 0
2530 -2532 2575 0
-2534 -2536 -2577 0
2534 2536 -2577 0
-2534 2536 2577 0
2534 -2536 2577 0
-2538 -2540 -2579 0
2538 2540 -2579 0
-2538 2540 2579 0
2538 -2540 2579 0
-2539 -2541 -2581 0
2539 2541 -2581 0
2539 -2541 2581 0
-2539 2541 2581 0
-2543 -2544 -2583 0
2543 2544 -2583 0
-2543 2544 2583 0
2543 -2544 2583 0
-2545 -2547 -2584 0
2545 2547 -2584 0
-2545 2547 2584 0
2545 -2547 2584 0
-2549 -2551 -2586 0
2549 2551 -2586 0
-2549 2551 2586 0
2549 -2551 2586 0
-2553 -2555 -2588 0
2553 2555 -2588 0
-2553 2555 2588 0
2553 -2555 2588 0
-2557 -2559 -2590 0
2557 2559 -2590 0
-2557 2559 2590 0
2557 -2559 2590 0
-2561 -2562 -2592 0
2561 2562 -2592 0
-2561 2562 2592 0
2561 -2562 2592 0
-2563 -2565 -2594 0
2563 2565 -2594 0
-2563 2565 2594 0
2563 -2565 2594 0
-2567 -2569 -2596 0
2567 2569 -2596 0
-2567 2569 2596 0
2567 -2569 2596 0
-2571 -2573 -2598 0
2571 2573 -2598 0
-2571 2573 2598 0
2571 -2573 2598 0
-2575 -2577 -2600 0
2575 2577 -2600 0
-2575 2577 2600 0
2575 -2577 2600 0
-2579 -2581 -2602 0
2579 2581 -2602 0
-2579 2581 2602 0
2579 -2581 2602 0
-2542 -2583 -2604 0
2542 2583 -2604 0
-2542 2583 2604 0
2542 -2583 2604 0
-2584 -2586 -2606 0
2584 2586 -2606 0
-2584 2586 2606 0
2584 -2586 2606 0
-2588 -2590 -2608 0
2588 2590 -2608 0
-2588 2590 2608 0
2588 -2590 2608 0
-2592 -2594 -2610 0
2592 2594 -2610 0
-2592 2594 2610 0
2592 -2594 2610 0
-2596 -2598 -2612 0
2596 2598 -2612 0
-2596 2598 2612 0
2596 -2598 2612 0
-2600 -2602 -2614 0
2600 2602 -2614 0
-2600 2602 2614 0
2600 -2602 2614 0
-2604 -2606 -2616 0
2604 2606 -2616 0
-2604 2606 2616 0
2604 -2606 2616 0
-2608 -2610 -2618 0
2608 2610 -2618 0
-2608 2610 2618 0
2608 -2610 2618 0
-2612 -2614 -2620 0
2612 2614 -2620 0
-2612 2614 2620 0
2612 -2614 2620 0
-2616 -2618 -2620 0
2616 2618 -2620 0
-2616 2618 2620 0
2616 -2618 2620 0
-2546 -2548 -2624 0
2546 2548 -2624 0
-2546 2548 2624 0
2546 -2548 2624 0
-2550 -2552 -2626 0
2550 2552 -2626 0
-2550 2552 2626 0
2550 -2552 2626 0
-2554 -2556 -2628 0
2554 2556 -2628 0
-2554 2556 2628 0
2554 -2556 2628 0
-2558 -2560 -2630 0
2558 2560 -2630 0
-2558 2560 2630 0
2558 -2560 2630 0
-2564 -2566 -2633 0
2564 2566 -2633 0
-2564 2566 2633 0
2564 -2566 2633 0
-2568 -2570 -2634 0
2568 2570 -2634 0
-2568 2570 2634 0
2568 -2570 2634 0
-2572 -2574 -2636 0
2572 2574 -2636 0
-2572 2574 2636 0
2572 -2574 2636 0
-2576 -2578 -2638 0
2576 2578 -2638 0
-2576 2578 2638 0
2576 -2578 2638 0
-2580 -2582 -2640 0
2580 2582 -2640 0
-2580 2582 2640 0
2580 -2582 2640 0
-2585 -2587 -2643 0
2585 2587 -2643 0
-2585 2587 2643 0
2585 -2587 2643 0
-2589 -2591 -2644 0
2589 2591 -2644 0
-2589 2591 2644 0
2589 -2591 2644 0
-2593 -2595 -2646 0
2593 2595 -2646 0
-2593 2595 2646 0
2593 -2595 2646 0
-2597 -2599 -2648 0
2597 2599 -2648 0
-2597 2599 2648 0
2597 -2599 2648 0
-2601 -2603 -2650 0
2601 2603 -2650 0
-2601 2603 2650 0
2601 -2603 2650 0
-2605 -2607 -2652 0
2605 2607 -2652 0
-2605 2607 2652 0
2605 -2607 2652 0
-2609 -2611 -2654 0
2609 2611 -2654 0
-2609 2611 2654 0
2609 -2611 2654 0
-2613 -2615 -2656 0
2613 2615 -2656 0
-2613 2615 2656 0
2613 -2615 2656 0
-2617 -2619 -2658 0
2617 2619 -2658 0
-2617 2619 2658 0
2617 -2619 2658 0
-2621 -2622 -2660 0
2621 2622 -2660 0
-2621 2622 2660 0
2621 -2622 2660 0
-2623 -2624 -2661 0
2623 2624 -2661 0
-2623 2624 2661 0
2623 -2624 2661 0
-2626 -2628 -2663 0
2626 2628 -2663 0
-2626 2628 2663 0
2626 -2628 2663 0
-2630 -2632 -2665 0
2630 2632 -2665 0
-2630 2632 2665 0
2630 -2632 2665 0
-2633 -2634 -2667 0
2633 2634 -2667 0
-2633 2634 2667 0
2633 -2634 2667 0
-2636 -2638 -2669 0
2636 2638 -2669 0
-2636 2638 2669 0
2636 -2638 2669 0
-2640 -2642 -2671 0
2640 2642 -2671 0
-2640 2642 2671 0
2640 -2642 2671 0
-2643 -2644 -2673 0
2643 2644 -2673 0
-2643 2644 2673 0
2643 -2644 2673 0
-2646 -2648 -2675 0
2646 2648 -2675 0
-2646 2648 2675 0
2646 -2648 2675 0
-2650 -2652 -2677 0
2650 2652 -2677 0
-2650 2652 2677 0
2650 -2652 2677 0
-2654 -2656 -2679 0
2654 2656 -2679 0
-2654 2656 2679 0
2654 -2656 2679 0
-2658 -2660 -2681 0
2658 2660 -2681 0
-2658 2660 2681 0
2658 -2660 2681 0
-2620 -2661 -2683 0
2620 2661 -2683 0
-2620 2661 2683 0
2620 -2661 2683 0
-2663 -2665 -2685 0
2663 2665 -2685 0
-2663 2665 2685 0
2663 -2665 2685 0
-2667 -2669 -2687 0
2667 2669 -2687 0
-2667 2669 2687 0
2667 -2669 2687 0
-2671 -2673 -2689 0
2671 2673 -2689 0
-2671 2673 2689 0
2671 -2673 2689 0
-2675 -2677 -2691 0
2675 2677 -2691 0
-2675 2677 2691 0
2675 -2677 2691 0
-2679 -2681 -2693 0
2679 2681 -2693 0
-2679 2681 2693 0
2679 -2681 2693 0
-2683 -2685 -2695 0
2683 2685 -2695 0
-2683 2685 2695 0
2683 -2685 2695 0
-2687 -2689 -2697 0
2687 2689 -2697 0
-2687 2689 2697 0
2687 -2689 2697 0
-2691 -2693 -2699 0
2691 2693 -2699 0
-2691 2693 2699 0
2691 -2693 2699 0
-2695 -2697 -2699 0
2695 2697 -2699 0
-2695 2697 2699 0
2695 -2697 2699 0
-2625 -2627 -2737 0
2625 2627 -2737 0
-2625 2627 2737 0
2625 -2627 2737 0
-2629 -2631 -2702 0
2629 2631 -2702 0
-2629 2631 2702 0
2629 -2631 2702 0
-2635 -2637 -2704 0
2635 2637 -2704 0
-2635 2637 2704 0
2635 -2637 2704 0
-2639 -2641 -2706 0
2639 2641 -2706 0
-2639 2641 2706 0
2639 -2641 2706 0
-2645 -2647 -2709 0
2645 2647 -2709 0
-2645 2647 2709 0
2645 -2647 2709 0
-2649 -2651 -2710 0
2649 2651 -2710 0
-2649 2651 2710 0
2649 -2651 2710 0
-2653 -2655 -2712 0
2653 2655 -2712 0
-2653 2655 2712 0
2653 -2655 2712 0
-2657 -2659 -2714 0
2657 2659 -2714 0
-2657 2659 2714 0
2657 -2659 2714 0
-2662 -2664 -2716 0
2662 2664 -2716 0
-2662 2664 2716 0
2662 -2664 2716 0
-2666 -2668 -2718 0
2666 2668 -2718 0
-2666 2668 2718 0
2666 -2668 2718 0
-2670 -2672 -2720 0
2670 2672 -2720 0
-2670 2672 2720 0
2670 -2672 2720 0
-2674 -2676 -2722 0
2674 2676 -2722 0
-2674 2676 2722 0
2674 -2676 2722 0
-2678 -2680 -2724 0
2678 2680 -2724 0
-2678 2680 2724 0
2678 -2680 2724 0
-2682 -2684 -2726 0
2682 2684 -2726 0
-2682 2684 2726 0
2682 -2684 2726 0
-2686 -2688 -2728 0
2686 2688 -2728 0
-2686 2688 2728 0
2686 -2688 2728 0
-2690 -2692 -2730 0
2690 2692 -2730 0
-2690 2692 2730 0
2690 -2692 2730 0
-2694 -2696 -2732 0
2694 2696 -2732 0
-2694 2696 2732 0
2694 -2696 2732 0
-2698 -2700 -2734 0
2698 2700 -2734 0
-2698 2700 2734 0
2698 -2700 2734 0
-2699 -2701 -2736 0
2699 2701 -2736 0
2699 -2701 2736 0
-2699 2701 2736 0
-2702 -2703 -2738 0
2702 2703 -2738 0
-2702 2703 2738 0
2702 -2703 2738 0
-2704 -2706 -2740 0
2704 2706 -2740 0
-2704 2706 2740 0
2704 -2706 2740 0
-2708 -2709 -2742 0
2708 2709 -2742 0
-2708 2709 2742 0
2708 -2709 2742 0
-2710 -2712 -2744 0
2710 2712 -2744 0
-2710 2712 2744 0
2710 -2712 2744 0
-2714 -2715 -2746 0
2714 2715 -2746 0
-2714 2715 2746 0
2714 -2715 2746 0
-2716 -2718 -2748 0
2716 2718 -2748 0
-2716 2718 2748 0
2716 -2718 2748 0
-2720 -2722 -2750 0
2720 2722 -2750 0
-2720 2722 2750 0
2720 -2722 2750 0
-2724 -2726 -2752 0
2724 2726 -2752 0
-2724 2726 2752 0
2724 -2726 2752 0
-2728 -2730 -2754 0
2728 2730 -2754 0
-2728 2730 2754 0
2728 -2730 2754 0
-2732 -2734 -2756 0
2732 2734 -2756 0
-2732 2734 2756 0
2732 -2734 2756 0
-2736 -2737 -2758 0
2736 2737 -2758 0
-2736 2737 2758 0
2736 -2737 2758 0
-2738 -2740 -2760 0
2738 2740 -2760 0
-2738 2740 2760 0
2738 -2740 2760 0
-2742 -2744 -2762 0
2742 2744 -2762 0
-2742 2744 2762 0
2742 -2744 2762 0
-2746 -2748 -2764 0
2746 2748 -2764 0
-2746 2748 2764 0
2746 -2748 2764 0
-2750 -2752 -2766 0
2750 2752 -2766 0
-2750 2752 2766 0
2750 -2752 2766 0
-2754 -2756 -2768 0
2754 2756 -2768 0
-2754 2756 2768 0
2754 -2756 2768 0
-2758 -2760 -2770 0
2758 2760 -2770 0
-2758 2760 2770 0
2758 -2760 2770 0
-2762 -2764 -2772 0
2762 2764 -2772 0
-2762 2764 2772 0
2762 -2764 2772 0
-2766 -2768 -2774 0
2766 2768 -2774 0
-2766 2768 2774 0
2766 -2768 2774 0
-2770 -2772 -2774 0
2770 2772 -2774 0
-2770 2772 2774 0
2770 -2772 2774 0
-2705 -2707 -2779 0
2705 2707 -2779 0
-2705 2707 2779 0
2705 -2707 2779 0
-2711 -2713 -2781 0
2711 2713 -2781 0
-2711 2713 2781 0
2711 -2713 2781 0
-2717 -2719 -2783 0
2717 2719 -2783 0
-2717 2719 2783 0
2717 -2719 2783 0
-2721 -2723 -2785 0
2721 2723 -2785 0
-2721 2723 2785 0
2721 -2723 2785 0
-2725 -2727 -2787 0
2725 2727 -2787 0
-2725 2727 2787 0
2725 -2727 2787 0
-2729 -2731 -2789 0
2729 2731 -2789 0
-2729 2731 2789 0
2729 -2731 2789 0
-2733 -2735 -2791 0
2733 2735 -2791 0
-2733 2735 2791 0
2733 -2735 2791 0
-2739 -2741 -2793 0
2739 2741 -2793 0
-2739 2741 2793 0
2739 -2741 2793 0
-2743 -2745 -2795 0
2743 2745 -2795 0
-2743 2745 2795 0
2743 -2745 2795 0
-2747 -2749 -2797 0
2747 2749 -2797 0
-2747 2749 2797 0
2747 -2749 2797 0
-2751 -2753 -2799 0
2751 2753 -2799 0
-2751 2753 2799 0
2751 -2753 2799 0
-2755 -2757 -2801 0
2755 2757 -2801 0
-2755 2757 2801 0
2755 -2757 2801 0
-2759 -2761 -2803 0
2759 2761 -2803 0
-2759 2761 2803 0
2759 -2761 2803 0
-2763 -2765 -2805 0
2763 2765 -2805 0
-2763 2765 2805 0
2763 -2765 2805 0
-2767 -2769 -2807 0
2767 2769 -2807 0
-2767 2769 2807 0
2767 -2769 2807 0
-2771 -2773 -2809 0
2771 2773 -2809 0
-2771 2773 2809 0
2771 -2773 2809 0
-2775 -2776 -2811 0
2775 2776 -2811 0
-2775 2776 2811 0
2775 -2776 2811 0
-2774 -2777 -2813 0
2774 2777 -2813 0
-2774 2777 2813 0
2774 -2777 2813 0
-2778 -2779 -2815 0
2778 2779 -2815 0
-2778 2779 2815 0
2778 -2779 2815 0
-2780 -2781 -2817 0
2780 2781 -2817 0
-2780 2781 2817 0
2780 -2781 2817 0
-2782 -2783 -2819 0
2782 2783 -2819 0
-2782 2783 2819 0
2782 -2783 2819 0
-2785 -2787 -2821 0
2785 2787 -2821 0
-2785 2787 2821 0
2785 -2787 2821 0
-2789 -2791 -2823 0
2789 2791 -2823 0
-2789 2791 2823 0
2789 -2791 2823 0
-2792 -2793 -2825 0
2792 2793 -2825 0
-2792 2793 2825 0
2792 -2793 2825 0
-2795 -2797 -2827 0
2795 2797 -2827 0
-2795 2797 2827 0
2795 -2797 2827 0
-2799 -2801 -2829 0
2799 2801 -2829 0
-2799 2801 2829 0
2799 -2801 2829 0
-2803 -2805 -2831 0
2803 2805 -2831 0
-2803 2805 2831 0
2803 -2805 2831 0
-2807 -2809 -2833 0
2807 2809 -2833 0
-2807 2809 2833 0
2807 -2809 2833 0
-2811 -2813 -2835 0
2811 2813 -2835 0
-2811 2813 2835 0
2811 -2813 2835 0
-2815 -2817 -2837 0
2815 2817 -2837 0
-2815 2817 2837 0
2815 -2817 2837 0
-2819 -2821 -2839 0
2819 2821 -2839 0
-2819 2821 2839 0
2819 -2821 2839 0
-2823 -2825 -2841 0
2823 2825 -2841 0
-2823 2825 2841 0
2823 -2825 2841 0
-2827 -2829 -2843 0
2827 2829 -2843 0
-2827 2829 2843 0
2827 -2829 2843 0
-2831 -2833 -2845 0
2831 2833 -2845 0
-2831 2833 2845 0
2831 -2833 2845 0
-2835 -2837 -2847 0
2835 2837 -2847 0
-2835 2837 2847 0
2835 -2837 2847 0
-2839 -2841 -2849 0
2839 2841 -2849 0
-2839 2841 2849 0
2839 -2841 2849 0
-2843 -2845 -2851 0
2843 2845 -2851 0
-2843 2845 2851 0
2843 -2845 2851 0
-2847 -2849 -2851 0
2847 2849 -2851 0
-2847 2849 2851 0
2847 -2849 2851 0
-2784 -2786 -2856 0
2784 2786 -2856 0
-2784 2786 2856 0
2784 -2786 2856 0
-2788 -2790 -2857 0
2788 2790 -2857 0
-2788 2790 2857 0
2788 -2790 2857 0
-2794 -2796 -2859 0
2794 2796 -2859 0
-2794 2796 2859 0
2794 -2796 2859 0
-2798 -2800 -2861 0
2798 2800 -2861 0
-2798 2800 2861 0
2798 -2800 2861 0
-2802 -2804 -2863 0
2802 2804 -2863 0
-2802 2804 2863 0
2802 -2804 2863 0
-2806 -2808 -2865 0
2806 2808 -2865 0
-2806 2808 2865 0
2806 -2808 2865 0
-2810 -2812 -2867 0
2810 2812 -2867 0
-2810 2812 2867 0
2810 -2812 2867 0
-2814 -2816 -2869 0
2814 2816 -2869 0
-2814 2816 2869 0
2814 -2816 2869 0
-2818 -2820 -2871 0
2818 2820 -2871 0
-2818 2820 2871 0
2818 -2820 2871 0
-2822 -2824 -2873 0
2822 2824 -2873 0
-2822 2824 2873 0
2822 -2824 2873 0
-2826 -2828 -2875 0
2826 2828 -2875 0
-2826 2828 2875 0
2826 -2828 2875 0
-2830 -2832 -2877 0
2830 2832 -2877 0
-2830 2832 2877 0
2830 -2832 2877 0
-2834 -2836 -2879 0
2834 2836 -2879 0
-2834 2836 2879 0
2834 -2836 2879 0
-2838 -2840 -2881 0
2838 2840 -2881 0
-2838 2840 2881 0
2838 -2840 2881 0
-2842 -2844 -2883 0
2842 2844 -2883 0
-2842 2844 2883 0
2842 -2844 2883 0
-2846 -2848 -2885 0
2846 2848 -2885 0
-2846 2848 2885 0
2846 -2848 2885 0
-2850 -2852 -2887 0
2850 2852 -2887 0
-2850 2852 2887 0
2850 -2852 2887 0
-2851 -2853 -2889 0
2851 2853 -2889 0
2851 -2853 2889 0
-2851 2853 2889 0
-2855 -2856 -2891 0
2855 2856 -2891 0
-2855 2856 2891 0
2855 -2856 2891 0
-2857 -2858 -2892 0
2857 2858 -2892 0
-2857 2858 2892 0
2857 -2858 2892 0
-2859 -2861 -2894 0
2859 2861 -2894 0
-2859 2861 2894 0
2859 -2861 2894 0
-2863 -2865 -2896 0
2863 2865 -2896 0
-2863 2865 2896 0
2863 -2865 2896 0
-2867 -2869 -2898 0
2867 2869 -2898 0
-2867 2869 2898 0
2867 -2869 2898 0
-2871 -2873 -2900 0
2871 2873 -2900 0
-2871 2873 2900 0
2871 -2873 2900 0
-2875 -2877 -2902 0
2875 2877 -2902 0
-2875 2877 2902 0
2875 -2877 2902 0
-2879 -2881 -2904 0
2879 2881 -2904 0
-2879 2881 2904 0
2879 -2881 2904 0
-2883 -2885 -2906 0
2883 2885 -2906 0
-2883 2885 2906 0
2883 -2885 2906 0
-2887 -2889 -2908 0
2887 2889 -2908 0
-2887 2889 2908 0
2887 -2889 2908 0
-2854 -2891 -2910 0
2854 2891 -2910 0
-2854 2891 2910 0
2854 -2891 2910 0
-2892 -2894 -2912 0
2892 2894 -2912 0
-2892 2894 2912 0
2892 -2894 2912 0
-2896 -2898 -2914 0
2896 2898 -2914 0
-2896 2898 2914 0
2896 -2898 2914 0
-2900 -2902 -2916 0
2900 2902 -2916 0
-2900 2902 2916 0
2900 -2902 2916 0
-2904 -2906 -2918 0
2904 2906 -2918 0
-2904 2906 2918 0
2904 -2906 2918 0
-2908 -2910 -2920 0
2908 2910 -2920 0
-2908 2910 2920 0
2908 -2910 2920 0
-2912 -2914 -2922 0
2912 2914 -2922 0
-2912 2914 2922 0
2912 -2914 2922 0
-2916 -2918 -2924 0
2916 2918 -2924 0
-2916 2918 2924 0
2916 -2918 2924 0
-2920 -2922 -2924 0
2920 2922 -2924 0
-2920 2922 2924 0
2920 -2922 2924 0
-2860 -2862 -2929 0
2860 2862 -2929 0
-2860 2862 2929 0
2860 -2862 2929 0
-2864 -2866 -2930 0
2864 2866 -2930 0
-2864 2866 2930 0
2864 -2866 2930 0
-2868 -2870 -2932 0
2868 2870 -2932 0
-2868 2870 2932 0
2868 -2870 2932 0
-2872 -2874 -2934 0
2872 2874 -2934 0
-2872 2874 2934 0
2872 -2874 2934 0
-2876 -2878 -2936 0
2876 2878 -2936 0
-2876 2878 2936 0
2876 -2878 2936 0
-2880 -2882 -2938 0
2880 2882 -2938 0
-2880 2882 2938 0
2880 -2882 2938 0
-2884 -2886 -2940 0
2884 2886 -2940 0
-2884 2886 2940 0
2884 -2886 2940 0
-2888 -2890 -2942 0
2888 2890 -2942 0
-2888 2890 2942 0
2888 -2890 2942 0
-2893 -2895 -2944 0
2893 2895 -2944 0
-2893 2895 2944 0
2893 -2895 2944 0
-2897 -2899 -2946 0
2897 2899 -2946 0
-2897 2899 2946 0
2897 -2899 2946 0
-2901 -2903 -2948 0
2901 2903 -2948 0
-2901 2903 2948 0
2901 -2903 2948 0
-2905 -2907 -2950 0
2905 2907 -2950 0
-2905 2907 2950 0
2905 -2907 2950 0
-2909 -2911 -2952 0
2909 2911 -2952 0
-2909 2911 2952 0
2909 -2911 2952 0
-2913 -2915 -2954 0
2913 2915 -2954 0
-2913 2915 2954 0
2913 -2915 2954 0
-2917 -2919 -2956 0
2917 2919 -2956 0
-2917 2919 2956 0
2917 -2919 2956 0
-2921 -2923 -2958 0
2921 2923 -2958 0
-2921 2923 2958 0
2921 -2923 2958 0
-2925 -2926 -2960 0
2925 2926 -2960 0
-2925 2926 2960 0
2925 -2926 2960 0
-2927 -2928 -2961 0
2927 2928 -2961 0
-2927 2928 2961 0
2927 -2928 2961 0
-2929 -2930 -2963 0
2929 2930 -2963 0
-2929 2930 2963 0
2929 -2930 2963 0
-2932 -2934 -2965 0
2932 2934 -2965 0
-2932 2934 2965 0
2932 -2934 2965 0
-2936 -2938 -2967 0
2936 2938 -2967 0
-2936 2938 2967 0
2936 -2938 2967 0
-2940 -2942 -2969 0
2940 2942 -2969 0
-2940 2942 2969 0
2940 -2942 2969 0
-2943 -2944 -2971 0
2943 2944 -2971 0
-2943 2944 2971 0
2943 -2944 2971 0
-2946 -2948 -2973 0
2946 2948 -2973 0
-2946 2948 2973 0
2946 -2948 2973 0
-2950 -2952 -2975 0
2950 2952 -2975 0
-2950 2952 2975 0
2950 -2952 2975 0
-2954 -2956 -2977 0
2954 2956 -2977 0
-2954 2956 2977 0
2954 -2956 2977 0
-2958 -2960 -2979 0
2958 2960 -2979 0
-2958 2960 2979 0
2958 -2960 2979 0
-2924 -2961 -2981 0
2924 2961 -2981 0
-2924 2961 2981 0
2924 -2961 2981 0
-2963 -2965 -2983 0
2963 2965 -2983 0
-2963 2965 2983 0
2963 -2965 2983 0
-2967 -2969 -2985 0
2967 2969 -2985 0
-2967 2969 2985 0
2967 -2969 2985 0
-2971 -2973 -2987 0
2971 2973 -2987 0
-2971 2973 2987 0
2971 -2973 2987 0
-2975 -2977 -2989 0
2975 2977 -2989 0
-2975 2977 2989 0
2975 -2977 2989 0
-2979 -2981 -2991 0
2979 2981 -2991 0
-2979 2981 2991 0
2979 -2981 2991 0
-2983 -2985 -2993 0
2983 2985 -2993 0
-2983 2985 2993 0
2983 -2985 2993 0
-2987 -2989 -2995 0
2987 2989 -2995 0
-2987 2989 2995 0
2987 -2989 2995 0
-2991 -2993 -2995 0
2991 2993 -2995 0
-2991 2993 2995 0
2991 -2993 2995 0
-2931 -2933 -2998 0
2931 2933 -2998 0
-2931 2933 2998 0
2931 -2933 2998 0
-2935 -2937 -3000 0
2935 2937 -3000 0
-2935 2937 3000 0
2935 -2937 3000 0
-2939 -2941 -3002 0
2939 2941 -3002 0
-2939 2941 3002 0
2939 -2941 3002 0
-2945 -2947 -3004 0
2945 2947 -3004 0
-2945 2947 3004 0
2945 -2947 3004 0
-2949 -2951 -3006 0
2949 2951 -3006 0
-2949 2951 3006 0
2949 -2951 3006 0
-2953 -2955 -3008 0
2953 2955 -3008 0
-2953 2955 3008 0
2953 -2955 3008 0
-2957 -2959 -3010 0
2957 2959 -3010 0
-2957 2959 3010 0
2957 -2959 3010 0
-2962 -2964 -3013 0
2962 2964 -3013 0
-2962 2964 3013 0
2962 -2964 3013 0
-2966 -2968 -3014 0
2966 2968 -3014 0
-2966 2968 3014 0
2966 -2968 3014 0
-2970 -2972 -3016 0
2970 2972 -3016 0
-2970 2972 3016 0
2970 -2972 3016 0
-2974 -2976 -3018 0
2974 2976 -3018 0
-2974 2976 3018 0
2974 -2976 3018 0
-2978 -2980 -3020 0
2978 2980 -3020 0
-2978 2980 3020 0
2978 -2980 3020 0
-2982 -2984 -3022 0
2982 2984 -3022 0
-2982 2984 3022 0
2982 -2984 3022 0
-2986 -2988 -3024 0
2986 2988 -3024 0
-2986 2988 3024 0
2986 -2988 3024 0
-2990 -2992 -3026 0
2990 2992 -3026 0
-2990 2992 3026 0
2990 -2992 3026 0
-2994 -2996 -3028 0
2994 2996 -3028 0
-2994 2996 3028 0
2994 -2996 3028 0
-2995 -2997 -3030 0
2995 2997 -3030 0
2995 -2997 3030 0
-2995 2997 3030 0
-2998 -3000 -3032 0
2998 3000 -3032 0
-2998 3000 3032 0
2998 -3000 3032 0
-3002 -3003 -3034 0
3002 3003 -3034 0
-3002 3003 3034 0
3002 -3003 3034 0
-3004 -3006 -3036 0
3004 3006 -3036 0
-3004 3006 3036 0
3004 -3006 3036 0
-3008 -3010 -3038 0
3008 3010 -3038 0
-3008 3010 3038 0
3008 -3010 3038 0
-3012 -3013 -3040 0
3012 3013 -3040 0
-3012 3013 3040 0
3012 -3013 3040 0
-3014 -3016 -3042 0
3014 3016 -3042 0
-3014 3016 3042 0
3014 -3016 3042 0
-3018 -3020 -3044 0
3018 3020 -3044 0
-3018 3020 3044 0
3018 -3020 3044 0
-3022 -3024 -3046 0
3022 3024 -3046 0
-3022 3024 3046 0
3022 -3024 3046 0
-3026 -3028 -3048 0
3026 3028 -3048 0
-3026 3028 3048 0
3026 -3028 3048 0
-3030 -3031 -3050 0
3030 3031 -3050 0
-3030 3031 3050 0
3030 -3031 3050 0
-3032 -3034 -3052 0
3032 3034 -3052 0
-3032 3034 3052 0
3032 -3034 3052 0
-3036 -3038 -3054 0
3036 3038 -3054 0
-3036 3038 3054 0
3036 -3038 3054 0
-3040 -3042 -3056 0
3040 3042 -3056 0
-3040 3042 3056 0
3040 -3042 3056 0
-3044 -3046 -3058 0
3044 3046 -3058 0
-3044 3046 3058 0
3044 -3046 3058 0
-3048 -3050 -3060 0
3048 3050 -3060 0
-3048 3050 3060 0
3048 -3050 3060 0
-3052 -3054 -3062 0
3052 3054 -3062 0
-3052 3054 3062 0
3052 -3054 3062 0
-3056 -3058 -3064 0
3056 3058 -3064 0
-3056 3058 3064 0
3056 -3058 3064 0
-3060 -3062 -3064 0
3060 3062 -3064 0
-3060 3062 3064 0
3060 -3062 3064 0
-2999 -3001 -3067 0
2999 3001 -3067 0
-2999 3001 3067 0
2999 -3001 3067 0
-3005 -3007 -3069 0
3005 3007 -3069 0
-3005 3007 3069 0
3005 -3007 3069 0
-3009 -3011 -3070 0
3009 3011 -3070 0
-3009 3011 3070 0
3009 -3011 3070 0
-3015 -3017 -3072 0
3015 3017 -3072 0
-3015 3017 3072 0
3015 -3017 3072 0
-3019 -3021 -3074 0
3019 3021 -3074 0
-3019 3021 3074 0
3019 -3021 3074 0
-3023 -3025 -3076 0
3023 3025 -3076 0
-3023 3025 3076 0
3023 -3025 3076 0
-3027 -3029 -3078 0
3027 3029 -3078 0
-3027 3029 3078 0
3027 -3029 3078 0
-3033 -3035 -3081 0
3033 3035 -3081 0
-3033 3035 3081 0
3033 -3035 3081 0
-3037 -3039 -3082 0
3037 3039 -3082 0
-3037 3039 3082 0
3037 -3039 3082 0
-3041 -3043 -3084 0
3041 3043 -3084 0
-3041 3043 3084 0
3041 -3043 3084 0
-3045 -3047 -3086 0
3045 3047 -3086 0
-3045 3047 3086 0
3045 -3047 3086 0
-3049 -3051 -3088 0
3049 3051 -3088 0
-3049 3051 3088 0
3049 -3051 3088 0
-3053 -3055 -3090 0
3053 3055 -3090 0
-3053 3055 3090 0
3053 -3055 3090 0
-3057 -3059 -3092 0
3057 3059 -3092 0
-3057 3059 3092 0
3057 -3059 3092 0
-3061 -3063 -3094 0
3061 3063 -3094 0
-3061 3063 3094 0
3061 -3063 3094 0
-3065 -3066 -3096 0
3065 3066 -3096 0
-3065 3066 3096 0
3065 -3066 3096 0
-3067 -3068 -3098 0
3067 3068 -3098 0
-3067 3068 3098 0
3067 -3068 3098 0
-3069 -3070 -3099 0
3069 3070 -3099 0
-3069 3070 3099 0
3069 -3070 3099 0
-3071 -3072 -3101 0
3071 3072 -3101 0
-3071 3072 3101 0
3071 -3072 3101 0
-3074 -3076 -3103 0
3074 3076 -3103 0
-3074 3076 3103 0
3074 -3076 3103 0
-3078 -3080 -3105 0
3078 3080 -3105 0
-3078 3080 3105 0
3078 -3080 3105 0
-3081 -3082 -3107 0
3081 3082 -3107 0
-3081 3082 3107 0
3081 -3082 3107 0
-3084 -3086 -3109 0
3084 3086 -3109 0
-3084 3086 3109 0
3084 -3086 3109 0
-3088 -3090 -3111 0
3088 3090 -3111 0
-3088 3090 3111 0
3088 -3090 3111 0
-3092 -3094 -3113 0
3092 3094 -3113 0
-3092 3094 3113 0
3092 -3094 3113 0
-3064 -3096 -3115 0
3064 3096 -3115 0
3064 -3096 3115 0
-3064 3096 3115 0
-3098 -3099 -3117 0
3098 3099 -3117 0
-3098 3099 3117 0
3098 -3099 3117 0
-3101 -3103 -3119 0
3101 3103 -3119 0
-3101 3103 3119 0
3101 -3103 3119 0
-3105 -3107 -3121 0
3105 3107 -3121 0
-3105 3107 3121 0
3105 -3107 3121 0
-3109 -3111 -3123 0
3109 3111 -3123 0
-3109 3111 3123 0
3109 -3111 3123 0
-3113 -3115 -3125 0
3113 3115 -3125 0
-3113 3115 3125 0
3113 -3115 3125 0
-3117 -3119 -3127 0
3117 3119 -3127 0
-3117 3119 3127 0
3117 -3119 3127 0
-3121 -3123 -3129 0
3121 3123 -3129 0
-3121 3123 3129 0
3121 -3123 3129 0
-3125 -3127 -3129 0
3125 3127 -3129 0
-3125 3127 3129 0
3125 -3127 3129 0
-3073 -3075 -3135 0
3073 3075 -3135 0
-3073 3075 3135 0
3073 -3075 3135 0
-3077 -3079 -3136 0
3077 3079 -3136 0
-3077 3079 3136 0
3077 -3079 3136 0
-3083 -3085 -3138 0
3083 3085 -3138 0
-3083 3085 3138 0
3083 -3085 3138 0
-3087 -3089 -3140 0
3087 3089 -3140 0
-3087 3089 3140 0
3087 -3089 3140 0
-3091 -3093 -3142 0
3091 3093 -3142 0
-3091 3093 3142 0
3091 -3093 3142 0
-3095 -3097 -3144 0
3095 3097 -3144 0
-3095 3097 3144 0
3095 -3097 3144 0
-3100 -3102 -3147 0
3100 3102 -3147 0
-3100 3102 3147 0
3100 -3102 3147 0
-3104 -3106 -3148 0
3104 3106 -3148 0
-3104 3106 3148 0
3104 -3106 3148 0
-3108 -3110 -3150 0
3108 3110 -3150 0
-3108 3110 3150 0
3108 -3110 3150 0
-3112 -3114 -3152 0
3112 3114 -3152 0
-3112 3114 3152 0
3112 -3114 3152 0
-3116 -3118 -3154 0
3116 3118 -3154 0
-3116 3118 3154 0
3116 -3118 3154 0
-3120 -3122 -3156 0
3120 3122 -3156 0
-3120 3122 3156 0
3120 -3122 3156 0
-3124 -3126 -3158 0
3124 3126 -3158 0
-3124 3126 3158 0
3124 -3126 3158 0
-3128 -3130 -3160 0
3128 3130 -3160 0
-3128 3130 3160 0
3128 -3130 3160 0
-3129 -3131 -3162 0
3129 3131 -3162 0
3129 -3131 3162 0
-3129 3131 3162 0
-3132 -3133 -3164 0
3132 3133 -3164 0
-3132 3133 3164 0
3132 -3133 3164 0
-3134 -3135 -3166 0
3134 3135 -3166 0
-3134 3135 3166 0
3134 -3135 3166 0
-3136 -3137 -3168 0
3136 3137 -3168 0
-3136 3137 3168 0
3136 -3137 3168 0
-3138 -3140 -3170 0
3138 3140 -3170 0
-3138 3140 3170 0
3138 -3140 3170 0
-3142 -3144 -3172 0
3142 3144 -3172 0
-3142 3144 3172 0
3142 -3144 3172 0
-3146 -3147 -3174 0
3146 3147 -3174 0
-3146 3147 3174 0
3146 -3147 3174 0
-3148 -3150 -3176 0
3148 3150 -3176 0
-3148 3150 3176 0
3148 -3150 3176 0
-3152 -3154 -3178 0
3152 3154 -3178 0
-3152 3154 3178 0
3152 -3154 3178 0
-3156 -3158 -3180 0
3156 3158 -3180 0
-3156 3158 3180 0
3156 -3158 3180 0
-3160 -3162 -3182 0
3160 3162 -3182 0
-3160 3162 3182 0
3160 -3162 3182 0
-3164 -3166 -3184 0
3164 3166 -3184 0
-3164 3166 3184 0
3164 -3166 3184 0
-3168 -3170 -3186 0
3168 3170 -3186 0
-3168 3170 3186 0
3168 -3170 3186 0
-3172 -3174 -3188 0
3172 3174 -3188 0
-3172 3174 3188 0
3172 -3174 3188 0
-3176 -3178 -3190 0
3176 3178 -3190 0
-3176 3178 3190 0
3176 -3178 3190 0
-3180 -3182 -3192 0
3180 3182 -3192 0
-3180 3182 3192 0
3180 -3182 3192 0
-3184 -3186 -3194 0
3184 3186 -3194 0
-3184 3186 3194 0
3184 -3186 3194 0
-3188 -3190 -3196 0
3188 3190 -3196 0
-3188 3190 3196 0
3188 -3190 3196 0
-3192 -3194 -3196 0
3192 3194 -3196 0
-3192 3194 3196 0
3192 -3194 3196 0
-3139 -3141 -3201 0
3139 3141 -3201 0
-3139 3141 3201 0
3139 -3141 3201 0
-3143 -3145 -3202 0
3143 3145 -3202 0
-3143 3145 3202 0
3143 -3145 3202 0
-3149 -3151 -3204 0
3149 3151 -3204 0
-3149 3151 3204 0
3149 -3151 3204 0
-3153 -3155 -3206 0
3153 3155 -3206 0
-3153 3155 3206 0
3153 -3155 3206 0
-3157 -3159 -3208 0
3157 3159 -3208 0
-3157 3159 3208 0
3157 -3159 3208 0
-3161 -3163 -3210 0
3161 3163 -3210 0
-3161 3163 3210 0
3161 -3163 3210 0
-3165 -3167 -3212 0
3165 3167 -3212 0
-3165 3167 3212 0
3165 -3167 3212 0
-3169 -3171 -3214 0
3169 3171 -3214 0
-3169 3171 3214 0
3169 -3171 3214 0
-3173 -3175 -3216 0
3173 3175 -3216 0
-3173 3175 3216 0
3173 -3175 3216 0
-3177 -3179 -3218 0
3177 3179 -3218 0
-3177 3179 3218 0
3177 -3179 3218 0
-3181 -3183 -3220 0
3181 3183 -3220 0
-3181 3183 3220 0
3181 -3183 3220 0
-3185 -3187 -3222 0
3185 3187 -3222 0
-3185 3187 3222 0
3185 -3187 3222 0
-3189 -3191 -3224 0
3189 3191 -3224 0
-3189 3191 3224 0
3189 -3191 3224 0
-3193 -3195 -3226 0
3193 3195 -3226 0
-3193 3195 3226 0
3193 -3195 3226 0
-3197 -3198 -3228 0
3197 3198 -3228 0
-3197 3198 3228 0
3197 -3198 3228 0
-3199 -3200 -3229 0
3199 3200 -3229 0
-3199 3200 3229 0
3199 -3200 3229 0
-3201 -3202 -3231 0
3201 3202 -3231 0
-3201 3202 3231 0
3201 -3202 3231 0
-3203 -3204 -3233 0
3203 3204 -3233 0
-3203 3204 3233 0
3203 -3204 3233 0
-3206 -3208 -3235 0
3206 3208 -3235 0
-3206 3208 3235 0
3206 -3208 3235 0
-3210 -3212 -3237 0
3210 3212 -3237 0
-3210 3212 3237 0
3210 -3212 3237 0
-3214 -3216 -3239 0
3214 3216 -3239 0
-3214 3216 3239 0
3214 -3216 3239 0
-3218 -3220 -3241 0
3218 3220 -3241 0
-3218 3220 3241 0
3218 -3220 3241 0
-3222 -3224 -3243 0
3222 3224 -3243 0
-3222 3224 3243 0
3222 -3224 3243 0
-3226 -3228 -3245 0
3226 3228 -3245 0
-3226 3228 3245 0
3226 -3228 3245 0
-3196 -3229 -3247 0
3196 3229 -3247 0
-3196 3229 3247 0
3196 -3229 3247 0
-3231 -3233 -3249 0
3231 3233 -3249 0
-3231 3233 3249 0
3231 -3233 3249 0
-3235 -3237 -3251 0
3235 3237 -3251 0
-3235 3237 3251 0
3235 -3237 3251 0
-3239 -3241 -3253 0
3239 3241 -3253 0
-3239 3241 3253 0
3239 -3241 3253 0
-3243 -3245 -3255 0
3243 3245 -3255 0
-3243 3245 3255 0
3243 -3245 3255 0
-3247 -3249 -3257 0
3247 3249 -3257 0
-3247 3249 3257 0
3247 -3249 3257 0
-3251 -3253 -3259 0
3251 3253 -3259 0
-3251 3253 3259 0
3251 -3253 3259 0
-3255 -3257 -3259 0
3255 3257 -3259 0
-3255 3257 3259 0
3255 -3257 3259 0
-3205 -3207 -3264 0
3205 3207 -3264 0
-3205 3207 3264 0
3205 -3207 3264 0
-3209 -3211 -3265 0
3209 3211 -3265 0
-3209 3211 3265 0
3209 -3211 3265 0
-3213 -3215 -3267 0
3213 3215 -3267 0
-3213 3215 3267 0
3213 -3215 3267 0
-3217 -3219 -3269 0
3217 3219 -3269 0
-3217 3219 3269 0
3217 -3219 3269 0
-3221 -3223 -3271 0
3221 3223 -3271 0
-3221 3223 3271 0
3221 -3223 3271 0
-3225 -3227 -3273 0
3225 3227 -3273 0
-3225 3227 3273 0
3225 -3227 3273 0
-3230 -3232 -3275 0
3230 3232 -3275 0
-3230 3232 3275 0
3230 -3232 3275 0
-3234 -3236 -3277 0
3234 3236 -3277 0
-3234 3236 3277 0
3234 -3236 3277 0
-3238 -3240 -3279 0
3238 3240 -3279 0
-3238 3240 3279 0
3238 -3240 3279 0
-3242 -3244 -3281 0
3242 3244 -3281 0
-3242 3244 3281 0
3242 -3244 3281 0
-3246 -3248 -3283 0
3246 3248 -3283 0
-3246 3248 3283 0
3246 -3248 3283 0
-3250 -3252 -3285 0
3250 3252 -3285 0
-3250 3252 3285 0
3250 -3252 3285 0
-3254 -3256 -3287 0
3254 3256 -3287 0
-3254 3256 3287 0
3254 -3256 3287 0
-3258 -3260 -3289 0
3258 3260 -3289 0
-3258 3260 3289 0
3258 -3260 3289 0
-3259 -3261 -3291 0
3259 3261 -3291 0
3259 -3261 3291 0
-3259 3261 3291 0
-3263 -3264 -3292 0
3263 3264 -3292 0
-3263 3264 3292 0
3263 -3264 3292 0
-3265 -3267 -3294 0
3265 3267 -3294 0
-3265 3267 3294 0
3265 -3267 3294 0
-3269 -3271 -3296 0
3269 3271 -3296 0
-3269 3271 3296 0
3269 -3271 3296 0
-3273 -3274 -3298 0
3273 3274 -3298 0
-3273 3274 3298 0
3273 -3274 3298 0
-3275 -3277 -3300 0
3275 3277 -3300 0
-3275 3277 3300 0
3275 -3277 3300 0
-3279 -3281 -3302 0
3279 3281 -3302 0
-3279 3281 3302 0
3279 -3281 3302 0
-3283 -3285 -3304 0
3283 3285 -3304 0
-3283 3285 3304 0
3283 -3285 3304 0
-3287 -3289 -3306 0
3287 3289 -3306 0
-3287 3289 3306 0
3287 -3289 3306 0
-3262 -3291 -3308 0
3262 3291 -3308 0
3262 -3291 3308 0
-3262 3291 3308 0
-3292 -3294 -3310 0
3292 3294 -3310 0
-3292 3294 3310 0
3292 -3294 3310 0
-3296 -3298 -3312 0
3296 3298 -3312 0
-3296 3298 3312 0
3296 -3298 3312 0
-3300 -3302 -3314 0
3300 3302 -3314 0
-3300 3302 3314 0
3300 -3302 3314 0
-3304 -3306 -3316 0
3304 3306 -3316 0
-3304 3306 3316 0
3304 -3306 3316 0
-3308 -3310 -3318 0
3308 3310 -3318 0
-3308 3310 3318 0
3308 -3310 3318 0
-3312 -3314 -3320 0
3312 3314 -3320 0
-3312 3314 3320 0
3312 -3314 3320 0
-3316 -3318 -3320 0
3316 3318 -3320 0
-3316 3318 3320 0
3316 -3318 3320 0
-3266 -3268 -3324 0
3266 3268 -3324 0
-3266 3268 3324 0
3266 -3268 3324 0
-3270 -3272 -3326 0
3270 3272 -3326 0
-3270 3272 3326 0
3270 -3272 3326 0
-3276 -3278 -3329 0
3276 3278 -3329 0
-3276 3278 3329 0
3276 -3278 3329 0
-3280 -3282 -3330 0
3280 3282 -3330 0
-3280 3282 3330 0
3280 -3282 3330 0
-3284 -3286 -3332 0
3284 3286 -3332 0
-3284 3286 3332 0
3284 -3286 3332 0
-3288 -3290 -3334 0
3288 3290 -3334 0
-3288 3290 3334 0
3288 -3290 3334 0
-3293 -3295 -3336 0
3293 3295 -3336 0
-3293 3295 3336 0
3293 -3295 3336 0
-3297 -3299 -3338 0
3297 3299 -3338 0
-3297 3299 3338 0
3297 -3299 3338 0
-3301 -3303 -3340 0
3301 3303 -3340 0
-3301 3303 3340 0
3301 -3303 3340 0
-3305 -3307 -3342 0
3305 3307 -3342 0
-3305 3307 3342 0
3305 -3307 3342 0
-3309 -3311 -3344 0
3309 3311 -3344 0
-3309 3311 3344 0
3309 -3311 3344 0
-3313 -3315 -3346 0
3313 3315 -3346 0
-3313 3315 3346 0
3313 -3315 3346 0
-3317 -3319 -3348 0
3317 3319 -3348 0
-3317 3319 3348 0
3317 -3319 3348 0
-3321 -3322 -3350 0
3321 3322 -3350 0
-3321 3322 3350 0
3321 -3322 3350 0
-3323 -3324 -3352 0
3323 3324 -3352 0
-3323 3324 3352 0
3323 -3324 3352 0
-3326 -3328 -3353 0
3326 3328 -3353 0
-3326 3328 3353 0
3326 -3328 3353 0
-3329 -3330 -3355 0
3329 3330 -3355 0
-3329 3330 3355 0
3329 -3330 3355 0
-3332 -3334 -3357 0
3332 3334 -3357 0
-3332 3334 3357 0
3332 -3334 3357 0
-3335 -3336 -3359 0
3335 3336 -3359 0
-3335 3336 3359 0
3335 -3336 3359 0
-3338 -3340 -3361 0
3338 3340 -3361 0
-3338 3340 3361 0
3338 -3340 3361 0
-3342 -3344 -3363 0
3342 3344 -3363 0
-3342 3344 3363 0
3342 -3344 3363 0
-3346 -3348 -3365 0
3346 3348 -3365 0
-3346 3348 3365 0
3346 -3348 3365 0
-3320 -3350 -3367 0
3320 3350 -3367 0
3320 -3350 3367 0
-3320 3350 3367 0
-3352 -3353 -3369 0
3352 3353 -3369 0
-3352 3353 3369 0
3352 -3353 3369 0
-3355 -3357 -3371 0
3355 3357 -3371 0
-3355 3357 3371 0
3355 -3357 3371 0
-3359 -3361 -3373 0
3359 3361 -3373 0
-3359 3361 3373 0
3359 -3361 3373 0
-3363 -3365 -3375 0
3363 3365 -3375 0
-3363 3365 3375 0
3363 -3365 3375 0
-3367 -3369 -3377 0
3367 3369 -3377 0
-3367 3369 3377 0
3367 -3369 3377 0
-3371 -3373 -3379 0
3371 3373 -3379 0
-3371 3373 3379 0
3371 -3373 3379 0
-3375 -3377 -3379 0
3375 3377 -3379 0
-3375 3377 3379 0
3375 -3377 3379 0
-3325 -3327 -3408 0
3325 3327 -3408 0
-3325 3327 3408 0
3325 -3327 3408 0
-3331 -3333 -3383 0
3331 3333 -3383 0
-3331 3333 3383 0
3331 -3333 3383 0
-3337 -3339 -3385 0
3337 3339 -3385 0
-3337 3339 3385 0
3337 -3339 3385 0
-3341 -3343 -3386 0
3341 3343 -3386 0
-3341 3343 3386 0
3341 -3343 3386 0
-3345 -3347 -3388 0
3345 3347 -3388 0
-3345 3347 3388 0
3345 -3347 3388 0
-3349 -3351 -3390 0
3349 3351 -3390 0
-3349 3351 3390 0
3349 -3351 3390 0
-3354 -3356 -3392 0
3354 3356 -3392 0
-3354 3356 3392 0
3354 -3356 3392 0
-3358 -3360 -3394 0
3358 3360 -3394 0
-3358 3360 3394 0
3358 -3360 3394 0
-3362 -3364 -3396 0
3362 3364 -3396 0
-3362 3364 3396 0
3362 -3364 3396 0
-3366 -3368 -3398 0
3366 3368 -3398 0
-3366 3368 3398 0
3366 -3368 3398 0
-3370 -3372 -3400 0
3370 3372 -3400 0
-3370 3372 3400 0
3370 -3372 3400 0
-3374 -3376 -3402 0
3374 3376 -3402 0
-3374 3376 3402 0
3374 -3376 3402 0
-3378 -3380 -3404 0
3378 3380 -3404 0
-3378 3380 3404 0
3378 -3380 3404 0
-3379 -3381 -3406 0
3379 3381 -3406 0
3379 -3381 3406 0
-3379 3381 3406 0
-3382 -3383 -3409 0
3382 3383 -3409 0
-3382 3383 3409 0
3382 -3383 3409 0
-3384 -3385 -3410 0
3384 3385 -3410 0
-3384 3385 3410 0
3384 -3385 3410 0
-3386 -3388 -3412 0
3386 3388 -3412 0
-3386 3388 3412 0
3386 -3388 3412 0
-3390 -3391 -3414 0
3390 3391 -3414 0
-3390 3391 3414 0
3390 -3391 3414 0
-3392 -3394 -3416 0
3392 3394 -3416 0
-3392 3394 3416 0
3392 -3394 3416 0
-3396 -3398 -3418 0
3396 3398 -3418 0
-3396 3398 3418 0
3396 -3398 3418 0
-3400 -3402 -3420 0
3400 3402 -3420 0
-3400 3402 3420 0
3400 -3402 3420 0
-3404 -3406 -3422 0
3404 3406 -3422 0
-3404 3406 3422 0
3404 -3406 3422 0
-3408 -3409 -3424 0
3408 3409 -3424 0
-3408 3409 3424 0
3408 -3409 3424 0
-3410 -3412 -3426 0
3410 3412 -3426 0
-3410 3412 3426 0
3410 -3412 3426 0
-3414 -3416 -3428 0
3414 3416 -3428 0
-3414 3416 3428 0
3414 -3416 3428 0
-3418 -3420 -3430 0
3418 3420 -3430 0
-3418 3420 3430 0
3418 -3420 3430 0
-3422 -3424 -3432 0
3422 3424 -3432 0
-3422 3424 3432 0
3422 -3424 3432 0
-3426 -3428 -3434 0
3426 3428 -3434 0
-3426 3428 3434 0
3426 -3428 3434 0
-3430 -3432 -3434 0
3430 3432 -3434 0
-3430 3432 3434 0
3430 -3432 3434 0
-3387 -3389 -3440 0
3387 3389 -3440 0
-3387 3389 3440 0
3387 -3389 3440 0
-3393 -3395 -3442 0
3393 3395 -3442 0
-3393 3395 3442 0
3393 -3395 3442 0
-3397 -3399 -3443 0
3397 3399 -3443 0
-3397 3399 3443 0
3397 -3399 3443 0
-3401 -3403 -3445 0
3401 3403 -3445 0
-3401 3403 3445 0
3401 -3403 3445 0
-3405 -3407 -3447 0
3405 3407 -3447 0
-3405 3407 3447 0
3405 -3407 3447 0
-3411 -3413 -3449 0
3411 3413 -3449 0
-3411 3413 3449 0
3411 -3413 3449 0
-3415 -3417 -3451 0
3415 3417 -3451 0
-3415 3417 3451 0
3415 -3417 3451 0
-3419 -3421 -3453 0
3419 3421 -3453 0
-3419 3421 3453 0
3419 -3421 3453 0
-3423 -3425 -3455 0
3423 3425 -3455 0
-3423 3425 3455 0
3423 -3425 3455 0
-3427 -3429 -3457 0
3427 3429 -3457 0
-3427 3429 3457 0
3427 -3429 3457 0
-3431 -3433 -3459 0
3431 3433 -3459 0
-3431 3433 3459 0
3431 -3433 3459 0
-3435 -3436 -3461 0
3435 3436 -3461 0
-3435 3436 3461 0
3435 -3436 3461 0
-3434 -3437 -3463 0
3434 3437 -3463 0
-3434 3437 3463 0
3434 -3437 3463 0
-3438 -3439 -3465 0
3438 3439 -3465 0
-3438 3439 3465 0
3438 -3439 3465 0
-3440 -3441 -3467 0
3440 3441 -3467 0
-3440 3441 3467 0
3440 -3441 3467 0
-3442 -3443 -3469 0
3442 3443 -3469 0
-3442 3443 3469 0
3442 -3443 3469 0
-3445 -3447 -3471 0
3445 3447 -3471 0
-3445 3447 3471 0
3445 -3447 3471 0
-3448 -3449 -3473 0
3448 3449 -3473 0
-3448 3449 3473 0
3448 -3449 3473 0
-3451 -3453 -3475 0
3451 3453 -3475 0
-3451 3453 3475 0
3451 -3453 3475 0
-3455 -3457 -3477 0
3455 3457 -3477 0
-3455 3457 3477 0
3455 -3457 3477 0
-3459 -3461 -3479 0
3459 3461 -3479 0
-3459 3461 3479 0
3459 -3461 3479 0
-3463 -3465 -3481 0
3463 3465 -3481 0
-3463 3465 3481 0
3463 -3465 3481 0
-3467 -3469 -3483 0
3467 3469 -3483 0
-3467 3469 3483 0
3467 -3469 3483 0
-3471 -3473 -3485 0
3471 3473 -3485 0
-3471 3473 3485 0
3471 -3473 3485 0
-3475 -3477 -3487 0
3475 3477 -3487 0
-3475 3477 3487 0
3475 -3477 3487 0
-3479 -3481 -3489 0
3479 3481 -3489 0
-3479 3481 3489 0
3479 -3481 3489 0
-3483 -3485 -3491 0
3483 3485 -3491 0
-3483 3485 3491 0
3483 -3485 3491 0
-3487 -3489 -3491 0
3487 3489 -3491 0
-3487 3489 3491 0
3487 -3489 3491 0
-3444 -3446 -3496 0
3444 3446 -3496 0
-3444 3446 3496 0
3444 -3446 3496 0
-3450 -3452 -3498 0
3450 3452 -3498 0
-3450 3452 3498 0
3450 -3452 3498 0
-3454 -3456 -3499 0
3454 3456 -3499 0
-3454 3456 3499 0
3454 -3456 3499 0
-3458 -3460 -3501 0
3458 3460 -3501 0
-3458 3460 3501 0
3458 -3460 3501 0
-3462 -3464 -3503 0
3462 3464 -3503 0
-3462 3464 3503 0
3462 -3464 3503 0
-3466 -3468 -3505 0
3466 3468 -3505 0
-3466 3468 3505 0
3466 -3468 3505 0
-3470 -3472 -3507 0
3470 3472 -3507 0
-3470 3472 3507 0
3470 -3472 3507 0
-3474 -3476 -3509 0
3474 3476 -3509 0
-3474 3476 3509 0
3474 -3476 3509 0
-3478 -3480 -3511 0
3478 3480 -3511 0
-3478 3480 3511 0
3478 -3480 3511 0
-3482 -3484 -3513 0
3482 3484 -3513 0
-3482 3484 3513 0
3482 -3484 3513 0
-3486 -3488 -3515 0
3486 3488 -3515 0
-3486 3488 3515 0
3486 -3488 3515 0
-3490 -3492 -3517 0
3490 3492 -3517 0
-3490 3492 3517 0
3490 -3492 3517 0
-3491 -3493 -3519 0
3491 3493 -3519 0
3491 -3493 3519 0
-3491 3493 3519 0
-3495 -3496 -3520 0
3495 3496 -3520 0
-3495 3496 3520 0
3495 -3496 3520 0
-3497 -3498 -3522 0
3497 3498 -3522 0
-3497 3498 3522 0
3497 -3498 3522 0
-3499 -3501 -3524 0
3499 3501 -3524 0
-3499 3501 3524 0
3499 -3501 3524 0
-3503 -3505 -3526 0
3503 3505 -3526 0
-3503 3505 3526 0
3503 -3505 3526 0
-3507 -3509 -3528 0
3507 3509 -3528 0
-3507 3509 3528 0
3507 -3509 3528 0
-3511 -3513 -3530 0
3511 3513 -3530 0
-3511 3513 3530 0
3511 -3513 3530 0
-3515 -3517 -3532 0
3515 3517 -3532 0
-3515 3517 3532 0
3515 -3517 3532 0
-3494 -3519 -3534 0
3494 3519 -3534 0
3494 -3519 3534 0
-3494 3519 3534 0
-3520 -3522 -3536 0
3520 3522 -3536 0
-3520 3522 3536 0
3520 -3522 3536 0
-3524 -3526 -3538 0
3524 3526 -3538 0
-3524 3526 3538 0
3524 -3526 3538 0
-3528 -3530 -3540 0
3528 3530 -3540 0
-3528 3530 3540 0
3528 -3530 3540 0
-3532 -3534 -3542 0
3532 3534 -3542 0
-3532 3534 3542 0
3532 -3534 3542 0
-3536 -3538 -3544 0
3536 3538 -3544 0
-3536 3538 3544 0
3536 -3538 3544 0
-3540 -3542 -3544 0
3540 3542 -3544 0
-3540 3542 3544 0
3540 -3542 3544 0
-3500 -3502 -3549 0
3500 3502 -3549 0
-3500 3502 3549 0
3500 -3502 3549 0
-3504 -3506 -3550 0
3504 3506 -3550 0
-3504 3506 3550 0
3504 -3506 3550 0
-3508 -3510 -3552 0
3508 3510 -3552 0
-3508 3510 3552 0
3508 -3510 3552 0
-3512 -3514 -3554 0
3512 3514 -3554 0
-3512 3514 3554 0
3512 -3514 3554 0
-3516 -3518 -3556 0
3516 3518 -3556 0
-3516 3518 3556 0
3516 -3518 3556 0
-3521 -3523 -3559 0
3521 3523 -3559 0
-3521 3523 3559 0
3521 -3523 3559 0
-3525 -3527 -3560 0
3525 3527 -3560 0
-3525 3527 3560 0
3525 -3527 3560 0
-3529 -3531 -3562 0
3529 3531 -3562 0
-3529 3531 3562 0
3529 -3531 3562 0
-3533 -3535 -3564 0
3533 3535 -3564 0
-3533 3535 3564 0
3533 -3535 3564 0
-3537 -3539 -3566 0
3537 3539 -3566 0
-3537 3539 3566 0
3537 -3539 3566 0
-3541 -3543 -3568 0
3541 3543 -3568 0
-3541 3543 3568 0
3541 -3543 3568 0
-3545 -3546 -3570 0
3545 3546 -3570 0
-3545 3546 3570 0
3545 -3546 3570 0
-3547 -3548 -3572 0
3547 3548 -3572 0
-3547 3548 3572 0
3547 -3548 3572 0
-3549 -3550 -3573 0
3549 3550 -3573 0
-3549 3550 3573 0
3549 -3550 3573 0
-3552 -3554 -3575 0
3552 3554 -3575 0
-3552 3554 3575 0
3552 -3554 3575 0
-3556 -3558 -3577 0
3556 3558 -3577 0
-3556 3558 3577 0
3556 -3558 3577 0
-3559 -3560 -3579 0
3559 3560 -3579 0
-3559 3560 3579 0
3559 -3560 3579 0
-3562 -3564 -3581 0
3562 3564 -3581 0
-3562 3564 3581 0
3562 -3564 3581 0
-3566 -3568 -3583 0
3566 3568 -3583 0
-3566 3568 3583 0
3566 -3568 3583 0
-3544 -3570 -3585 0
3544 3570 -3585 0
3544 -3570 3585 0
-3544 3570 3585 0
-3572 -3573 -3587 0
3572 3573 -3587 0
-3572 3573 3587 0
3572 -3573 3587 0
-3575 -3577 -3589 0
3575 3577 -3589 0
-3575 3577 3589 0
3575 -3577 3589 0
-3579 -3581 -3591 0
3579 3581 -3591 0
-3579 3581 3591 0
3579 -3581 3591 0
-3583 -3585 -3593 0
3583 3585 -3593 0
-3583 3585 3593 0
3583 -3585 3593 0
-3587 -3589 -3595 0
3587 3589 -3595 0
-3587 3589 3595 0
3587 -3589 3595 0
-3591 -3593 -3595 0
3591 3593 -3595 0
-3591 3593 3595 0
3591 -3593 3595 0
-3551 -3553 -3598 0
3551 3553 -3598 0
-3551 3553 3598 0
3551 -3553 3598 0
-3555 -3557 -3600 0
3555 3557 -3600 0
-3555 3557 3600 0
3555 -3557 3600 0
-3561 -3563 -3603 0
3561 3563 -3603 0
-3561 3563 3603 0
3561 -3563 3603 0
-3565 -3567 -3604 0
3565 3567 -3604 0
-3565 3567 3604 0
3565 -3567 3604 0
-3569 -3571 -3606 0
3569 3571 -3606 0
-3569 3571 3606 0
3569 -3571 3606 0
-3574 -3576 -3609 0
3574 3576 -3609 0
-3574 3576 3609 0
3574 -3576 3609 0
-3578 -3580 -3610 0
3578 3580 -3610 0
-3578 3580 3610 0
3578 -3580 3610 0
-3582 -3584 -3612 0
3582 3584 -3612 0
-3582 3584 3612 0
3582 -3584 3612 0
-3586 -3588 -3614 0
3586 3588 -3614 0
-3586 3588 3614 0
3586 -3588 3614 0
-3590 -3592 -3616 0
3590 3592 -3616 0
-3590 3592 3616 0
3590 -3592 3616 0
-3594 -3596 -3618 0
3594 3596 -3618 0
-3594 3596 3618 0
3594 -3596 3618 0
-3595 -3597 -3620 0
3595 3597 -3620 0
3595 -3597 3620 0
-3595 3597 3620 0
-3598 -3600 -3623 0
3598 3600 -3623 0
-3598 3600 3623 0
3598 -3600 3623 0
-3602 -3603 -3624 0
3602 3603 -3624 0
-3602 3603 3624 0
3602 -3603 3624 0
-3604 -3606 -3626 0
3604 3606 -3626 0
-3604 3606 3626 0
3604 -3606 3626 0
-3608 -3609 -3628 0
3608 3609 -3628 0
-3608 3609 3628 0
3608 -3609 3628 0
-3610 -3612 -3630 0
3610 3612 -3630 0
-3610 3612 3630 0
3610 -3612 3630 0
-3614 -3616 -3632 0
3614 3616 -3632 0
-3614 3616 3632 0
3614 -3616 3632 0
-3618 -3620 -3634 0
3618 3620 -3634 0
-3618 3620 3634 0
3618 -3620 3634 0
-3622 -3623 -3636 0
3622 3623 -3636 0
-3622 3623 3636 0
3622 -3623 3636 0
-3624 -3626 -3638 0
3624 3626 -3638 0
-3624 3626 3638 0
3624 -3626 3638 0
-3628 -3630 -3640 0
3628 3630 -3640 0
-3628 3630 3640 0
3628 -3630 3640 0
-3632 -3634 -3642 0
3632 3634 -3642 0
-3632 3634 3642 0
3632 -3634 3642 0
-3636 -3638 -3644 0
3636 3638 -3644 0
-3636 3638 3644 0
3636 -3638 3644 0
-3640 -3642 -3644 0
3640 3642 -3644 0
-3640 3642 3644 0
3640 -3642 3644 0
-3599 -3601 -3647 0
3599 3601 -3647 0
-3599 3601 3647 0
3599 -3601 3647 0
-3605 -3607 -3649 0
3605 3607 -3649 0
-3605 3607 3649 0
3605 -3607 3649 0
-3611 -3613 -3651 0
3611 3613 -3651 0
-3611 3613 3651 0
3611 -3613 3651 0
-3615 -3617 -3652 0
3615 3617 -3652 0
-3615 3617 3652 0
3615 -3617 3652 0
-3619 -3621 -3654 0
3619 3621 -3654 0
-3619 3621 3654 0
3619 -3621 3654 0
-3625 -3627 -3657 0
3625 3627 -3657 0
-3625 3627 3657 0
3625 -3627 3657 0
-3629 -3631 -3658 0
3629 3631 -3658 0
-3629 3631 3658 0
3629 -3631 3658 0
-3633 -3635 -3660 0
3633 3635 -3660 0
-3633 3635 3660 0
3633 -3635 3660 0
-3637 -3639 -3662 0
3637 3639 -3662 0
-3637 3639 3662 0
3637 -3639 3662 0
-3641 -3643 -3664 0
3641 3643 -3664 0
-3641 3643 3664 0
3641 -3643 3664 0
-3645 -3646 -3666 0
3645 3646 -3666 0
-3645 3646 3666 0
3645 -3646 3666 0
-3647 -3648 -3667 0
3647 3648 -3667 0
-3647 3648 3667 0
3647 -3648 3667 0
-3649 -3650 -3669 0
3649 3650 -3669 0
-3649 3650 3669 0
3649 -3650 3669 0
-3651 -3652 -3671 0
3651 3652 -3671 0
-3651 3652 3671 0
3651 -3652 3671 0
-3654 -3656 -3673 0
3654 3656 -3673 0
-3654 3656 3673 0
3654 -3656 3673 0
-3657 -3658 -3675 0
3657 3658 -3675 0
-3657 3658 3675 0
3657 -3658 3675 0
-3660 -3662 -3677 0
3660 3662 -3677 0
-3660 3662 3677 0
3660 -3662 3677 0
-3664 -3666 -3679 0
3664 3666 -3679 0
-3664 3666 3679 0
3664 -3666 3679 0
-3644 -3667 -3681 0
3644 3667 -3681 0
-3644 3667 3681 0
3644 -3667 3681 0
-3669 -3671 -3683 0
3669 3671 -3683 0
-3669 3671 3683 0
3669 -3671 3683 0
-3673 -3675 -3685 0
3673 3675 -3685 0
-3673 3675 3685 0
3673 -3675 3685 0
-3677 -3679 -3687 0
3677 3679 -3687 0
-3677 3679 3687 0
3677 -3679 3687 0
-3681 -3683 -3689 0
3681 3683 -3689 0
-3681 3683 3689 0
3681 -3683 3689 0
-3685 -3687 -3689 0
3685 3687 -3689 0
-3685 3687 3689 0
3685 -3687 3689 0
-3653 -3655 -3695 0
3653 3655 -3695 0
-3653 3655 3695 0
3653 -3655 3695 0
-3659 -3661 -3697 0
3659 3661 -3697 0
-3659 3661 3697 0
3659 -3661 3697 0
-3663 -3665 -3698 0
3663 3665 -3698 0
-3663 3665 3698 0
3663 -3665 3698 0
-3668 -3670 -3700 0
3668 3670 -3700 0
-3668 3670 3700 0
3668 -3670 3700 0
-3672 -3674 -3702 0
3672 3674 -3702 0
-3672 3674 3702 0
3672 -3674 3702 0
-3676 -3678 -3704 0
3676 3678 -3704 0
-3676 3678 3704 0
3676 -3678 3704 0
-3680 -3682 -3706 0
3680 3682 -3706 0
-3680 3682 3706 0
3680 -3682 3706 0
-3684 -3686 -3708 0
3684 3686 -3708 0
-3684 3686 3708 0
3684 -3686 3708 0
-3688 -3690 -3710 0
3688 3690 -3710 0
-3688 3690 3710 0
3688 -3690 3710 0
-3689 -3691 -3712 0
3689 3691 -3712 0
3689 -3691 3712 0
-3689 3691 3712 0
-3692 -3693 -3714 0
3692 3693 -3714 0
-3692 3693 3714 0
3692 -3693 3714 0
-3694 -3695 -3716 0
3694 3695 -3716 0
-3694 3695 3716 0
3694 -3695 3716 0
-3696 -3697 -3718 0
3696 3697 -3718 0
-3696 3697 3718 0
3696 -3697 3718 0
-3698 -3699 -3720 0
3698 3699 -3720 0
-3698 3699 3720 0
3698 -3699 3720 0
-3700 -3702 -3722 0
3700 3702 -3722 0
-3700 3702 3722 0
3700 -3702 3722 0
-3704 -3706 -3724 0
3704 3706 -3724 0
-3704 3706 3724 0
3704 -3706 3724 0
-3708 -3710 -3726 0
3708 3710 -3726 0
-3708 3710 3726 0
3708 -3710 3726 0
-3712 -3714 -3728 0
3712 3714 -3728 0
-3712 3714 3728 0
3712 -3714 3728 0
-3716 -3718 -3730 0
3716 3718 -3730 0
-3716 3718 3730 0
3716 -3718 3730 0
-3720 -3722 -3732 0
3720 3722 -3732 0
-3720 3722 3732 0
3720 -3722 3732 0
-3724 -3726 -3734 0
3724 3726 -3734 0
-3724 3726 3734 0
3724 -3726 3734 0
-3728 -3730 -3736 0
3728 3730 -3736 0
-3728 3730 3736 0
3728 -3730 3736 0
-3732 -3734 -3736 0
3732 3734 -3736 0
-3732 3734 3736 0
3732 -3734 3736 0
-3701 -3703 -3742 0
3701 3703 -3742 0
-3701 3703 3742 0
3701 -3703 3742 0
-3705 -3707 -3744 0
3705 3707 -3744 0
-3705 3707 3744 0
3705 -3707 3744 0
-3709 -3711 -3746 0
3709 3711 -3746 0
-3709 3711 3746 0
3709 -3711 3746 0
-3713 -3715 -3748 0
3713 3715 -3748 0
-3713 3715 3748 0
3713 -3715 3748 0
-3717 -3719 -3750 0
3717 3719 -3750 0
-3717 3719 3750 0
3717 -3719 3750 0
-3721 -3723 -3752 0
3721 3723 -3752 0
-3721 3723 3752 0
3721 -3723 3752 0
-3725 -3727 -3754 0
3725 3727 -3754 0
-3725 3727 3754 0
3725 -3727 3754 0
-3729 -3731 -3756 0
3729 3731 -3756 0
-3729 3731 3756 0
3729 -3731 3756 0
-3733 -3735 -3758 0
3733 3735 -3758 0
-3733 3735 3758 0
3733 -3735 3758 0
-3737 -3738 -3760 0
3737 3738 -3760 0
-3737 3738 3760 0
3737 -3738 3760 0
-3739 -3740 -3762 0
3739 3740 -3762 0
-3739 3740 3762 0
3739 -3740 3762 0
-3741 -3742 -3763 0
3741 3742 -3763 0
-3741 3742 3763 0
3741 -3742 3763 0
-3744 -3746 -3765 0
3744 3746 -3765 0
-3744 3746 3765 0
3744 -3746 3765 0
-3748 -3750 -3767 0
3748 3750 -3767 0
-3748 3750 3767 0
3748 -3750 3767 0
-3752 -3754 -3769 0
3752 3754 -3769 0
-3752 3754 3769 0
3752 -3754 3769 0
-3756 -3758 -3771 0
3756 3758 -3771 0
-3756 3758 3771 0
3756 -3758 3771 0
-3736 -3760 -3773 0
3736 3760 -3773 0
3736 -3760 3773 0
-3736 3760 3773 0
-3762 -3763 -3775 0
3762 3763 -3775 0
-3762 3763 3775 0
3762 -3763 3775 0
-3765 -3767 -3777 0
3765 3767 -3777 0
-3765 3767 3777 0
3765 -3767 3777 0
-3769 -3771 -3779 0
3769 3771 -3779 0
-3769 3771 3779 0
3769 -3771 3779 0
-3773 -3775 -3781 0
3773 3775 -3781 0
-3773 3775 3781 0
3773 -3775 3781 0
-3777 -3779 -3781 0
3777 3779 -3781 0
-3777 3779 3781 0
3777 -3779 3781 0
-3743 -3745 -3784 0
3743 3745 -3784 0
-3743 3745 3784 0
3743 -3745 3784 0
-3747 -3749 -3786 0
3747 3749 -3786 0
-3747 3749 3786 0
3747 -3749 3786 0
-3751 -3753 -3788 0
3751 3753 -3788 0
-3751 3753 3788 0
3751 -3753 3788 0
-3755 -3757 -3790 0
3755 3757 -3790 0
-3755 3757 3790 0
3755 -3757 3790 0
-3759 -3761 -3792 0
3759 3761 -3792 0
-3759 3761 3792 0
3759 -3761 3792 0
-3764 -3766 -3794 0
3764 3766 -3794 0
-3764 3766 3794 0
3764 -3766 3794 0
-3768 -3770 -3796 0
3768 3770 -3796 0
-3768 3770 3796 0
3768 -3770 3796 0
-3772 -3774 -3798 0
3772 3774 -3798 0
-3772 3774 3798 0
3772 -3774 3798 0
-3776 -3778 -3800 0
3776 3778 -3800 0
-3776 3778 3800 0
3776 -3778 3800 0
-3780 -3782 -3802 0
3780 3782 -3802 0
-3780 3782 3802 0
3780 -3782 3802 0
-3781 -3783 -3804 0
3781 3783 -3804 0
3781 -3783 3804 0
-3781 3783 3804 0
-3784 -3786 -3815 0
3784 3786 -3815 0
-3784 3786 3815 0
3784 -3786 3815 0
-3788 -3790 -3806 0
3788 3790 -3806 0
-3788 3790 3806 0
3788 -3790 3806 0
-3792 -3793 -3808 0
3792 3793 -3808 0
-3792 3793 3808 0
3792 -3793 3808 0
-3794 -3796 -3810 0
3794 3796 -3810 0
-3794 3796 3810 0
3794 -3796 3810 0
-3798 -3800 -3812 0
3798 3800 -3812 0
-3798 3800 3812 0
3798 -3800 3812 0
-3802 -3804 -3814 0
3802 3804 -3814 0
-3802 3804 3814 0
3802 -3804 3814 0
-3806 -3808 -3816 0
3806 3808 -3816 0
-3806 3808 3816 0
3806 -3808 3816 0
-3810 -3812 -3818 0
3810 3812 -3818 0
-3810 3812 3818 0
3810 -3812 3818 0
-3814 -3815 -3820 0
3814 3815 -3820 0
-3814 3815 3820 0
3814 -3815 3820 0
-3816 -3818 -3820 0
3816 3818 -3820 0
-3816 3818 3820 0
3816 -3818 3820 0
-3785 -3787 -3823 0
3785 3787 -3823 0
-3785 3787 3823 0
3785 -3787 3823 0
-3789 -3791 -3824 0
3789 3791 -3824 0
-3789 3791 3824 0
3789 -3791 3824 0
-3795 -3797 -3826 0
3795 3797 -3826 0
-3795 3797 3826 0
3795 -3797 3826 0
-3799 -3801 -3828 0
3799 3801 -3828 0
-3799 3801 3828 0
3799 -3801 3828 0
-3803 -3805 -3830 0
3803 3805 -3830 0
-3803 3805 3830 0
3803 -3805 3830 0
-3807 -3809 -3832 0
3807 3809 -3832 0
-3807 3809 3832 0
3807 -3809 3832 0
-3811 -3813 -3834 0
3811 3813 -3834 0
-3811 3813 3834 0
3811 -3813 3834 0
-3817 -3819 -3837 0
3817 3819 -3837 0
-3817 3819 3837 0
3817 -3819 3837 0
-3821 -3822 -3838 0
3821 3822 -3838 0
-3821 3822 3838 0
3821 -3822 3838 0
-3823 -3824 -3839 0
3823 3824 -3839 0
-3823 3824 3839 0
3823 -3824 3839 0
-3825 -3826 -3841 0
3825 3826 -3841 0
-3825 3826 3841 0
3825 -3826 3841 0
-3828 -3830 -3843 0
3828 3830 -3843 0
-3828 3830 3843 0
3828 -3830 3843 0
-3831 -3832 -3845 0
3831 3832 -3845 0
-3831 3832 3845 0
3831 -3832 3845 0
-3834 -3836 -3847 0
3834 3836 -3847 0
-3834 3836 3847 0
3834 -3836 3847 0
-3837 -3838 -3849 0
3837 3838 -3849 0
-3837 3838 3849 0
3837 -3838 3849 0
-3820 -3839 -3851 0
3820 3839 -3851 0
-3820 3839 3851 0
3820 -3839 3851 0
-3841 -3843 -3853 0
3841 3843 -3853 0
-3841 3843 3853 0
3841 -3843 3853 0
-3845 -3847 -3855 0
3845 3847 -3855 0
-3845 3847 3855 0
3845 -3847 3855 0
-3849 -3851 -3857 0
3849 3851 -3857 0
-3849 3851 3857 0
3849 -3851 3857 0
-3853 -3855 -3857 0
3853 3855 -3857 0
-3853 3855 3857 0
3853 -3855 3857 0
-3827 -3829 -3862 0
3827 3829 -3862 0
-3827 3829 3862 0
3827 -3829 3862 0
-3833 -3835 -3864 0
3833 3835 -3864 0
-3833 3835 3864 0
3833 -3835 3864 0
-3840 -3842 -3867 0
3840 3842 -3867 0
-3840 3842 3867 0
3840 -3842 3867 0
-3844 -3846 -3868 0
3844 3846 -3868 0
-3844 3846 3868 0
3844 -3846 3868 0
-3848 -3850 -3870 0
3848 3850 -3870 0
-3848 3850 3870 0
3848 -3850 3870 0
-3852 -3854 -3872 0
3852 3854 -3872 0
-3852 3854 3872 0
3852 -3854 3872 0
-3856 -3858 -3874 0
3856 3858 -3874 0
-3856 3858 3874 0
3856 -3858 3874 0
-3857 -3859 -3876 0
3857 3859 -3876 0
3857 -3859 3876 0
-3857 3859 3876 0
-3860 -3861 -3878 0
3860 3861 -3878 0
-3860 3861 3878 0
3860 -3861 3878 0
-3862 -3863 -3880 0
3862 3863 -3880 0
-3862 3863 3880 0
3862 -3863 3880 0
-3864 -3865 -3882 0
3864 3865 -3882 0
-3864 3865 3882 0
3864 -3865 3882 0
-3866 -3867 -3884 0
3866 3867 -3884 0
-3866 3867 3884 0
3866 -3867 3884 0
-3868 -3870 -3886 0
3868 3870 -3886 0
-3868 3870 3886 0
3868 -3870 3886 0
-3872 -3874 -3888 0
3872 3874 -3888 0
-3872 3874 3888 0
3872 -3874 3888 0
-3876 -3878 -3890 0
3876 3878 -3890 0
-3876 3878 3890 0
3876 -3878 3890 0
-3880 -3882 -3892 0
3880 3882 -3892 0
-3880 3882 3892 0
3880 -3882 3892 0
-3884 -3886 -3894 0
3884 3886 -3894 0
-3884 3886 3894 0
3884 -3886 3894 0
-3888 -3890 -3896 0
3888 3890 -3896 0
-3888 3890 3896 0
3888 -3890 3896 0
-3892 -3894 -3896 0
3892 3894 -3896 0
-3892 3894 3896 0
3892 -3894 3896 0
-3869 -3871 -3902 0
3869 3871 -3902 0
-3869 3871 3902 0
3869 -3871 3902 0
-3873 -3875 -3904 0
3873 3875 -3904 0
-3873 3875 3904 0
3873 -3875 3904 0
-3877 -3879 -3906 0
3877 3879 -3906 0
-3877 3879 3906 0
3877 -3879 3906 0
-3881 -3883 -3908 0
3881 3883 -3908 0
-3881 3883 3908 0
3881 -3883 3908 0
-3885 -3887 -3910 0
3885 3887 -3910 0
-3885 3887 3910 0
3885 -3887 3910 0
-3889 -3891 -3912 0
3889 3891 -3912 0
-3889 3891 3912 0
3889 -3891 3912 0
-3893 -3895 -3914 0
3893 3895 -3914 0
-3893 3895 3914 0
3893 -3895 3914 0
-3897 -3898 -3916 0
3897 3898 -3916 0
-3897 3898 3916 0
3897 -3898 3916 0
-3899 -3900 -3918 0
3899 3900 -3918 0
-3899 3900 3918 0
3899 -3900 3918 0
-3901 -3902 -3919 0
3901 3902 -3919 0
-3901 3902 3919 0
3901 -3902 3919 0
-3904 -3906 -3921 0
3904 3906 -3921 0
-3904 3906 3921 0
3904 -3906 3921 0
-3908 -3910 -3923 0
3908 3910 -3923 0
-3908 3910 3923 0
3908 -3910 3923 0
-3912 -3914 -3925 0
3912 3914 -3925 0
-3912 3914 3925 0
3912 -3914 3925 0
-3896 -3916 -3927 0
3896 3916 -3927 0
3896 -3916 3927 0
-3896 3916 3927 0
-3918 -3919 -3929 0
3918 3919 -3929 0
-3918 3919 3929 0
3918 -3919 3929 0
-3921 -3923 -3931 0
3921 3923 -3931 0
-3921 3923 3931 0
3921 -3923 3931 0
-3925 -3927 -3933 0
3925 3927 -3933 0
-3925 3927 3933 0
3925 -3927 3933 0
-3929 -3931 -3933 0
3929 3931 -3933 0
-3929 3931 3933 0
3929 -3931 3933 0
-3903 -3905 -3936 0
3903 3905 -3936 0
-3903 3905 3936 0
3903 -3905 3936 0
-3907 -3909 -3938 0
3907 3909 -3938 0
-3907 3909 3938 0
3907 -3909 3938 0
-3911 -3913 -3940 0
3911 3913 -3940 0
-3911 3913 3940 0
3911 -3913 3940 0
-3915 -3917 -3942 0
3915 3917 -3942 0
-3915 3917 3942 0
3915 -3917 3942 0
-3920 -3922 -3945 0
3920 3922 -3945 0
-3920 3922 3945 0
3920 -3922 3945 0
-3924 -3926 -3946 0
3924 3926 -3946 0
-3924 3926 3946 0
3924 -3926 3946 0
-3928 -3930 -3948 0
3928 3930 -3948 0
-3928 3930 3948 0
3928 -3930 3948 0
-3932 -3934 -3950 0
3932 3934 -3950 0
-3932 3934 3950 0
3932 -3934 3950 0
-3933 -3935 -3952 0
3933 3935 -3952 0
3933 -3935 3952 0
-3933 3935 3952 0
-3936 -3938 -3962 0
3936 3938 -3962 0
-3936 3938 3962 0
3936 -3938 3962 0
-3940 -3942 -3954 0
3940 3942 -3954 0
-3940 3942 3954 0
3940 -3942 3954 0
-3944 -3945 -3956 0
3944 3945 -3956 0
-3944 3945 3956 0
3944 -3945 3956 0
-3946 -3948 -3958 0
3946 3948 -3958 0
-3946 3948 3958 0
3946 -3948 3958 0
-3950 -3952 -3960 0
3950 3952 -3960 0
-3950 3952 3960 0
3950 -3952 3960 0
-3954 -3956 -3963 0
3954 3956 -3963 0
-3954 3956 3963 0
3954 -3956 3963 0
-3958 -3960 -3964 0
3958 3960 -3964 0
-3958 3960 3964 0
3958 -3960 3964 0
-3962 -3963 -3964 0
3962 3963 -3964 0
-3962 3963 3964 0
3962 -3963 3964 0
-3937 -3939 -3967 0
3937 3939 -3967 0
-3937 3939 3967 0
3937 -3939 3967 0
-3941 -3943 -3968 0
3941 3943 -3968 0
-3941 3943 3968 0
3941 -3943 3968 0
-3947 -3949 -3970 0
3947 3949 -3970 0
-3947 3949 3970 0
3947 -3949 3970 0
-3951 -3953 -3972 0
3951 3953 -3972 0
-3951 3953 3972 0
3951 -3953 3972 0
-3955 -3957 -3975 0
3955 3957 -3975 0
-3955 3957 3975 0
3955 -3957 3975 0
-3959 -3961 -3976 0
3959 3961 -3976 0
-3959 3961 3976 0
3959 -3961 3976 0
-3965 -3966 -3978 0
3965 3966 -3978 0
-3965 3966 3978 0
3965 -3966 3978 0
-3967 -3968 -3979 0
3967 3968 -3979 0
-3967 3968 3979 0
3967 -3968 3979 0
-3969 -3970 -3981 0
3969 3970 -3981 0
-3969 3970 3981 0
3969 -3970 3981 0
-3972 -3974 -3983 0
3972 3974 -3983 0
-3972 3974 3983 0
3972 -3974 3983 0
-3975 -3976 -3985 0
3975 3976 -3985 0
-3975 3976 3985 0
3975 -3976 3985 0
-3977 -3978 -3987 0
3977 3978 -3987 0
-3977 3978 3987 0
3977 -3978 3987 0
-3964 -3979 -3989 0
3964 3979 -3989 0
-3964 3979 3989 0
3964 -3979 3989 0
-3981 -3983 -3991 0
3981 3983 -3991 0
-3981 3983 3991 0
3981 -3983 3991 0
-3985 -3987 -3993 0
3985 3987 -3993 0
-3985 3987 3993 0
3985 -3987 3993 0
-3989 -3991 -3993 0
3989 3991 -3993 0
-3989 3991 3993 0
3989 -3991 3993 0
-3971 -3973 -3998 0
3971 3973 -3998 0
-3971 3973 3998 0
3971 -3973 3998 0
-3980 -3982 -4002 0
3980 3982 -4002 0
-3980 3982 4002 0
3980 -3982 4002 0
-3984 -3986 -4004 0
3984 3986 -4004 0
-3984 3986 4004 0
3984 -3986 4004 0
-3988 -3990 -4006 0
3988 3990 -4006 0
-3988 3990 4006 0
3988 -3990 4006 0
-3992 -3994 -4008 0
3992 3994 -4008 0
-3992 3994 4008 0
3992 -3994 4008 0
-3993 -3995 -4010 0
3993 3995 -4010 0
3993 -3995 4010 0
-3993 3995 4010 0
-3996 -3997 -4012 0
3996 3997 -4012 0
-3996 3997 4012 0
3996 -3997 4012 0
-3998 -3999 -4014 0
3998 3999 -4014 0
-3998 3999 4014 0
3998 -3999 4014 0
-4000 -4001 -4016 0
4000 4001 -4016 0
-4000 4001 4016 0
4000 -4001 4016 0
-4002 -4004 -4018 0
4002 4004 -4018 0
-4002 4004 4018 0
4002 -4004 4018 0
-4006 -4008 -4020 0
4006 4008 -4020 0
-4006 4008 4020 0
4006 -4008 4020 0
-4010 -4012 -4022 0
4010 4012 -4022 0
-4010 4012 4022 0
4010 -4012 4022 0
-4014 -4016 -4024 0
4014 4016 -4024 0
-4014 4016 4024 0
4014 -4016 4024 0
-4018 -4020 -4026 0
4018 4020 -4026 0
-4018 4020 4026 0
4018 -4020 4026 0
-4022 -4024 -4026 0
4022 4024 -4026 0
-4022 4024 4026 0
4022 -4024 4026 0
-4003 -4005 -4030 0
4003 4005 -4030 0
-4003 4005 4030 0
4003 -4005 4030 0
-4007 -4009 -4031 0
4007 4009 -4031 0
-4007 4009 4031 0
4007 -4009 4031 0
-4011 -4013 -4033 0
4011 4013 -4033 0
-4011 4013 4033 0
4011 -4013 4033 0
-4015 -4017 -4035 0
4015 4017 -4035 0
-4015 4017 4035 0
4015 -4017 4035 0
-4019 -4021 -4037 0
4019 4021 -4037 0
-4019 4021 4037 0
4019 -4021 4037 0
-4023 -4025 -4039 0
4023 4025 -4039 0
-4023 4025 4039 0
4023 -4025 4039 0
-4027 -4028 -4041 0
4027 4028 -4041 0
-4027 4028 4041 0
4027 -4028 4041 0
-4030 -4031 -4043 0
4030 4031 -4043 0
-4030 4031 4043 0
4030 -4031 4043 0
-4033 -4035 -4045 0
4033 4035 -4045 0
-4033 4035 4045 0
4033 -4035 4045 0
-4037 -4039 -4047 0
4037 4039 -4047 0
-4037 4039 4047 0
4037 -4039 4047 0
-4026 -4041 -4049 0
4026 4041 -4049 0
4026 -4041 4049 0
-4026 4041 4049 0
-4029 -4043 -4051 0
4029 4043 -4051 0
-4029 4043 4051 0
4029 -4043 4051 0
-4045 -4047 -4053 0
4045 4047 -4053 0
-4045 4047 4053 0
4045 -4047 4053 0
-4049 -4051 -4053 0
4049 4051 -4053 0
-4049 4051 4053 0
4049 -4051 4053 0
-4032 -4034 -4057 0
4032 4034 -4057 0
-4032 4034 4057 0
4032 -4034 4057 0
-4036 -4038 -4059 0
4036 4038 -4059 0
-4036 4038 4059 0
4036 -4038 4059 0
-4040 -4042 -4070 0
4040 4042 -4070 0
-4040 4042 4070 0
4040 -4042 4070 0
-4044 -4046 -4061 0
4044 4046 -4061 0
-4044 4046 4061 0
4044 -4046 4061 0
-4048 -4050 -4063 0
4048 4050 -4063 0
-4048 4050 4063 0
4048 -4050 4063 0
-4052 -4054 -4065 0
4052 4054 -4065 0
-4052 4054 4065 0
4052 -4054 4065 0
-4053 -4055 -4067 0
4053 4055 -4067 0
4053 -4055 4067 0
-4053 4055 4067 0
-4057 -4059 -4069 0
4057 4059 -4069 0
-4057 4059 4069 0
4057 -4059 4069 0
-4061 -4063 -4071 0
4061 4063 -4071 0
-4061 4063 4071 0
4061 -4063 4071 0
-4065 -4067 -4072 0
4065 4067 -4072 0
-4065 4067 4072 0
4065 -4067 4072 0
-4056 -4069 -4074 0
4056 4069 -4074 0
-4056 4069 4074 0
4056 -4069 4074 0
-4070 -4071 -4076 0
4070 4071 -4076 0
-4070 4071 4076 0
4070 -4071 4076 0
-4072 -4074 -4076 0
4072 4074 -4076 0
-4072 4074 4076 0
4072 -4074 4076 0
-4058 -4060 -4079 0
4058 4060 -4079 0
-4058 4060 4079 0
4058 -4060 4079 0
-4062 -4064 -4081 0
4062 4064 -4081 0
-4062 4064 4081 0
4062 -4064 4081 0
-4066 -4068 -4082 0
4066 4068 -4082 0
-4066 4068 4082 0
4066 -4068 4082 0
-4073 -4075 -4085 0
4073 4075 -4085 0
-4073 4075 4085 0
4073 -4075 4085 0
-4077 -4078 -4086 0
4077 4078 -4086 0
-4077 4078 4086 0
4077 -4078 4086 0
-4079 -4080 -4087 0
4079 4080 -4087 0
-4079 4080 4087 0
4079 -4080 4087 0
-4081 -4082 -4089 0
4081 4082 -4089 0
-4081 4082 4089 0
4081 -4082 4089 0
-4083 -4084 -4091 0
4083 4084 -4091 0
-4083 4084 4091 0
4083 -4084 4091 0
-4085 -4086 -4093 0
4085 4086 -4093 0
-4085 4086 4093 0
4085 -4086 4093 0
-4076 -4087 -4095 0
4076 4087 -4095 0
-4076 4087 4095 0
4076 -4087 4095 0
-4089 -4091 -4097 0
4089 4091 -4097 0
-4089 4091 4097 0
4089 -4091 4097 0
-4093 -4095 -4097 0
4093 4095 -4097 0
-4093 4095 4097 0
4093 -4095 4097 0
-4088 -4090 -4105 0
4088 4090 -4105 0
-4088 4090 4105 0
4088 -4090 4105 0
-4092 -4094 -4106 0
4092 4094 -4106 0
-4092 4094 4106 0
4092 -4094 4106 0
-4096 -4098 -4108 0
4096 4098 -4108 0
-4096 4098 4108 0
4096 -4098 4108 0
-4097 -4099 -4110 0
4097 4099 -4110 0
4097 -4099 4110 0
-4097 4099 4110 0
-4100 -4101 -4112 0
4100 4101 -4112 0
-4100 4101 4112 0
4100 -4101 4112 0
-4102 -4103 -4114 0
4102 4103 -4114 0
-4102 4103 4114 0
4102 -4103 4114 0
-4104 -4105 -4116 0
4104 4105 -4116 0
-4104 4105 4116 0
4104 -4105 4116 0
-4106 -4108 -4118 0
4106 4108 -4118 0
-4106 4108 4118 0
4106 -4108 4118 0
-4110 -4112 -4120 0
4110 4112 -4120 0
-4110 4112 4120 0
4110 -4112 4120 0
-4114 -4116 -4122 0
4114 4116 -4122 0
-4114 4116 4122 0
4114 -4116 4122 0
-4118 -4120 -4122 0
4118 4120 -4122 0
-4118 4120 4122 0
4118 -4120 4122 0
-4107 -4109 -4126 0
4107 4109 -4126 0
-4107 4109 4126 0
4107 -4109 4126 0
-4111 -4113 -4127 0
4111 4113 -4127 0
-4111 4113 4127 0
4111 -4113 4127 0
-4115 -4117 -4129 0
4115 4117 -4129 0
-4115 4117 4129 0
4115 -4117 4129 0
-4119 -4121 -4131 0
4119 4121 -4131 0
-4119 4121 4131 0
4119 -4121 4131 0
-4123 -4124 -4133 0
4123 4124 -4133 0
-4123 4124 4133 0
4123 -4124 4133 0
-4126 -4127 -4135 0
4126 4127 -4135 0
-4126 4127 4135 0
4126 -4127 4135 0
-4129 -4131 -4137 0
4129 4131 -4137 0
-4129 4131 4137 0
4129 -4131 4137 0
-4122 -4133 -4139 0
4122 4133 -4139 0
4122 -4133 4139 0
-4122 4133 4139 0
-4125 -4135 -4141 0
4125 4135 -4141 0
-4125 4135 4141 0
4125 -4135 4141 0
-4137 -4139 -4141 0
4137 4139 -4141 0
-4137 4139 4141 0
4137 -4139 4141 0
-4128 -4130 -4145 0
4128 4130 -4145 0
-4128 4130 4145 0
4128 -4130 4145 0
-4132 -4134 -4147 0
4132 4134 -4147 0
-4132 4134 4147 0
4132 -4134 4147 0
-4136 -4138 -4154 0
4136 4138 -4154 0
-4136 4138 4154 0
4136 -4138 4154 0
-4140 -4142 -4149 0
4140 4142 -4149 0
-4140 4142 4149 0
4140 -4142 4149 0
-4141 -4143 -4151 0
4141 4143 -4151 0
4141 -4143 4151 0
-4141 4143 4151 0
-4145 -4147 -4153 0
4145 4147 -4153 0
-4145 4147 4153 0
4145 -4147 4153 0
-4149 -4151 -4155 0
4149 4151 -4155 0
-4149 4151 4155 0
4149 -4151 4155 0
-4144 -4153 -4156 0
4144 4153 -4156 0
-4144 4153 4156 0
4144 -4153 4156 0
-4154 -4155 -4156 0
4154 4155 -4156 0
-4154 4155 4156 0
4154 -4155 4156 0
-4146 -4148 -4159 0
4146 4148 -4159 0
-4146 4148 4159 0
4146 -4148 4159 0
-4150 -4152 -4161 0
4150 4152 -4161 0
-4150 4152 4161 0
4150 -4152 4161 0
-4157 -4158 -4164 0
4157 4158 -4164 0
-4157 4158 4164 0
4157 -4158 4164 0
-4159 -4160 -4165 0
4159 4160 -4165 0
-4159 4160 4165 0
4159 -4160 4165 0
-4161 -4162 -4167 0
4161 4162 -4167 0
-4161 4162 4167 0
4161 -4162 4167 0
-4163 -4164 -4169 0
4163 4164 -4169 0
-4163 4164 4169 0
4163 -4164 4169 0
-4156 -4165 -4171 0
4156 4165 -4171 0
-4156 4165 4171 0
4156 -4165 4171 0
-4167 -4169 -4171 0
4167 4169 -4171 0
-4167 4169 4171 0
4167 -4169 4171 0
-4166 -4168 -4177 0
4166 4168 -4177 0
-4166 4168 4177 0
4166 -4168 4177 0
-4170 -4172 -4179 0
4170 4172 -4179 0
-4170 4172 4179 0
4170 -4172 4179 0
-4171 -4173 -4181 0
4171 4173 -4181 0
4171 -4173 4181 0
-4171 4173 4181 0
-4174 -4175 -4183 0
4174 4175 -4183 0
-4174 4175 4183 0
4174 -4175 4183 0
-4177 -4179 -4185 0
4177 4179 -4185 0
-4177 4179 4185 0
4177 -4179 4185 0
-4181 -4183 -4186 0
4181 4183 -4186 0
-4181 4183 4186 0
4181 -4183 4186 0
-4176 -4185 -4186 0
4176 4185 -4186 0
-4176 4185 4186 0
4176 -4185 4186 0
-4178 -4180 -4194 0
4178 4180 -4194 0
-4178 4180 4194 0
4178 -4180 4194 0
-4182 -4184 -4190 0
4182 4184 -4190 0
-4182 4184 4190 0
4182 -4184 4190 0
-4187 -4188 -4193 0
4187 4188 -4193 0
-4187 4188 4193 0
4187 -4188 4193 0
-4190 -4192 -4195 0
4190 4192 -4195 0
-4190 4192 4195 0
4190 -4192 4195 0
-4186 -4193 -4197 0
4186 4193 -4197 0
4186 -4193 4197 0
-4186 4193 4197 0
-4194 -4195 -4197 0
4194 4195 -4197 0
-4194 4195 4197 0
4194 -4195 4197 0
-4189 -4191 -4205 0
4189 4191 -4205 0
-4189 4191 4205 0
4189 -4191 4205 0
-4196 -4198 -4201 0
4196 4198 -4201 0
-4196 4198 4201 0
4196 -4198 4201 0
-4197 -4199 -4203 0
4197 4199 -4203 0
4197 -4199 4203 0
-4197 4199 4203 0
-4201 -4203 -4206 0
4201 4203 -4206 0
-4201 4203 4206 0
4201 -4203 4206 0
-4200 -4205 -4206 0
4200 4205 -4206 0
4200 -4205 4206 0
-4200 4205 4206 0
-4202 -4204 -4213 0
4202 4204 -4213 0
-4202 4204 4213 0
4202 -4204 4213 0
-4207 -4208 -4214 0
4207 4208 -4214 0
-4207 4208 4214 0
4207 -4208 4214 0
-4206 -4209 -4211 0
4206 4209 -4211 0
-4206 4209 4211 0
4206 -4209 4211 0
-4211 -4213 -4214 0
4211 4213 -4214 0
-4211 4213 4214 0
4211 -4213 4214 0
-4210 -4212 -4218 0
4210 4212 -4218 0
-4210 4212 4218 0
4210 -4212 4218 0
-4214 -4215 -4217 0
4214 4215 -4217 0
4214 -4215 4217 0
-4214 4215 4217 0
-4216 -4217 -4218 0
4216 4217 -4218 0
4216 -4217 4218 0
-4216 4217 4218 0
-4219 -4220 -4222 0
4219 4220 -4222 0
-4219 4220 4222 0
4219 -4220 4222 0
-4218 -4221 -4222 0
4218 4221 -4222 0
4218 -4221 4222 0
-4218 4221 4222 0
4222 -4223 4224 0
-4222 4223 4224 0
