c Factorization SAT instance #0: N = 383017 = 607 x 631
c p = 607 (10 bits), q = 631 (10 bits)
c N = 383017 (19 bits)
c Generator: generate_instances.py  d=3, k=50, seed=None
p cnf 6604 23319
-1 -2 10 0
1 -10 0
2 -10 0
-1 -3 11 0
1 -11 0
3 -11 0
-1 -4 12 0
1 -12 0
4 -12 0
-1 -5 13 0
1 -13 0
5 -13 0
-1 -6 14 0
1 -14 0
6 -14 0
-1 -7 15 0
1 -15 0
7 -15 0
-1 -8 16 0
1 -16 0
8 -16 0
-1 -9 17 0
1 -17 0
9 -17 0
-1 -18 19 0
18 -19 0
1 -19 0
-2 -18 20 0
18 -20 0
2 -20 0
-3 -18 21 0
18 -21 0
3 -21 0
-4 -18 22 0
18 -22 0
4 -22 0
-5 -18 23 0
18 -23 0
5 -23 0
-6 -18 24 0
18 -24 0
6 -24 0
-7 -18 25 0
18 -25 0
7 -25 0
-8 -18 26 0
18 -26 0
8 -26 0
-9 -18 27 0
18 -27 0
9 -27 0
-1 -28 29 0
28 -29 0
1 -29 0
-2 -28 30 0
28 -30 0
2 -30 0
-3 -28 31 0
28 -31 0
3 -31 0
-4 -28 32 0
28 -32 0
4 -32 0
-5 -28 33 0
28 -33 0
5 -33 0
-6 -28 34 0
28 -34 0
6 -34 0
-7 -28 35 0
28 -35 0
7 -35 0
-8 -28 36 0
28 -36 0
8 -36 0
-9 -28 37 0
28 -37 0
9 -37 0
-1 -38 39 0
38 -39 0
1 -39 0
-2 -38 40 0
38 -40 0
2 -40 0
-3 -38 41 0
38 -41 0
3 -41 0
-4 -38 42 0
38 -42 0
4 -42 0
-5 -38 43 0
38 -43 0
5 -43 0
-6 -38 44 0
38 -44 0
6 -44 0
-7 -38 45 0
38 -45 0
7 -45 0
-8 -38 46 0
38 -46 0
8 -46 0
-9 -38 47 0
38 -47 0
9 -47 0
-1 -48 49 0
48 -49 0
1 -49 0
-2 -48 50 0
48 -50 0
2 -50 0
-3 -48 51 0
48 -51 0
3 -51 0
-4 -48 52 0
48 -52 0
4 -52 0
-5 -48 53 0
48 -53 0
5 -53 0
-6 -48 54 0
48 -54 0
6 -54 0
-7 -48 55 0
48 -55 0
7 -55 0
-8 -48 56 0
48 -56 0
8 -56 0
-9 -48 57 0
48 -57 0
9 -57 0
-1 -58 59 0
58 -59 0
1 -59 0
-2 -58 60 0
58 -60 0
2 -60 0
-3 -58 61 0
58 -61 0
3 -61 0
-4 -58 62 0
58 -62 0
4 -62 0
-5 -58 63 0
58 -63 0
5 -63 0
-6 -58 64 0
58 -64 0
6 -64 0
-7 -58 65 0
58 -65 0
7 -65 0
-8 -58 66 0
58 -66 0
8 -66 0
-9 -58 67 0
58 -67 0
9 -67 0
-1 -68 69 0
68 -69 0
1 -69 0
-2 -68 70 0
68 -70 0
2 -70 0
-3 -68 71 0
68 -71 0
3 -71 0
-4 -68 72 0
68 -72 0
4 -72 0
-5 -68 73 0
68 -73 0
5 -73 0
-6 -68 74 0
68 -74 0
6 -74 0
-7 -68 75 0
68 -75 0
7 -75 0
-8 -68 76 0
68 -76 0
8 -76 0
-9 -68 77 0
68 -77 0
9 -77 0
-1 -78 79 0
78 -79 0
1 -79 0
-2 -78 80 0
78 -80 0
2 -80 0
-3 -78 81 0
78 -81 0
3 -81 0
-4 -78 82 0
78 -82 0
4 -82 0
-5 -78 83 0
78 -83 0
5 -83 0
-6 -78 84 0
78 -84 0
6 -84 0
-7 -78 85 0
78 -85 0
7 -85 0
-8 -78 86 0
78 -86 0
8 -86 0
-9 -78 87 0
78 -87 0
9 -87 0
-1 -88 89 0
88 -89 0
1 -89 0
-2 -88 90 0
88 -90 0
2 -90 0
-3 -88 91 0
88 -91 0
3 -91 0
-4 -88 92 0
88 -92 0
4 -92 0
-5 -88 93 0
88 -93 0
5 -93 0
-6 -88 94 0
88 -94 0
6 -94 0
-7 -88 95 0
88 -95 0
7 -95 0
-8 -88 96 0
88 -96 0
8 -96 0
-9 -88 97 0
88 -97 0
9 -97 0
-1 -2 99 0
2 -99 0
1 -99 0
-1 -18 100 0
18 -100 0
1 -100 0
-3 -10 102 0
3 -102 0
10 -102 0
-19 -28 104 0
19 -104 0
28 -104 0
-99 -100 106 0
99 -106 0
100 -106 0
-98 -101 108 0
98 -108 0
101 -108 0
-103 -105 109 0
103 -109 0
105 -109 0
-4 -11 110 0
4 -110 0
11 -110 0
-20 -29 112 0
20 -112 0
29 -112 0
-38 -102 114 0
38 -114 0
102 -114 0
-104 -106 116 0
104 -116 0
106 -116 0
-108 -109 134 0
108 -134 0
109 -134 0
-111 -113 120 0
111 -120 0
113 -120 0
-115 -117 122 0
115 -122 0
117 -122 0
-118 -119 123 0
118 -123 0
119 -123 0
-5 -12 125 0
5 -125 0
12 -125 0
-21 -30 127 0
21 -127 0
30 -127 0
-39 -48 129 0
39 -129 0
48 -129 0
-110 -112 131 0
110 -131 0
112 -131 0
-114 -116 133 0
114 -133 0
116 -133 0
-120 -122 160 0
120 -160 0
122 -160 0
-121 -123 137 0
123 -137 0
121 -137 0
-124 -126 139 0
124 -139 0
126 -139 0
-128 -130 141 0
128 -141 0
130 -141 0
-132 -134 143 0
132 -143 0
134 -143 0
-135 -136 145 0
135 -145 0
136 -145 0
-138 -140 147 0
138 -147 0
140 -147 0
-142 -144 166 0
142 -166 0
144 -166 0
-6 -13 149 0
6 -149 0
13 -149 0
-22 -31 151 0
22 -151 0
31 -151 0
-40 -49 153 0
40 -153 0
49 -153 0
-58 -125 155 0
58 -155 0
125 -155 0
-127 -129 157 0
127 -157 0
129 -157 0
-131 -133 159 0
131 -159 0
133 -159 0
-137 -139 197 0
137 -197 0
139 -197 0
-141 -143 163 0
141 -163 0
143 -163 0
-145 -147 165 0
145 -165 0
147 -165 0
-148 -150 199 0
148 -199 0
150 -199 0
-152 -154 169 0
152 -169 0
154 -169 0
-156 -158 171 0
156 -171 0
158 -171 0
-160 -161 173 0
160 -173 0
161 -173 0
-162 -164 175 0
162 -175 0
164 -175 0
-166 -167 177 0
166 -177 0
167 -177 0
-168 -170 179 0
168 -179 0
170 -179 0
-172 -174 181 0
172 -181 0
174 -181 0
-176 -178 182 0
176 -182 0
178 -182 0
-7 -14 184 0
7 -184 0
14 -184 0
-23 -32 186 0
23 -186 0
32 -186 0
-41 -50 188 0
41 -188 0
50 -188 0
-59 -68 190 0
59 -190 0
68 -190 0
-149 -151 192 0
149 -192 0
151 -192 0
-153 -155 194 0
153 -194 0
155 -194 0
-157 -159 196 0
157 -196 0
159 -196 0
-163 -165 248 0
163 -248 0
165 -248 0
-169 -171 249 0
169 -249 0
171 -249 0
-173 -175 202 0
173 -202 0
175 -202 0
-177 -179 204 0
177 -204 0
179 -204 0
-181 -182 206 0
181 -206 0
182 -206 0
-180 -183 208 0
180 -208 0
183 -208 0
-185 -187 210 0
185 -210 0
187 -210 0
-189 -191 212 0
189 -212 0
191 -212 0
-193 -195 214 0
193 -214 0
195 -214 0
-197 -198 216 0
197 -216 0
198 -216 0
-199 -200 218 0
199 -218 0
200 -218 0
-201 -203 220 0
201 -220 0
203 -220 0
-205 -207 222 0
205 -222 0
207 -222 0
-209 -211 224 0
209 -224 0
211 -224 0
-213 -215 226 0
213 -226 0
215 -226 0
-217 -219 228 0
217 -228 0
219 -228 0
-221 -223 230 0
221 -230 0
223 -230 0
-225 -227 231 0
225 -231 0
227 -231 0
-8 -15 233 0
8 -233 0
15 -233 0
-24 -33 235 0
24 -235 0
33 -235 0
-42 -51 237 0
42 -237 0
51 -237 0
-60 -69 239 0
60 -239 0
69 -239 0
-78 -184 241 0
78 -241 0
184 -241 0
-186 -188 243 0
186 -243 0
188 -243 0
-190 -192 245 0
190 -245 0
192 -245 0
-194 -196 247 0
194 -247 0
196 -247 0
-202 -204 251 0
202 -251 0
204 -251 0
-206 -208 253 0
206 -253 0
208 -253 0
-210 -212 255 0
210 -255 0
212 -255 0
-214 -216 257 0
214 -257 0
216 -257 0
-218 -220 259 0
218 -259 0
220 -259 0
-222 -224 261 0
222 -261 0
224 -261 0
-226 -228 263 0
226 -263 0
228 -263 0
-230 -231 265 0
230 -265 0
231 -265 0
-229 -232 267 0
229 -267 0
232 -267 0
-234 -236 269 0
234 -269 0
236 -269 0
-238 -240 271 0
238 -271 0
240 -271 0
-242 -244 273 0
242 -273 0
244 -273 0
-246 -248 275 0
246 -275 0
248 -275 0
-249 -250 277 0
249 -277 0
250 -277 0
-252 -254 279 0
252 -279 0
254 -279 0
-256 -258 281 0
256 -281 0
258 -281 0
-260 -262 283 0
260 -283 0
262 -283 0
-264 -266 285 0
264 -285 0
266 -285 0
-268 -270 287 0
268 -287 0
270 -287 0
-272 -274 289 0
272 -289 0
274 -289 0
-276 -278 291 0
276 -291 0
278 -291 0
-280 -282 293 0
280 -293 0
282 -293 0
-284 -286 295 0
284 -295 0
286 -295 0
-288 -290 297 0
288 -297 0
290 -297 0
-292 -294 298 0
292 -298 0
294 -298 0
-9 -16 300 0
9 -300 0
16 -300 0
-25 -34 302 0
25 -302 0
34 -302 0
-43 -52 304 0
43 -304 0
52 -304 0
-61 -70 306 0
61 -306 0
70 -306 0
-79 -88 308 0
79 -308 0
88 -308 0
-233 -235 310 0
233 -310 0
235 -310 0
-237 -239 312 0
237 -312 0
239 -312 0
-241 -243 314 0
241 -314 0
243 -314 0
-245 -247 315 0
245 -315 0
247 -315 0
-251 -253 397 0
251 -397 0
253 -397 0
-255 -257 318 0
255 -318 0
257 -318 0
-259 -261 320 0
259 -320 0
261 -320 0
-263 -265 322 0
263 -322 0
265 -322 0
-267 -269 324 0
267 -324 0
269 -324 0
-271 -273 326 0
271 -326 0
273 -326 0
-275 -277 328 0
275 -328 0
277 -328 0
-279 -281 330 0
279 -330 0
281 -330 0
-283 -285 332 0
283 -332 0
285 -332 0
-287 -289 334 0
287 -334 0
289 -334 0
-291 -293 336 0
291 -336 0
293 -336 0
-295 -297 338 0
295 -338 0
297 -338 0
-296 -298 340 0
298 -340 0
296 -340 0
-299 -301 342 0
299 -342 0
301 -342 0
-303 -305 344 0
303 -344 0
305 -344 0
-307 -309 346 0
307 -346 0
309 -346 0
-311 -313 348 0
311 -348 0
313 -348 0
-316 -317 414 0
316 -414 0
317 -414 0
-319 -321 352 0
319 -352 0
321 -352 0
-323 -325 354 0
323 -354 0
325 -354 0
-327 -329 356 0
327 -356 0
329 -356 0
-331 -333 358 0
331 -358 0
333 -358 0
-335 -337 360 0
335 -360 0
337 -360 0
-339 -341 362 0
339 -362 0
341 -362 0
-343 -345 364 0
343 -364 0
345 -364 0
-347 -349 366 0
347 -366 0
349 -366 0
-350 -351 368 0
350 -368 0
351 -368 0
-353 -355 370 0
353 -370 0
355 -370 0
-357 -359 372 0
357 -372 0
359 -372 0
-361 -363 374 0
361 -374 0
363 -374 0
-365 -367 376 0
365 -376 0
367 -376 0
-369 -371 378 0
369 -378 0
371 -378 0
-373 -375 379 0
373 -379 0
375 -379 0
-17 -26 381 0
17 -381 0
26 -381 0
-35 -44 383 0
35 -383 0
44 -383 0
-53 -62 385 0
53 -385 0
62 -385 0
-71 -80 387 0
71 -387 0
80 -387 0
-89 -300 389 0
89 -389 0
300 -389 0
-302 -304 391 0
302 -391 0
304 -391 0
-306 -308 393 0
306 -393 0
308 -393 0
-310 -312 395 0
310 -395 0
312 -395 0
-314 -315 494 0
314 -494 0
315 -494 0
-318 -320 399 0
318 -399 0
320 -399 0
-322 -324 401 0
322 -401 0
324 -401 0
-326 -328 403 0
326 -403 0
328 -403 0
-330 -332 405 0
330 -405 0
332 -405 0
-334 -336 407 0
334 -407 0
336 -407 0
-338 -340 409 0
338 -409 0
340 -409 0
-342 -344 411 0
342 -411 0
344 -411 0
-346 -348 413 0
346 -413 0
348 -413 0
-352 -354 503 0
352 -503 0
354 -503 0
-356 -358 417 0
356 -417 0
358 -417 0
-360 -362 419 0
360 -419 0
362 -419 0
-364 -366 421 0
364 -421 0
366 -421 0
-368 -370 423 0
368 -423 0
370 -423 0
-372 -374 425 0
372 -425 0
374 -425 0
-376 -378 427 0
376 -427 0
378 -427 0
-377 -379 429 0
379 -429 0
377 -429 0
-380 -382 431 0
380 -431 0
382 -431 0
-384 -386 433 0
384 -433 0
386 -433 0
-388 -390 435 0
388 -435 0
390 -435 0
-392 -394 437 0
392 -437 0
394 -437 0
-396 -397 439 0
396 -439 0
397 -439 0
-398 -400 441 0
398 -441 0
400 -441 0
-402 -404 443 0
402 -443 0
404 -443 0
-406 -408 445 0
406 -445 0
408 -445 0
-410 -412 447 0
410 -447 0
412 -447 0
-414 -415 449 0
414 -449 0
415 -449 0
-416 -418 451 0
416 -451 0
418 -451 0
-420 -422 453 0
420 -453 0
422 -453 0
-424 -426 455 0
424 -455 0
426 -455 0
-428 -430 457 0
428 -457 0
430 -457 0
-432 -434 459 0
432 -459 0
434 -459 0
-436 -438 461 0
436 -461 0
438 -461 0
-440 -442 463 0
440 -463 0
442 -463 0
-444 -446 465 0
444 -465 0
446 -465 0
-448 -450 467 0
448 -467 0
450 -467 0
-452 -454 469 0
452 -469 0
454 -469 0
-456 -458 471 0
456 -471 0
458 -471 0
-460 -462 473 0
460 -473 0
462 -473 0
-464 -466 475 0
464 -475 0
466 -475 0
-468 -470 477 0
468 -477 0
470 -477 0
-472 -474 478 0
472 -478 0
474 -478 0
-27 -36 480 0
27 -480 0
36 -480 0
-45 -54 482 0
45 -482 0
54 -482 0
-63 -72 484 0
63 -484 0
72 -484 0
-81 -90 486 0
81 -486 0
90 -486 0
-381 -383 488 0
381 -488 0
383 -488 0
-385 -387 490 0
385 -490 0
387 -490 0
-389 -391 492 0
389 -492 0
391 -492 0
-393 -395 604 0
393 -604 0
395 -604 0
-399 -401 496 0
399 -496 0
401 -496 0
-403 -405 498 0
403 -498 0
405 -498 0
-407 -409 500 0
407 -500 0
409 -500 0
-411 -413 502 0
411 -502 0
413 -502 0
-417 -419 609 0
417 -609 0
419 -609 0
-421 -423 506 0
421 -506 0
423 -506 0
-425 -427 508 0
425 -508 0
427 -508 0
-429 -431 510 0
429 -510 0
431 -510 0
-433 -435 512 0
433 -512 0
435 -512 0
-437 -439 514 0
437 -514 0
439 -514 0
-441 -443 516 0
441 -516 0
443 -516 0
-445 -447 518 0
445 -518 0
447 -518 0
-449 -451 520 0
449 -520 0
451 -520 0
-453 -455 522 0
453 -522 0
455 -522 0
-457 -459 524 0
457 -524 0
459 -524 0
-461 -463 526 0
461 -526 0
463 -526 0
-465 -467 528 0
465 -528 0
467 -528 0
-469 -471 530 0
469 -530 0
471 -530 0
-473 -475 532 0
473 -532 0
475 -532 0
-477 -478 534 0
477 -534 0
478 -534 0
-476 -479 536 0
476 -536 0
479 -536 0
-481 -483 538 0
481 -538 0
483 -538 0
-485 -487 540 0
485 -540 0
487 -540 0
-489 -491 542 0
489 -542 0
491 -542 0
-493 -494 544 0
493 -544 0
494 -544 0
-495 -497 546 0
495 -546 0
497 -546 0
-499 -501 548 0
499 -548 0
501 -548 0
-503 -504 550 0
503 -550 0
504 -550 0
-505 -507 552 0
505 -552 0
507 -552 0
-509 -511 554 0
509 -554 0
511 -554 0
-513 -515 556 0
513 -556 0
515 -556 0
-517 -519 558 0
517 -558 0
519 -558 0
-521 -523 560 0
521 -560 0
523 -560 0
-525 -527 562 0
525 -562 0
527 -562 0
-529 -531 564 0
529 -564 0
531 -564 0
-533 -535 566 0
533 -566 0
535 -566 0
-537 -539 568 0
537 -568 0
539 -568 0
-541 -543 570 0
541 -570 0
543 -570 0
-545 -547 572 0
545 -572 0
547 -572 0
-549 -551 574 0
549 -574 0
551 -574 0
-553 -555 576 0
553 -576 0
555 -576 0
-557 -559 578 0
557 -578 0
559 -578 0
-561 -563 580 0
561 -580 0
563 -580 0
-565 -567 582 0
565 -582 0
567 -582 0
-569 -571 584 0
569 -584 0
571 -584 0
-573 -575 586 0
573 -586 0
575 -586 0
-577 -579 588 0
577 -588 0
579 -588 0
-581 -583 590 0
581 -590 0
583 -590 0
-585 -587 591 0
585 -591 0
587 -591 0
-37 -46 592 0
37 -592 0
46 -592 0
-55 -64 594 0
55 -594 0
64 -594 0
-73 -82 596 0
73 -596 0
82 -596 0
-91 -480 598 0
91 -598 0
480 -598 0
-482 -484 600 0
482 -600 0
484 -600 0
-486 -488 602 0
486 -602 0
488 -602 0
-490 -492 724 0
490 -724 0
492 -724 0
-496 -498 606 0
496 -606 0
498 -606 0
-500 -502 608 0
500 -608 0
502 -608 0
-506 -508 726 0
506 -726 0
508 -726 0
-510 -512 612 0
510 -612 0
512 -612 0
-514 -516 614 0
514 -614 0
516 -614 0
-518 -520 616 0
518 -616 0
520 -616 0
-522 -524 618 0
522 -618 0
524 -618 0
-526 -528 620 0
526 -620 0
528 -620 0
-530 -532 622 0
530 -622 0
532 -622 0
-534 -536 624 0
534 -624 0
536 -624 0
-538 -540 626 0
538 -626 0
540 -626 0
-542 -544 628 0
542 -628 0
544 -628 0
-546 -548 630 0
546 -630 0
548 -630 0
-550 -552 632 0
550 -632 0
552 -632 0
-554 -556 634 0
554 -634 0
556 -634 0
-558 -560 636 0
558 -636 0
560 -636 0
-562 -564 638 0
562 -638 0
564 -638 0
-566 -568 640 0
566 -640 0
568 -640 0
-570 -572 642 0
570 -642 0
572 -642 0
-574 -576 644 0
574 -644 0
576 -644 0
-578 -580 646 0
578 -646 0
580 -646 0
-582 -584 648 0
582 -648 0
584 -648 0
-586 -588 650 0
586 -650 0
588 -650 0
-590 -591 747 0
590 -747 0
591 -747 0
-593 -595 654 0
593 -654 0
595 -654 0
-597 -599 656 0
597 -656 0
599 -656 0
-601 -603 658 0
601 -658 0
603 -658 0
-604 -605 660 0
604 -660 0
605 -660 0
-607 -609 662 0
607 -662 0
609 -662 0
-610 -611 664 0
610 -664 0
611 -664 0
-613 -615 666 0
613 -666 0
615 -666 0
-617 -619 668 0
617 -668 0
619 -668 0
-621 -623 670 0
621 -670 0
623 -670 0
-625 -627 672 0
625 -672 0
627 -672 0
-629 -631 674 0
629 -674 0
631 -674 0
-633 -635 676 0
633 -676 0
635 -676 0
-637 -639 678 0
637 -678 0
639 -678 0
-641 -643 680 0
641 -680 0
643 -680 0
-645 -647 682 0
645 -682 0
647 -682 0
-649 -651 684 0
649 -684 0
651 -684 0
-652 -653 686 0
652 -686 0
653 -686 0
-655 -657 688 0
655 -688 0
657 -688 0
-659 -661 690 0
659 -690 0
661 -690 0
-663 -665 692 0
663 -692 0
665 -692 0
-667 -669 694 0
667 -694 0
669 -694 0
-671 -673 696 0
671 -696 0
673 -696 0
-675 -677 698 0
675 -698 0
677 -698 0
-679 -681 700 0
679 -700 0
681 -700 0
-683 -685 702 0
683 -702 0
685 -702 0
-687 -689 704 0
687 -704 0
689 -704 0
-691 -693 706 0
691 -706 0
693 -706 0
-695 -697 708 0
695 -708 0
697 -708 0
-699 -701 710 0
699 -710 0
701 -710 0
-703 -705 712 0
703 -712 0
705 -712 0
-707 -709 777 0
707 -777 0
709 -777 0
-47 -56 714 0
47 -714 0
56 -714 0
-65 -74 716 0
65 -716 0
74 -716 0
-83 -92 718 0
83 -718 0
92 -718 0
-592 -594 720 0
592 -720 0
594 -720 0
-596 -598 722 0
596 -722 0
598 -722 0
-600 -602 853 0
600 -853 0
602 -853 0
-606 -608 854 0
606 -854 0
608 -854 0
-612 -614 728 0
612 -728 0
614 -728 0
-616 -618 730 0
616 -730 0
618 -730 0
-620 -622 732 0
620 -732 0
622 -732 0
-624 -626 734 0
624 -734 0
626 -734 0
-628 -630 736 0
628 -736 0
630 -736 0
-632 -634 738 0
632 -738 0
634 -738 0
-636 -638 740 0
636 -740 0
638 -740 0
-640 -642 742 0
640 -742 0
642 -742 0
-644 -646 744 0
644 -744 0
646 -744 0
-648 -650 746 0
648 -746 0
650 -746 0
-654 -656 864 0
654 -864 0
656 -864 0
-658 -660 750 0
658 -750 0
660 -750 0
-662 -664 752 0
662 -752 0
664 -752 0
-666 -668 754 0
666 -754 0
668 -754 0
-670 -672 756 0
670 -756 0
672 -756 0
-674 -676 758 0
674 -758 0
676 -758 0
-678 -680 760 0
678 -760 0
680 -760 0
-682 -684 762 0
682 -762 0
684 -762 0
-686 -688 764 0
686 -764 0
688 -764 0
-690 -692 766 0
690 -766 0
692 -766 0
-694 -696 768 0
694 -768 0
696 -768 0
-698 -700 770 0
698 -770 0
700 -770 0
-702 -704 772 0
702 -772 0
704 -772 0
-706 -708 774 0
706 -774 0
708 -774 0
-710 -712 776 0
710 -776 0
712 -776 0
-713 -715 878 0
713 -878 0
715 -878 0
-717 -719 780 0
717 -780 0
719 -780 0
-721 -723 782 0
721 -782 0
723 -782 0
-724 -725 784 0
724 -784 0
725 -784 0
-726 -727 786 0
726 -786 0
727 -786 0
-729 -731 788 0
729 -788 0
731 -788 0
-733 -735 790 0
733 -790 0
735 -790 0
-737 -739 792 0
737 -792 0
739 -792 0
-741 -743 794 0
741 -794 0
743 -794 0
-745 -747 796 0
745 -796 0
747 -796 0
-748 -749 798 0
748 -798 0
749 -798 0
-751 -753 800 0
751 -800 0
753 -800 0
-755 -757 802 0
755 -802 0
757 -802 0
-759 -761 804 0
759 -804 0
761 -804 0
-763 -765 806 0
763 -806 0
765 -806 0
-767 -769 808 0
767 -808 0
769 -808 0
-771 -773 810 0
771 -810 0
773 -810 0
-775 -777 812 0
775 -812 0
777 -812 0
-778 -779 814 0
778 -814 0
779 -814 0
-781 -783 816 0
781 -816 0
783 -816 0
-785 -787 818 0
785 -818 0
787 -818 0
-789 -791 820 0
789 -820 0
791 -820 0
-793 -795 822 0
793 -822 0
795 -822 0
-797 -799 824 0
797 -824 0
799 -824 0
-801 -803 826 0
801 -826 0
803 -826 0
-805 -807 828 0
805 -828 0
807 -828 0
-809 -811 830 0
809 -830 0
811 -830 0
-813 -815 832 0
813 -832 0
815 -832 0
-817 -819 834 0
817 -834 0
819 -834 0
-821 -823 836 0
821 -836 0
823 -836 0
-825 -827 838 0
825 -838 0
827 -838 0
-829 -831 840 0
829 -840 0
831 -840 0
-833 -835 842 0
833 -842 0
835 -842 0
-837 -839 843 0
837 -843 0
839 -843 0
-57 -66 845 0
57 -845 0
66 -845 0
-75 -84 847 0
75 -847 0
84 -847 0
-93 -714 849 0
93 -849 0
714 -849 0
-716 -718 851 0
716 -851 0
718 -851 0
-720 -722 989 0
720 -989 0
722 -989 0
-728 -730 990 0
728 -990 0
730 -990 0
-732 -734 857 0
732 -857 0
734 -857 0
-736 -738 859 0
736 -859 0
738 -859 0
-740 -742 861 0
740 -861 0
742 -861 0
-744 -746 863 0
744 -863 0
746 -863 0
-750 -752 993 0
750 -993 0
752 -993 0
-754 -756 867 0
754 -867 0
756 -867 0
-758 -760 869 0
758 -869 0
760 -869 0
-762 -764 871 0
762 -871 0
764 -871 0
-766 -768 873 0
766 -873 0
768 -873 0
-770 -772 875 0
770 -875 0
772 -875 0
-774 -776 877 0
774 -877 0
776 -877 0
-780 -782 999 0
780 -999 0
782 -999 0
-784 -786 881 0
784 -881 0
786 -881 0
-788 -790 883 0
788 -883 0
790 -883 0
-792 -794 885 0
792 -885 0
794 -885 0
-796 -798 887 0
796 -887 0
798 -887 0
-800 -802 889 0
800 -889 0
802 -889 0
-804 -806 891 0
804 -891 0
806 -891 0
-808 -810 893 0
808 -893 0
810 -893 0
-812 -814 895 0
812 -895 0
814 -895 0
-816 -818 897 0
816 -897 0
818 -897 0
-820 -822 899 0
820 -899 0
822 -899 0
-824 -826 901 0
824 -901 0
826 -901 0
-828 -830 903 0
828 -903 0
830 -903 0
-832 -834 905 0
832 -905 0
834 -905 0
-836 -838 907 0
836 -907 0
838 -907 0
-840 -842 909 0
840 -909 0
842 -909 0
-841 -843 911 0
843 -911 0
841 -911 0
-844 -846 913 0
844 -913 0
846 -913 0
-848 -850 915 0
848 -915 0
850 -915 0
-852 -853 917 0
852 -917 0
853 -917 0
-854 -855 919 0
854 -919 0
855 -919 0
-856 -858 921 0
856 -921 0
858 -921 0
-860 -862 923 0
860 -923 0
862 -923 0
-864 -865 925 0
864 -925 0
865 -925 0
-866 -868 927 0
866 -927 0
868 -927 0
-870 -872 929 0
870 -929 0
872 -929 0
-874 -876 931 0
874 -931 0
876 -931 0
-878 -879 933 0
878 -933 0
879 -933 0
-880 -882 935 0
880 -935 0
882 -935 0
-884 -886 937 0
884 -937 0
886 -937 0
-888 -890 939 0
888 -939 0
890 -939 0
-892 -894 941 0
892 -941 0
894 -941 0
-896 -898 943 0
896 -943 0
898 -943 0
-900 -902 945 0
900 -945 0
902 -945 0
-904 -906 947 0
904 -947 0
906 -947 0
-908 -910 949 0
908 -949 0
910 -949 0
-912 -914 951 0
912 -951 0
914 -951 0
-916 -918 953 0
916 -953 0
918 -953 0
-920 -922 955 0
920 -955 0
922 -955 0
-924 -926 957 0
924 -957 0
926 -957 0
-928 -930 959 0
928 -959 0
930 -959 0
-932 -934 961 0
932 -961 0
934 -961 0
-936 -938 963 0
936 -963 0
938 -963 0
-940 -942 965 0
940 -965 0
942 -965 0
-944 -946 967 0
944 -967 0
946 -967 0
-948 -950 969 0
948 -969 0
950 -969 0
-952 -954 971 0
952 -971 0
954 -971 0
-956 -958 973 0
956 -973 0
958 -973 0
-960 -962 975 0
960 -975 0
962 -975 0
-964 -966 977 0
964 -977 0
966 -977 0
-968 -970 979 0
968 -979 0
970 -979 0
-972 -974 981 0
972 -981 0
974 -981 0
-976 -978 982 0
976 -982 0
978 -982 0
-67 -76 983 0
67 -983 0
76 -983 0
-85 -94 985 0
85 -985 0
94 -985 0
-845 -847 987 0
845 -987 0
847 -987 0
-849 -851 1129 0
849 -1129 0
851 -1129 0
-857 -859 1130 0
857 -1130 0
859 -1130 0
-861 -863 1131 0
861 -1131 0
863 -1131 0
-867 -869 995 0
867 -995 0
869 -995 0
-871 -873 997 0
871 -997 0
873 -997 0
-875 -877 1133 0
875 -1133 0
877 -1133 0
-881 -883 1001 0
881 -1001 0
883 -1001 0
-885 -887 1003 0
885 -1003 0
887 -1003 0
-889 -891 1005 0
889 -1005 0
891 -1005 0
-893 -895 1007 0
893 -1007 0
895 -1007 0
-897 -899 1009 0
897 -1009 0
899 -1009 0
-901 -903 1011 0
901 -1011 0
903 -1011 0
-905 -907 1013 0
905 -1013 0
907 -1013 0
-909 -911 1015 0
909 -1015 0
911 -1015 0
-913 -915 1017 0
913 -1017 0
915 -1017 0
-917 -919 1019 0
917 -1019 0
919 -1019 0
-921 -923 1021 0
921 -1021 0
923 -1021 0
-925 -927 1023 0
925 -1023 0
927 -1023 0
-929 -931 1025 0
929 -1025 0
931 -1025 0
-933 -935 1027 0
933 -1027 0
935 -1027 0
-937 -939 1029 0
937 -1029 0
939 -1029 0
-941 -943 1031 0
941 -1031 0
943 -1031 0
-945 -947 1033 0
945 -1033 0
947 -1033 0
-949 -951 1035 0
949 -1035 0
951 -1035 0
-953 -955 1037 0
953 -1037 0
955 -1037 0
-957 -959 1039 0
957 -1039 0
959 -1039 0
-961 -963 1041 0
961 -1041 0
963 -1041 0
-965 -967 1043 0
965 -1043 0
967 -1043 0
-969 -971 1045 0
969 -1045 0
971 -1045 0
-973 -975 1047 0
973 -1047 0
975 -1047 0
-977 -979 1049 0
977 -1049 0
979 -1049 0
-981 -982 1051 0
981 -1051 0
982 -1051 0
-984 -986 1159 0
984 -1159 0
986 -1159 0
-988 -989 1055 0
988 -1055 0
989 -1055 0
-990 -991 1057 0
990 -1057 0
991 -1057 0
-992 -993 1059 0
992 -1059 0
993 -1059 0
-994 -996 1061 0
994 -1061 0
996 -1061 0
-998 -999 1063 0
998 -1063 0
999 -1063 0
-1000 -1002 1065 0
1000 -1065 0
1002 -1065 0
-1004 -1006 1067 0
1004 -1067 0
1006 -1067 0
-1008 -1010 1069 0
1008 -1069 0
1010 -1069 0
-1012 -1014 1071 0
1012 -1071 0
1014 -1071 0
-1016 -1018 1073 0
1016 -1073 0
1018 -1073 0
-1020 -1022 1075 0
1020 -1075 0
1022 -1075 0
-1024 -1026 1077 0
1024 -1077 0
1026 -1077 0
-1028 -1030 1079 0
1028 -1079 0
1030 -1079 0
-1032 -1034 1081 0
1032 -1081 0
1034 -1081 0
-1036 -1038 1083 0
1036 -1083 0
1038 -1083 0
-1040 -1042 1085 0
1040 -1085 0
1042 -1085 0
-1044 -1046 1087 0
1044 -1087 0
1046 -1087 0
-1048 -1050 1089 0
1048 -1089 0
1050 -1089 0
-1052 -1053 1091 0
1052 -1091 0
1053 -1091 0
-1054 -1056 1093 0
1054 -1093 0
1056 -1093 0
-1058 -1060 1095 0
1058 -1095 0
1060 -1095 0
-1062 -1064 1097 0
1062 -1097 0
1064 -1097 0
-1066 -1068 1099 0
1066 -1099 0
1068 -1099 0
-1070 -1072 1101 0
1070 -1101 0
1072 -1101 0
-1074 -1076 1103 0
1074 -1103 0
1076 -1103 0
-1078 -1080 1105 0
1078 -1105 0
1080 -1105 0
-1082 -1084 1107 0
1082 -1107 0
1084 -1107 0
-1086 -1088 1109 0
1086 -1109 0
1088 -1109 0
-1090 -1092 1111 0
1090 -1111 0
1092 -1111 0
-1094 -1096 1113 0
1094 -1113 0
1096 -1113 0
-1098 -1100 1115 0
1098 -1115 0
1100 -1115 0
-1102 -1104 1117 0
1102 -1117 0
1104 -1117 0
-1106 -1108 1119 0
1106 -1119 0
1108 -1119 0
-1110 -1112 1121 0
1110 -1121 0
1112 -1121 0
-1114 -1116 1123 0
1114 -1123 0
1116 -1123 0
-1118 -1120 1124 0
1118 -1124 0
1120 -1124 0
-77 -86 1125 0
77 -1125 0
86 -1125 0
-95 -983 1127 0
95 -1127 0
983 -1127 0
-985 -987 1273 0
985 -1273 0
987 -1273 0
-995 -997 1274 0
995 -1274 0
997 -1274 0
-1001 -1003 1135 0
1001 -1135 0
1003 -1135 0
-1005 -1007 1137 0
1005 -1137 0
1007 -1137 0
-1009 -1011 1139 0
1009 -1139 0
1011 -1139 0
-1013 -1015 1141 0
1013 -1141 0
1015 -1141 0
-1017 -1019 1143 0
1017 -1143 0
1019 -1143 0
-1021 -1023 1145 0
1021 -1145 0
1023 -1145 0
-1025 -1027 1147 0
1025 -1147 0
1027 -1147 0
-1029 -1031 1149 0
1029 -1149 0
1031 -1149 0
-1033 -1035 1151 0
1033 -1151 0
1035 -1151 0
-1037 -1039 1153 0
1037 -1153 0
1039 -1153 0
-1041 -1043 1155 0
1041 -1155 0
1043 -1155 0
-1045 -1047 1157 0
1045 -1157 0
1047 -1157 0
-1049 -1051 1287 0
1049 -1287 0
1051 -1287 0
-1055 -1057 1161 0
1055 -1161 0
1057 -1161 0
-1059 -1061 1163 0
1059 -1163 0
1061 -1163 0
-1063 -1065 1165 0
1063 -1165 0
1065 -1165 0
-1067 -1069 1167 0
1067 -1167 0
1069 -1167 0
-1071 -1073 1169 0
1071 -1169 0
1073 -1169 0
-1075 -1077 1171 0
1075 -1171 0
1077 -1171 0
-1079 -1081 1173 0
1079 -1173 0
1081 -1173 0
-1083 -1085 1175 0
1083 -1175 0
1085 -1175 0
-1087 -1089 1177 0
1087 -1177 0
1089 -1177 0
-1091 -1093 1179 0
1091 -1179 0
1093 -1179 0
-1095 -1097 1181 0
1095 -1181 0
1097 -1181 0
-1099 -1101 1183 0
1099 -1183 0
1101 -1183 0
-1103 -1105 1185 0
1103 -1185 0
1105 -1185 0
-1107 -1109 1187 0
1107 -1187 0
1109 -1187 0
-1111 -1113 1189 0
1111 -1189 0
1113 -1189 0
-1115 -1117 1191 0
1115 -1191 0
1117 -1191 0
-1119 -1121 1193 0
1119 -1193 0
1121 -1193 0
-1123 -1124 1195 0
1123 -1195 0
1124 -1195 0
-1126 -1128 1305 0
1126 -1305 0
1128 -1305 0
-1129 -1130 1199 0
1129 -1199 0
1130 -1199 0
-1131 -1132 1201 0
1131 -1201 0
1132 -1201 0
-1133 -1134 1203 0
1133 -1203 0
1134 -1203 0
-1136 -1138 1205 0
1136 -1205 0
1138 -1205 0
-1140 -1142 1207 0
1140 -1207 0
1142 -1207 0
-1144 -1146 1209 0
1144 -1209 0
1146 -1209 0
-1148 -1150 1211 0
1148 -1211 0
1150 -1211 0
-1152 -1154 1213 0
1152 -1213 0
1154 -1213 0
-1156 -1158 1215 0
1156 -1215 0
1158 -1215 0
-1159 -1160 1217 0
1159 -1217 0
1160 -1217 0
-1162 -1164 1219 0
1162 -1219 0
1164 -1219 0
-1166 -1168 1221 0
1166 -1221 0
1168 -1221 0
-1170 -1172 1223 0
1170 -1223 0
1172 -1223 0
-1174 -1176 1225 0
1174 -1225 0
1176 -1225 0
-1178 -1180 1227 0
1178 -1227 0
1180 -1227 0
-1182 -1184 1229 0
1182 -1229 0
1184 -1229 0
-1186 -1188 1231 0
1186 -1231 0
1188 -1231 0
-1190 -1192 1233 0
1190 -1233 0
1192 -1233 0
-1194 -1196 1235 0
1194 -1235 0
1196 -1235 0
-1197 -1198 1237 0
1197 -1237 0
1198 -1237 0
-1200 -1202 1239 0
1200 -1239 0
1202 -1239 0
-1204 -1206 1241 0
1204 -1241 0
1206 -1241 0
-1208 -1210 1243 0
1208 -1243 0
1210 -1243 0
-1212 -1214 1245 0
1212 -1245 0
1214 -1245 0
-1216 -1218 1247 0
1216 -1247 0
1218 -1247 0
-1220 -1222 1249 0
1220 -1249 0
1222 -1249 0
-1224 -1226 1251 0
1224 -1251 0
1226 -1251 0
-1228 -1230 1253 0
1228 -1253 0
1230 -1253 0
-1232 -1234 1255 0
1232 -1255 0
1234 -1255 0
-1236 -1238 1257 0
1236 -1257 0
1238 -1257 0
-1240 -1242 1259 0
1240 -1259 0
1242 -1259 0
-1244 -1246 1261 0
1244 -1261 0
1246 -1261 0
-1248 -1250 1263 0
1248 -1263 0
1250 -1263 0
-1252 -1254 1265 0
1252 -1265 0
1254 -1265 0
-1256 -1258 1267 0
1256 -1267 0
1258 -1267 0
-1260 -1262 1269 0
1260 -1269 0
1262 -1269 0
-1264 -1266 1340 0
1264 -1340 0
1266 -1340 0
-87 -96 1271 0
87 -1271 0
96 -1271 0
-1125 -1127 1416 0
1125 -1416 0
1127 -1416 0
-1135 -1137 1276 0
1135 -1276 0
1137 -1276 0
-1139 -1141 1278 0
1139 -1278 0
1141 -1278 0
-1143 -1145 1280 0
1143 -1280 0
1145 -1280 0
-1147 -1149 1282 0
1147 -1282 0
1149 -1282 0
-1151 -1153 1284 0
1151 -1284 0
1153 -1284 0
-1155 -1157 1286 0
1155 -1286 0
1157 -1286 0
-1161 -1163 1421 0
1161 -1421 0
1163 -1421 0
-1165 -1167 1290 0
1165 -1290 0
1167 -1290 0
-1169 -1171 1292 0
1169 -1292 0
1171 -1292 0
-1173 -1175 1294 0
1173 -1294 0
1175 -1294 0
-1177 -1179 1296 0
1177 -1296 0
1179 -1296 0
-1181 -1183 1298 0
1181 -1298 0
1183 -1298 0
-1185 -1187 1300 0
1185 -1300 0
1187 -1300 0
-1189 -1191 1302 0
1189 -1302 0
1191 -1302 0
-1193 -1195 1304 0
1193 -1304 0
1195 -1304 0
-1199 -1201 1428 0
1199 -1428 0
1201 -1428 0
-1203 -1205 1308 0
1203 -1308 0
1205 -1308 0
-1207 -1209 1310 0
1207 -1310 0
1209 -1310 0
-1211 -1213 1312 0
1211 -1312 0
1213 -1312 0
-1215 -1217 1314 0
1215 -1314 0
1217 -1314 0
-1219 -1221 1316 0
1219 -1316 0
1221 -1316 0
-1223 -1225 1318 0
1223 -1318 0
1225 -1318 0
-1227 -1229 1320 0
1227 -1320 0
1229 -1320 0
-1231 -1233 1322 0
1231 -1322 0
1233 -1322 0
-1235 -1237 1324 0
1235 -1324 0
1237 -1324 0
-1239 -1241 1326 0
1239 -1326 0
1241 -1326 0
-1243 -1245 1328 0
1243 -1328 0
1245 -1328 0
-1247 -1249 1330 0
1247 -1330 0
1249 -1330 0
-1251 -1253 1332 0
1251 -1332 0
1253 -1332 0
-1255 -1257 1334 0
1255 -1334 0
1257 -1334 0
-1259 -1261 1336 0
1259 -1336 0
1261 -1336 0
-1263 -1265 1338 0
1263 -1338 0
1265 -1338 0
-1267 -1269 1445 0
1267 -1445 0
1269 -1445 0
-1270 -1272 1446 0
1270 -1446 0
1272 -1446 0
-1274 -1275 1343 0
1274 -1343 0
1275 -1343 0
-1277 -1279 1345 0
1277 -1345 0
1279 -1345 0
-1281 -1283 1347 0
1281 -1347 0
1283 -1347 0
-1285 -1287 1349 0
1285 -1349 0
1287 -1349 0
-1288 -1289 1351 0
1288 -1351 0
1289 -1351 0
-1291 -1293 1353 0
1291 -1353 0
1293 -1353 0
-1295 -1297 1355 0
1295 -1355 0
1297 -1355 0
-1299 -1301 1357 0
1299 -1357 0
1301 -1357 0
-1303 -1305 1359 0
1303 -1359 0
1305 -1359 0
-1306 -1307 1361 0
1306 -1361 0
1307 -1361 0
-1309 -1311 1363 0
1309 -1363 0
1311 -1363 0
-1313 -1315 1365 0
1313 -1365 0
1315 -1365 0
-1317 -1319 1367 0
1317 -1367 0
1319 -1367 0
-1321 -1323 1369 0
1321 -1369 0
1323 -1369 0
-1325 -1327 1371 0
1325 -1371 0
1327 -1371 0
-1329 -1331 1373 0
1329 -1373 0
1331 -1373 0
-1333 -1335 1375 0
1333 -1375 0
1335 -1375 0
-1337 -1339 1377 0
1337 -1377 0
1339 -1377 0
-1340 -1341 1379 0
1340 -1379 0
1341 -1379 0
-1273 -1342 1381 0
1273 -1381 0
1342 -1381 0
-1344 -1346 1383 0
1344 -1383 0
1346 -1383 0
-1348 -1350 1385 0
1348 -1385 0
1350 -1385 0
-1352 -1354 1387 0
1352 -1387 0
1354 -1387 0
-1356 -1358 1389 0
1356 -1389 0
1358 -1389 0
-1360 -1362 1391 0
1360 -1391 0
1362 -1391 0
-1364 -1366 1393 0
1364 -1393 0
1366 -1393 0
-1368 -1370 1395 0
1368 -1395 0
1370 -1395 0
-1372 -1374 1397 0
1372 -1397 0
1374 -1397 0
-1376 -1378 1399 0
1376 -1399 0
1378 -1399 0
-1380 -1382 1401 0
1380 -1401 0
1382 -1401 0
-1384 -1386 1403 0
1384 -1403 0
1386 -1403 0
-1388 -1390 1405 0
1388 -1405 0
1390 -1405 0
-1392 -1394 1407 0
1392 -1407 0
1394 -1407 0
-1396 -1398 1409 0
1396 -1409 0
1398 -1409 0
-1400 -1402 1411 0
1400 -1411 0
1402 -1411 0
-1404 -1406 1413 0
1404 -1413 0
1406 -1413 0
-1408 -1410 1414 0
1408 -1414 0
1410 -1414 0
-97 -1271 1560 0
97 -1560 0
1271 -1560 0
-1276 -1278 1561 0
1276 -1561 0
1278 -1561 0
-1280 -1282 1418 0
1280 -1418 0
1282 -1418 0
-1284 -1286 1420 0
1284 -1420 0
1286 -1420 0
-1290 -1292 1563 0
1290 -1563 0
1292 -1563 0
-1294 -1296 1424 0
1294 -1424 0
1296 -1424 0
-1298 -1300 1426 0
1298 -1426 0
1300 -1426 0
-1302 -1304 1565 0
1302 -1565 0
1304 -1565 0
-1308 -1310 1430 0
1308 -1430 0
1310 -1430 0
-1312 -1314 1432 0
1312 -1432 0
1314 -1432 0
-1316 -1318 1434 0
1316 -1434 0
1318 -1434 0
-1320 -1322 1436 0
1320 -1436 0
1322 -1436 0
-1324 -1326 1438 0
1324 -1438 0
1326 -1438 0
-1328 -1330 1440 0
1328 -1440 0
1330 -1440 0
-1332 -1334 1442 0
1332 -1442 0
1334 -1442 0
-1336 -1338 1444 0
1336 -1444 0
1338 -1444 0
-1343 -1345 1448 0
1343 -1448 0
1345 -1448 0
-1347 -1349 1450 0
1347 -1450 0
1349 -1450 0
-1351 -1353 1452 0
1351 -1452 0
1353 -1452 0
-1355 -1357 1454 0
1355 -1454 0
1357 -1454 0
-1359 -1361 1456 0
1359 -1456 0
1361 -1456 0
-1363 -1365 1458 0
1363 -1458 0
1365 -1458 0
-1367 -1369 1460 0
1367 -1460 0
1369 -1460 0
-1371 -1373 1462 0
1371 -1462 0
1373 -1462 0
-1375 -1377 1464 0
1375 -1464 0
1377 -1464 0
-1379 -1381 1466 0
1379 -1466 0
1381 -1466 0
-1383 -1385 1468 0
1383 -1468 0
1385 -1468 0
-1387 -1389 1470 0
1387 -1470 0
1389 -1470 0
-1391 -1393 1472 0
1391 -1472 0
1393 -1472 0
-1395 -1397 1474 0
1395 -1474 0
1397 -1474 0
-1399 -1401 1476 0
1399 -1476 0
1401 -1476 0
-1403 -1405 1478 0
1403 -1478 0
1405 -1478 0
-1407 -1409 1480 0
1407 -1480 0
1409 -1480 0
-1411 -1413 1482 0
1411 -1482 0
1413 -1482 0
-1412 -1414 1484 0
1414 -1484 0
1412 -1484 0
-1415 -1416 1486 0
1415 -1486 0
1416 -1486 0
-1417 -1419 1591 0
1417 -1591 0
1419 -1591 0
-1421 -1422 1490 0
1421 -1490 0
1422 -1490 0
-1423 -1425 1492 0
1423 -1492 0
1425 -1492 0
-1427 -1428 1494 0
1427 -1494 0
1428 -1494 0
-1429 -1431 1496 0
1429 -1496 0
1431 -1496 0
-1433 -1435 1498 0
1433 -1498 0
1435 -1498 0
-1437 -1439 1500 0
1437 -1500 0
1439 -1500 0
-1441 -1443 1502 0
1441 -1502 0
1443 -1502 0
-1445 -1446 1504 0
1445 -1504 0
1446 -1504 0
-1447 -1449 1506 0
1447 -1506 0
1449 -1506 0
-1451 -1453 1508 0
1451 -1508 0
1453 -1508 0
-1455 -1457 1510 0
1455 -1510 0
1457 -1510 0
-1459 -1461 1512 0
1459 -1512 0
1461 -1512 0
-1463 -1465 1514 0
1463 -1514 0
1465 -1514 0
-1467 -1469 1516 0
1467 -1516 0
1469 -1516 0
-1471 -1473 1518 0
1471 -1518 0
1473 -1518 0
-1475 -1477 1520 0
1475 -1520 0
1477 -1520 0
-1479 -1481 1522 0
1479 -1522 0
1481 -1522 0
-1483 -1485 1524 0
1483 -1524 0
1485 -1524 0
-1487 -1488 1526 0
1487 -1526 0
1488 -1526 0
-1489 -1491 1528 0
1489 -1528 0
1491 -1528 0
-1493 -1495 1530 0
1493 -1530 0
1495 -1530 0
-1497 -1499 1532 0
1497 -1532 0
1499 -1532 0
-1501 -1503 1534 0
1501 -1534 0
1503 -1534 0
-1505 -1507 1536 0
1505 -1536 0
1507 -1536 0
-1509 -1511 1538 0
1509 -1538 0
1511 -1538 0
-1513 -1515 1540 0
1513 -1540 0
1515 -1540 0
-1517 -1519 1542 0
1517 -1542 0
1519 -1542 0
-1521 -1523 1544 0
1521 -1544 0
1523 -1544 0
-1525 -1527 1546 0
1525 -1546 0
1527 -1546 0
-1529 -1531 1548 0
1529 -1548 0
1531 -1548 0
-1533 -1535 1550 0
1533 -1550 0
1535 -1550 0
-1537 -1539 1552 0
1537 -1552 0
1539 -1552 0
-1541 -1543 1554 0
1541 -1554 0
1543 -1554 0
-1545 -1547 1556 0
1545 -1556 0
1547 -1556 0
-1549 -1551 1558 0
1549 -1558 0
1551 -1558 0
-1553 -1555 1559 0
1553 -1559 0
1555 -1559 0
-1418 -1420 1700 0
1418 -1700 0
1420 -1700 0
-1424 -1426 1701 0
1424 -1701 0
1426 -1701 0
-1430 -1432 1567 0
1430 -1567 0
1432 -1567 0
-1434 -1436 1569 0
1434 -1569 0
1436 -1569 0
-1438 -1440 1571 0
1438 -1571 0
1440 -1571 0
-1442 -1444 1572 0
1442 -1572 0
1444 -1572 0
-1448 -1450 1704 0
1448 -1704 0
1450 -1704 0
-1452 -1454 1575 0
1452 -1575 0
1454 -1575 0
-1456 -1458 1577 0
1456 -1577 0
1458 -1577 0
-1460 -1462 1579 0
1460 -1579 0
1462 -1579 0
-1464 -1466 1581 0
1464 -1581 0
1466 -1581 0
-1468 -1470 1583 0
1468 -1583 0
1470 -1583 0
-1472 -1474 1585 0
1472 -1585 0
1474 -1585 0
-1476 -1478 1587 0
1476 -1587 0
1478 -1587 0
-1480 -1482 1589 0
1480 -1589 0
1482 -1589 0
-1484 -1486 1713 0
1484 -1713 0
1486 -1713 0
-1490 -1492 1593 0
1490 -1593 0
1492 -1593 0
-1494 -1496 1595 0
1494 -1595 0
1496 -1595 0
-1498 -1500 1597 0
1498 -1597 0
1500 -1597 0
-1502 -1504 1599 0
1502 -1599 0
1504 -1599 0
-1506 -1508 1601 0
1506 -1601 0
1508 -1601 0
-1510 -1512 1603 0
1510 -1603 0
1512 -1603 0
-1514 -1516 1605 0
1514 -1605 0
1516 -1605 0
-1518 -1520 1607 0
1518 -1607 0
1520 -1607 0
-1522 -1524 1609 0
1522 -1609 0
1524 -1609 0
-1526 -1528 1611 0
1526 -1611 0
1528 -1611 0
-1530 -1532 1613 0
1530 -1613 0
1532 -1613 0
-1534 -1536 1615 0
1534 -1615 0
1536 -1615 0
-1538 -1540 1617 0
1538 -1617 0
1540 -1617 0
-1542 -1544 1619 0
1542 -1619 0
1544 -1619 0
-1546 -1548 1621 0
1546 -1621 0
1548 -1621 0
-1550 -1552 1623 0
1550 -1623 0
1552 -1623 0
-1554 -1556 1625 0
1554 -1625 0
1556 -1625 0
-1558 -1559 1627 0
1558 -1627 0
1559 -1627 0
-1561 -1562 1731 0
1561 -1731 0
1562 -1731 0
-1563 -1564 1630 0
1563 -1630 0
1564 -1630 0
-1565 -1566 1632 0
1565 -1632 0
1566 -1632 0
-1568 -1570 1733 0
1568 -1733 0
1570 -1733 0
-1573 -1574 1636 0
1573 -1636 0
1574 -1636 0
-1576 -1578 1638 0
1576 -1638 0
1578 -1638 0
-1580 -1582 1640 0
1580 -1640 0
1582 -1640 0
-1584 -1586 1642 0
1584 -1642 0
1586 -1642 0
-1588 -1590 1644 0
1588 -1644 0
1590 -1644 0
-1591 -1592 1646 0
1591 -1646 0
1592 -1646 0
-1594 -1596 1648 0
1594 -1648 0
1596 -1648 0
-1598 -1600 1650 0
1598 -1650 0
1600 -1650 0
-1602 -1604 1652 0
1602 -1652 0
1604 -1652 0
-1606 -1608 1654 0
1606 -1654 0
1608 -1654 0
-1610 -1612 1656 0
1610 -1656 0
1612 -1656 0
-1614 -1616 1658 0
1614 -1658 0
1616 -1658 0
-1618 -1620 1660 0
1618 -1660 0
1620 -1660 0
-1622 -1624 1662 0
1622 -1662 0
1624 -1662 0
-1560 -1626 1664 0
1626 -1664 0
1560 -1664 0
-1628 -1629 1666 0
1628 -1666 0
1629 -1666 0
-1631 -1633 1668 0
1631 -1668 0
1633 -1668 0
-1634 -1635 1670 0
1634 -1670 0
1635 -1670 0
-1637 -1639 1672 0
1637 -1672 0
1639 -1672 0
-1641 -1643 1674 0
1641 -1674 0
1643 -1674 0
-1645 -1647 1676 0
1645 -1676 0
1647 -1676 0
-1649 -1651 1678 0
1649 -1678 0
1651 -1678 0
-1653 -1655 1680 0
1653 -1680 0
1655 -1680 0
-1657 -1659 1682 0
1657 -1682 0
1659 -1682 0
-1661 -1663 1684 0
1661 -1684 0
1663 -1684 0
-1665 -1667 1686 0
1665 -1686 0
1667 -1686 0
-1669 -1671 1688 0
1669 -1688 0
1671 -1688 0
-1673 -1675 1690 0
1673 -1690 0
1675 -1690 0
-1677 -1679 1692 0
1677 -1692 0
1679 -1692 0
-1681 -1683 1694 0
1681 -1694 0
1683 -1694 0
-1685 -1687 1696 0
1685 -1696 0
1687 -1696 0
-1689 -1691 1698 0
1689 -1698 0
1691 -1698 0
-1693 -1695 1699 0
1693 -1699 0
1695 -1699 0
-1567 -1569 1839 0
1567 -1839 0
1569 -1839 0
-1571 -1572 1840 0
1571 -1840 0
1572 -1840 0
-1575 -1577 1706 0
1575 -1706 0
1577 -1706 0
-1579 -1581 1708 0
1579 -1708 0
1581 -1708 0
-1583 -1585 1710 0
1583 -1710 0
1585 -1710 0
-1587 -1589 1712 0
1587 -1712 0
1589 -1712 0
-1593 -1595 1843 0
1593 -1843 0
1595 -1843 0
-1597 -1599 1716 0
1597 -1716 0
1599 -1716 0
-1601 -1603 1718 0
1601 -1718 0
1603 -1718 0
-1605 -1607 1720 0
1605 -1720 0
1607 -1720 0
-1609 -1611 1722 0
1609 -1722 0
1611 -1722 0
-1613 -1615 1724 0
1613 -1724 0
1615 -1724 0
-1617 -1619 1726 0
1617 -1726 0
1619 -1726 0
-1621 -1623 1728 0
1621 -1728 0
1623 -1728 0
-1625 -1627 1730 0
1625 -1730 0
1627 -1730 0
-1630 -1632 1852 0
1630 -1852 0
1632 -1852 0
-1636 -1638 1853 0
1636 -1853 0
1638 -1853 0
-1640 -1642 1736 0
1640 -1736 0
1642 -1736 0
-1644 -1646 1738 0
1644 -1738 0
1646 -1738 0
-1648 -1650 1740 0
1648 -1740 0
1650 -1740 0
-1652 -1654 1742 0
1652 -1742 0
1654 -1742 0
-1656 -1658 1744 0
1656 -1744 0
1658 -1744 0
-1660 -1662 1746 0
1660 -1746 0
1662 -1746 0
-1664 -1666 1748 0
1664 -1748 0
1666 -1748 0
-1668 -1670 1750 0
1668 -1750 0
1670 -1750 0
-1672 -1674 1752 0
1672 -1752 0
1674 -1752 0
-1676 -1678 1754 0
1676 -1754 0
1678 -1754 0
-1680 -1682 1756 0
1680 -1756 0
1682 -1756 0
-1684 -1686 1758 0
1684 -1758 0
1686 -1758 0
-1688 -1690 1760 0
1688 -1760 0
1690 -1760 0
-1692 -1694 1762 0
1692 -1762 0
1694 -1762 0
-1696 -1698 1764 0
1696 -1764 0
1698 -1764 0
-1697 -1699 1766 0
1699 -1766 0
1697 -1766 0
-1701 -1702 1870 0
1701 -1870 0
1702 -1870 0
-1703 -1704 1769 0
1703 -1769 0
1704 -1769 0
-1705 -1707 1771 0
1705 -1771 0
1707 -1771 0
-1709 -1711 1773 0
1709 -1773 0
1711 -1773 0
-1713 -1714 1775 0
1713 -1775 0
1714 -1775 0
-1715 -1717 1777 0
1715 -1777 0
1717 -1777 0
-1719 -1721 1779 0
1719 -1779 0
1721 -1779 0
-1723 -1725 1781 0
1723 -1781 0
1725 -1781 0
-1727 -1729 1783 0
1727 -1783 0
1729 -1783 0
-1731 -1732 1785 0
1731 -1785 0
1732 -1785 0
-1733 -1734 1787 0
1733 -1787 0
1734 -1787 0
-1735 -1737 1789 0
1735 -1789 0
1737 -1789 0
-1739 -1741 1791 0
1739 -1791 0
1741 -1791 0
-1743 -1745 1793 0
1743 -1793 0
1745 -1793 0
-1747 -1749 1795 0
1747 -1795 0
1749 -1795 0
-1751 -1753 1797 0
1751 -1797 0
1753 -1797 0
-1755 -1757 1799 0
1755 -1799 0
1757 -1799 0
-1759 -1761 1801 0
1759 -1801 0
1761 -1801 0
-1763 -1765 1803 0
1763 -1803 0
1765 -1803 0
-1700 -1767 1805 0
1700 -1805 0
1767 -1805 0
-1768 -1770 1807 0
1768 -1807 0
1770 -1807 0
-1772 -1774 1809 0
1772 -1809 0
1774 -1809 0
-1776 -1778 1811 0
1776 -1811 0
1778 -1811 0
-1780 -1782 1813 0
1780 -1813 0
1782 -1813 0
-1784 -1786 1815 0
1784 -1815 0
1786 -1815 0
-1788 -1790 1817 0
1788 -1817 0
1790 -1817 0
-1792 -1794 1819 0
1792 -1819 0
1794 -1819 0
-1796 -1798 1821 0
1796 -1821 0
1798 -1821 0
-1800 -1802 1823 0
1800 -1823 0
1802 -1823 0
-1804 -1806 1825 0
1804 -1825 0
1806 -1825 0
-1808 -1810 1827 0
1808 -1827 0
1810 -1827 0
-1812 -1814 1829 0
1812 -1829 0
1814 -1829 0
-1816 -1818 1831 0
1816 -1831 0
1818 -1831 0
-1820 -1822 1833 0
1820 -1833 0
1822 -1833 0
-1824 -1826 1835 0
1824 -1835 0
1826 -1835 0
-1828 -1830 1837 0
1828 -1837 0
1830 -1837 0
-1832 -1834 1838 0
1832 -1838 0
1834 -1838 0
-1706 -1708 1978 0
1706 -1978 0
1708 -1978 0
-1710 -1712 1979 0
1710 -1979 0
1712 -1979 0
-1716 -1718 1845 0
1716 -1845 0
1718 -1845 0
-1720 -1722 1847 0
1720 -1847 0
1722 -1847 0
-1724 -1726 1849 0
1724 -1849 0
1726 -1849 0
-1728 -1730 1851 0
1728 -1851 0
1730 -1851 0
-1736 -1738 1855 0
1736 -1855 0
1738 -1855 0
-1740 -1742 1857 0
1740 -1857 0
1742 -1857 0
-1744 -1746 1859 0
1744 -1859 0
1746 -1859 0
-1748 -1750 1861 0
1748 -1861 0
1750 -1861 0
-1752 -1754 1863 0
1752 -1863 0
1754 -1863 0
-1756 -1758 1865 0
1756 -1865 0
1758 -1865 0
-1760 -1762 1867 0
1760 -1867 0
1762 -1867 0
-1764 -1766 1869 0
1764 -1869 0
1766 -1869 0
-1769 -1771 1989 0
1769 -1989 0
1771 -1989 0
-1773 -1775 1873 0
1773 -1873 0
1775 -1873 0
-1777 -1779 1875 0
1777 -1875 0
1779 -1875 0
-1781 -1783 1877 0
1781 -1877 0
1783 -1877 0
-1785 -1787 1879 0
1785 -1879 0
1787 -1879 0
-1789 -1791 1881 0
1789 -1881 0
1791 -1881 0
-1793 -1795 1883 0
1793 -1883 0
1795 -1883 0
-1797 -1799 1885 0
1797 -1885 0
1799 -1885 0
-1801 -1803 1887 0
1801 -1887 0
1803 -1887 0
-1805 -1807 1889 0
1805 -1889 0
1807 -1889 0
-1809 -1811 1891 0
1809 -1891 0
1811 -1891 0
-1813 -1815 1893 0
1813 -1893 0
1815 -1893 0
-1817 -1819 1895 0
1817 -1895 0
1819 -1895 0
-1821 -1823 1897 0
1821 -1897 0
1823 -1897 0
-1825 -1827 1899 0
1825 -1899 0
1827 -1899 0
-1829 -1831 1901 0
1829 -1901 0
1831 -1901 0
-1833 -1835 1903 0
1833 -1903 0
1835 -1903 0
-1837 -1838 2004 0
1837 -2004 0
1838 -2004 0
-1839 -1840 1906 0
1839 -1906 0
1840 -1906 0
-1841 -1842 1908 0
1841 -1908 0
1842 -1908 0
-1843 -1844 1910 0
1843 -1910 0
1844 -1910 0
-1846 -1848 1912 0
1846 -1912 0
1848 -1912 0
-1850 -1852 1914 0
1850 -1914 0
1852 -1914 0
-1853 -1854 1916 0
1853 -1916 0
1854 -1916 0
-1856 -1858 1918 0
1856 -1918 0
1858 -1918 0
-1860 -1862 1920 0
1860 -1920 0
1862 -1920 0
-1864 -1866 1922 0
1864 -1922 0
1866 -1922 0
-1868 -1870 1924 0
1868 -1924 0
1870 -1924 0
-1871 -1872 1926 0
1871 -1926 0
1872 -1926 0
-1874 -1876 1928 0
1874 -1928 0
1876 -1928 0
-1878 -1880 1930 0
1878 -1930 0
1880 -1930 0
-1882 -1884 1932 0
1882 -1932 0
1884 -1932 0
-1886 -1888 1934 0
1886 -1934 0
1888 -1934 0
-1890 -1892 1936 0
1890 -1936 0
1892 -1936 0
-1894 -1896 1938 0
1894 -1938 0
1896 -1938 0
-1898 -1900 1940 0
1898 -1940 0
1900 -1940 0
-1902 -1904 1942 0
1902 -1942 0
1904 -1942 0
-1836 -1905 1944 0
1836 -1944 0
1905 -1944 0
-1907 -1909 1946 0
1907 -1946 0
1909 -1946 0
-1911 -1913 1948 0
1911 -1948 0
1913 -1948 0
-1915 -1917 1950 0
1915 -1950 0
1917 -1950 0
-1919 -1921 1952 0
1919 -1952 0
1921 -1952 0
-1923 -1925 1954 0
1923 -1954 0
1925 -1954 0
-1927 -1929 1956 0
1927 -1956 0
1929 -1956 0
-1931 -1933 1958 0
1931 -1958 0
1933 -1958 0
-1935 -1937 1960 0
1935 -1960 0
1937 -1960 0
-1939 -1941 1962 0
1939 -1962 0
1941 -1962 0
-1943 -1945 1964 0
1943 -1964 0
1945 -1964 0
-1947 -1949 1966 0
1947 -1966 0
1949 -1966 0
-1951 -1953 1968 0
1951 -1968 0
1953 -1968 0
-1955 -1957 1970 0
1955 -1970 0
1957 -1970 0
-1959 -1961 1972 0
1959 -1972 0
1961 -1972 0
-1963 -1965 1974 0
1963 -1974 0
1965 -1974 0
-1967 -1969 1976 0
1967 -1976 0
1969 -1976 0
-1971 -1973 1977 0
1971 -1977 0
1973 -1977 0
-1845 -1847 2111 0
1845 -2111 0
1847 -2111 0
-1849 -1851 2112 0
1849 -2112 0
1851 -2112 0
-1855 -1857 1982 0
1855 -1982 0
1857 -1982 0
-1859 -1861 1984 0
1859 -1984 0
1861 -1984 0
-1863 -1865 1986 0
1863 -1986 0
1865 -1986 0
-1867 -1869 1988 0
1867 -1988 0
1869 -1988 0
-1873 -1875 2115 0
1873 -2115 0
1875 -2115 0
-1877 -1879 1992 0
1877 -1992 0
1879 -1992 0
-1881 -1883 1994 0
1881 -1994 0
1883 -1994 0
-1885 -1887 1996 0
1885 -1996 0
1887 -1996 0
-1889 -1891 1998 0
1889 -1998 0
1891 -1998 0
-1893 -1895 2000 0
1893 -2000 0
1895 -2000 0
-1897 -1899 2002 0
1897 -2002 0
1899 -2002 0
-1901 -1903 2121 0
1901 -2121 0
1903 -2121 0
-1906 -1908 2006 0
1906 -2006 0
1908 -2006 0
-1910 -1912 2008 0
1910 -2008 0
1912 -2008 0
-1914 -1916 2010 0
1914 -2010 0
1916 -2010 0
-1918 -1920 2012 0
1918 -2012 0
1920 -2012 0
-1922 -1924 2014 0
1922 -2014 0
1924 -2014 0
-1926 -1928 2016 0
1926 -2016 0
1928 -2016 0
-1930 -1932 2018 0
1930 -2018 0
1932 -2018 0
-1934 -1936 2020 0
1934 -2020 0
1936 -2020 0
-1938 -1940 2022 0
1938 -2022 0
1940 -2022 0
-1942 -1944 2024 0
1942 -2024 0
1944 -2024 0
-1946 -1948 2026 0
1946 -2026 0
1948 -2026 0
-1950 -1952 2028 0
1950 -2028 0
1952 -2028 0
-1954 -1956 2030 0
1954 -2030 0
1956 -2030 0
-1958 -1960 2032 0
1958 -2032 0
1960 -2032 0
-1962 -1964 2034 0
1962 -2034 0
1964 -2034 0
-1966 -1968 2036 0
1966 -2036 0
1968 -2036 0
-1970 -1972 2038 0
1970 -2038 0
1972 -2038 0
-1974 -1976 2040 0
1974 -2040 0
1976 -2040 0
-1975 -1977 2139 0
1977 -2139 0
1975 -2139 0
-1979 -1980 2140 0
1979 -2140 0
1980 -2140 0
-1981 -1983 2045 0
1981 -2045 0
1983 -2045 0
-1985 -1987 2047 0
1985 -2047 0
1987 -2047 0
-1989 -1990 2049 0
1989 -2049 0
1990 -2049 0
-1991 -1993 2051 0
1991 -2051 0
1993 -2051 0
-1995 -1997 2053 0
1995 -2053 0
1997 -2053 0
-1999 -2001 2055 0
1999 -2055 0
2001 -2055 0
-2003 -2004 2057 0
2003 -2057 0
2004 -2057 0
-2005 -2007 2059 0
2005 -2059 0
2007 -2059 0
-2009 -2011 2061 0
2009 -2061 0
2011 -2061 0
-2013 -2015 2063 0
2013 -2063 0
2015 -2063 0
-2017 -2019 2065 0
2017 -2065 0
2019 -2065 0
-2021 -2023 2067 0
2021 -2067 0
2023 -2067 0
-2025 -2027 2069 0
2025 -2069 0
2027 -2069 0
-2029 -2031 2071 0
2029 -2071 0
2031 -2071 0
-2033 -2035 2073 0
2033 -2073 0
2035 -2073 0
-2037 -2039 2075 0
2037 -2075 0
2039 -2075 0
-1978 -2041 2077 0
2041 -2077 0
1978 -2077 0
-2042 -2043 2079 0
2042 -2079 0
2043 -2079 0
-2044 -2046 2081 0
2044 -2081 0
2046 -2081 0
-2048 -2050 2083 0
2048 -2083 0
2050 -2083 0
-2052 -2054 2085 0
2052 -2085 0
2054 -2085 0
-2056 -2058 2087 0
2056 -2087 0
2058 -2087 0
-2060 -2062 2089 0
2060 -2089 0
2062 -2089 0
-2064 -2066 2091 0
2064 -2091 0
2066 -2091 0
-2068 -2070 2093 0
2068 -2093 0
2070 -2093 0
-2072 -2074 2095 0
2072 -2095 0
2074 -2095 0
-2076 -2078 2097 0
2076 -2097 0
2078 -2097 0
-2080 -2082 2099 0
2080 -2099 0
2082 -2099 0
-2084 -2086 2101 0
2084 -2101 0
2086 -2101 0
-2088 -2090 2103 0
2088 -2103 0
2090 -2103 0
-2092 -2094 2105 0
2092 -2105 0
2094 -2105 0
-2096 -2098 2107 0
2096 -2107 0
2098 -2107 0
-2100 -2102 2109 0
2100 -2109 0
2102 -2109 0
-2104 -2106 2110 0
2104 -2110 0
2106 -2110 0
-1982 -1984 2244 0
1982 -2244 0
1984 -2244 0
-1986 -1988 2245 0
1986 -2245 0
1988 -2245 0
-1992 -1994 2117 0
1992 -2117 0
1994 -2117 0
-1996 -1998 2119 0
1996 -2119 0
1998 -2119 0
-2000 -2002 2247 0
2000 -2247 0
2002 -2247 0
-2006 -2008 2123 0
2006 -2123 0
2008 -2123 0
-2010 -2012 2125 0
2010 -2125 0
2012 -2125 0
-2014 -2016 2127 0
2014 -2127 0
2016 -2127 0
-2018 -2020 2129 0
2018 -2129 0
2020 -2129 0
-2022 -2024 2131 0
2022 -2131 0
2024 -2131 0
-2026 -2028 2133 0
2026 -2133 0
2028 -2133 0
-2030 -2032 2135 0
2030 -2135 0
2032 -2135 0
-2034 -2036 2137 0
2034 -2137 0
2036 -2137 0
-2038 -2040 2254 0
2038 -2254 0
2040 -2254 0
-2045 -2047 2255 0
2045 -2255 0
2047 -2255 0
-2049 -2051 2143 0
2049 -2143 0
2051 -2143 0
-2053 -2055 2145 0
2053 -2145 0
2055 -2145 0
-2057 -2059 2147 0
2057 -2147 0
2059 -2147 0
-2061 -2063 2149 0
2061 -2149 0
2063 -2149 0
-2065 -2067 2151 0
2065 -2151 0
2067 -2151 0
-2069 -2071 2153 0
2069 -2153 0
2071 -2153 0
-2073 -2075 2155 0
2073 -2155 0
2075 -2155 0
-2077 -2079 2157 0
2077 -2157 0
2079 -2157 0
-2081 -2083 2159 0
2081 -2159 0
2083 -2159 0
-2085 -2087 2161 0
2085 -2161 0
2087 -2161 0
-2089 -2091 2163 0
2089 -2163 0
2091 -2163 0
-2093 -2095 2165 0
2093 -2165 0
2095 -2165 0
-2097 -2099 2167 0
2097 -2167 0
2099 -2167 0
-2101 -2103 2169 0
2101 -2169 0
2103 -2169 0
-2105 -2107 2171 0
2105 -2171 0
2107 -2171 0
-2109 -2110 2173 0
2109 -2173 0
2110 -2173 0
-2111 -2112 2270 0
2111 -2270 0
2112 -2270 0
-2113 -2114 2176 0
2113 -2176 0
2114 -2176 0
-2115 -2116 2178 0
2115 -2178 0
2116 -2178 0
-2118 -2120 2180 0
2118 -2180 0
2120 -2180 0
-2121 -2122 2182 0
2121 -2182 0
2122 -2182 0
-2124 -2126 2184 0
2124 -2184 0
2126 -2184 0
-2128 -2130 2186 0
2128 -2186 0
2130 -2186 0
-2132 -2134 2188 0
2132 -2188 0
2134 -2188 0
-2136 -2138 2190 0
2136 -2190 0
2138 -2190 0
-2139 -2140 2192 0
2139 -2192 0
2140 -2192 0
-2141 -2142 2194 0
2141 -2194 0
2142 -2194 0
-2144 -2146 2196 0
2144 -2196 0
2146 -2196 0
-2148 -2150 2198 0
2148 -2198 0
2150 -2198 0
-2152 -2154 2200 0
2152 -2200 0
2154 -2200 0
-2156 -2158 2202 0
2156 -2202 0
2158 -2202 0
-2160 -2162 2204 0
2160 -2204 0
2162 -2204 0
-2164 -2166 2206 0
2164 -2206 0
2166 -2206 0
-2168 -2170 2208 0
2168 -2208 0
2170 -2208 0
-2108 -2172 2210 0
2172 -2210 0
2108 -2210 0
-2174 -2175 2212 0
2174 -2212 0
2175 -2212 0
-2177 -2179 2214 0
2177 -2214 0
2179 -2214 0
-2181 -2183 2216 0
2181 -2216 0
2183 -2216 0
-2185 -2187 2218 0
2185 -2218 0
2187 -2218 0
-2189 -2191 2220 0
2189 -2220 0
2191 -2220 0
-2193 -2195 2222 0
2193 -2222 0
2195 -2222 0
-2197 -2199 2224 0
2197 -2224 0
2199 -2224 0
-2201 -2203 2226 0
2201 -2226 0
2203 -2226 0
-2205 -2207 2228 0
2205 -2228 0
2207 -2228 0
-2209 -2211 2230 0
2209 -2230 0
2211 -2230 0
-2213 -2215 2232 0
2213 -2232 0
2215 -2232 0
-2217 -2219 2234 0
2217 -2234 0
2219 -2234 0
-2221 -2223 2236 0
2221 -2236 0
2223 -2236 0
-2225 -2227 2238 0
2225 -2238 0
2227 -2238 0
-2229 -2231 2240 0
2229 -2240 0
2231 -2240 0
-2233 -2235 2242 0
2233 -2242 0
2235 -2242 0
-2237 -2239 2243 0
2237 -2243 0
2239 -2243 0
-2117 -2119 2375 0
2117 -2375 0
2119 -2375 0
-2123 -2125 2376 0
2123 -2376 0
2125 -2376 0
-2127 -2129 2250 0
2127 -2250 0
2129 -2250 0
-2131 -2133 2252 0
2131 -2252 0
2133 -2252 0
-2135 -2137 2378 0
2135 -2378 0
2137 -2378 0
-2143 -2145 2379 0
2143 -2379 0
2145 -2379 0
-2147 -2149 2258 0
2147 -2258 0
2149 -2258 0
-2151 -2153 2260 0
2151 -2260 0
2153 -2260 0
-2155 -2157 2262 0
2155 -2262 0
2157 -2262 0
-2159 -2161 2264 0
2159 -2264 0
2161 -2264 0
-2163 -2165 2266 0
2163 -2266 0
2165 -2266 0
-2167 -2169 2268 0
2167 -2268 0
2169 -2268 0
-2171 -2173 2385 0
2171 -2385 0
2173 -2385 0
-2176 -2178 2272 0
2176 -2272 0
2178 -2272 0
-2180 -2182 2274 0
2180 -2274 0
2182 -2274 0
-2184 -2186 2276 0
2184 -2276 0
2186 -2276 0
-2188 -2190 2278 0
2188 -2278 0
2190 -2278 0
-2192 -2194 2280 0
2192 -2280 0
2194 -2280 0
-2196 -2198 2282 0
2196 -2282 0
2198 -2282 0
-2200 -2202 2284 0
2200 -2284 0
2202 -2284 0
-2204 -2206 2286 0
2204 -2286 0
2206 -2286 0
-2208 -2210 2288 0
2208 -2288 0
2210 -2288 0
-2212 -2214 2290 0
2212 -2290 0
2214 -2290 0
-2216 -2218 2292 0
2216 -2292 0
2218 -2292 0
-2220 -2222 2294 0
2220 -2294 0
2222 -2294 0
-2224 -2226 2296 0
2224 -2296 0
2226 -2296 0
-2228 -2230 2298 0
2228 -2298 0
2230 -2298 0
-2232 -2234 2300 0
2232 -2300 0
2234 -2300 0
-2236 -2238 2302 0
2236 -2302 0
2238 -2302 0
-2240 -2242 2304 0
2240 -2304 0
2242 -2304 0
-2241 -2243 2306 0
2243 -2306 0
2241 -2306 0
-2245 -2246 2403 0
2245 -2403 0
2246 -2403 0
-2247 -2248 2309 0
2247 -2309 0
2248 -2309 0
-2249 -2251 2311 0
2249 -2311 0
2251 -2311 0
-2253 -2254 2313 0
2253 -2313 0
2254 -2313 0
-2255 -2256 2315 0
2255 -2315 0
2256 -2315 0
-2257 -2259 2317 0
2257 -2317 0
2259 -2317 0
-2261 -2263 2319 0
2261 -2319 0
2263 -2319 0
-2265 -2267 2321 0
2265 -2321 0
2267 -2321 0
-2269 -2270 2323 0
2269 -2323 0
2270 -2323 0
-2271 -2273 2325 0
2271 -2325 0
2273 -2325 0
-2275 -2277 2327 0
2275 -2327 0
2277 -2327 0
-2279 -2281 2329 0
2279 -2329 0
2281 -2329 0
-2283 -2285 2331 0
2283 -2331 0
2285 -2331 0
-2287 -2289 2333 0
2287 -2333 0
2289 -2333 0
-2291 -2293 2335 0
2291 -2335 0
2293 -2335 0
-2295 -2297 2337 0
2295 -2337 0
2297 -2337 0
-2299 -2301 2339 0
2299 -2339 0
2301 -2339 0
-2303 -2305 2341 0
2303 -2341 0
2305 -2341 0
-2244 -2307 2343 0
2244 -2343 0
2307 -2343 0
-2308 -2310 2345 0
2308 -2345 0
2310 -2345 0
-2312 -2314 2347 0
2312 -2347 0
2314 -2347 0
-2316 -2318 2349 0
2316 -2349 0
2318 -2349 0
-2320 -2322 2351 0
2320 -2351 0
2322 -2351 0
-2324 -2326 2353 0
2324 -2353 0
2326 -2353 0
-2328 -2330 2355 0
2328 -2355 0
2330 -2355 0
-2332 -2334 2357 0
2332 -2357 0
2334 -2357 0
-2336 -2338 2359 0
2336 -2359 0
2338 -2359 0
-2340 -2342 2361 0
2340 -2361 0
2342 -2361 0
-2344 -2346 2363 0
2344 -2363 0
2346 -2363 0
-2348 -2350 2365 0
2348 -2365 0
2350 -2365 0
-2352 -2354 2367 0
2352 -2367 0
2354 -2367 0
-2356 -2358 2369 0
2356 -2369 0
2358 -2369 0
-2360 -2362 2371 0
2360 -2371 0
2362 -2371 0
-2364 -2366 2373 0
2364 -2373 0
2366 -2373 0
-2368 -2370 2374 0
2368 -2374 0
2370 -2374 0
-2250 -2252 2506 0
2250 -2506 0
2252 -2506 0
-2258 -2260 2381 0
2258 -2381 0
2260 -2381 0
-2262 -2264 2383 0
2262 -2383 0
2264 -2383 0
-2266 -2268 2507 0
2266 -2507 0
2268 -2507 0
-2272 -2274 2387 0
2272 -2387 0
2274 -2387 0
-2276 -2278 2389 0
2276 -2389 0
2278 -2389 0
-2280 -2282 2391 0
2280 -2391 0
2282 -2391 0
-2284 -2286 2393 0
2284 -2393 0
2286 -2393 0
-2288 -2290 2395 0
2288 -2395 0
2290 -2395 0
-2292 -2294 2397 0
2292 -2397 0
2294 -2397 0
-2296 -2298 2399 0
2296 -2399 0
2298 -2399 0
-2300 -2302 2401 0
2300 -2401 0
2302 -2401 0
-2304 -2306 2514 0
2304 -2514 0
2306 -2514 0
-2309 -2311 2405 0
2309 -2405 0
2311 -2405 0
-2313 -2315 2407 0
2313 -2407 0
2315 -2407 0
-2317 -2319 2409 0
2317 -2409 0
2319 -2409 0
-2321 -2323 2411 0
2321 -2411 0
2323 -2411 0
-2325 -2327 2413 0
2325 -2413 0
2327 -2413 0
-2329 -2331 2415 0
2329 -2415 0
2331 -2415 0
-2333 -2335 2417 0
2333 -2417 0
2335 -2417 0
-2337 -2339 2419 0
2337 -2419 0
2339 -2419 0
-2341 -2343 2421 0
2341 -2421 0
2343 -2421 0
-2345 -2347 2423 0
2345 -2423 0
2347 -2423 0
-2349 -2351 2425 0
2349 -2425 0
2351 -2425 0
-2353 -2355 2427 0
2353 -2427 0
2355 -2427 0
-2357 -2359 2429 0
2357 -2429 0
2359 -2429 0
-2361 -2363 2431 0
2361 -2431 0
2363 -2431 0
-2365 -2367 2433 0
2365 -2433 0
2367 -2433 0
-2369 -2371 2435 0
2369 -2435 0
2371 -2435 0
-2373 -2374 2531 0
2373 -2531 0
2374 -2531 0
-2375 -2376 2438 0
2375 -2438 0
2376 -2438 0
-2377 -2378 2440 0
2377 -2440 0
2378 -2440 0
-2379 -2380 2442 0
2379 -2442 0
2380 -2442 0
-2382 -2384 2444 0
2382 -2444 0
2384 -2444 0
-2385 -2386 2446 0
2385 -2446 0
2386 -2446 0
-2388 -2390 2448 0
2388 -2448 0
2390 -2448 0
-2392 -2394 2450 0
2392 -2450 0
2394 -2450 0
-2396 -2398 2452 0
2396 -2452 0
2398 -2452 0
-2400 -2402 2454 0
2400 -2454 0
2402 -2454 0
-2403 -2404 2456 0
2403 -2456 0
2404 -2456 0
-2406 -2408 2458 0
2406 -2458 0
2408 -2458 0
-2410 -2412 2460 0
2410 -2460 0
2412 -2460 0
-2414 -2416 2462 0
2414 -2462 0
2416 -2462 0
-2418 -2420 2464 0
2418 -2464 0
2420 -2464 0
-2422 -2424 2466 0
2422 -2466 0
2424 -2466 0
-2426 -2428 2468 0
2426 -2468 0
2428 -2468 0
-2430 -2432 2470 0
2430 -2470 0
2432 -2470 0
-2434 -2436 2472 0
2434 -2472 0
2436 -2472 0
-2372 -2437 2474 0
2372 -2474 0
2437 -2474 0
-2439 -2441 2476 0
2439 -2476 0
2441 -2476 0
-2443 -2445 2478 0
2443 -2478 0
2445 -2478 0
-2447 -2449 2480 0
2447 -2480 0
2449 -2480 0
-2451 -2453 2482 0
2451 -2482 0
2453 -2482 0
-2455 -2457 2484 0
2455 -2484 0
2457 -2484 0
-2459 -2461 2486 0
2459 -2486 0
2461 -2486 0
-2463 -2465 2488 0
2463 -2488 0
2465 -2488 0
-2467 -2469 2490 0
2467 -2490 0
2469 -2490 0
-2471 -2473 2492 0
2471 -2492 0
2473 -2492 0
-2475 -2477 2494 0
2475 -2494 0
2477 -2494 0
-2479 -2481 2496 0
2479 -2496 0
2481 -2496 0
-2483 -2485 2498 0
2483 -2498 0
2485 -2498 0
-2487 -2489 2500 0
2487 -2500 0
2489 -2500 0
-2491 -2493 2502 0
2491 -2502 0
2493 -2502 0
-2495 -2497 2504 0
2495 -2504 0
2497 -2504 0
-2499 -2501 2505 0
2499 -2505 0
2501 -2505 0
-2381 -2383 2631 0
2381 -2631 0
2383 -2631 0
-2387 -2389 2632 0
2387 -2632 0
2389 -2632 0
-2391 -2393 2510 0
2391 -2510 0
2393 -2510 0
-2395 -2397 2512 0
2395 -2512 0
2397 -2512 0
-2399 -2401 2634 0
2399 -2634 0
2401 -2634 0
-2405 -2407 2516 0
2405 -2516 0
2407 -2516 0
-2409 -2411 2518 0
2409 -2518 0
2411 -2518 0
-2413 -2415 2520 0
2413 -2520 0
2415 -2520 0
-2417 -2419 2522 0
2417 -2522 0
2419 -2522 0
-2421 -2423 2524 0
2421 -2524 0
2423 -2524 0
-2425 -2427 2526 0
2425 -2526 0
2427 -2526 0
-2429 -2431 2528 0
2429 -2528 0
2431 -2528 0
-2433 -2435 2530 0
2433 -2530 0
2435 -2530 0
-2438 -2440 2641 0
2438 -2641 0
2440 -2641 0
-2442 -2444 2534 0
2442 -2534 0
2444 -2534 0
-2446 -2448 2536 0
2446 -2536 0
2448 -2536 0
-2450 -2452 2538 0
2450 -2538 0
2452 -2538 0
-2454 -2456 2540 0
2454 -2540 0
2456 -2540 0
-2458 -2460 2542 0
2458 -2542 0
2460 -2542 0
-2462 -2464 2544 0
2462 -2544 0
2464 -2544 0
-2466 -2468 2546 0
2466 -2546 0
2468 -2546 0
-2470 -2472 2548 0
2470 -2548 0
2472 -2548 0
-2474 -2476 2550 0
2474 -2550 0
2476 -2550 0
-2478 -2480 2552 0
2478 -2552 0
2480 -2552 0
-2482 -2484 2554 0
2482 -2554 0
2484 -2554 0
-2486 -2488 2556 0
2486 -2556 0
2488 -2556 0
-2490 -2492 2558 0
2490 -2558 0
2492 -2558 0
-2494 -2496 2560 0
2494 -2560 0
2496 -2560 0
-2498 -2500 2562 0
2498 -2562 0
2500 -2562 0
-2502 -2504 2564 0
2502 -2564 0
2504 -2564 0
-2503 -2505 2658 0
2505 -2658 0
2503 -2658 0
-2507 -2508 2659 0
2507 -2659 0
2508 -2659 0
-2509 -2511 2569 0
2509 -2569 0
2511 -2569 0
-2513 -2514 2571 0
2513 -2571 0
2514 -2571 0
-2515 -2517 2573 0
2515 -2573 0
2517 -2573 0
-2519 -2521 2575 0
2519 -2575 0
2521 -2575 0
-2523 -2525 2577 0
2523 -2577 0
2525 -2577 0
-2527 -2529 2579 0
2527 -2579 0
2529 -2579 0
-2531 -2532 2581 0
2531 -2581 0
2532 -2581 0
-2533 -2535 2583 0
2533 -2583 0
2535 -2583 0
-2537 -2539 2585 0
2537 -2585 0
2539 -2585 0
-2541 -2543 2587 0
2541 -2587 0
2543 -2587 0
-2545 -2547 2589 0
2545 -2589 0
2547 -2589 0
-2549 -2551 2591 0
2549 -2591 0
2551 -2591 0
-2553 -2555 2593 0
2553 -2593 0
2555 -2593 0
-2557 -2559 2595 0
2557 -2595 0
2559 -2595 0
-2561 -2563 2597 0
2561 -2597 0
2563 -2597 0
-2506 -2565 2599 0
2565 -2599 0
2506 -2599 0
-2566 -2567 2601 0
2566 -2601 0
2567 -2601 0
-2568 -2570 2603 0
2568 -2603 0
2570 -2603 0
-2572 -2574 2605 0
2572 -2605 0
2574 -2605 0
-2576 -2578 2607 0
2576 -2607 0
2578 -2607 0
-2580 -2582 2609 0
2580 -2609 0
2582 -2609 0
-2584 -2586 2611 0
2584 -2611 0
2586 -2611 0
-2588 -2590 2613 0
2588 -2613 0
2590 -2613 0
-2592 -2594 2615 0
2592 -2615 0
2594 -2615 0
-2596 -2598 2617 0
2596 -2617 0
2598 -2617 0
-2600 -2602 2619 0
2600 -2619 0
2602 -2619 0
-2604 -2606 2621 0
2604 -2621 0
2606 -2621 0
-2608 -2610 2623 0
2608 -2623 0
2610 -2623 0
-2612 -2614 2625 0
2612 -2625 0
2614 -2625 0
-2616 -2618 2627 0
2616 -2627 0
2618 -2627 0
-2620 -2622 2629 0
2620 -2629 0
2622 -2629 0
-2624 -2626 2630 0
2624 -2630 0
2626 -2630 0
-2510 -2512 2758 0
2510 -2758 0
2512 -2758 0
-2516 -2518 2759 0
2516 -2759 0
2518 -2759 0
-2520 -2522 2637 0
2520 -2637 0
2522 -2637 0
-2524 -2526 2639 0
2524 -2639 0
2526 -2639 0
-2528 -2530 2761 0
2528 -2761 0
2530 -2761 0
-2534 -2536 2643 0
2534 -2643 0
2536 -2643 0
-2538 -2540 2645 0
2538 -2645 0
2540 -2645 0
-2542 -2544 2647 0
2542 -2647 0
2544 -2647 0
-2546 -2548 2649 0
2546 -2649 0
2548 -2649 0
-2550 -2552 2651 0
2550 -2651 0
2552 -2651 0
-2554 -2556 2653 0
2554 -2653 0
2556 -2653 0
-2558 -2560 2655 0
2558 -2655 0
2560 -2655 0
-2562 -2564 2657 0
2562 -2657 0
2564 -2657 0
-2569 -2571 2661 0
2569 -2661 0
2571 -2661 0
-2573 -2575 2663 0
2573 -2663 0
2575 -2663 0
-2577 -2579 2665 0
2577 -2665 0
2579 -2665 0
-2581 -2583 2667 0
2581 -2667 0
2583 -2667 0
-2585 -2587 2669 0
2585 -2669 0
2587 -2669 0
-2589 -2591 2671 0
2589 -2671 0
2591 -2671 0
-2593 -2595 2673 0
2593 -2673 0
2595 -2673 0
-2597 -2599 2675 0
2597 -2675 0
2599 -2675 0
-2601 -2603 2677 0
2601 -2677 0
2603 -2677 0
-2605 -2607 2679 0
2605 -2679 0
2607 -2679 0
-2609 -2611 2681 0
2609 -2681 0
2611 -2681 0
-2613 -2615 2683 0
2613 -2683 0
2615 -2683 0
-2617 -2619 2685 0
2617 -2685 0
2619 -2685 0
-2621 -2623 2687 0
2621 -2687 0
2623 -2687 0
-2625 -2627 2689 0
2625 -2689 0
2627 -2689 0
-2629 -2630 2691 0
2629 -2691 0
2630 -2691 0
-2631 -2632 2783 0
2631 -2783 0
2632 -2783 0
-2633 -2634 2694 0
2633 -2694 0
2634 -2694 0
-2635 -2636 2696 0
2635 -2696 0
2636 -2696 0
-2638 -2640 2698 0
2638 -2698 0
2640 -2698 0
-2641 -2642 2700 0
2641 -2700 0
2642 -2700 0
-2644 -2646 2702 0
2644 -2702 0
2646 -2702 0
-2648 -2650 2704 0
2648 -2704 0
2650 -2704 0
-2652 -2654 2706 0
2652 -2706 0
2654 -2706 0
-2656 -2658 2708 0
2656 -2708 0
2658 -2708 0
-2659 -2660 2710 0
2659 -2710 0
2660 -2710 0
-2662 -2664 2712 0
2662 -2712 0
2664 -2712 0
-2666 -2668 2714 0
2666 -2714 0
2668 -2714 0
-2670 -2672 2716 0
2670 -2716 0
2672 -2716 0
-2674 -2676 2718 0
2674 -2718 0
2676 -2718 0
-2678 -2680 2720 0
2678 -2720 0
2680 -2720 0
-2682 -2684 2722 0
2682 -2722 0
2684 -2722 0
-2686 -2688 2724 0
2686 -2724 0
2688 -2724 0
-2628 -2690 2726 0
2690 -2726 0
2628 -2726 0
-2692 -2693 2728 0
2692 -2728 0
2693 -2728 0
-2695 -2697 2730 0
2695 -2730 0
2697 -2730 0
-2699 -2701 2732 0
2699 -2732 0
2701 -2732 0
-2703 -2705 2734 0
2703 -2734 0
2705 -2734 0
-2707 -2709 2736 0
2707 -2736 0
2709 -2736 0
-2711 -2713 2738 0
2711 -2738 0
2713 -2738 0
-2715 -2717 2740 0
2715 -2740 0
2717 -2740 0
-2719 -2721 2742 0
2719 -2742 0
2721 -2742 0
-2723 -2725 2744 0
2723 -2744 0
2725 -2744 0
-2727 -2729 2746 0
2727 -2746 0
2729 -2746 0
-2731 -2733 2748 0
2731 -2748 0
2733 -2748 0
-2735 -2737 2750 0
2735 -2750 0
2737 -2750 0
-2739 -2741 2752 0
2739 -2752 0
2741 -2752 0
-2743 -2745 2754 0
2743 -2754 0
2745 -2754 0
-2747 -2749 2756 0
2747 -2756 0
2749 -2756 0
-2751 -2753 2757 0
2751 -2757 0
2753 -2757 0
-2637 -2639 2879 0
2637 -2879 0
2639 -2879 0
-2643 -2645 2880 0
2643 -2880 0
2645 -2880 0
-2647 -2649 2764 0
2647 -2764 0
2649 -2764 0
-2651 -2653 2766 0
2651 -2766 0
2653 -2766 0
-2655 -2657 2882 0
2655 -2882 0
2657 -2882 0
-2661 -2663 2768 0
2661 -2768 0
2663 -2768 0
-2665 -2667 2770 0
2665 -2770 0
2667 -2770 0
-2669 -2671 2772 0
2669 -2772 0
2671 -2772 0
-2673 -2675 2774 0
2673 -2774 0
2675 -2774 0
-2677 -2679 2776 0
2677 -2776 0
2679 -2776 0
-2681 -2683 2778 0
2681 -2778 0
2683 -2778 0
-2685 -2687 2780 0
2685 -2780 0
2687 -2780 0
-2689 -2691 2782 0
2689 -2782 0
2691 -2782 0
-2694 -2696 2889 0
2694 -2889 0
2696 -2889 0
-2698 -2700 2786 0
2698 -2786 0
2700 -2786 0
-2702 -2704 2788 0
2702 -2788 0
2704 -2788 0
-2706 -2708 2790 0
2706 -2790 0
2708 -2790 0
-2710 -2712 2792 0
2710 -2792 0
2712 -2792 0
-2714 -2716 2794 0
2714 -2794 0
2716 -2794 0
-2718 -2720 2796 0
2718 -2796 0
2720 -2796 0
-2722 -2724 2798 0
2722 -2798 0
2724 -2798 0
-2726 -2728 2800 0
2726 -2800 0
2728 -2800 0
-2730 -2732 2802 0
2730 -2802 0
2732 -2802 0
-2734 -2736 2804 0
2734 -2804 0
2736 -2804 0
-2738 -2740 2806 0
2738 -2806 0
2740 -2806 0
-2742 -2744 2808 0
2742 -2808 0
2744 -2808 0
-2746 -2748 2810 0
2746 -2810 0
2748 -2810 0
-2750 -2752 2812 0
2750 -2812 0
2752 -2812 0
-2754 -2756 2814 0
2754 -2814 0
2756 -2814 0
-2755 -2757 2816 0
2757 -2816 0
2755 -2816 0
-2759 -2760 2906 0
2759 -2906 0
2760 -2906 0
-2761 -2762 2819 0
2761 -2819 0
2762 -2819 0
-2763 -2765 2821 0
2763 -2821 0
2765 -2821 0
-2767 -2769 2908 0
2767 -2908 0
2769 -2908 0
-2771 -2773 2825 0
2771 -2825 0
2773 -2825 0
-2775 -2777 2827 0
2775 -2827 0
2777 -2827 0
-2779 -2781 2829 0
2779 -2829 0
2781 -2829 0
-2783 -2784 2831 0
2783 -2831 0
2784 -2831 0
-2785 -2787 2833 0
2785 -2833 0
2787 -2833 0
-2789 -2791 2835 0
2789 -2835 0
2791 -2835 0
-2793 -2795 2837 0
2793 -2837 0
2795 -2837 0
-2797 -2799 2839 0
2797 -2839 0
2799 -2839 0
-2801 -2803 2841 0
2801 -2841 0
2803 -2841 0
-2805 -2807 2843 0
2805 -2843 0
2807 -2843 0
-2809 -2811 2845 0
2809 -2845 0
2811 -2845 0
-2813 -2815 2847 0
2813 -2847 0
2815 -2847 0
-2758 -2817 2849 0
2758 -2849 0
2817 -2849 0
-2818 -2820 2851 0
2818 -2851 0
2820 -2851 0
-2822 -2823 2853 0
2822 -2853 0
2823 -2853 0
-2824 -2826 2855 0
2824 -2855 0
2826 -2855 0
-2828 -2830 2857 0
2828 -2857 0
2830 -2857 0
-2832 -2834 2859 0
2832 -2859 0
2834 -2859 0
-2836 -2838 2861 0
2836 -2861 0
2838 -2861 0
-2840 -2842 2863 0
2840 -2863 0
2842 -2863 0
-2844 -2846 2865 0
2844 -2865 0
2846 -2865 0
-2848 -2850 2867 0
2848 -2867 0
2850 -2867 0
-2852 -2854 2869 0
2852 -2869 0
2854 -2869 0
-2856 -2858 2871 0
2856 -2871 0
2858 -2871 0
-2860 -2862 2873 0
2860 -2873 0
2862 -2873 0
-2864 -2866 2875 0
2864 -2875 0
2866 -2875 0
-2868 -2870 2877 0
2868 -2877 0
2870 -2877 0
-2872 -2874 2878 0
2872 -2878 0
2874 -2878 0
-2764 -2766 3000 0
2764 -3000 0
2766 -3000 0
-2768 -2770 3001 0
2768 -3001 0
2770 -3001 0
-2772 -2774 2885 0
2772 -2885 0
2774 -2885 0
-2776 -2778 2887 0
2776 -2887 0
2778 -2887 0
-2780 -2782 3003 0
2780 -3003 0
2782 -3003 0
-2786 -2788 2891 0
2786 -2891 0
2788 -2891 0
-2790 -2792 2893 0
2790 -2893 0
2792 -2893 0
-2794 -2796 2895 0
2794 -2895 0
2796 -2895 0
-2798 -2800 2897 0
2798 -2897 0
2800 -2897 0
-2802 -2804 2899 0
2802 -2899 0
2804 -2899 0
-2806 -2808 2901 0
2806 -2901 0
2808 -2901 0
-2810 -2812 2903 0
2810 -2903 0
2812 -2903 0
-2814 -2816 2905 0
2814 -2905 0
2816 -2905 0
-2819 -2821 3010 0
2819 -3010 0
2821 -3010 0
-2825 -2827 3011 0
2825 -3011 0
2827 -3011 0
-2829 -2831 2911 0
2829 -2911 0
2831 -2911 0
-2833 -2835 2913 0
2833 -2913 0
2835 -2913 0
-2837 -2839 2915 0
2837 -2915 0
2839 -2915 0
-2841 -2843 2917 0
2841 -2917 0
2843 -2917 0
-2845 -2847 2919 0
2845 -2919 0
2847 -2919 0
-2849 -2851 2921 0
2849 -2921 0
2851 -2921 0
-2853 -2855 2923 0
2853 -2923 0
2855 -2923 0
-2857 -2859 2925 0
2857 -2925 0
2859 -2925 0
-2861 -2863 2927 0
2861 -2927 0
2863 -2927 0
-2865 -2867 2929 0
2865 -2929 0
2867 -2929 0
-2869 -2871 2931 0
2869 -2931 0
2871 -2931 0
-2873 -2875 2933 0
2873 -2933 0
2875 -2933 0
-2877 -2878 3022 0
2877 -3022 0
2878 -3022 0
-2879 -2880 2936 0
2879 -2936 0
2880 -2936 0
-2881 -2882 2938 0
2881 -2938 0
2882 -2938 0
-2883 -2884 2940 0
2883 -2940 0
2884 -2940 0
-2886 -2888 2942 0
2886 -2942 0
2888 -2942 0
-2889 -2890 2944 0
2889 -2944 0
2890 -2944 0
-2892 -2894 2946 0
2892 -2946 0
2894 -2946 0
-2896 -2898 2948 0
2896 -2948 0
2898 -2948 0
-2900 -2902 2950 0
2900 -2950 0
2902 -2950 0
-2904 -2906 2952 0
2904 -2952 0
2906 -2952 0
-2907 -2908 2954 0
2907 -2954 0
2908 -2954 0
-2909 -2910 2956 0
2909 -2956 0
2910 -2956 0
-2912 -2914 2958 0
2912 -2958 0
2914 -2958 0
-2916 -2918 2960 0
2916 -2960 0
2918 -2960 0
-2920 -2922 2962 0
2920 -2962 0
2922 -2962 0
-2924 -2926 2964 0
2924 -2964 0
2926 -2964 0
-2928 -2930 2966 0
2928 -2966 0
2930 -2966 0
-2932 -2934 2968 0
2932 -2968 0
2934 -2968 0
-2876 -2935 2970 0
2876 -2970 0
2935 -2970 0
-2937 -2939 2972 0
2937 -2972 0
2939 -2972 0
-2941 -2943 2974 0
2941 -2974 0
2943 -2974 0
-2945 -2947 2976 0
2945 -2976 0
2947 -2976 0
-2949 -2951 2978 0
2949 -2978 0
2951 -2978 0
-2953 -2955 2980 0
2953 -2980 0
2955 -2980 0
-2957 -2959 2982 0
2957 -2982 0
2959 -2982 0
-2961 -2963 2984 0
2961 -2984 0
2963 -2984 0
-2965 -2967 2986 0
2965 -2986 0
2967 -2986 0
-2969 -2971 2988 0
2969 -2988 0
2971 -2988 0
-2973 -2975 2990 0
2973 -2990 0
2975 -2990 0
-2977 -2979 2992 0
2977 -2992 0
2979 -2992 0
-2981 -2983 2994 0
2981 -2994 0
2983 -2994 0
-2985 -2987 2996 0
2985 -2996 0
2987 -2996 0
-2989 -2991 2998 0
2989 -2998 0
2991 -2998 0
-2993 -2995 2999 0
2993 -2999 0
2995 -2999 0
-2885 -2887 3119 0
2885 -3119 0
2887 -3119 0
-2891 -2893 3120 0
2891 -3120 0
2893 -3120 0
-2895 -2897 3006 0
2895 -3006 0
2897 -3006 0
-2899 -2901 3008 0
2899 -3008 0
2901 -3008 0
-2903 -2905 3122 0
2903 -3122 0
2905 -3122 0
-2911 -2913 3123 0
2911 -3123 0
2913 -3123 0
-2915 -2917 3014 0
2915 -3014 0
2917 -3014 0
-2919 -2921 3016 0
2919 -3016 0
2921 -3016 0
-2923 -2925 3018 0
2923 -3018 0
2925 -3018 0
-2927 -2929 3020 0
2927 -3020 0
2929 -3020 0
-2931 -2933 3128 0
2931 -3128 0
2933 -3128 0
-2936 -2938 3024 0
2936 -3024 0
2938 -3024 0
-2940 -2942 3026 0
2940 -3026 0
2942 -3026 0
-2944 -2946 3028 0
2944 -3028 0
2946 -3028 0
-2948 -2950 3030 0
2948 -3030 0
2950 -3030 0
-2952 -2954 3032 0
2952 -3032 0
2954 -3032 0
-2956 -2958 3034 0
2956 -3034 0
2958 -3034 0
-2960 -2962 3036 0
2960 -3036 0
2962 -3036 0
-2964 -2966 3038 0
2964 -3038 0
2966 -3038 0
-2968 -2970 3040 0
2968 -3040 0
2970 -3040 0
-2972 -2974 3042 0
2972 -3042 0
2974 -3042 0
-2976 -2978 3044 0
2976 -3044 0
2978 -3044 0
-2980 -2982 3046 0
2980 -3046 0
2982 -3046 0
-2984 -2986 3048 0
2984 -3048 0
2986 -3048 0
-2988 -2990 3050 0
2988 -3050 0
2990 -3050 0
-2992 -2994 3052 0
2992 -3052 0
2994 -3052 0
-2996 -2998 3054 0
2996 -3054 0
2998 -3054 0
-2997 -2999 3143 0
2999 -3143 0
2997 -3143 0
-3001 -3002 3057 0
3001 -3057 0
3002 -3057 0
-3003 -3004 3059 0
3003 -3059 0
3004 -3059 0
-3005 -3007 3061 0
3005 -3061 0
3007 -3061 0
-3009 -3010 3063 0
3009 -3063 0
3010 -3063 0
-3011 -3012 3065 0
3011 -3065 0
3012 -3065 0
-3013 -3015 3067 0
3013 -3067 0
3015 -3067 0
-3017 -3019 3069 0
3017 -3069 0
3019 -3069 0
-3021 -3022 3071 0
3021 -3071 0
3022 -3071 0
-3023 -3025 3073 0
3023 -3073 0
3025 -3073 0
-3027 -3029 3075 0
3027 -3075 0
3029 -3075 0
-3031 -3033 3077 0
3031 -3077 0
3033 -3077 0
-3035 -3037 3079 0
3035 -3079 0
3037 -3079 0
-3039 -3041 3081 0
3039 -3081 0
3041 -3081 0
-3043 -3045 3083 0
3043 -3083 0
3045 -3083 0
-3047 -3049 3085 0
3047 -3085 0
3049 -3085 0
-3051 -3053 3087 0
3051 -3087 0
3053 -3087 0
-3000 -3055 3089 0
3055 -3089 0
3000 -3089 0
-3056 -3058 3091 0
3056 -3091 0
3058 -3091 0
-3060 -3062 3093 0
3060 -3093 0
3062 -3093 0
-3064 -3066 3095 0
3064 -3095 0
3066 -3095 0
-3068 -3070 3097 0
3068 -3097 0
3070 -3097 0
-3072 -3074 3099 0
3072 -3099 0
3074 -3099 0
-3076 -3078 3101 0
3076 -3101 0
3078 -3101 0
-3080 -3082 3103 0
3080 -3103 0
3082 -3103 0
-3084 -3086 3105 0
3084 -3105 0
3086 -3105 0
-3088 -3090 3107 0
3088 -3107 0
3090 -3107 0
-3092 -3094 3109 0
3092 -3109 0
3094 -3109 0
-3096 -3098 3111 0
3096 -3111 0
3098 -3111 0
-3100 -3102 3113 0
3100 -3113 0
3102 -3113 0
-3104 -3106 3115 0
3104 -3115 0
3106 -3115 0
-3108 -3110 3117 0
3108 -3117 0
3110 -3117 0
-3112 -3114 3118 0
3112 -3118 0
3114 -3118 0
-3006 -3008 3238 0
3006 -3238 0
3008 -3238 0
-3014 -3016 3125 0
3014 -3125 0
3016 -3125 0
-3018 -3020 3127 0
3018 -3127 0
3020 -3127 0
-3024 -3026 3239 0
3024 -3239 0
3026 -3239 0
-3028 -3030 3131 0
3028 -3131 0
3030 -3131 0
-3032 -3034 3133 0
3032 -3133 0
3034 -3133 0
-3036 -3038 3135 0
3036 -3135 0
3038 -3135 0
-3040 -3042 3137 0
3040 -3137 0
3042 -3137 0
-3044 -3046 3139 0
3044 -3139 0
3046 -3139 0
-3048 -3050 3141 0
3048 -3141 0
3050 -3141 0
-3052 -3054 3245 0
3052 -3245 0
3054 -3245 0
-3057 -3059 3145 0
3057 -3145 0
3059 -3145 0
-3061 -3063 3147 0
3061 -3147 0
3063 -3147 0
-3065 -3067 3149 0
3065 -3149 0
3067 -3149 0
-3069 -3071 3151 0
3069 -3151 0
3071 -3151 0
-3073 -3075 3153 0
3073 -3153 0
3075 -3153 0
-3077 -3079 3155 0
3077 -3155 0
3079 -3155 0
-3081 -3083 3157 0
3081 -3157 0
3083 -3157 0
-3085 -3087 3159 0
3085 -3159 0
3087 -3159 0
-3089 -3091 3161 0
3089 -3161 0
3091 -3161 0
-3093 -3095 3163 0
3093 -3163 0
3095 -3163 0
-3097 -3099 3165 0
3097 -3165 0
3099 -3165 0
-3101 -3103 3167 0
3101 -3167 0
3103 -3167 0
-3105 -3107 3169 0
3105 -3169 0
3107 -3169 0
-3109 -3111 3171 0
3109 -3171 0
3111 -3171 0
-3113 -3115 3173 0
3113 -3173 0
3115 -3173 0
-3117 -3118 3175 0
3117 -3175 0
3118 -3175 0
-3119 -3120 3260 0
3119 -3260 0
3120 -3260 0
-3121 -3122 3178 0
3121 -3178 0
3122 -3178 0
-3123 -3124 3180 0
3123 -3180 0
3124 -3180 0
-3126 -3128 3182 0
3126 -3182 0
3128 -3182 0
-3129 -3130 3184 0
3129 -3184 0
3130 -3184 0
-3132 -3134 3186 0
3132 -3186 0
3134 -3186 0
-3136 -3138 3188 0
3136 -3188 0
3138 -3188 0
-3140 -3142 3190 0
3140 -3190 0
3142 -3190 0
-3143 -3144 3192 0
3143 -3192 0
3144 -3192 0
-3146 -3148 3194 0
3146 -3194 0
3148 -3194 0
-3150 -3152 3196 0
3150 -3196 0
3152 -3196 0
-3154 -3156 3198 0
3154 -3198 0
3156 -3198 0
-3158 -3160 3200 0
3158 -3200 0
3160 -3200 0
-3162 -3164 3202 0
3162 -3202 0
3164 -3202 0
-3166 -3168 3204 0
3166 -3204 0
3168 -3204 0
-3170 -3172 3206 0
3170 -3206 0
3172 -3206 0
-3116 -3174 3208 0
3174 -3208 0
3116 -3208 0
-3176 -3177 3210 0
3176 -3210 0
3177 -3210 0
-3179 -3181 3212 0
3179 -3212 0
3181 -3212 0
-3183 -3185 3214 0
3183 -3214 0
3185 -3214 0
-3187 -3189 3216 0
3187 -3216 0
3189 -3216 0
-3191 -3193 3218 0
3191 -3218 0
3193 -3218 0
-3195 -3197 3220 0
3195 -3220 0
3197 -3220 0
-3199 -3201 3222 0
3199 -3222 0
3201 -3222 0
-3203 -3205 3224 0
3203 -3224 0
3205 -3224 0
-3207 -3209 3226 0
3207 -3226 0
3209 -3226 0
-3211 -3213 3228 0
3211 -3228 0
3213 -3228 0
-3215 -3217 3230 0
3215 -3230 0
3217 -3230 0
-3219 -3221 3232 0
3219 -3232 0
3221 -3232 0
-3223 -3225 3234 0
3223 -3234 0
3225 -3234 0
-3227 -3229 3236 0
3227 -3236 0
3229 -3236 0
-3231 -3233 3237 0
3231 -3237 0
3233 -3237 0
-3125 -3127 3353 0
3125 -3353 0
3127 -3353 0
-3131 -3133 3354 0
3131 -3354 0
3133 -3354 0
-3135 -3137 3242 0
3135 -3242 0
3137 -3242 0
-3139 -3141 3244 0
3139 -3244 0
3141 -3244 0
-3145 -3147 3356 0
3145 -3356 0
3147 -3356 0
-3149 -3151 3248 0
3149 -3248 0
3151 -3248 0
-3153 -3155 3250 0
3153 -3250 0
3155 -3250 0
-3157 -3159 3252 0
3157 -3252 0
3159 -3252 0
-3161 -3163 3254 0
3161 -3254 0
3163 -3254 0
-3165 -3167 3256 0
3165 -3256 0
3167 -3256 0
-3169 -3171 3258 0
3169 -3258 0
3171 -3258 0
-3173 -3175 3362 0
3173 -3362 0
3175 -3362 0
-3178 -3180 3262 0
3178 -3262 0
3180 -3262 0
-3182 -3184 3264 0
3182 -3264 0
3184 -3264 0
-3186 -3188 3266 0
3186 -3266 0
3188 -3266 0
-3190 -3192 3268 0
3190 -3268 0
3192 -3268 0
-3194 -3196 3270 0
3194 -3270 0
3196 -3270 0
-3198 -3200 3272 0
3198 -3272 0
3200 -3272 0
-3202 -3204 3274 0
3202 -3274 0
3204 -3274 0
-3206 -3208 3276 0
3206 -3276 0
3208 -3276 0
-3210 -3212 3278 0
3210 -3278 0
3212 -3278 0
-3214 -3216 3280 0
3214 -3280 0
3216 -3280 0
-3218 -3220 3282 0
3218 -3282 0
3220 -3282 0
-3222 -3224 3284 0
3222 -3284 0
3224 -3284 0
-3226 -3228 3286 0
3226 -3286 0
3228 -3286 0
-3230 -3232 3288 0
3230 -3288 0
3232 -3288 0
-3234 -3236 3290 0
3234 -3290 0
3236 -3290 0
-3235 -3237 3292 0
3237 -3292 0
3235 -3292 0
-3239 -3240 3295 0
3239 -3295 0
3240 -3295 0
-3241 -3243 3297 0
3241 -3297 0
3243 -3297 0
-3245 -3246 3299 0
3245 -3299 0
3246 -3299 0
-3247 -3249 3301 0
3247 -3301 0
3249 -3301 0
-3251 -3253 3303 0
3251 -3303 0
3253 -3303 0
-3255 -3257 3305 0
3255 -3305 0
3257 -3305 0
-3259 -3260 3307 0
3259 -3307 0
3260 -3307 0
-3261 -3263 3309 0
3261 -3309 0
3263 -3309 0
-3265 -3267 3311 0
3265 -3311 0
3267 -3311 0
-3269 -3271 3313 0
3269 -3313 0
3271 -3313 0
-3273 -3275 3315 0
3273 -3315 0
3275 -3315 0
-3277 -3279 3317 0
3277 -3317 0
3279 -3317 0
-3281 -3283 3319 0
3281 -3319 0
3283 -3319 0
-3285 -3287 3321 0
3285 -3321 0
3287 -3321 0
-3289 -3291 3323 0
3289 -3323 0
3291 -3323 0
-3238 -3293 3325 0
3238 -3325 0
3293 -3325 0
-3294 -3296 3327 0
3294 -3327 0
3296 -3327 0
-3298 -3300 3329 0
3298 -3329 0
3300 -3329 0
-3302 -3304 3331 0
3302 -3331 0
3304 -3331 0
-3306 -3308 3333 0
3306 -3333 0
3308 -3333 0
-3310 -3312 3335 0
3310 -3335 0
3312 -3335 0
-3314 -3316 3337 0
3314 -3337 0
3316 -3337 0
-3318 -3320 3339 0
3318 -3339 0
3320 -3339 0
-3322 -3324 3341 0
3322 -3341 0
3324 -3341 0
-3326 -3328 3343 0
3326 -3343 0
3328 -3343 0
-3330 -3332 3345 0
3330 -3345 0
3332 -3345 0
-3334 -3336 3347 0
3334 -3347 0
3336 -3347 0
-3338 -3340 3349 0
3338 -3349 0
3340 -3349 0
-3342 -3344 3351 0
3342 -3351 0
3344 -3351 0
-3346 -3348 3352 0
3346 -3352 0
3348 -3352 0
-3242 -3244 3464 0
3242 -3464 0
3244 -3464 0
-3248 -3250 3465 0
3248 -3465 0
3250 -3465 0
-3252 -3254 3359 0
3252 -3359 0
3254 -3359 0
-3256 -3258 3361 0
3256 -3361 0
3258 -3361 0
-3262 -3264 3467 0
3262 -3467 0
3264 -3467 0
-3266 -3268 3365 0
3266 -3365 0
3268 -3365 0
-3270 -3272 3367 0
3270 -3367 0
3272 -3367 0
-3274 -3276 3369 0
3274 -3369 0
3276 -3369 0
-3278 -3280 3371 0
3278 -3371 0
3280 -3371 0
-3282 -3284 3373 0
3282 -3373 0
3284 -3373 0
-3286 -3288 3375 0
3286 -3375 0
3288 -3375 0
-3290 -3292 3473 0
3290 -3473 0
3292 -3473 0
-3295 -3297 3377 0
3295 -3377 0
3297 -3377 0
-3299 -3301 3379 0
3299 -3379 0
3301 -3379 0
-3303 -3305 3381 0
3303 -3381 0
3305 -3381 0
-3307 -3309 3383 0
3307 -3383 0
3309 -3383 0
-3311 -3313 3385 0
3311 -3385 0
3313 -3385 0
-3315 -3317 3387 0
3315 -3387 0
3317 -3387 0
-3319 -3321 3389 0
3319 -3389 0
3321 -3389 0
-3323 -3325 3391 0
3323 -3391 0
3325 -3391 0
-3327 -3329 3393 0
3327 -3393 0
3329 -3393 0
-3331 -3333 3395 0
3331 -3395 0
3333 -3395 0
-3335 -3337 3397 0
3335 -3397 0
3337 -3397 0
-3339 -3341 3399 0
3339 -3399 0
3341 -3399 0
-3343 -3345 3401 0
3343 -3401 0
3345 -3401 0
-3347 -3349 3403 0
3347 -3403 0
3349 -3403 0
-3351 -3352 3487 0
3351 -3487 0
3352 -3487 0
-3353 -3354 3406 0
3353 -3406 0
3354 -3406 0
-3355 -3356 3408 0
3355 -3408 0
3356 -3408 0
-3357 -3358 3410 0
3357 -3410 0
3358 -3410 0
-3360 -3362 3412 0
3360 -3412 0
3362 -3412 0
-3363 -3364 3414 0
3363 -3414 0
3364 -3414 0
-3366 -3368 3416 0
3366 -3416 0
3368 -3416 0
-3370 -3372 3418 0
3370 -3418 0
3372 -3418 0
-3374 -3376 3420 0
3374 -3420 0
3376 -3420 0
-3378 -3380 3494 0
3378 -3494 0
3380 -3494 0
-3382 -3384 3424 0
3382 -3424 0
3384 -3424 0
-3386 -3388 3426 0
3386 -3426 0
3388 -3426 0
-3390 -3392 3428 0
3390 -3428 0
3392 -3428 0
-3394 -3396 3430 0
3394 -3430 0
3396 -3430 0
-3398 -3400 3432 0
3398 -3432 0
3400 -3432 0
-3402 -3404 3434 0
3402 -3434 0
3404 -3434 0
-3350 -3405 3436 0
3350 -3436 0
3405 -3436 0
-3407 -3409 3438 0
3407 -3438 0
3409 -3438 0
-3411 -3413 3440 0
3411 -3440 0
3413 -3440 0
-3415 -3417 3442 0
3415 -3442 0
3417 -3442 0
-3419 -3421 3444 0
3419 -3444 0
3421 -3444 0
-3422 -3423 3446 0
3422 -3446 0
3423 -3446 0
-3425 -3427 3448 0
3425 -3448 0
3427 -3448 0
-3429 -3431 3450 0
3429 -3450 0
3431 -3450 0
-3433 -3435 3452 0
3433 -3452 0
3435 -3452 0
-3437 -3439 3454 0
3437 -3454 0
3439 -3454 0
-3441 -3443 3456 0
3441 -3456 0
3443 -3456 0
-3445 -3447 3458 0
3445 -3458 0
3447 -3458 0
-3449 -3451 3460 0
3449 -3460 0
3451 -3460 0
-3453 -3455 3462 0
3453 -3462 0
3455 -3462 0
-3457 -3459 3463 0
3457 -3463 0
3459 -3463 0
-3359 -3361 3575 0
3359 -3575 0
3361 -3575 0
-3365 -3367 3576 0
3365 -3576 0
3367 -3576 0
-3369 -3371 3470 0
3369 -3470 0
3371 -3470 0
-3373 -3375 3472 0
3373 -3472 0
3375 -3472 0
-3377 -3379 3578 0
3377 -3578 0
3379 -3578 0
-3381 -3383 3476 0
3381 -3476 0
3383 -3476 0
-3385 -3387 3478 0
3385 -3478 0
3387 -3478 0
-3389 -3391 3480 0
3389 -3480 0
3391 -3480 0
-3393 -3395 3482 0
3393 -3482 0
3395 -3482 0
-3397 -3399 3484 0
3397 -3484 0
3399 -3484 0
-3401 -3403 3486 0
3401 -3486 0
3403 -3486 0
-3406 -3408 3584 0
3406 -3584 0
3408 -3584 0
-3410 -3412 3490 0
3410 -3490 0
3412 -3490 0
-3414 -3416 3492 0
3414 -3492 0
3416 -3492 0
-3418 -3420 3586 0
3418 -3586 0
3420 -3586 0
-3424 -3426 3496 0
3424 -3496 0
3426 -3496 0
-3428 -3430 3498 0
3428 -3498 0
3430 -3498 0
-3432 -3434 3500 0
3432 -3500 0
3434 -3500 0
-3436 -3438 3502 0
3436 -3502 0
3438 -3502 0
-3440 -3442 3504 0
3440 -3504 0
3442 -3504 0
-3444 -3446 3506 0
3444 -3506 0
3446 -3506 0
-3448 -3450 3508 0
3448 -3508 0
3450 -3508 0
-3452 -3454 3510 0
3452 -3510 0
3454 -3510 0
-3456 -3458 3512 0
3456 -3512 0
3458 -3512 0
-3460 -3462 3514 0
3460 -3514 0
3462 -3514 0
-3461 -3463 3596 0
3463 -3596 0
3461 -3596 0
-3465 -3466 3517 0
3465 -3517 0
3466 -3517 0
-3467 -3468 3519 0
3467 -3519 0
3468 -3519 0
-3469 -3471 3521 0
3469 -3521 0
3471 -3521 0
-3473 -3474 3523 0
3473 -3523 0
3474 -3523 0
-3475 -3477 3525 0
3475 -3525 0
3477 -3525 0
-3479 -3481 3527 0
3479 -3527 0
3481 -3527 0
-3483 -3485 3529 0
3483 -3529 0
3485 -3529 0
-3487 -3488 3531 0
3487 -3531 0
3488 -3531 0
-3489 -3491 3533 0
3489 -3533 0
3491 -3533 0
-3493 -3494 3535 0
3493 -3535 0
3494 -3535 0
-3495 -3497 3537 0
3495 -3537 0
3497 -3537 0
-3499 -3501 3539 0
3499 -3539 0
3501 -3539 0
-3503 -3505 3541 0
3503 -3541 0
3505 -3541 0
-3507 -3509 3543 0
3507 -3543 0
3509 -3543 0
-3511 -3513 3545 0
3511 -3545 0
3513 -3545 0
-3464 -3515 3547 0
3515 -3547 0
3464 -3547 0
-3516 -3518 3549 0
3516 -3549 0
3518 -3549 0
-3520 -3522 3551 0
3520 -3551 0
3522 -3551 0
-3524 -3526 3553 0
3524 -3553 0
3526 -3553 0
-3528 -3530 3555 0
3528 -3555 0
3530 -3555 0
-3532 -3534 3557 0
3532 -3557 0
3534 -3557 0
-3536 -3538 3559 0
3536 -3559 0
3538 -3559 0
-3540 -3542 3561 0
3540 -3561 0
3542 -3561 0
-3544 -3546 3563 0
3544 -3563 0
3546 -3563 0
-3548 -3550 3565 0
3548 -3565 0
3550 -3565 0
-3552 -3554 3567 0
3552 -3567 0
3554 -3567 0
-3556 -3558 3569 0
3556 -3569 0
3558 -3569 0
-3560 -3562 3571 0
3560 -3571 0
3562 -3571 0
-3564 -3566 3573 0
3564 -3573 0
3566 -3573 0
-3568 -3570 3574 0
3568 -3574 0
3570 -3574 0
-3470 -3472 3684 0
3470 -3684 0
3472 -3684 0
-3476 -3478 3685 0
3476 -3685 0
3478 -3685 0
-3480 -3482 3581 0
3480 -3581 0
3482 -3581 0
-3484 -3486 3583 0
3484 -3583 0
3486 -3583 0
-3490 -3492 3687 0
3490 -3687 0
3492 -3687 0
-3496 -3498 3688 0
3496 -3688 0
3498 -3688 0
-3500 -3502 3589 0
3500 -3589 0
3502 -3589 0
-3504 -3506 3591 0
3504 -3591 0
3506 -3591 0
-3508 -3510 3593 0
3508 -3593 0
3510 -3593 0
-3512 -3514 3595 0
3512 -3595 0
3514 -3595 0
-3517 -3519 3693 0
3517 -3693 0
3519 -3693 0
-3521 -3523 3599 0
3521 -3599 0
3523 -3599 0
-3525 -3527 3601 0
3525 -3601 0
3527 -3601 0
-3529 -3531 3603 0
3529 -3603 0
3531 -3603 0
-3533 -3535 3605 0
3533 -3605 0
3535 -3605 0
-3537 -3539 3607 0
3537 -3607 0
3539 -3607 0
-3541 -3543 3609 0
3541 -3609 0
3543 -3609 0
-3545 -3547 3611 0
3545 -3611 0
3547 -3611 0
-3549 -3551 3613 0
3549 -3613 0
3551 -3613 0
-3553 -3555 3615 0
3553 -3615 0
3555 -3615 0
-3557 -3559 3617 0
3557 -3617 0
3559 -3617 0
-3561 -3563 3619 0
3561 -3619 0
3563 -3619 0
-3565 -3567 3621 0
3565 -3621 0
3567 -3621 0
-3569 -3571 3623 0
3569 -3623 0
3571 -3623 0
-3573 -3574 3625 0
3573 -3625 0
3574 -3625 0
-3575 -3576 3707 0
3575 -3707 0
3576 -3707 0
-3577 -3578 3628 0
3577 -3628 0
3578 -3628 0
-3579 -3580 3630 0
3579 -3630 0
3580 -3630 0
-3582 -3584 3632 0
3582 -3632 0
3584 -3632 0
-3585 -3586 3634 0
3585 -3634 0
3586 -3634 0
-3587 -3588 3636 0
3587 -3636 0
3588 -3636 0
-3590 -3592 3638 0
3590 -3638 0
3592 -3638 0
-3594 -3596 3640 0
3594 -3640 0
3596 -3640 0
-3597 -3598 3642 0
3597 -3642 0
3598 -3642 0
-3600 -3602 3644 0
3600 -3644 0
3602 -3644 0
-3604 -3606 3646 0
3604 -3646 0
3606 -3646 0
-3608 -3610 3648 0
3608 -3648 0
3610 -3648 0
-3612 -3614 3650 0
3612 -3650 0
3614 -3650 0
-3616 -3618 3652 0
3616 -3652 0
3618 -3652 0
-3620 -3622 3654 0
3620 -3654 0
3622 -3654 0
-3572 -3624 3656 0
3624 -3656 0
3572 -3656 0
-3626 -3627 3658 0
3626 -3658 0
3627 -3658 0
-3629 -3631 3660 0
3629 -3660 0
3631 -3660 0
-3633 -3635 3662 0
3633 -3662 0
3635 -3662 0
-3637 -3639 3664 0
3637 -3664 0
3639 -3664 0
-3641 -3643 3666 0
3641 -3666 0
3643 -3666 0
-3645 -3647 3668 0
3645 -3668 0
3647 -3668 0
-3649 -3651 3670 0
3649 -3670 0
3651 -3670 0
-3653 -3655 3672 0
3653 -3672 0
3655 -3672 0
-3657 -3659 3674 0
3657 -3674 0
3659 -3674 0
-3661 -3663 3676 0
3661 -3676 0
3663 -3676 0
-3665 -3667 3678 0
3665 -3678 0
3667 -3678 0
-3669 -3671 3680 0
3669 -3680 0
3671 -3680 0
-3673 -3675 3682 0
3673 -3682 0
3675 -3682 0
-3677 -3679 3683 0
3677 -3683 0
3679 -3683 0
-3581 -3583 3793 0
3581 -3793 0
3583 -3793 0
-3589 -3591 3690 0
3589 -3690 0
3591 -3690 0
-3593 -3595 3692 0
3593 -3692 0
3595 -3692 0
-3599 -3601 3795 0
3599 -3795 0
3601 -3795 0
-3603 -3605 3696 0
3603 -3696 0
3605 -3696 0
-3607 -3609 3698 0
3607 -3698 0
3609 -3698 0
-3611 -3613 3700 0
3611 -3700 0
3613 -3700 0
-3615 -3617 3702 0
3615 -3702 0
3617 -3702 0
-3619 -3621 3704 0
3619 -3704 0
3621 -3704 0
-3623 -3625 3706 0
3623 -3706 0
3625 -3706 0
-3628 -3630 3801 0
3628 -3801 0
3630 -3801 0
-3632 -3634 3710 0
3632 -3710 0
3634 -3710 0
-3636 -3638 3712 0
3636 -3712 0
3638 -3712 0
-3640 -3642 3714 0
3640 -3714 0
3642 -3714 0
-3644 -3646 3716 0
3644 -3716 0
3646 -3716 0
-3648 -3650 3718 0
3648 -3718 0
3650 -3718 0
-3652 -3654 3720 0
3652 -3720 0
3654 -3720 0
-3656 -3658 3722 0
3656 -3722 0
3658 -3722 0
-3660 -3662 3724 0
3660 -3724 0
3662 -3724 0
-3664 -3666 3726 0
3664 -3726 0
3666 -3726 0
-3668 -3670 3728 0
3668 -3728 0
3670 -3728 0
-3672 -3674 3730 0
3672 -3730 0
3674 -3730 0
-3676 -3678 3732 0
3676 -3732 0
3678 -3732 0
-3680 -3682 3734 0
3680 -3734 0
3682 -3734 0
-3681 -3683 3736 0
3683 -3736 0
3681 -3736 0
-3685 -3686 3815 0
3685 -3815 0
3686 -3815 0
-3687 -3688 3739 0
3687 -3739 0
3688 -3739 0
-3689 -3691 3741 0
3689 -3741 0
3691 -3741 0
-3693 -3694 3743 0
3693 -3743 0
3694 -3743 0
-3695 -3697 3745 0
3695 -3745 0
3697 -3745 0
-3699 -3701 3747 0
3699 -3747 0
3701 -3747 0
-3703 -3705 3749 0
3703 -3749 0
3705 -3749 0
-3707 -3708 3751 0
3707 -3751 0
3708 -3751 0
-3709 -3711 3753 0
3709 -3753 0
3711 -3753 0
-3713 -3715 3755 0
3713 -3755 0
3715 -3755 0
-3717 -3719 3757 0
3717 -3757 0
3719 -3757 0
-3721 -3723 3759 0
3721 -3759 0
3723 -3759 0
-3725 -3727 3761 0
3725 -3761 0
3727 -3761 0
-3729 -3731 3763 0
3729 -3763 0
3731 -3763 0
-3733 -3735 3765 0
3733 -3765 0
3735 -3765 0
-3684 -3737 3767 0
3684 -3767 0
3737 -3767 0
-3738 -3740 3769 0
3738 -3769 0
3740 -3769 0
-3742 -3744 3771 0
3742 -3771 0
3744 -3771 0
-3746 -3748 3773 0
3746 -3773 0
3748 -3773 0
-3750 -3752 3775 0
3750 -3775 0
3752 -3775 0
-3754 -3756 3777 0
3754 -3777 0
3756 -3777 0
-3758 -3760 3779 0
3758 -3779 0
3760 -3779 0
-3762 -3764 3781 0
3762 -3781 0
3764 -3781 0
-3766 -3768 3783 0
3766 -3783 0
3768 -3783 0
-3770 -3772 3785 0
3770 -3785 0
3772 -3785 0
-3774 -3776 3787 0
3774 -3787 0
3776 -3787 0
-3778 -3780 3789 0
3778 -3789 0
3780 -3789 0
-3782 -3784 3791 0
3782 -3791 0
3784 -3791 0
-3786 -3788 3792 0
3786 -3792 0
3788 -3792 0
-3690 -3692 3896 0
3690 -3896 0
3692 -3896 0
-3696 -3698 3897 0
3696 -3897 0
3698 -3897 0
-3700 -3702 3798 0
3700 -3798 0
3702 -3798 0
-3704 -3706 3800 0
3704 -3800 0
3706 -3800 0
-3710 -3712 3899 0
3710 -3899 0
3712 -3899 0
-3714 -3716 3804 0
3714 -3804 0
3716 -3804 0
-3718 -3720 3806 0
3718 -3806 0
3720 -3806 0
-3722 -3724 3808 0
3722 -3808 0
3724 -3808 0
-3726 -3728 3810 0
3726 -3810 0
3728 -3810 0
-3730 -3732 3812 0
3730 -3812 0
3732 -3812 0
-3734 -3736 3814 0
3734 -3814 0
3736 -3814 0
-3739 -3741 3905 0
3739 -3905 0
3741 -3905 0
-3743 -3745 3818 0
3743 -3818 0
3745 -3818 0
-3747 -3749 3820 0
3747 -3820 0
3749 -3820 0
-3751 -3753 3822 0
3751 -3822 0
3753 -3822 0
-3755 -3757 3824 0
3755 -3824 0
3757 -3824 0
-3759 -3761 3826 0
3759 -3826 0
3761 -3826 0
-3763 -3765 3828 0
3763 -3828 0
3765 -3828 0
-3767 -3769 3830 0
3767 -3830 0
3769 -3830 0
-3771 -3773 3832 0
3771 -3832 0
3773 -3832 0
-3775 -3777 3834 0
3775 -3834 0
3777 -3834 0
-3779 -3781 3836 0
3779 -3836 0
3781 -3836 0
-3783 -3785 3838 0
3783 -3838 0
3785 -3838 0
-3787 -3789 3840 0
3787 -3840 0
3789 -3840 0
-3791 -3792 3916 0
3791 -3916 0
3792 -3916 0
-3794 -3795 3917 0
3794 -3917 0
3795 -3917 0
-3796 -3797 3844 0
3796 -3844 0
3797 -3844 0
-3799 -3801 3846 0
3799 -3846 0
3801 -3846 0
-3802 -3803 3848 0
3802 -3848 0
3803 -3848 0
-3805 -3807 3850 0
3805 -3850 0
3807 -3850 0
-3809 -3811 3852 0
3809 -3852 0
3811 -3852 0
-3813 -3815 3854 0
3813 -3854 0
3815 -3854 0
-3816 -3817 3856 0
3816 -3856 0
3817 -3856 0
-3819 -3821 3858 0
3819 -3858 0
3821 -3858 0
-3823 -3825 3860 0
3823 -3860 0
3825 -3860 0
-3827 -3829 3862 0
3827 -3862 0
3829 -3862 0
-3831 -3833 3864 0
3831 -3864 0
3833 -3864 0
-3835 -3837 3866 0
3835 -3866 0
3837 -3866 0
-3839 -3841 3868 0
3839 -3868 0
3841 -3868 0
-3790 -3793 3870 0
3790 -3870 0
3793 -3870 0
-3842 -3843 3872 0
3842 -3872 0
3843 -3872 0
-3845 -3847 3874 0
3845 -3874 0
3847 -3874 0
-3849 -3851 3876 0
3849 -3876 0
3851 -3876 0
-3853 -3855 3878 0
3853 -3878 0
3855 -3878 0
-3857 -3859 3880 0
3857 -3880 0
3859 -3880 0
-3861 -3863 3882 0
3861 -3882 0
3863 -3882 0
-3865 -3867 3884 0
3865 -3884 0
3867 -3884 0
-3869 -3871 3886 0
3869 -3886 0
3871 -3886 0
-3873 -3875 3888 0
3873 -3888 0
3875 -3888 0
-3877 -3879 3890 0
3877 -3890 0
3879 -3890 0
-3881 -3883 3892 0
3881 -3892 0
3883 -3892 0
-3885 -3887 3894 0
3885 -3894 0
3887 -3894 0
-3889 -3891 3895 0
3889 -3895 0
3891 -3895 0
-3798 -3800 3999 0
3798 -3999 0
3800 -3999 0
-3804 -3806 4000 0
3804 -4000 0
3806 -4000 0
-3808 -3810 3902 0
3808 -3902 0
3810 -3902 0
-3812 -3814 3904 0
3812 -3904 0
3814 -3904 0
-3818 -3820 4002 0
3818 -4002 0
3820 -4002 0
-3822 -3824 3908 0
3822 -3908 0
3824 -3908 0
-3826 -3828 3910 0
3826 -3910 0
3828 -3910 0
-3830 -3832 3912 0
3830 -3912 0
3832 -3912 0
-3834 -3836 3914 0
3834 -3914 0
3836 -3914 0
-3838 -3840 4005 0
3838 -4005 0
3840 -4005 0
-3844 -3846 4006 0
3844 -4006 0
3846 -4006 0
-3848 -3850 3920 0
3848 -3920 0
3850 -3920 0
-3852 -3854 3922 0
3852 -3922 0
3854 -3922 0
-3856 -3858 3924 0
3856 -3924 0
3858 -3924 0
-3860 -3862 3926 0
3860 -3926 0
3862 -3926 0
-3864 -3866 3928 0
3864 -3928 0
3866 -3928 0
-3868 -3870 3930 0
3868 -3930 0
3870 -3930 0
-3872 -3874 3932 0
3872 -3932 0
3874 -3932 0
-3876 -3878 3934 0
3876 -3934 0
3878 -3934 0
-3880 -3882 3936 0
3880 -3936 0
3882 -3936 0
-3884 -3886 3938 0
3884 -3938 0
3886 -3938 0
-3888 -3890 3940 0
3888 -3940 0
3890 -3940 0
-3892 -3894 3942 0
3892 -3942 0
3894 -3942 0
-3893 -3895 4017 0
3895 -4017 0
3893 -4017 0
-3897 -3898 3945 0
3897 -3945 0
3898 -3945 0
-3899 -3900 3947 0
3899 -3947 0
3900 -3947 0
-3901 -3903 3949 0
3901 -3949 0
3903 -3949 0
-3905 -3906 3951 0
3905 -3951 0
3906 -3951 0
-3907 -3909 3953 0
3907 -3953 0
3909 -3953 0
-3911 -3913 3955 0
3911 -3955 0
3913 -3955 0
-3915 -3916 3957 0
3915 -3957 0
3916 -3957 0
-3917 -3918 3959 0
3917 -3959 0
3918 -3959 0
-3919 -3921 3961 0
3919 -3961 0
3921 -3961 0
-3923 -3925 3963 0
3923 -3963 0
3925 -3963 0
-3927 -3929 3965 0
3927 -3965 0
3929 -3965 0
-3931 -3933 3967 0
3931 -3967 0
3933 -3967 0
-3935 -3937 3969 0
3935 -3969 0
3937 -3969 0
-3939 -3941 3971 0
3939 -3971 0
3941 -3971 0
-3896 -3943 3973 0
3943 -3973 0
3896 -3973 0
-3944 -3946 3975 0
3944 -3975 0
3946 -3975 0
-3948 -3950 3977 0
3948 -3977 0
3950 -3977 0
-3952 -3954 3979 0
3952 -3979 0
3954 -3979 0
-3956 -3958 3981 0
3956 -3981 0
3958 -3981 0
-3960 -3962 3983 0
3960 -3983 0
3962 -3983 0
-3964 -3966 3985 0
3964 -3985 0
3966 -3985 0
-3968 -3970 3987 0
3968 -3987 0
3970 -3987 0
-3972 -3974 3989 0
3972 -3989 0
3974 -3989 0
-3976 -3978 3991 0
3976 -3991 0
3978 -3991 0
-3980 -3982 3993 0
3980 -3993 0
3982 -3993 0
-3984 -3986 3995 0
3984 -3995 0
3986 -3995 0
-3988 -3990 3997 0
3988 -3997 0
3990 -3997 0
-3992 -3994 3998 0
3992 -3998 0
3994 -3998 0
-3902 -3904 4100 0
3902 -4100 0
3904 -4100 0
-3908 -3910 4101 0
3908 -4101 0
3910 -4101 0
-3912 -3914 4102 0
3912 -4102 0
3914 -4102 0
-3920 -3922 4103 0
3920 -4103 0
3922 -4103 0
-3924 -3926 4009 0
3924 -4009 0
3926 -4009 0
-3928 -3930 4011 0
3928 -4011 0
3930 -4011 0
-3932 -3934 4013 0
3932 -4013 0
3934 -4013 0
-3936 -3938 4015 0
3936 -4015 0
3938 -4015 0
-3940 -3942 4106 0
3940 -4106 0
3942 -4106 0
-3945 -3947 4019 0
3945 -4019 0
3947 -4019 0
-3949 -3951 4021 0
3949 -4021 0
3951 -4021 0
-3953 -3955 4023 0
3953 -4023 0
3955 -4023 0
-3957 -3959 4025 0
3957 -4025 0
3959 -4025 0
-3961 -3963 4027 0
3961 -4027 0
3963 -4027 0
-3965 -3967 4029 0
3965 -4029 0
3967 -4029 0
-3969 -3971 4031 0
3969 -4031 0
3971 -4031 0
-3973 -3975 4033 0
3973 -4033 0
3975 -4033 0
-3977 -3979 4035 0
3977 -4035 0
3979 -4035 0
-3981 -3983 4037 0
3981 -4037 0
3983 -4037 0
-3985 -3987 4039 0
3985 -4039 0
3987 -4039 0
-3989 -3991 4041 0
3989 -4041 0
3991 -4041 0
-3993 -3995 4043 0
3993 -4043 0
3995 -4043 0
-3997 -3998 4045 0
3997 -4045 0
3998 -4045 0
-3999 -4000 4120 0
3999 -4120 0
4000 -4120 0
-4001 -4002 4048 0
4001 -4048 0
4002 -4048 0
-4003 -4004 4050 0
4003 -4050 0
4004 -4050 0
-4005 -4006 4052 0
4005 -4052 0
4006 -4052 0
-4007 -4008 4054 0
4007 -4054 0
4008 -4054 0
-4010 -4012 4056 0
4010 -4056 0
4012 -4056 0
-4014 -4016 4058 0
4014 -4058 0
4016 -4058 0
-4017 -4018 4060 0
4017 -4060 0
4018 -4060 0
-4020 -4022 4062 0
4020 -4062 0
4022 -4062 0
-4024 -4026 4064 0
4024 -4064 0
4026 -4064 0
-4028 -4030 4066 0
4028 -4066 0
4030 -4066 0
-4032 -4034 4068 0
4032 -4068 0
4034 -4068 0
-4036 -4038 4070 0
4036 -4070 0
4038 -4070 0
-4040 -4042 4072 0
4040 -4072 0
4042 -4072 0
-3996 -4044 4074 0
4044 -4074 0
3996 -4074 0
-4046 -4047 4076 0
4046 -4076 0
4047 -4076 0
-4049 -4051 4078 0
4049 -4078 0
4051 -4078 0
-4053 -4055 4080 0
4053 -4080 0
4055 -4080 0
-4057 -4059 4082 0
4057 -4082 0
4059 -4082 0
-4061 -4063 4084 0
4061 -4084 0
4063 -4084 0
-4065 -4067 4086 0
4065 -4086 0
4067 -4086 0
-4069 -4071 4088 0
4069 -4088 0
4071 -4088 0
-4073 -4075 4090 0
4073 -4090 0
4075 -4090 0
-4077 -4079 4092 0
4077 -4092 0
4079 -4092 0
-4081 -4083 4094 0
4081 -4094 0
4083 -4094 0
-4085 -4087 4096 0
4085 -4096 0
4087 -4096 0
-4089 -4091 4098 0
4089 -4098 0
4091 -4098 0
-4093 -4095 4099 0
4093 -4099 0
4095 -4099 0
-4009 -4011 4247 0
4009 -4247 0
4011 -4247 0
-4013 -4015 4201 0
4013 -4201 0
4015 -4201 0
-4019 -4021 4108 0
4019 -4108 0
4021 -4108 0
-4023 -4025 4110 0
4023 -4110 0
4025 -4110 0
-4027 -4029 4112 0
4027 -4112 0
4029 -4112 0
-4031 -4033 4114 0
4031 -4114 0
4033 -4114 0
-4035 -4037 4116 0
4035 -4116 0
4037 -4116 0
-4039 -4041 4118 0
4039 -4118 0
4041 -4118 0
-4043 -4045 4207 0
4043 -4207 0
4045 -4207 0
-4048 -4050 4122 0
4048 -4122 0
4050 -4122 0
-4052 -4054 4124 0
4052 -4124 0
4054 -4124 0
-4056 -4058 4126 0
4056 -4126 0
4058 -4126 0
-4060 -4062 4128 0
4060 -4128 0
4062 -4128 0
-4064 -4066 4130 0
4064 -4130 0
4066 -4130 0
-4068 -4070 4132 0
4068 -4132 0
4070 -4132 0
-4072 -4074 4134 0
4072 -4134 0
4074 -4134 0
-4076 -4078 4136 0
4076 -4136 0
4078 -4136 0
-4080 -4082 4138 0
4080 -4138 0
4082 -4138 0
-4084 -4086 4140 0
4084 -4140 0
4086 -4140 0
-4088 -4090 4142 0
4088 -4142 0
4090 -4142 0
-4092 -4094 4144 0
4092 -4144 0
4094 -4144 0
-4096 -4098 4146 0
4096 -4146 0
4098 -4146 0
-4097 -4099 4148 0
4099 -4148 0
4097 -4148 0
-4101 -4102 4221 0
4101 -4221 0
4102 -4221 0
-4103 -4104 4151 0
4103 -4151 0
4104 -4151 0
-4105 -4106 4153 0
4105 -4153 0
4106 -4153 0
-4107 -4109 4155 0
4107 -4155 0
4109 -4155 0
-4111 -4113 4157 0
4111 -4157 0
4113 -4157 0
-4115 -4117 4159 0
4115 -4159 0
4117 -4159 0
-4119 -4120 4161 0
4119 -4161 0
4120 -4161 0
-4121 -4123 4163 0
4121 -4163 0
4123 -4163 0
-4125 -4127 4165 0
4125 -4165 0
4127 -4165 0
-4129 -4131 4167 0
4129 -4167 0
4131 -4167 0
-4133 -4135 4169 0
4133 -4169 0
4135 -4169 0
-4137 -4139 4171 0
4137 -4171 0
4139 -4171 0
-4141 -4143 4173 0
4141 -4173 0
4143 -4173 0
-4145 -4147 4175 0
4145 -4175 0
4147 -4175 0
-4100 -4149 4177 0
4100 -4177 0
4149 -4177 0
-4150 -4152 4179 0
4150 -4179 0
4152 -4179 0
-4154 -4156 4181 0
4154 -4181 0
4156 -4181 0
-4158 -4160 4183 0
4158 -4183 0
4160 -4183 0
-4162 -4164 4185 0
4162 -4185 0
4164 -4185 0
-4166 -4168 4187 0
4166 -4187 0
4168 -4187 0
-4170 -4172 4189 0
4170 -4189 0
4172 -4189 0
-4174 -4176 4191 0
4174 -4191 0
4176 -4191 0
-4178 -4180 4193 0
4178 -4193 0
4180 -4193 0
-4182 -4184 4195 0
4182 -4195 0
4184 -4195 0
-4186 -4188 4197 0
4186 -4197 0
4188 -4197 0
-4190 -4192 4199 0
4190 -4199 0
4192 -4199 0
-4194 -4196 4200 0
4194 -4200 0
4196 -4200 0
-4108 -4110 4203 0
4108 -4203 0
4110 -4203 0
-4112 -4114 4205 0
4112 -4205 0
4114 -4205 0
-4116 -4118 4299 0
4116 -4299 0
4118 -4299 0
-4122 -4124 4209 0
4122 -4209 0
4124 -4209 0
-4126 -4128 4211 0
4126 -4211 0
4128 -4211 0
-4130 -4132 4213 0
4130 -4213 0
4132 -4213 0
-4134 -4136 4215 0
4134 -4215 0
4136 -4215 0
-4138 -4140 4217 0
4138 -4217 0
4140 -4217 0
-4142 -4144 4219 0
4142 -4219 0
4144 -4219 0
-4146 -4148 4305 0
4146 -4305 0
4148 -4305 0
-4151 -4153 4223 0
4151 -4223 0
4153 -4223 0
-4155 -4157 4225 0
4155 -4225 0
4157 -4225 0
-4159 -4161 4227 0
4159 -4227 0
4161 -4227 0
-4163 -4165 4229 0
4163 -4229 0
4165 -4229 0
-4167 -4169 4231 0
4167 -4231 0
4169 -4231 0
-4171 -4173 4233 0
4171 -4233 0
4173 -4233 0
-4175 -4177 4235 0
4175 -4235 0
4177 -4235 0
-4179 -4181 4237 0
4179 -4237 0
4181 -4237 0
-4183 -4185 4239 0
4183 -4239 0
4185 -4239 0
-4187 -4189 4241 0
4187 -4241 0
4189 -4241 0
-4191 -4193 4243 0
4191 -4243 0
4193 -4243 0
-4195 -4197 4245 0
4195 -4245 0
4197 -4245 0
-4199 -4200 4318 0
4199 -4318 0
4200 -4318 0
-4201 -4202 4319 0
4201 -4319 0
4202 -4319 0
-4204 -4206 4250 0
4204 -4250 0
4206 -4250 0
-4207 -4208 4252 0
4207 -4252 0
4208 -4252 0
-4210 -4212 4254 0
4210 -4254 0
4212 -4254 0
-4214 -4216 4256 0
4214 -4256 0
4216 -4256 0
-4218 -4220 4258 0
4218 -4258 0
4220 -4258 0
-4221 -4222 4260 0
4221 -4260 0
4222 -4260 0
-4224 -4226 4262 0
4224 -4262 0
4226 -4262 0
-4228 -4230 4264 0
4228 -4264 0
4230 -4264 0
-4232 -4234 4266 0
4232 -4266 0
4234 -4266 0
-4236 -4238 4268 0
4236 -4268 0
4238 -4268 0
-4240 -4242 4270 0
4240 -4270 0
4242 -4270 0
-4244 -4246 4272 0
4244 -4272 0
4246 -4272 0
-4198 -4247 4274 0
4198 -4274 0
4247 -4274 0
-4248 -4249 4276 0
4248 -4276 0
4249 -4276 0
-4251 -4253 4278 0
4251 -4278 0
4253 -4278 0
-4255 -4257 4280 0
4255 -4280 0
4257 -4280 0
-4259 -4261 4282 0
4259 -4282 0
4261 -4282 0
-4263 -4265 4284 0
4263 -4284 0
4265 -4284 0
-4267 -4269 4286 0
4267 -4286 0
4269 -4286 0
-4271 -4273 4288 0
4271 -4288 0
4273 -4288 0
-4275 -4277 4290 0
4275 -4290 0
4277 -4290 0
-4279 -4281 4292 0
4279 -4292 0
4281 -4292 0
-4283 -4285 4294 0
4283 -4294 0
4285 -4294 0
-4287 -4289 4296 0
4287 -4296 0
4289 -4296 0
-4291 -4293 4297 0
4291 -4297 0
4293 -4297 0
-4203 -4205 4393 0
4203 -4393 0
4205 -4393 0
-4209 -4211 4301 0
4209 -4301 0
4211 -4301 0
-4213 -4215 4303 0
4213 -4303 0
4215 -4303 0
-4217 -4219 4395 0
4217 -4395 0
4219 -4395 0
-4223 -4225 4307 0
4223 -4307 0
4225 -4307 0
-4227 -4229 4309 0
4227 -4309 0
4229 -4309 0
-4231 -4233 4311 0
4231 -4311 0
4233 -4311 0
-4235 -4237 4313 0
4235 -4313 0
4237 -4313 0
-4239 -4241 4315 0
4239 -4315 0
4241 -4315 0
-4243 -4245 4317 0
4243 -4317 0
4245 -4317 0
-4250 -4252 4321 0
4250 -4321 0
4252 -4321 0
-4254 -4256 4323 0
4254 -4323 0
4256 -4323 0
-4258 -4260 4325 0
4258 -4325 0
4260 -4325 0
-4262 -4264 4327 0
4262 -4327 0
4264 -4327 0
-4266 -4268 4329 0
4266 -4329 0
4268 -4329 0
-4270 -4272 4331 0
4270 -4331 0
4272 -4331 0
-4274 -4276 4333 0
4274 -4333 0
4276 -4333 0
-4278 -4280 4335 0
4278 -4335 0
4280 -4335 0
-4282 -4284 4337 0
4282 -4337 0
4284 -4337 0
-4286 -4288 4339 0
4286 -4339 0
4288 -4339 0
-4290 -4292 4341 0
4290 -4341 0
4292 -4341 0
-4294 -4296 4343 0
4294 -4343 0
4296 -4343 0
-4295 -4297 4412 0
4297 -4412 0
4295 -4412 0
-4298 -4299 4345 0
4298 -4345 0
4299 -4345 0
-4300 -4302 4347 0
4300 -4347 0
4302 -4347 0
-4304 -4305 4349 0
4304 -4349 0
4305 -4349 0
-4306 -4308 4351 0
4306 -4351 0
4308 -4351 0
-4310 -4312 4353 0
4310 -4353 0
4312 -4353 0
-4314 -4316 4355 0
4314 -4355 0
4316 -4355 0
-4318 -4319 4357 0
4318 -4357 0
4319 -4357 0
-4320 -4322 4359 0
4320 -4359 0
4322 -4359 0
-4324 -4326 4361 0
4324 -4361 0
4326 -4361 0
-4328 -4330 4363 0
4328 -4363 0
4330 -4363 0
-4332 -4334 4365 0
4332 -4365 0
4334 -4365 0
-4336 -4338 4367 0
4336 -4367 0
4338 -4367 0
-4340 -4342 4423 0
4340 -4423 0
4342 -4423 0
-4344 -4346 4371 0
4344 -4371 0
4346 -4371 0
-4348 -4350 4373 0
4348 -4373 0
4350 -4373 0
-4352 -4354 4375 0
4352 -4375 0
4354 -4375 0
-4356 -4358 4377 0
4356 -4377 0
4358 -4377 0
-4360 -4362 4379 0
4360 -4379 0
4362 -4379 0
-4364 -4366 4381 0
4364 -4381 0
4366 -4381 0
-4368 -4369 4383 0
4368 -4383 0
4369 -4383 0
-4370 -4372 4385 0
4370 -4385 0
4372 -4385 0
-4374 -4376 4387 0
4374 -4387 0
4376 -4387 0
-4378 -4380 4389 0
4378 -4389 0
4380 -4389 0
-4382 -4384 4391 0
4382 -4391 0
4384 -4391 0
-4386 -4388 4392 0
4386 -4392 0
4388 -4392 0
-4301 -4303 4484 0
4301 -4484 0
4303 -4484 0
-4307 -4309 4397 0
4307 -4397 0
4309 -4397 0
-4311 -4313 4399 0
4311 -4399 0
4313 -4399 0
-4315 -4317 4486 0
4315 -4486 0
4317 -4486 0
-4321 -4323 4401 0
4321 -4401 0
4323 -4401 0
-4325 -4327 4403 0
4325 -4403 0
4327 -4403 0
-4329 -4331 4405 0
4329 -4405 0
4331 -4405 0
-4333 -4335 4407 0
4333 -4407 0
4335 -4407 0
-4337 -4339 4409 0
4337 -4409 0
4339 -4409 0
-4341 -4343 4411 0
4341 -4411 0
4343 -4411 0
-4345 -4347 4492 0
4345 -4492 0
4347 -4492 0
-4349 -4351 4415 0
4349 -4415 0
4351 -4415 0
-4353 -4355 4417 0
4353 -4417 0
4355 -4417 0
-4357 -4359 4419 0
4357 -4419 0
4359 -4419 0
-4361 -4363 4421 0
4361 -4421 0
4363 -4421 0
-4365 -4367 4497 0
4365 -4497 0
4367 -4497 0
-4371 -4373 4425 0
4371 -4425 0
4373 -4425 0
-4375 -4377 4427 0
4375 -4427 0
4377 -4427 0
-4379 -4381 4429 0
4379 -4429 0
4381 -4429 0
-4383 -4385 4431 0
4383 -4431 0
4385 -4431 0
-4387 -4389 4433 0
4387 -4433 0
4389 -4433 0
-4391 -4392 4435 0
4391 -4435 0
4392 -4435 0
-4393 -4394 4503 0
4393 -4503 0
4394 -4503 0
-4395 -4396 4438 0
4395 -4438 0
4396 -4438 0
-4398 -4400 4440 0
4398 -4440 0
4400 -4440 0
-4402 -4404 4505 0
4402 -4505 0
4404 -4505 0
-4406 -4408 4444 0
4406 -4444 0
4408 -4444 0
-4410 -4412 4446 0
4410 -4446 0
4412 -4446 0
-4413 -4414 4448 0
4413 -4448 0
4414 -4448 0
-4416 -4418 4450 0
4416 -4450 0
4418 -4450 0
-4420 -4422 4452 0
4420 -4452 0
4422 -4452 0
-4423 -4424 4454 0
4423 -4454 0
4424 -4454 0
-4426 -4428 4456 0
4426 -4456 0
4428 -4456 0
-4430 -4432 4458 0
4430 -4458 0
4432 -4458 0
-4390 -4434 4460 0
4434 -4460 0
4390 -4460 0
-4436 -4437 4462 0
4436 -4462 0
4437 -4462 0
-4439 -4441 4464 0
4439 -4464 0
4441 -4464 0
-4442 -4443 4466 0
4442 -4466 0
4443 -4466 0
-4445 -4447 4468 0
4445 -4468 0
4447 -4468 0
-4449 -4451 4470 0
4449 -4470 0
4451 -4470 0
-4453 -4455 4472 0
4453 -4472 0
4455 -4472 0
-4457 -4459 4474 0
4457 -4474 0
4459 -4474 0
-4461 -4463 4476 0
4461 -4476 0
4463 -4476 0
-4465 -4467 4478 0
4465 -4478 0
4467 -4478 0
-4469 -4471 4480 0
4469 -4480 0
4471 -4480 0
-4473 -4475 4482 0
4473 -4482 0
4475 -4482 0
-4477 -4479 4483 0
4477 -4483 0
4479 -4483 0
-4397 -4399 4575 0
4397 -4575 0
4399 -4575 0
-4401 -4403 4488 0
4401 -4488 0
4403 -4488 0
-4405 -4407 4490 0
4405 -4490 0
4407 -4490 0
-4409 -4411 4577 0
4409 -4577 0
4411 -4577 0
-4415 -4417 4494 0
4415 -4494 0
4417 -4494 0
-4419 -4421 4496 0
4419 -4496 0
4421 -4496 0
-4425 -4427 4579 0
4425 -4579 0
4427 -4579 0
-4429 -4431 4500 0
4429 -4500 0
4431 -4500 0
-4433 -4435 4502 0
4433 -4502 0
4435 -4502 0
-4438 -4440 4581 0
4438 -4581 0
4440 -4581 0
-4444 -4446 4582 0
4444 -4582 0
4446 -4582 0
-4448 -4450 4508 0
4448 -4508 0
4450 -4508 0
-4452 -4454 4510 0
4452 -4510 0
4454 -4510 0
-4456 -4458 4512 0
4456 -4512 0
4458 -4512 0
-4460 -4462 4514 0
4460 -4514 0
4462 -4514 0
-4464 -4466 4516 0
4464 -4516 0
4466 -4516 0
-4468 -4470 4518 0
4468 -4518 0
4470 -4518 0
-4472 -4474 4520 0
4472 -4520 0
4474 -4520 0
-4476 -4478 4522 0
4476 -4522 0
4478 -4522 0
-4480 -4482 4524 0
4480 -4524 0
4482 -4524 0
-4481 -4483 4526 0
4483 -4526 0
4481 -4526 0
-4485 -4486 4592 0
4485 -4592 0
4486 -4592 0
-4487 -4489 4529 0
4487 -4529 0
4489 -4529 0
-4491 -4492 4531 0
4491 -4531 0
4492 -4531 0
-4493 -4495 4533 0
4493 -4533 0
4495 -4533 0
-4497 -4498 4535 0
4497 -4535 0
4498 -4535 0
-4499 -4501 4537 0
4499 -4537 0
4501 -4537 0
-4503 -4504 4539 0
4503 -4539 0
4504 -4539 0
-4505 -4506 4541 0
4505 -4541 0
4506 -4541 0
-4507 -4509 4543 0
4507 -4543 0
4509 -4543 0
-4511 -4513 4545 0
4511 -4545 0
4513 -4545 0
-4515 -4517 4547 0
4515 -4547 0
4517 -4547 0
-4519 -4521 4549 0
4519 -4549 0
4521 -4549 0
-4523 -4525 4551 0
4523 -4551 0
4525 -4551 0
-4484 -4527 4553 0
4484 -4553 0
4527 -4553 0
-4528 -4530 4555 0
4528 -4555 0
4530 -4555 0
-4532 -4534 4557 0
4532 -4557 0
4534 -4557 0
-4536 -4538 4559 0
4536 -4559 0
4538 -4559 0
-4540 -4542 4561 0
4540 -4561 0
4542 -4561 0
-4544 -4546 4563 0
4544 -4563 0
4546 -4563 0
-4548 -4550 4565 0
4548 -4565 0
4550 -4565 0
-4552 -4554 4567 0
4552 -4567 0
4554 -4567 0
-4556 -4558 4569 0
4556 -4569 0
4558 -4569 0
-4560 -4562 4571 0
4560 -4571 0
4562 -4571 0
-4564 -4566 4573 0
4564 -4573 0
4566 -4573 0
-4568 -4570 4574 0
4568 -4574 0
4570 -4574 0
-4488 -4490 4664 0
4488 -4664 0
4490 -4664 0
-4494 -4496 4665 0
4494 -4665 0
4496 -4665 0
-4500 -4502 4666 0
4500 -4666 0
4502 -4666 0
-4508 -4510 4667 0
4508 -4667 0
4510 -4667 0
-4512 -4514 4585 0
4512 -4585 0
4514 -4585 0
-4516 -4518 4587 0
4516 -4587 0
4518 -4587 0
-4520 -4522 4589 0
4520 -4589 0
4522 -4589 0
-4524 -4526 4591 0
4524 -4591 0
4526 -4591 0
-4529 -4531 4670 0
4529 -4670 0
4531 -4670 0
-4533 -4535 4595 0
4533 -4595 0
4535 -4595 0
-4537 -4539 4597 0
4537 -4597 0
4539 -4597 0
-4541 -4543 4599 0
4541 -4599 0
4543 -4599 0
-4545 -4547 4601 0
4545 -4601 0
4547 -4601 0
-4549 -4551 4603 0
4549 -4603 0
4551 -4603 0
-4553 -4555 4605 0
4553 -4605 0
4555 -4605 0
-4557 -4559 4607 0
4557 -4607 0
4559 -4607 0
-4561 -4563 4609 0
4561 -4609 0
4563 -4609 0
-4565 -4567 4611 0
4565 -4611 0
4567 -4611 0
-4569 -4571 4613 0
4569 -4613 0
4571 -4613 0
-4573 -4574 4680 0
4573 -4680 0
4574 -4680 0
-4575 -4576 4616 0
4575 -4616 0
4576 -4616 0
-4577 -4578 4618 0
4577 -4618 0
4578 -4618 0
-4579 -4580 4620 0
4579 -4620 0
4580 -4620 0
-4581 -4582 4622 0
4581 -4622 0
4582 -4622 0
-4583 -4584 4624 0
4583 -4624 0
4584 -4624 0
-4586 -4588 4626 0
4586 -4626 0
4588 -4626 0
-4590 -4592 4628 0
4590 -4628 0
4592 -4628 0
-4593 -4594 4630 0
4593 -4630 0
4594 -4630 0
-4596 -4598 4632 0
4596 -4632 0
4598 -4632 0
-4600 -4602 4634 0
4600 -4634 0
4602 -4634 0
-4604 -4606 4636 0
4604 -4636 0
4606 -4636 0
-4608 -4610 4638 0
4608 -4638 0
4610 -4638 0
-4612 -4614 4640 0
4612 -4640 0
4614 -4640 0
-4572 -4615 4642 0
4572 -4642 0
4615 -4642 0
-4617 -4619 4644 0
4617 -4644 0
4619 -4644 0
-4621 -4623 4646 0
4621 -4646 0
4623 -4646 0
-4625 -4627 4648 0
4625 -4648 0
4627 -4648 0
-4629 -4631 4650 0
4629 -4650 0
4631 -4650 0
-4633 -4635 4652 0
4633 -4652 0
4635 -4652 0
-4637 -4639 4654 0
4637 -4654 0
4639 -4654 0
-4641 -4643 4656 0
4641 -4656 0
4643 -4656 0
-4645 -4647 4658 0
4645 -4658 0
4647 -4658 0
-4649 -4651 4660 0
4649 -4660 0
4651 -4660 0
-4653 -4655 4662 0
4653 -4662 0
4655 -4662 0
-4657 -4659 4663 0
4657 -4663 0
4659 -4663 0
-4585 -4587 4753 0
4585 -4753 0
4587 -4753 0
-4589 -4591 4754 0
4589 -4754 0
4591 -4754 0
-4595 -4597 4672 0
4595 -4672 0
4597 -4672 0
-4599 -4601 4674 0
4599 -4674 0
4601 -4674 0
-4603 -4605 4676 0
4603 -4676 0
4605 -4676 0
-4607 -4609 4678 0
4607 -4678 0
4609 -4678 0
-4611 -4613 4759 0
4611 -4759 0
4613 -4759 0
-4616 -4618 4682 0
4616 -4682 0
4618 -4682 0
-4620 -4622 4684 0
4620 -4684 0
4622 -4684 0
-4624 -4626 4686 0
4624 -4686 0
4626 -4686 0
-4628 -4630 4688 0
4628 -4688 0
4630 -4688 0
-4632 -4634 4690 0
4632 -4690 0
4634 -4690 0
-4636 -4638 4692 0
4636 -4692 0
4638 -4692 0
-4640 -4642 4694 0
4640 -4694 0
4642 -4694 0
-4644 -4646 4696 0
4644 -4696 0
4646 -4696 0
-4648 -4650 4698 0
4648 -4698 0
4650 -4698 0
-4652 -4654 4700 0
4652 -4700 0
4654 -4700 0
-4656 -4658 4702 0
4656 -4702 0
4658 -4702 0
-4660 -4662 4704 0
4660 -4704 0
4662 -4704 0
-4661 -4663 4770 0
4663 -4770 0
4661 -4770 0
-4665 -4666 4707 0
4665 -4707 0
4666 -4707 0
-4667 -4668 4709 0
4667 -4709 0
4668 -4709 0
-4669 -4670 4711 0
4669 -4711 0
4670 -4711 0
-4671 -4673 4713 0
4671 -4713 0
4673 -4713 0
-4675 -4677 4715 0
4675 -4715 0
4677 -4715 0
-4679 -4680 4717 0
4679 -4717 0
4680 -4717 0
-4681 -4683 4719 0
4681 -4719 0
4683 -4719 0
-4685 -4687 4721 0
4685 -4721 0
4687 -4721 0
-4689 -4691 4723 0
4689 -4723 0
4691 -4723 0
-4693 -4695 4725 0
4693 -4725 0
4695 -4725 0
-4697 -4699 4727 0
4697 -4727 0
4699 -4727 0
-4701 -4703 4729 0
4701 -4729 0
4703 -4729 0
-4664 -4705 4731 0
4705 -4731 0
4664 -4731 0
-4706 -4708 4733 0
4706 -4733 0
4708 -4733 0
-4710 -4712 4735 0
4710 -4735 0
4712 -4735 0
-4714 -4716 4737 0
4714 -4737 0
4716 -4737 0
-4718 -4720 4739 0
4718 -4739 0
4720 -4739 0
-4722 -4724 4741 0
4722 -4741 0
4724 -4741 0
-4726 -4728 4743 0
4726 -4743 0
4728 -4743 0
-4730 -4732 4745 0
4730 -4745 0
4732 -4745 0
-4734 -4736 4747 0
4734 -4747 0
4736 -4747 0
-4738 -4740 4749 0
4738 -4749 0
4740 -4749 0
-4742 -4744 4751 0
4742 -4751 0
4744 -4751 0
-4746 -4748 4752 0
4746 -4752 0
4748 -4752 0
-4672 -4674 4756 0
4672 -4756 0
4674 -4756 0
-4676 -4678 4758 0
4676 -4758 0
4678 -4758 0
-4682 -4684 4841 0
4682 -4841 0
4684 -4841 0
-4686 -4688 4762 0
4686 -4762 0
4688 -4762 0
-4690 -4692 4764 0
4690 -4764 0
4692 -4764 0
-4694 -4696 4766 0
4694 -4766 0
4696 -4766 0
-4698 -4700 4768 0
4698 -4768 0
4700 -4768 0
-4702 -4704 4846 0
4702 -4846 0
4704 -4846 0
-4707 -4709 4772 0
4707 -4772 0
4709 -4772 0
-4711 -4713 4774 0
4711 -4774 0
4713 -4774 0
-4715 -4717 4776 0
4715 -4776 0
4717 -4776 0
-4719 -4721 4778 0
4719 -4778 0
4721 -4778 0
-4723 -4725 4780 0
4723 -4780 0
4725 -4780 0
-4727 -4729 4782 0
4727 -4782 0
4729 -4782 0
-4731 -4733 4784 0
4731 -4784 0
4733 -4784 0
-4735 -4737 4786 0
4735 -4786 0
4737 -4786 0
-4739 -4741 4788 0
4739 -4788 0
4741 -4788 0
-4743 -4745 4790 0
4743 -4790 0
4745 -4790 0
-4747 -4749 4792 0
4747 -4792 0
4749 -4792 0
-4751 -4752 4794 0
4751 -4794 0
4752 -4794 0
-4754 -4755 4796 0
4754 -4796 0
4755 -4796 0
-4757 -4759 4798 0
4757 -4798 0
4759 -4798 0
-4760 -4761 4800 0
4760 -4800 0
4761 -4800 0
-4763 -4765 4802 0
4763 -4802 0
4765 -4802 0
-4767 -4769 4804 0
4767 -4804 0
4769 -4804 0
-4770 -4771 4806 0
4770 -4806 0
4771 -4806 0
-4773 -4775 4808 0
4773 -4808 0
4775 -4808 0
-4777 -4779 4810 0
4777 -4810 0
4779 -4810 0
-4781 -4783 4812 0
4781 -4812 0
4783 -4812 0
-4785 -4787 4814 0
4785 -4814 0
4787 -4814 0
-4789 -4791 4816 0
4789 -4816 0
4791 -4816 0
-4750 -4793 4818 0
4793 -4818 0
4750 -4818 0
-4753 -4795 4820 0
4753 -4820 0
4795 -4820 0
-4797 -4799 4822 0
4797 -4822 0
4799 -4822 0
-4801 -4803 4824 0
4801 -4824 0
4803 -4824 0
-4805 -4807 4826 0
4805 -4826 0
4807 -4826 0
-4809 -4811 4828 0
4809 -4828 0
4811 -4828 0
-4813 -4815 4830 0
4813 -4830 0
4815 -4830 0
-4817 -4819 4832 0
4817 -4832 0
4819 -4832 0
-4821 -4823 4834 0
4821 -4834 0
4823 -4834 0
-4825 -4827 4836 0
4825 -4836 0
4827 -4836 0
-4829 -4831 4838 0
4829 -4838 0
4831 -4838 0
-4833 -4835 4839 0
4833 -4839 0
4835 -4839 0
-4756 -4758 4919 0
4756 -4919 0
4758 -4919 0
-4762 -4764 4843 0
4762 -4843 0
4764 -4843 0
-4766 -4768 4845 0
4766 -4845 0
4768 -4845 0
-4772 -4774 4921 0
4772 -4921 0
4774 -4921 0
-4776 -4778 4849 0
4776 -4849 0
4778 -4849 0
-4780 -4782 4851 0
4780 -4851 0
4782 -4851 0
-4784 -4786 4853 0
4784 -4853 0
4786 -4853 0
-4788 -4790 4855 0
4788 -4855 0
4790 -4855 0
-4792 -4794 4926 0
4792 -4926 0
4794 -4926 0
-4796 -4798 4857 0
4796 -4857 0
4798 -4857 0
-4800 -4802 4859 0
4800 -4859 0
4802 -4859 0
-4804 -4806 4861 0
4804 -4861 0
4806 -4861 0
-4808 -4810 4863 0
4808 -4863 0
4810 -4863 0
-4812 -4814 4865 0
4812 -4865 0
4814 -4865 0
-4816 -4818 4867 0
4816 -4867 0
4818 -4867 0
-4820 -4822 4869 0
4820 -4869 0
4822 -4869 0
-4824 -4826 4871 0
4824 -4871 0
4826 -4871 0
-4828 -4830 4873 0
4828 -4873 0
4830 -4873 0
-4832 -4834 4875 0
4832 -4875 0
4834 -4875 0
-4836 -4838 4877 0
4836 -4877 0
4838 -4877 0
-4837 -4839 4879 0
4839 -4879 0
4837 -4879 0
-4840 -4841 4937 0
4840 -4937 0
4841 -4937 0
-4842 -4844 4881 0
4842 -4881 0
4844 -4881 0
-4846 -4847 4883 0
4846 -4883 0
4847 -4883 0
-4848 -4850 4885 0
4848 -4885 0
4850 -4885 0
-4852 -4854 4887 0
4852 -4887 0
4854 -4887 0
-4856 -4858 4942 0
4856 -4942 0
4858 -4942 0
-4860 -4862 4891 0
4860 -4891 0
4862 -4891 0
-4864 -4866 4893 0
4864 -4893 0
4866 -4893 0
-4868 -4870 4895 0
4868 -4895 0
4870 -4895 0
-4872 -4874 4897 0
4872 -4897 0
4874 -4897 0
-4876 -4878 4945 0
4876 -4945 0
4878 -4945 0
-4880 -4882 4901 0
4880 -4901 0
4882 -4901 0
-4884 -4886 4903 0
4884 -4903 0
4886 -4903 0
-4888 -4889 4905 0
4888 -4905 0
4889 -4905 0
-4890 -4892 4907 0
4890 -4907 0
4892 -4907 0
-4894 -4896 4909 0
4894 -4909 0
4896 -4909 0
-4898 -4899 4911 0
4898 -4911 0
4899 -4911 0
-4900 -4902 4913 0
4900 -4913 0
4902 -4913 0
-4904 -4906 4915 0
4904 -4915 0
4906 -4915 0
-4908 -4910 4917 0
4908 -4917 0
4910 -4917 0
-4912 -4914 4918 0
4912 -4918 0
4914 -4918 0
-4843 -4845 5000 0
4843 -5000 0
4845 -5000 0
-4849 -4851 4923 0
4849 -4923 0
4851 -4923 0
-4853 -4855 4925 0
4853 -4925 0
4855 -4925 0
-4857 -4859 5002 0
4857 -5002 0
4859 -5002 0
-4861 -4863 4929 0
4861 -4929 0
4863 -4929 0
-4865 -4867 4931 0
4865 -4931 0
4867 -4931 0
-4869 -4871 4933 0
4869 -4933 0
4871 -4933 0
-4873 -4875 4935 0
4873 -4935 0
4875 -4935 0
-4877 -4879 5007 0
4877 -5007 0
4879 -5007 0
-4881 -4883 4939 0
4881 -4939 0
4883 -4939 0
-4885 -4887 4941 0
4885 -4941 0
4887 -4941 0
-4891 -4893 5009 0
4891 -5009 0
4893 -5009 0
-4895 -4897 5010 0
4895 -5010 0
4897 -5010 0
-4901 -4903 4947 0
4901 -4947 0
4903 -4947 0
-4905 -4907 4949 0
4905 -4949 0
4907 -4949 0
-4909 -4911 4951 0
4909 -4951 0
4911 -4951 0
-4913 -4915 4953 0
4913 -4953 0
4915 -4953 0
-4917 -4918 5015 0
4917 -5015 0
4918 -5015 0
-4919 -4920 4956 0
4919 -4956 0
4920 -4956 0
-4921 -4922 4958 0
4921 -4958 0
4922 -4958 0
-4924 -4926 4960 0
4924 -4960 0
4926 -4960 0
-4927 -4928 4962 0
4927 -4962 0
4928 -4962 0
-4930 -4932 4964 0
4930 -4964 0
4932 -4964 0
-4934 -4936 4966 0
4934 -4966 0
4936 -4966 0
-4937 -4938 4968 0
4937 -4968 0
4938 -4968 0
-4940 -4942 4970 0
4940 -4970 0
4942 -4970 0
-4943 -4944 4972 0
4943 -4972 0
4944 -4972 0
-4945 -4946 4974 0
4945 -4974 0
4946 -4974 0
-4948 -4950 4976 0
4948 -4976 0
4950 -4976 0
-4952 -4954 4978 0
4952 -4978 0
4954 -4978 0
-4916 -4955 4980 0
4916 -4980 0
4955 -4980 0
-4957 -4959 4982 0
4957 -4982 0
4959 -4982 0
-4961 -4963 4984 0
4961 -4984 0
4963 -4984 0
-4965 -4967 4986 0
4965 -4986 0
4967 -4986 0
-4969 -4971 4988 0
4969 -4988 0
4971 -4988 0
-4973 -4975 4990 0
4973 -4990 0
4975 -4990 0
-4977 -4979 4992 0
4977 -4992 0
4979 -4992 0
-4981 -4983 4994 0
4981 -4994 0
4983 -4994 0
-4985 -4987 4996 0
4985 -4996 0
4987 -4996 0
-4989 -4991 4998 0
4989 -4998 0
4991 -4998 0
-4993 -4995 4999 0
4993 -4999 0
4995 -4999 0
-4923 -4925 5081 0
4923 -5081 0
4925 -5081 0
-4929 -4931 5004 0
4929 -5004 0
4931 -5004 0
-4933 -4935 5006 0
4933 -5006 0
4935 -5006 0
-4939 -4941 5083 0
4939 -5083 0
4941 -5083 0
-4947 -4949 5012 0
4947 -5012 0
4949 -5012 0
-4951 -4953 5014 0
4951 -5014 0
4953 -5014 0
-4956 -4958 5085 0
4956 -5085 0
4958 -5085 0
-4960 -4962 5018 0
4960 -5018 0
4962 -5018 0
-4964 -4966 5020 0
4964 -5020 0
4966 -5020 0
-4968 -4970 5022 0
4968 -5022 0
4970 -5022 0
-4972 -4974 5024 0
4972 -5024 0
4974 -5024 0
-4976 -4978 5026 0
4976 -5026 0
4978 -5026 0
-4980 -4982 5028 0
4980 -5028 0
4982 -5028 0
-4984 -4986 5030 0
4984 -5030 0
4986 -5030 0
-4988 -4990 5032 0
4988 -5032 0
4990 -5032 0
-4992 -4994 5034 0
4992 -5034 0
4994 -5034 0
-4996 -4998 5036 0
4996 -5036 0
4998 -5036 0
-4997 -4999 5095 0
4999 -5095 0
4997 -5095 0
-5001 -5002 5039 0
5001 -5039 0
5002 -5039 0
-5003 -5005 5041 0
5003 -5041 0
5005 -5041 0
-5007 -5008 5043 0
5007 -5043 0
5008 -5043 0
-5009 -5010 5045 0
5009 -5045 0
5010 -5045 0
-5011 -5013 5047 0
5011 -5047 0
5013 -5047 0
-5015 -5016 5049 0
5015 -5049 0
5016 -5049 0
-5017 -5019 5051 0
5017 -5051 0
5019 -5051 0
-5021 -5023 5053 0
5021 -5053 0
5023 -5053 0
-5025 -5027 5055 0
5025 -5055 0
5027 -5055 0
-5029 -5031 5057 0
5029 -5057 0
5031 -5057 0
-5033 -5035 5059 0
5033 -5059 0
5035 -5059 0
-5000 -5037 5061 0
5037 -5061 0
5000 -5061 0
-5038 -5040 5063 0
5038 -5063 0
5040 -5063 0
-5042 -5044 5065 0
5042 -5065 0
5044 -5065 0
-5046 -5048 5067 0
5046 -5067 0
5048 -5067 0
-5050 -5052 5069 0
5050 -5069 0
5052 -5069 0
-5054 -5056 5071 0
5054 -5071 0
5056 -5071 0
-5058 -5060 5073 0
5058 -5073 0
5060 -5073 0
-5062 -5064 5075 0
5062 -5075 0
5064 -5075 0
-5066 -5068 5077 0
5066 -5077 0
5068 -5077 0
-5070 -5072 5079 0
5070 -5079 0
5072 -5079 0
-5074 -5076 5080 0
5074 -5080 0
5076 -5080 0
-5004 -5006 5156 0
5004 -5156 0
5006 -5156 0
-5012 -5014 5157 0
5012 -5157 0
5014 -5157 0
-5018 -5020 5158 0
5018 -5158 0
5020 -5158 0
-5022 -5024 5088 0
5022 -5088 0
5024 -5088 0
-5026 -5028 5090 0
5026 -5090 0
5028 -5090 0
-5030 -5032 5092 0
5030 -5092 0
5032 -5092 0
-5034 -5036 5094 0
5034 -5094 0
5036 -5094 0
-5039 -5041 5163 0
5039 -5163 0
5041 -5163 0
-5043 -5045 5098 0
5043 -5098 0
5045 -5098 0
-5047 -5049 5100 0
5047 -5100 0
5049 -5100 0
-5051 -5053 5102 0
5051 -5102 0
5053 -5102 0
-5055 -5057 5104 0
5055 -5104 0
5057 -5104 0
-5059 -5061 5106 0
5059 -5106 0
5061 -5106 0
-5063 -5065 5108 0
5063 -5108 0
5065 -5108 0
-5067 -5069 5110 0
5067 -5110 0
5069 -5110 0
-5071 -5073 5112 0
5071 -5112 0
5073 -5112 0
-5075 -5077 5114 0
5075 -5114 0
5077 -5114 0
-5079 -5080 5116 0
5079 -5116 0
5080 -5116 0
-5081 -5082 5173 0
5081 -5173 0
5082 -5173 0
-5084 -5085 5174 0
5084 -5174 0
5085 -5174 0
-5086 -5087 5120 0
5086 -5120 0
5087 -5120 0
-5089 -5091 5122 0
5089 -5122 0
5091 -5122 0
-5093 -5095 5124 0
5093 -5124 0
5095 -5124 0
-5096 -5097 5126 0
5096 -5126 0
5097 -5126 0
-5099 -5101 5128 0
5099 -5128 0
5101 -5128 0
-5103 -5105 5130 0
5103 -5130 0
5105 -5130 0
-5107 -5109 5132 0
5107 -5132 0
5109 -5132 0
-5111 -5113 5134 0
5111 -5134 0
5113 -5134 0
-5078 -5115 5136 0
5115 -5136 0
5078 -5136 0
-5083 -5117 5138 0
5117 -5138 0
5083 -5138 0
-5118 -5119 5140 0
5118 -5140 0
5119 -5140 0
-5121 -5123 5142 0
5121 -5142 0
5123 -5142 0
-5125 -5127 5144 0
5125 -5144 0
5127 -5144 0
-5129 -5131 5146 0
5129 -5146 0
5131 -5146 0
-5133 -5135 5148 0
5133 -5148 0
5135 -5148 0
-5137 -5139 5150 0
5137 -5150 0
5139 -5150 0
-5141 -5143 5152 0
5141 -5152 0
5143 -5152 0
-5145 -5147 5154 0
5145 -5154 0
5147 -5154 0
-5149 -5151 5155 0
5149 -5155 0
5151 -5155 0
-5088 -5090 5160 0
5088 -5160 0
5090 -5160 0
-5092 -5094 5162 0
5092 -5162 0
5094 -5162 0
-5098 -5100 5235 0
5098 -5235 0
5100 -5235 0
-5102 -5104 5166 0
5102 -5166 0
5104 -5166 0
-5106 -5108 5168 0
5106 -5168 0
5108 -5168 0
-5110 -5112 5170 0
5110 -5170 0
5112 -5170 0
-5114 -5116 5172 0
5114 -5172 0
5116 -5172 0
-5120 -5122 5176 0
5120 -5176 0
5122 -5176 0
-5124 -5126 5178 0
5124 -5178 0
5126 -5178 0
-5128 -5130 5180 0
5128 -5180 0
5130 -5180 0
-5132 -5134 5182 0
5132 -5182 0
5134 -5182 0
-5136 -5138 5184 0
5136 -5184 0
5138 -5184 0
-5140 -5142 5186 0
5140 -5186 0
5142 -5186 0
-5144 -5146 5188 0
5144 -5188 0
5146 -5188 0
-5148 -5150 5190 0
5148 -5190 0
5150 -5190 0
-5152 -5154 5192 0
5152 -5192 0
5154 -5192 0
-5153 -5155 5194 0
5155 -5194 0
5153 -5194 0
-5157 -5158 5248 0
5157 -5248 0
5158 -5248 0
-5159 -5161 5197 0
5159 -5197 0
5161 -5197 0
-5163 -5164 5199 0
5163 -5199 0
5164 -5199 0
-5165 -5167 5201 0
5165 -5201 0
5167 -5201 0
-5169 -5171 5203 0
5169 -5203 0
5171 -5203 0
-5173 -5174 5205 0
5173 -5205 0
5174 -5205 0
-5175 -5177 5207 0
5175 -5207 0
5177 -5207 0
-5179 -5181 5209 0
5179 -5209 0
5181 -5209 0
-5183 -5185 5211 0
5183 -5211 0
5185 -5211 0
-5187 -5189 5213 0
5187 -5213 0
5189 -5213 0
-5191 -5193 5215 0
5191 -5215 0
5193 -5215 0
-5156 -5195 5217 0
5156 -5217 0
5195 -5217 0
-5196 -5198 5219 0
5196 -5219 0
5198 -5219 0
-5200 -5202 5221 0
5200 -5221 0
5202 -5221 0
-5204 -5206 5223 0
5204 -5223 0
5206 -5223 0
-5208 -5210 5225 0
5208 -5225 0
5210 -5225 0
-5212 -5214 5227 0
5212 -5227 0
5214 -5227 0
-5216 -5218 5229 0
5216 -5229 0
5218 -5229 0
-5220 -5222 5231 0
5220 -5231 0
5222 -5231 0
-5224 -5226 5233 0
5224 -5233 0
5226 -5233 0
-5228 -5230 5234 0
5228 -5234 0
5230 -5234 0
-5160 -5162 5304 0
5160 -5304 0
5162 -5304 0
-5166 -5168 5237 0
5166 -5237 0
5168 -5237 0
-5170 -5172 5238 0
5170 -5238 0
5172 -5238 0
-5176 -5178 5306 0
5176 -5306 0
5178 -5306 0
-5180 -5182 5241 0
5180 -5241 0
5182 -5241 0
-5184 -5186 5243 0
5184 -5243 0
5186 -5243 0
-5188 -5190 5245 0
5188 -5245 0
5190 -5245 0
-5192 -5194 5247 0
5192 -5247 0
5194 -5247 0
-5197 -5199 5311 0
5197 -5311 0
5199 -5311 0
-5201 -5203 5251 0
5201 -5251 0
5203 -5251 0
-5205 -5207 5253 0
5205 -5253 0
5207 -5253 0
-5209 -5211 5255 0
5209 -5255 0
5211 -5255 0
-5213 -5215 5257 0
5213 -5257 0
5215 -5257 0
-5217 -5219 5259 0
5217 -5259 0
5219 -5259 0
-5221 -5223 5261 0
5221 -5261 0
5223 -5261 0
-5225 -5227 5263 0
5225 -5263 0
5227 -5263 0
-5229 -5231 5265 0
5229 -5265 0
5231 -5265 0
-5233 -5234 5318 0
5233 -5318 0
5234 -5318 0
-5235 -5236 5319 0
5235 -5319 0
5236 -5319 0
-5239 -5240 5320 0
5239 -5320 0
5240 -5320 0
-5242 -5244 5272 0
5242 -5272 0
5244 -5272 0
-5246 -5248 5274 0
5246 -5274 0
5248 -5274 0
-5249 -5250 5276 0
5249 -5276 0
5250 -5276 0
-5252 -5254 5278 0
5252 -5278 0
5254 -5278 0
-5256 -5258 5280 0
5256 -5280 0
5258 -5280 0
-5260 -5262 5282 0
5260 -5282 0
5262 -5282 0
-5264 -5266 5284 0
5264 -5284 0
5266 -5284 0
-5232 -5267 5286 0
5232 -5286 0
5267 -5286 0
-5268 -5269 5288 0
5268 -5288 0
5269 -5288 0
-5270 -5271 5290 0
5270 -5290 0
5271 -5290 0
-5273 -5275 5292 0
5273 -5292 0
5275 -5292 0
-5277 -5279 5294 0
5277 -5294 0
5279 -5294 0
-5281 -5283 5296 0
5281 -5296 0
5283 -5296 0
-5285 -5287 5298 0
5285 -5298 0
5287 -5298 0
-5289 -5291 5300 0
5289 -5300 0
5291 -5300 0
-5293 -5295 5302 0
5293 -5302 0
5295 -5302 0
-5297 -5299 5303 0
5297 -5303 0
5299 -5303 0
-5237 -5238 5377 0
5237 -5377 0
5238 -5377 0
-5241 -5243 5308 0
5241 -5308 0
5243 -5308 0
-5245 -5247 5310 0
5245 -5310 0
5247 -5310 0
-5251 -5253 5379 0
5251 -5379 0
5253 -5379 0
-5255 -5257 5314 0
5255 -5314 0
5257 -5314 0
-5259 -5261 5316 0
5259 -5316 0
5261 -5316 0
-5263 -5265 5381 0
5263 -5381 0
5265 -5381 0
-5272 -5274 5322 0
5272 -5322 0
5274 -5322 0
-5276 -5278 5324 0
5276 -5324 0
5278 -5324 0
-5280 -5282 5326 0
5280 -5326 0
5282 -5326 0
-5284 -5286 5328 0
5284 -5328 0
5286 -5328 0
-5288 -5290 5330 0
5288 -5330 0
5290 -5330 0
-5292 -5294 5332 0
5292 -5332 0
5294 -5332 0
-5296 -5298 5334 0
5296 -5334 0
5298 -5334 0
-5300 -5302 5336 0
5300 -5336 0
5302 -5336 0
-5301 -5303 5388 0
5303 -5388 0
5301 -5388 0
-5305 -5306 5339 0
5305 -5339 0
5306 -5339 0
-5307 -5309 5341 0
5307 -5341 0
5309 -5341 0
-5311 -5312 5343 0
5311 -5343 0
5312 -5343 0
-5313 -5315 5345 0
5313 -5345 0
5315 -5345 0
-5317 -5318 5347 0
5317 -5347 0
5318 -5347 0
-5319 -5320 5349 0
5319 -5349 0
5320 -5349 0
-5321 -5323 5351 0
5321 -5351 0
5323 -5351 0
-5325 -5327 5353 0
5325 -5353 0
5327 -5353 0
-5329 -5331 5355 0
5329 -5355 0
5331 -5355 0
-5333 -5335 5357 0
5333 -5357 0
5335 -5357 0
-5304 -5337 5359 0
5337 -5359 0
5304 -5359 0
-5338 -5340 5361 0
5338 -5361 0
5340 -5361 0
-5342 -5344 5363 0
5342 -5363 0
5344 -5363 0
-5346 -5348 5365 0
5346 -5365 0
5348 -5365 0
-5350 -5352 5367 0
5350 -5367 0
5352 -5367 0
-5354 -5356 5369 0
5354 -5369 0
5356 -5369 0
-5358 -5360 5371 0
5358 -5371 0
5360 -5371 0
-5362 -5364 5373 0
5362 -5373 0
5364 -5373 0
-5366 -5368 5375 0
5366 -5375 0
5368 -5375 0
-5370 -5372 5376 0
5370 -5376 0
5372 -5376 0
-5308 -5310 5444 0
5308 -5444 0
5310 -5444 0
-5314 -5316 5445 0
5314 -5445 0
5316 -5445 0
-5322 -5324 5446 0
5322 -5446 0
5324 -5446 0
-5326 -5328 5384 0
5326 -5384 0
5328 -5384 0
-5330 -5332 5386 0
5330 -5386 0
5332 -5386 0
-5334 -5336 5448 0
5334 -5448 0
5336 -5448 0
-5339 -5341 5390 0
5339 -5390 0
5341 -5390 0
-5343 -5345 5392 0
5343 -5392 0
5345 -5392 0
-5347 -5349 5394 0
5347 -5394 0
5349 -5394 0
-5351 -5353 5396 0
5351 -5396 0
5353 -5396 0
-5355 -5357 5398 0
5355 -5398 0
5357 -5398 0
-5359 -5361 5400 0
5359 -5400 0
5361 -5400 0
-5363 -5365 5402 0
5363 -5402 0
5365 -5402 0
-5367 -5369 5404 0
5367 -5404 0
5369 -5404 0
-5371 -5373 5406 0
5371 -5406 0
5373 -5406 0
-5375 -5376 5408 0
5375 -5408 0
5376 -5408 0
-5377 -5378 5458 0
5377 -5458 0
5378 -5458 0
-5379 -5380 5459 0
5379 -5459 0
5380 -5459 0
-5382 -5383 5412 0
5382 -5412 0
5383 -5412 0
-5385 -5387 5414 0
5385 -5414 0
5387 -5414 0
-5388 -5389 5416 0
5388 -5416 0
5389 -5416 0
-5391 -5393 5418 0
5391 -5418 0
5393 -5418 0
-5395 -5397 5420 0
5395 -5420 0
5397 -5420 0
-5399 -5401 5422 0
5399 -5422 0
5401 -5422 0
-5403 -5405 5424 0
5403 -5424 0
5405 -5424 0
-5374 -5407 5426 0
5407 -5426 0
5374 -5426 0
-5409 -5410 5428 0
5409 -5428 0
5410 -5428 0
-5381 -5411 5430 0
5381 -5430 0
5411 -5430 0
-5413 -5415 5432 0
5413 -5432 0
5415 -5432 0
-5417 -5419 5434 0
5417 -5434 0
5419 -5434 0
-5421 -5423 5436 0
5421 -5436 0
5423 -5436 0
-5425 -5427 5438 0
5425 -5438 0
5427 -5438 0
-5429 -5431 5440 0
5429 -5440 0
5431 -5440 0
-5433 -5435 5442 0
5433 -5442 0
5435 -5442 0
-5437 -5439 5443 0
5437 -5443 0
5439 -5443 0
-5384 -5386 5513 0
5384 -5513 0
5386 -5513 0
-5390 -5392 5450 0
5390 -5450 0
5392 -5450 0
-5394 -5396 5452 0
5394 -5452 0
5396 -5452 0
-5398 -5400 5454 0
5398 -5454 0
5400 -5454 0
-5402 -5404 5456 0
5402 -5456 0
5404 -5456 0
-5406 -5408 5516 0
5406 -5516 0
5408 -5516 0
-5412 -5414 5517 0
5412 -5517 0
5414 -5517 0
-5416 -5418 5462 0
5416 -5462 0
5418 -5462 0
-5420 -5422 5464 0
5420 -5464 0
5422 -5464 0
-5424 -5426 5466 0
5424 -5466 0
5426 -5466 0
-5428 -5430 5468 0
5428 -5468 0
5430 -5468 0
-5432 -5434 5470 0
5432 -5470 0
5434 -5470 0
-5436 -5438 5472 0
5436 -5472 0
5438 -5472 0
-5440 -5442 5474 0
5440 -5474 0
5442 -5474 0
-5441 -5443 5476 0
5443 -5476 0
5441 -5476 0
-5445 -5446 5524 0
5445 -5524 0
5446 -5524 0
-5447 -5448 5479 0
5447 -5479 0
5448 -5479 0
-5449 -5451 5481 0
5449 -5481 0
5451 -5481 0
-5453 -5455 5483 0
5453 -5483 0
5455 -5483 0
-5457 -5458 5485 0
5457 -5485 0
5458 -5485 0
-5459 -5460 5487 0
5459 -5487 0
5460 -5487 0
-5461 -5463 5489 0
5461 -5489 0
5463 -5489 0
-5465 -5467 5491 0
5465 -5491 0
5467 -5491 0
-5469 -5471 5493 0
5469 -5493 0
5471 -5493 0
-5473 -5475 5495 0
5473 -5495 0
5475 -5495 0
-5444 -5477 5497 0
5444 -5497 0
5477 -5497 0
-5478 -5480 5499 0
5478 -5499 0
5480 -5499 0
-5482 -5484 5501 0
5482 -5501 0
5484 -5501 0
-5486 -5488 5503 0
5486 -5503 0
5488 -5503 0
-5490 -5492 5505 0
5490 -5505 0
5492 -5505 0
-5494 -5496 5507 0
5494 -5507 0
5496 -5507 0
-5498 -5500 5509 0
5498 -5509 0
5500 -5509 0
-5502 -5504 5511 0
5502 -5511 0
5504 -5511 0
-5506 -5508 5512 0
5506 -5512 0
5508 -5512 0
-5450 -5452 5576 0
5450 -5576 0
5452 -5576 0
-5454 -5456 5577 0
5454 -5577 0
5456 -5577 0
-5462 -5464 5578 0
5462 -5578 0
5464 -5578 0
-5466 -5468 5520 0
5466 -5520 0
5468 -5520 0
-5470 -5472 5522 0
5470 -5522 0
5472 -5522 0
-5474 -5476 5580 0
5474 -5580 0
5476 -5580 0
-5479 -5481 5526 0
5479 -5526 0
5481 -5526 0
-5483 -5485 5528 0
5483 -5528 0
5485 -5528 0
-5487 -5489 5530 0
5487 -5530 0
5489 -5530 0
-5491 -5493 5532 0
5491 -5532 0
5493 -5532 0
-5495 -5497 5534 0
5495 -5534 0
5497 -5534 0
-5499 -5501 5536 0
5499 -5536 0
5501 -5536 0
-5503 -5505 5538 0
5503 -5538 0
5505 -5538 0
-5507 -5509 5540 0
5507 -5540 0
5509 -5540 0
-5511 -5512 5589 0
5511 -5589 0
5512 -5589 0
-5514 -5515 5590 0
5514 -5590 0
5515 -5590 0
-5516 -5517 5544 0
5516 -5544 0
5517 -5544 0
-5518 -5519 5546 0
5518 -5546 0
5519 -5546 0
-5521 -5523 5548 0
5521 -5548 0
5523 -5548 0
-5524 -5525 5550 0
5524 -5550 0
5525 -5550 0
-5527 -5529 5552 0
5527 -5552 0
5529 -5552 0
-5531 -5533 5554 0
5531 -5554 0
5533 -5554 0
-5535 -5537 5556 0
5535 -5556 0
5537 -5556 0
-5539 -5541 5558 0
5539 -5558 0
5541 -5558 0
-5510 -5513 5560 0
5510 -5560 0
5513 -5560 0
-5542 -5543 5562 0
5542 -5562 0
5543 -5562 0
-5545 -5547 5564 0
5545 -5564 0
5547 -5564 0
-5549 -5551 5566 0
5549 -5566 0
5551 -5566 0
-5553 -5555 5568 0
5553 -5568 0
5555 -5568 0
-5557 -5559 5570 0
5557 -5570 0
5559 -5570 0
-5561 -5563 5572 0
5561 -5572 0
5563 -5572 0
-5565 -5567 5574 0
5565 -5574 0
5567 -5574 0
-5569 -5571 5575 0
5569 -5575 0
5571 -5575 0
-5520 -5522 5643 0
5520 -5643 0
5522 -5643 0
-5526 -5528 5582 0
5526 -5582 0
5528 -5582 0
-5530 -5532 5584 0
5530 -5584 0
5532 -5584 0
-5534 -5536 5586 0
5534 -5586 0
5536 -5586 0
-5538 -5540 5588 0
5538 -5588 0
5540 -5588 0
-5544 -5546 5592 0
5544 -5592 0
5546 -5592 0
-5548 -5550 5594 0
5548 -5594 0
5550 -5594 0
-5552 -5554 5596 0
5552 -5596 0
5554 -5596 0
-5556 -5558 5598 0
5556 -5598 0
5558 -5598 0
-5560 -5562 5600 0
5560 -5600 0
5562 -5600 0
-5564 -5566 5602 0
5564 -5602 0
5566 -5602 0
-5568 -5570 5604 0
5568 -5604 0
5570 -5604 0
-5572 -5574 5606 0
5572 -5606 0
5574 -5606 0
-5573 -5575 5653 0
5575 -5653 0
5573 -5653 0
-5577 -5578 5609 0
5577 -5609 0
5578 -5609 0
-5579 -5580 5611 0
5579 -5611 0
5580 -5611 0
-5581 -5583 5613 0
5581 -5613 0
5583 -5613 0
-5585 -5587 5615 0
5585 -5615 0
5587 -5615 0
-5589 -5590 5617 0
5589 -5617 0
5590 -5617 0
-5591 -5593 5619 0
5591 -5619 0
5593 -5619 0
-5595 -5597 5621 0
5595 -5621 0
5597 -5621 0
-5599 -5601 5623 0
5599 -5623 0
5601 -5623 0
-5603 -5605 5625 0
5603 -5625 0
5605 -5625 0
-5576 -5607 5627 0
5607 -5627 0
5576 -5627 0
-5608 -5610 5629 0
5608 -5629 0
5610 -5629 0
-5612 -5614 5631 0
5612 -5631 0
5614 -5631 0
-5616 -5618 5633 0
5616 -5633 0
5618 -5633 0
-5620 -5622 5635 0
5620 -5635 0
5622 -5635 0
-5624 -5626 5637 0
5624 -5637 0
5626 -5637 0
-5628 -5630 5639 0
5628 -5639 0
5630 -5639 0
-5632 -5634 5641 0
5632 -5641 0
5634 -5641 0
-5636 -5638 5642 0
5636 -5642 0
5638 -5642 0
-5582 -5584 5702 0
5582 -5702 0
5584 -5702 0
-5586 -5588 5703 0
5586 -5703 0
5588 -5703 0
-5592 -5594 5646 0
5592 -5646 0
5594 -5646 0
-5596 -5598 5648 0
5596 -5648 0
5598 -5648 0
-5600 -5602 5650 0
5600 -5650 0
5602 -5650 0
-5604 -5606 5652 0
5604 -5652 0
5606 -5652 0
-5609 -5611 5706 0
5609 -5706 0
5611 -5706 0
-5613 -5615 5656 0
5613 -5656 0
5615 -5656 0
-5617 -5619 5658 0
5617 -5658 0
5619 -5658 0
-5621 -5623 5660 0
5621 -5660 0
5623 -5660 0
-5625 -5627 5662 0
5625 -5662 0
5627 -5662 0
-5629 -5631 5664 0
5629 -5664 0
5631 -5664 0
-5633 -5635 5666 0
5633 -5666 0
5635 -5666 0
-5637 -5639 5668 0
5637 -5668 0
5639 -5668 0
-5641 -5642 5670 0
5641 -5670 0
5642 -5670 0
-5644 -5645 5715 0
5644 -5715 0
5645 -5715 0
-5647 -5649 5674 0
5647 -5674 0
5649 -5674 0
-5651 -5653 5676 0
5651 -5676 0
5653 -5676 0
-5654 -5655 5678 0
5654 -5678 0
5655 -5678 0
-5657 -5659 5680 0
5657 -5680 0
5659 -5680 0
-5661 -5663 5682 0
5661 -5682 0
5663 -5682 0
-5665 -5667 5684 0
5665 -5684 0
5667 -5684 0
-5640 -5669 5686 0
5669 -5686 0
5640 -5686 0
-5643 -5671 5688 0
5643 -5688 0
5671 -5688 0
-5672 -5673 5690 0
5672 -5690 0
5673 -5690 0
-5675 -5677 5692 0
5675 -5692 0
5677 -5692 0
-5679 -5681 5694 0
5679 -5694 0
5681 -5694 0
-5683 -5685 5696 0
5683 -5696 0
5685 -5696 0
-5687 -5689 5698 0
5687 -5698 0
5689 -5698 0
-5691 -5693 5700 0
5691 -5700 0
5693 -5700 0
-5695 -5697 5701 0
5695 -5701 0
5697 -5701 0
-5646 -5648 5761 0
5646 -5761 0
5648 -5761 0
-5650 -5652 5762 0
5650 -5762 0
5652 -5762 0
-5656 -5658 5708 0
5656 -5708 0
5658 -5708 0
-5660 -5662 5710 0
5660 -5710 0
5662 -5710 0
-5664 -5666 5712 0
5664 -5712 0
5666 -5712 0
-5668 -5670 5714 0
5668 -5714 0
5670 -5714 0
-5674 -5676 5717 0
5674 -5717 0
5676 -5717 0
-5678 -5680 5719 0
5678 -5719 0
5680 -5719 0
-5682 -5684 5721 0
5682 -5721 0
5684 -5721 0
-5686 -5688 5723 0
5686 -5723 0
5688 -5723 0
-5690 -5692 5725 0
5690 -5725 0
5692 -5725 0
-5694 -5696 5727 0
5694 -5727 0
5696 -5727 0
-5698 -5700 5729 0
5698 -5729 0
5700 -5729 0
-5699 -5701 5731 0
5701 -5731 0
5699 -5731 0
-5703 -5704 5772 0
5703 -5772 0
5704 -5772 0
-5705 -5706 5734 0
5705 -5734 0
5706 -5734 0
-5707 -5709 5736 0
5707 -5736 0
5709 -5736 0
-5711 -5713 5774 0
5711 -5774 0
5713 -5774 0
-5716 -5718 5739 0
5716 -5739 0
5718 -5739 0
-5720 -5722 5741 0
5720 -5741 0
5722 -5741 0
-5724 -5726 5743 0
5724 -5743 0
5726 -5743 0
-5728 -5730 5745 0
5728 -5745 0
5730 -5745 0
-5702 -5732 5747 0
5702 -5747 0
5732 -5747 0
-5733 -5735 5749 0
5733 -5749 0
5735 -5749 0
-5715 -5737 5751 0
5737 -5751 0
5715 -5751 0
-5738 -5740 5753 0
5738 -5753 0
5740 -5753 0
-5742 -5744 5755 0
5742 -5755 0
5744 -5755 0
-5746 -5748 5757 0
5746 -5757 0
5748 -5757 0
-5750 -5752 5759 0
5750 -5759 0
5752 -5759 0
-5754 -5756 5760 0
5754 -5760 0
5756 -5760 0
-5708 -5710 5816 0
5708 -5816 0
5710 -5816 0
-5712 -5714 5817 0
5712 -5817 0
5714 -5817 0
-5717 -5719 5765 0
5717 -5765 0
5719 -5765 0
-5721 -5723 5767 0
5721 -5767 0
5723 -5767 0
-5725 -5727 5769 0
5725 -5769 0
5727 -5769 0
-5729 -5731 5771 0
5729 -5771 0
5731 -5771 0
-5734 -5736 5820 0
5734 -5820 0
5736 -5820 0
-5739 -5741 5821 0
5739 -5821 0
5741 -5821 0
-5743 -5745 5777 0
5743 -5777 0
5745 -5777 0
-5747 -5749 5779 0
5747 -5779 0
5749 -5779 0
-5751 -5753 5781 0
5751 -5781 0
5753 -5781 0
-5755 -5757 5783 0
5755 -5783 0
5757 -5783 0
-5759 -5760 5824 0
5759 -5824 0
5760 -5824 0
-5761 -5762 5786 0
5761 -5786 0
5762 -5786 0
-5763 -5764 5788 0
5763 -5788 0
5764 -5788 0
-5766 -5768 5826 0
5766 -5826 0
5768 -5826 0
-5770 -5772 5792 0
5770 -5792 0
5772 -5792 0
-5773 -5774 5794 0
5773 -5794 0
5774 -5794 0
-5775 -5776 5796 0
5775 -5796 0
5776 -5796 0
-5778 -5780 5798 0
5778 -5798 0
5780 -5798 0
-5782 -5784 5800 0
5782 -5800 0
5784 -5800 0
-5758 -5785 5802 0
5758 -5802 0
5785 -5802 0
-5787 -5789 5804 0
5787 -5804 0
5789 -5804 0
-5790 -5791 5806 0
5790 -5806 0
5791 -5806 0
-5793 -5795 5808 0
5793 -5808 0
5795 -5808 0
-5797 -5799 5810 0
5797 -5810 0
5799 -5810 0
-5801 -5803 5812 0
5801 -5812 0
5803 -5812 0
-5805 -5807 5814 0
5805 -5814 0
5807 -5814 0
-5809 -5811 5815 0
5809 -5815 0
5811 -5815 0
-5765 -5767 5871 0
5765 -5871 0
5767 -5871 0
-5769 -5771 5872 0
5769 -5872 0
5771 -5872 0
-5777 -5779 5873 0
5777 -5873 0
5779 -5873 0
-5781 -5783 5874 0
5781 -5874 0
5783 -5874 0
-5786 -5788 5875 0
5786 -5875 0
5788 -5875 0
-5792 -5794 5828 0
5792 -5828 0
5794 -5828 0
-5796 -5798 5830 0
5796 -5830 0
5798 -5830 0
-5800 -5802 5832 0
5800 -5832 0
5802 -5832 0
-5804 -5806 5834 0
5804 -5834 0
5806 -5834 0
-5808 -5810 5836 0
5808 -5836 0
5810 -5836 0
-5812 -5814 5838 0
5812 -5838 0
5814 -5838 0
-5813 -5815 5881 0
5815 -5881 0
5813 -5881 0
-5817 -5818 5841 0
5817 -5841 0
5818 -5841 0
-5819 -5820 5843 0
5819 -5843 0
5820 -5843 0
-5821 -5822 5845 0
5821 -5845 0
5822 -5845 0
-5823 -5824 5847 0
5823 -5847 0
5824 -5847 0
-5825 -5826 5849 0
5825 -5849 0
5826 -5849 0
-5827 -5829 5851 0
5827 -5851 0
5829 -5851 0
-5831 -5833 5853 0
5831 -5853 0
5833 -5853 0
-5835 -5837 5855 0
5835 -5855 0
5837 -5855 0
-5816 -5839 5857 0
5839 -5857 0
5816 -5857 0
-5840 -5842 5859 0
5840 -5859 0
5842 -5859 0
-5844 -5846 5861 0
5844 -5861 0
5846 -5861 0
-5848 -5850 5863 0
5848 -5863 0
5850 -5863 0
-5852 -5854 5865 0
5852 -5865 0
5854 -5865 0
-5856 -5858 5867 0
5856 -5867 0
5858 -5867 0
-5860 -5862 5869 0
5860 -5869 0
5862 -5869 0
-5864 -5866 5870 0
5864 -5870 0
5866 -5870 0
-5828 -5830 5877 0
5828 -5877 0
5830 -5877 0
-5832 -5834 5879 0
5832 -5879 0
5834 -5879 0
-5836 -5838 5928 0
5836 -5928 0
5838 -5928 0
-5841 -5843 5883 0
5841 -5883 0
5843 -5883 0
-5845 -5847 5885 0
5845 -5885 0
5847 -5885 0
-5849 -5851 5887 0
5849 -5887 0
5851 -5887 0
-5853 -5855 5889 0
5853 -5889 0
5855 -5889 0
-5857 -5859 5891 0
5857 -5891 0
5859 -5891 0
-5861 -5863 5893 0
5861 -5893 0
5863 -5893 0
-5865 -5867 5895 0
5865 -5895 0
5867 -5895 0
-5869 -5870 5897 0
5869 -5897 0
5870 -5897 0
-5871 -5872 5935 0
5871 -5935 0
5872 -5935 0
-5873 -5874 5900 0
5873 -5900 0
5874 -5900 0
-5875 -5876 5902 0
5875 -5902 0
5876 -5902 0
-5878 -5880 5904 0
5878 -5904 0
5880 -5904 0
-5881 -5882 5906 0
5881 -5906 0
5882 -5906 0
-5884 -5886 5908 0
5884 -5908 0
5886 -5908 0
-5888 -5890 5910 0
5888 -5910 0
5890 -5910 0
-5892 -5894 5912 0
5892 -5912 0
5894 -5912 0
-5868 -5896 5914 0
5896 -5914 0
5868 -5914 0
-5898 -5899 5916 0
5898 -5916 0
5899 -5916 0
-5901 -5903 5918 0
5901 -5918 0
5903 -5918 0
-5905 -5907 5920 0
5905 -5920 0
5907 -5920 0
-5909 -5911 5922 0
5909 -5922 0
5911 -5922 0
-5913 -5915 5924 0
5913 -5924 0
5915 -5924 0
-5917 -5919 5926 0
5917 -5926 0
5919 -5926 0
-5921 -5923 5927 0
5921 -5927 0
5923 -5927 0
-5877 -5879 5977 0
5877 -5977 0
5879 -5977 0
-5883 -5885 5978 0
5883 -5978 0
5885 -5978 0
-5887 -5889 5931 0
5887 -5931 0
5889 -5931 0
-5891 -5893 5933 0
5891 -5933 0
5893 -5933 0
-5895 -5897 5980 0
5895 -5980 0
5897 -5980 0
-5900 -5902 5937 0
5900 -5937 0
5902 -5937 0
-5904 -5906 5939 0
5904 -5939 0
5906 -5939 0
-5908 -5910 5941 0
5908 -5941 0
5910 -5941 0
-5912 -5914 5943 0
5912 -5943 0
5914 -5943 0
-5916 -5918 5945 0
5916 -5945 0
5918 -5945 0
-5920 -5922 5947 0
5920 -5947 0
5922 -5947 0
-5924 -5926 5949 0
5924 -5949 0
5926 -5949 0
-5925 -5927 5951 0
5927 -5951 0
5925 -5951 0
-5928 -5929 5954 0
5928 -5954 0
5929 -5954 0
-5930 -5932 5956 0
5930 -5956 0
5932 -5956 0
-5934 -5935 5958 0
5934 -5958 0
5935 -5958 0
-5936 -5938 5960 0
5936 -5960 0
5938 -5960 0
-5940 -5942 5962 0
5940 -5962 0
5942 -5962 0
-5944 -5946 5964 0
5944 -5964 0
5946 -5964 0
-5948 -5950 5991 0
5948 -5991 0
5950 -5991 0
-5953 -5955 5967 0
5953 -5967 0
5955 -5967 0
-5957 -5959 5969 0
5957 -5969 0
5959 -5969 0
-5961 -5963 5971 0
5961 -5971 0
5963 -5971 0
-5952 -5965 5973 0
5965 -5973 0
5952 -5973 0
-5966 -5968 5975 0
5966 -5975 0
5968 -5975 0
-5970 -5972 5976 0
5970 -5976 0
5972 -5976 0
-5931 -5933 6024 0
5931 -6024 0
5933 -6024 0
-5937 -5939 6025 0
5937 -6025 0
5939 -6025 0
-5941 -5943 5983 0
5941 -5983 0
5943 -5983 0
-5945 -5947 5985 0
5945 -5985 0
5947 -5985 0
-5949 -5951 6027 0
5949 -6027 0
5951 -6027 0
-5954 -5956 5987 0
5954 -5987 0
5956 -5987 0
-5958 -5960 5989 0
5958 -5989 0
5960 -5989 0
-5962 -5964 6029 0
5962 -6029 0
5964 -6029 0
-5967 -5969 5993 0
5967 -5993 0
5969 -5993 0
-5971 -5973 5995 0
5971 -5995 0
5973 -5995 0
-5975 -5976 6031 0
5975 -6031 0
5976 -6031 0
-5977 -5978 5998 0
5977 -5998 0
5978 -5998 0
-5979 -5980 6000 0
5979 -6000 0
5980 -6000 0
-5981 -5982 6002 0
5981 -6002 0
5982 -6002 0
-5984 -5986 6004 0
5984 -6004 0
5986 -6004 0
-5988 -5990 6034 0
5988 -6034 0
5990 -6034 0
-5991 -5992 6008 0
5991 -6008 0
5992 -6008 0
-5994 -5996 6010 0
5994 -6010 0
5996 -6010 0
-5974 -5997 6012 0
5974 -6012 0
5997 -6012 0
-5999 -6001 6014 0
5999 -6014 0
6001 -6014 0
-6003 -6005 6016 0
6003 -6016 0
6005 -6016 0
-6006 -6007 6018 0
6006 -6018 0
6007 -6018 0
-6009 -6011 6020 0
6009 -6020 0
6011 -6020 0
-6013 -6015 6022 0
6013 -6022 0
6015 -6022 0
-6017 -6019 6023 0
6017 -6023 0
6019 -6023 0
-5983 -5985 6071 0
5983 -6071 0
5985 -6071 0
-5987 -5989 6072 0
5987 -6072 0
5989 -6072 0
-5993 -5995 6073 0
5993 -6073 0
5995 -6073 0
-5998 -6000 6074 0
5998 -6074 0
6000 -6074 0
-6002 -6004 6075 0
6002 -6075 0
6004 -6075 0
-6008 -6010 6036 0
6008 -6036 0
6010 -6036 0
-6012 -6014 6038 0
6012 -6038 0
6014 -6038 0
-6016 -6018 6040 0
6016 -6040 0
6018 -6040 0
-6020 -6022 6042 0
6020 -6042 0
6022 -6042 0
-6021 -6023 6080 0
6023 -6080 0
6021 -6080 0
-6025 -6026 6045 0
6025 -6045 0
6026 -6045 0
-6027 -6028 6047 0
6027 -6047 0
6028 -6047 0
-6029 -6030 6049 0
6029 -6049 0
6030 -6049 0
-6031 -6032 6051 0
6031 -6051 0
6032 -6051 0
-6033 -6034 6053 0
6033 -6053 0
6034 -6053 0
-6035 -6037 6055 0
6035 -6055 0
6037 -6055 0
-6039 -6041 6057 0
6039 -6057 0
6041 -6057 0
-6024 -6043 6059 0
6043 -6059 0
6024 -6059 0
-6044 -6046 6061 0
6044 -6061 0
6046 -6061 0
-6048 -6050 6063 0
6048 -6063 0
6050 -6063 0
-6052 -6054 6065 0
6052 -6065 0
6054 -6065 0
-6056 -6058 6067 0
6056 -6067 0
6058 -6067 0
-6060 -6062 6069 0
6060 -6069 0
6062 -6069 0
-6064 -6066 6070 0
6064 -6070 0
6066 -6070 0
-6036 -6038 6077 0
6036 -6077 0
6038 -6077 0
-6040 -6042 6079 0
6040 -6079 0
6042 -6079 0
-6045 -6047 6120 0
6045 -6120 0
6047 -6120 0
-6049 -6051 6083 0
6049 -6083 0
6051 -6083 0
-6053 -6055 6085 0
6053 -6085 0
6055 -6085 0
-6057 -6059 6087 0
6057 -6087 0
6059 -6087 0
-6061 -6063 6089 0
6061 -6089 0
6063 -6089 0
-6065 -6067 6091 0
6065 -6091 0
6067 -6091 0
-6069 -6070 6093 0
6069 -6093 0
6070 -6093 0
-6071 -6072 6126 0
6071 -6126 0
6072 -6126 0
-6073 -6074 6096 0
6073 -6096 0
6074 -6096 0
-6075 -6076 6098 0
6075 -6098 0
6076 -6098 0
-6078 -6080 6100 0
6078 -6100 0
6080 -6100 0
-6081 -6082 6102 0
6081 -6102 0
6082 -6102 0
-6084 -6086 6104 0
6084 -6104 0
6086 -6104 0
-6088 -6090 6106 0
6088 -6106 0
6090 -6106 0
-6068 -6092 6108 0
6092 -6108 0
6068 -6108 0
-6094 -6095 6110 0
6094 -6110 0
6095 -6110 0
-6097 -6099 6112 0
6097 -6112 0
6099 -6112 0
-6101 -6103 6114 0
6101 -6114 0
6103 -6114 0
-6105 -6107 6116 0
6105 -6116 0
6107 -6116 0
-6109 -6111 6118 0
6109 -6118 0
6111 -6118 0
-6113 -6115 6119 0
6113 -6119 0
6115 -6119 0
-6077 -6079 6161 0
6077 -6161 0
6079 -6161 0
-6083 -6085 6162 0
6083 -6162 0
6085 -6162 0
-6087 -6089 6123 0
6087 -6123 0
6089 -6123 0
-6091 -6093 6125 0
6091 -6125 0
6093 -6125 0
-6096 -6098 6164 0
6096 -6164 0
6098 -6164 0
-6100 -6102 6129 0
6100 -6129 0
6102 -6129 0
-6104 -6106 6131 0
6104 -6131 0
6106 -6131 0
-6108 -6110 6133 0
6108 -6133 0
6110 -6133 0
-6112 -6114 6135 0
6112 -6135 0
6114 -6135 0
-6116 -6118 6137 0
6116 -6137 0
6118 -6137 0
-6117 -6119 6139 0
6119 -6139 0
6117 -6139 0
-6120 -6121 6142 0
6120 -6142 0
6121 -6142 0
-6122 -6124 6144 0
6122 -6144 0
6124 -6144 0
-6126 -6127 6146 0
6126 -6146 0
6127 -6146 0
-6128 -6130 6148 0
6128 -6148 0
6130 -6148 0
-6132 -6134 6150 0
6132 -6150 0
6134 -6150 0
-6136 -6138 6152 0
6136 -6152 0
6138 -6152 0
-6141 -6143 6174 0
6141 -6174 0
6143 -6174 0
-6145 -6147 6155 0
6145 -6155 0
6147 -6155 0
-6149 -6151 6157 0
6149 -6157 0
6151 -6157 0
-6140 -6153 6159 0
6140 -6159 0
6153 -6159 0
-6154 -6156 6160 0
6154 -6160 0
6156 -6160 0
-6123 -6125 6200 0
6123 -6200 0
6125 -6200 0
-6129 -6131 6201 0
6129 -6201 0
6131 -6201 0
-6133 -6135 6167 0
6133 -6167 0
6135 -6167 0
-6137 -6139 6168 0
6137 -6168 0
6139 -6168 0
-6142 -6144 6203 0
6142 -6203 0
6144 -6203 0
-6146 -6148 6171 0
6146 -6171 0
6148 -6171 0
-6150 -6152 6173 0
6150 -6173 0
6152 -6173 0
-6155 -6157 6205 0
6155 -6205 0
6157 -6205 0
-6159 -6160 6206 0
6159 -6206 0
6160 -6206 0
-6161 -6162 6178 0
6161 -6178 0
6162 -6178 0
-6163 -6164 6180 0
6163 -6180 0
6164 -6180 0
-6165 -6166 6208 0
6165 -6208 0
6166 -6208 0
-6169 -6170 6184 0
6169 -6184 0
6170 -6184 0
-6172 -6174 6186 0
6172 -6186 0
6174 -6186 0
-6175 -6176 6188 0
6175 -6188 0
6176 -6188 0
-6158 -6177 6190 0
6158 -6190 0
6177 -6190 0
-6179 -6181 6192 0
6179 -6192 0
6181 -6192 0
-6182 -6183 6194 0
6182 -6194 0
6183 -6194 0
-6185 -6187 6196 0
6185 -6196 0
6187 -6196 0
-6189 -6191 6198 0
6189 -6198 0
6191 -6198 0
-6193 -6195 6199 0
6193 -6199 0
6195 -6199 0
-6167 -6168 6241 0
6167 -6241 0
6168 -6241 0
-6171 -6173 6242 0
6171 -6242 0
6173 -6242 0
-6178 -6180 6243 0
6178 -6243 0
6180 -6243 0
-6184 -6186 6210 0
6184 -6210 0
6186 -6210 0
-6188 -6190 6212 0
6188 -6212 0
6190 -6212 0
-6192 -6194 6214 0
6192 -6214 0
6194 -6214 0
-6196 -6198 6216 0
6196 -6216 0
6198 -6216 0
-6197 -6199 6246 0
6199 -6246 0
6197 -6246 0
-6201 -6202 6219 0
6201 -6219 0
6202 -6219 0
-6203 -6204 6221 0
6203 -6221 0
6204 -6221 0
-6205 -6206 6223 0
6205 -6223 0
6206 -6223 0
-6207 -6208 6225 0
6207 -6225 0
6208 -6225 0
-6209 -6211 6227 0
6209 -6227 0
6211 -6227 0
-6213 -6215 6229 0
6213 -6229 0
6215 -6229 0
-6200 -6217 6231 0
6217 -6231 0
6200 -6231 0
-6218 -6220 6233 0
6218 -6233 0
6220 -6233 0
-6222 -6224 6235 0
6222 -6235 0
6224 -6235 0
-6226 -6228 6237 0
6226 -6237 0
6228 -6237 0
-6230 -6232 6239 0
6230 -6239 0
6232 -6239 0
-6234 -6236 6240 0
6234 -6240 0
6236 -6240 0
-6210 -6212 6278 0
6210 -6278 0
6212 -6278 0
-6214 -6216 6279 0
6214 -6279 0
6216 -6279 0
-6219 -6221 6248 0
6219 -6248 0
6221 -6248 0
-6223 -6225 6250 0
6223 -6250 0
6225 -6250 0
-6227 -6229 6252 0
6227 -6252 0
6229 -6252 0
-6231 -6233 6254 0
6231 -6254 0
6233 -6254 0
-6235 -6237 6256 0
6235 -6256 0
6237 -6256 0
-6239 -6240 6258 0
6239 -6258 0
6240 -6258 0
-6241 -6242 6285 0
6241 -6285 0
6242 -6285 0
-6244 -6245 6286 0
6244 -6286 0
6245 -6286 0
-6246 -6247 6262 0
6246 -6262 0
6247 -6262 0
-6249 -6251 6264 0
6249 -6264 0
6251 -6264 0
-6253 -6255 6266 0
6253 -6266 0
6255 -6266 0
-6238 -6257 6268 0
6257 -6268 0
6238 -6268 0
-6243 -6259 6270 0
6259 -6270 0
6243 -6270 0
-6260 -6261 6272 0
6260 -6272 0
6261 -6272 0
-6263 -6265 6274 0
6263 -6274 0
6265 -6274 0
-6267 -6269 6276 0
6267 -6276 0
6269 -6276 0
-6271 -6273 6277 0
6271 -6277 0
6273 -6277 0
-6248 -6250 6281 0
6248 -6281 0
6250 -6281 0
-6252 -6254 6283 0
6252 -6283 0
6254 -6283 0
-6256 -6258 6313 0
6256 -6313 0
6258 -6313 0
-6262 -6264 6314 0
6262 -6314 0
6264 -6314 0
-6266 -6268 6289 0
6266 -6289 0
6268 -6289 0
-6270 -6272 6291 0
6270 -6291 0
6272 -6291 0
-6274 -6276 6293 0
6274 -6293 0
6276 -6293 0
-6275 -6277 6295 0
6277 -6295 0
6275 -6295 0
-6278 -6279 6317 0
6278 -6317 0
6279 -6317 0
-6280 -6282 6297 0
6280 -6297 0
6282 -6297 0
-6284 -6285 6299 0
6284 -6299 0
6285 -6299 0
-6286 -6287 6301 0
6286 -6301 0
6287 -6301 0
-6288 -6290 6303 0
6288 -6303 0
6290 -6303 0
-6292 -6294 6322 0
6292 -6322 0
6294 -6322 0
-6296 -6298 6307 0
6296 -6307 0
6298 -6307 0
-6300 -6302 6309 0
6300 -6309 0
6302 -6309 0
-6304 -6305 6311 0
6304 -6311 0
6305 -6311 0
-6306 -6308 6312 0
6306 -6312 0
6308 -6312 0
-6281 -6283 6344 0
6281 -6344 0
6283 -6344 0
-6289 -6291 6345 0
6289 -6345 0
6291 -6345 0
-6293 -6295 6346 0
6293 -6346 0
6295 -6346 0
-6297 -6299 6319 0
6297 -6319 0
6299 -6319 0
-6301 -6303 6321 0
6301 -6321 0
6303 -6321 0
-6307 -6309 6348 0
6307 -6348 0
6309 -6348 0
-6311 -6312 6349 0
6311 -6349 0
6312 -6349 0
-6313 -6314 6350 0
6313 -6350 0
6314 -6350 0
-6315 -6316 6328 0
6315 -6328 0
6316 -6328 0
-6317 -6318 6330 0
6317 -6330 0
6318 -6330 0
-6320 -6322 6332 0
6320 -6332 0
6322 -6332 0
-6323 -6324 6334 0
6323 -6334 0
6324 -6334 0
-6310 -6325 6336 0
6310 -6336 0
6325 -6336 0
-6326 -6327 6338 0
6326 -6338 0
6327 -6338 0
-6329 -6331 6340 0
6329 -6340 0
6331 -6340 0
-6333 -6335 6342 0
6333 -6342 0
6335 -6342 0
-6337 -6339 6343 0
6337 -6343 0
6339 -6343 0
-6319 -6321 6379 0
6319 -6379 0
6321 -6379 0
-6328 -6330 6352 0
6328 -6352 0
6330 -6352 0
-6332 -6334 6354 0
6332 -6354 0
6334 -6354 0
-6336 -6338 6356 0
6336 -6356 0
6338 -6356 0
-6340 -6342 6358 0
6340 -6358 0
6342 -6358 0
-6341 -6343 6383 0
6343 -6383 0
6341 -6383 0
-6345 -6346 6361 0
6345 -6361 0
6346 -6361 0
-6347 -6348 6363 0
6347 -6363 0
6348 -6363 0
-6349 -6350 6365 0
6349 -6365 0
6350 -6365 0
-6351 -6353 6367 0
6351 -6367 0
6353 -6367 0
-6355 -6357 6369 0
6355 -6369 0
6357 -6369 0
-6344 -6359 6371 0
6359 -6371 0
6344 -6371 0
-6360 -6362 6373 0
6360 -6373 0
6362 -6373 0
-6364 -6366 6375 0
6364 -6375 0
6366 -6375 0
-6368 -6370 6377 0
6368 -6377 0
6370 -6377 0
-6372 -6374 6378 0
6372 -6378 0
6374 -6378 0
-6352 -6354 6380 0
6352 -6380 0
6354 -6380 0
-6356 -6358 6382 0
6356 -6382 0
6358 -6382 0
-6361 -6363 6409 0
6361 -6409 0
6363 -6409 0
-6365 -6367 6386 0
6365 -6386 0
6367 -6386 0
-6369 -6371 6388 0
6369 -6388 0
6371 -6388 0
-6373 -6375 6390 0
6373 -6390 0
6375 -6390 0
-6377 -6378 6392 0
6377 -6392 0
6378 -6392 0
-6381 -6383 6414 0
6381 -6414 0
6383 -6414 0
-6384 -6385 6396 0
6384 -6396 0
6385 -6396 0
-6387 -6389 6398 0
6387 -6398 0
6389 -6398 0
-6376 -6391 6400 0
6391 -6400 0
6376 -6400 0
-6379 -6393 6402 0
6379 -6402 0
6393 -6402 0
-6394 -6395 6404 0
6394 -6404 0
6395 -6404 0
-6397 -6399 6406 0
6397 -6406 0
6399 -6406 0
-6401 -6403 6407 0
6401 -6407 0
6403 -6407 0
-6380 -6382 6433 0
6380 -6433 0
6382 -6433 0
-6386 -6388 6411 0
6386 -6411 0
6388 -6411 0
-6390 -6392 6413 0
6390 -6413 0
6392 -6413 0
-6396 -6398 6416 0
6396 -6416 0
6398 -6416 0
-6400 -6402 6418 0
6400 -6418 0
6402 -6418 0
-6404 -6406 6420 0
6404 -6420 0
6406 -6420 0
-6405 -6407 6422 0
6407 -6422 0
6405 -6422 0
-6408 -6409 6438 0
6408 -6438 0
6409 -6438 0
-6410 -6412 6439 0
6410 -6439 0
6412 -6439 0
-6415 -6417 6425 0
6415 -6425 0
6417 -6425 0
-6419 -6421 6427 0
6419 -6427 0
6421 -6427 0
-6414 -6423 6441 0
6423 -6441 0
6414 -6441 0
-6424 -6426 6431 0
6424 -6431 0
6426 -6431 0
-6428 -6429 6432 0
6428 -6432 0
6429 -6432 0
-6411 -6413 6458 0
6411 -6458 0
6413 -6458 0
-6416 -6418 6435 0
6416 -6435 0
6418 -6435 0
-6420 -6422 6437 0
6420 -6437 0
6422 -6437 0
-6425 -6427 6459 0
6425 -6459 0
6427 -6459 0
-6431 -6432 6460 0
6431 -6460 0
6432 -6460 0
-6433 -6434 6461 0
6433 -6461 0
6434 -6461 0
-6436 -6438 6446 0
6436 -6446 0
6438 -6446 0
-6439 -6440 6448 0
6439 -6448 0
6440 -6448 0
-6441 -6442 6450 0
6441 -6450 0
6442 -6450 0
-6430 -6443 6452 0
6430 -6452 0
6443 -6452 0
-6444 -6445 6454 0
6444 -6454 0
6445 -6454 0
-6447 -6449 6456 0
6447 -6456 0
6449 -6456 0
-6451 -6453 6457 0
6451 -6457 0
6453 -6457 0
-6435 -6437 6481 0
6435 -6481 0
6437 -6481 0
-6446 -6448 6482 0
6446 -6482 0
6448 -6482 0
-6450 -6452 6464 0
6450 -6464 0
6452 -6464 0
-6454 -6456 6466 0
6454 -6466 0
6456 -6466 0
-6455 -6457 6484 0
6457 -6484 0
6455 -6484 0
-6459 -6460 6485 0
6459 -6485 0
6460 -6485 0
-6461 -6462 6471 0
6461 -6471 0
6462 -6471 0
-6463 -6465 6473 0
6463 -6473 0
6465 -6473 0
-6458 -6467 6475 0
6467 -6475 0
6458 -6475 0
-6468 -6469 6477 0
6468 -6477 0
6469 -6477 0
-6470 -6472 6479 0
6470 -6479 0
6472 -6479 0
-6474 -6476 6480 0
6474 -6480 0
6476 -6480 0
-6464 -6466 6504 0
6464 -6504 0
6466 -6504 0
-6471 -6473 6505 0
6471 -6505 0
6473 -6505 0
-6475 -6477 6488 0
6475 -6488 0
6477 -6488 0
-6479 -6480 6490 0
6479 -6490 0
6480 -6490 0
-6482 -6483 6492 0
6482 -6492 0
6483 -6492 0
-6484 -6485 6494 0
6484 -6494 0
6485 -6494 0
-6486 -6487 6496 0
6486 -6496 0
6487 -6496 0
-6478 -6489 6498 0
6489 -6498 0
6478 -6498 0
-6481 -6491 6500 0
6481 -6500 0
6491 -6500 0
-6493 -6495 6502 0
6493 -6502 0
6495 -6502 0
-6497 -6499 6503 0
6497 -6503 0
6499 -6503 0
-6488 -6490 6521 0
6488 -6521 0
6490 -6521 0
-6492 -6494 6507 0
6492 -6507 0
6494 -6507 0
-6496 -6498 6509 0
6496 -6509 0
6498 -6509 0
-6500 -6502 6511 0
6500 -6511 0
6502 -6511 0
-6501 -6503 6513 0
6503 -6513 0
6501 -6513 0
-6504 -6505 6524 0
6504 -6524 0
6505 -6524 0
-6506 -6508 6525 0
6506 -6525 0
6508 -6525 0
-6510 -6512 6526 0
6510 -6526 0
6512 -6526 0
-6514 -6515 6519 0
6514 -6519 0
6515 -6519 0
-6516 -6517 6520 0
6516 -6520 0
6517 -6520 0
-6507 -6509 6538 0
6507 -6538 0
6509 -6538 0
-6511 -6513 6539 0
6511 -6539 0
6513 -6539 0
-6519 -6520 6540 0
6519 -6540 0
6520 -6540 0
-6522 -6523 6541 0
6522 -6541 0
6523 -6541 0
-6524 -6525 6530 0
6524 -6530 0
6525 -6530 0
-6526 -6527 6532 0
6526 -6532 0
6527 -6532 0
-6518 -6521 6534 0
6518 -6534 0
6521 -6534 0
-6528 -6529 6536 0
6528 -6536 0
6529 -6536 0
-6531 -6533 6537 0
6531 -6537 0
6533 -6537 0
-6530 -6532 6543 0
6530 -6543 0
6532 -6543 0
-6534 -6536 6545 0
6534 -6545 0
6536 -6545 0
-6535 -6537 6556 0
6537 -6556 0
6535 -6556 0
-6540 -6541 6557 0
6540 -6557 0
6541 -6557 0
-6542 -6544 6549 0
6542 -6549 0
6544 -6549 0
-6538 -6546 6551 0
6546 -6551 0
6538 -6551 0
-6539 -6547 6553 0
6539 -6553 0
6547 -6553 0
-6548 -6550 6554 0
6548 -6554 0
6550 -6554 0
-6543 -6545 6568 0
6543 -6568 0
6545 -6568 0
-6549 -6551 6559 0
6549 -6559 0
6551 -6559 0
-6553 -6554 6561 0
6553 -6561 0
6554 -6561 0
-6555 -6556 6562 0
6555 -6562 0
6556 -6562 0
-6557 -6558 6564 0
6557 -6564 0
6558 -6564 0
-6552 -6560 6569 0
6560 -6569 0
6552 -6569 0
-6563 -6565 6567 0
6563 -6567 0
6565 -6567 0
-6559 -6561 6577 0
6559 -6577 0
6561 -6577 0
-6562 -6564 6578 0
6562 -6578 0
6564 -6578 0
-6566 -6567 6579 0
6567 -6579 0
6566 -6579 0
-6569 -6570 6580 0
6569 -6580 0
6570 -6580 0
-6568 -6571 6575 0
6568 -6575 0
6571 -6575 0
-6572 -6573 6576 0
6572 -6576 0
6573 -6576 0
-6575 -6576 6588 0
6575 -6588 0
6576 -6588 0
-6577 -6578 6589 0
6577 -6589 0
6578 -6589 0
-6580 -6581 6584 0
6580 -6584 0
6581 -6584 0
-6574 -6582 6586 0
6574 -6586 0
6582 -6586 0
-6579 -6583 6587 0
6579 -6587 0
6583 -6587 0
-6584 -6586 6596 0
6584 -6596 0
6586 -6596 0
-6585 -6587 6593 0
6587 -6593 0
6585 -6593 0
-6589 -6590 6594 0
6589 -6594 0
6590 -6594 0
-6588 -6591 6595 0
6588 -6595 0
6591 -6595 0
-6593 -6594 6598 0
6593 -6598 0
6594 -6598 0
-6592 -6595 6600 0
6595 -6600 0
6592 -6600 0
-6596 -6597 6601 0
6596 -6601 0
6597 -6601 0
-6598 -6600 6602 0
6598 -6602 0
6600 -6602 0
-6599 -6601 6603 0
6601 -6603 0
6599 -6603 0
-6602 -6603 6604 0
-6604 0
-1 -2 -98 0
1 2 -98 0
1 -2 98 0
-1 2 98 0
-1 -18 -98 0
1 18 -98 0
1 -18 98 0
-1 18 98 0
-3 -10 -101 0
3 10 -101 0
-3 10 101 0
3 -10 101 0
-19 -28 -103 0
19 28 -103 0
-19 28 103 0
19 -28 103 0
-99 -100 -105 0
99 100 -105 0
-99 100 105 0
99 -100 105 0
-98 -101 -107 0
98 101 -107 0
-98 101 107 0
98 -101 107 0
-103 -105 107 0
103 105 107 0
-103 105 -107 0
103 -105 -107 0
-4 -11 -118 0
4 11 -118 0
-4 11 118 0
4 -11 118 0
-20 -29 -111 0
20 29 -111 0
-20 29 111 0
20 -29 111 0
-38 -102 -113 0
38 102 -113 0
-38 102 113 0
38 -102 113 0
-104 -106 -115 0
104 106 -115 0
-104 106 115 0
104 -106 115 0
-108 -109 -117 0
108 109 -117 0
-108 109 117 0
108 -109 117 0
-111 -113 -119 0
111 113 -119 0
-111 113 119 0
111 -113 119 0
-115 -117 -121 0
115 117 -121 0
-115 117 121 0
115 -117 121 0
-118 -119 -121 0
118 119 -121 0
-118 119 121 0
118 -119 121 0
-5 -12 -124 0
5 12 -124 0
-5 12 124 0
5 -12 124 0
-21 -30 -126 0
21 30 -126 0
-21 30 126 0
21 -30 126 0
-39 -48 -128 0
39 48 -128 0
-39 48 128 0
39 -48 128 0
-110 -112 -130 0
110 112 -130 0
-110 112 130 0
110 -112 130 0
-114 -116 -132 0
114 116 -132 0
-114 116 132 0
114 -116 132 0
-120 -122 -135 0
120 122 -135 0
-120 122 135 0
120 -122 135 0
-121 -123 -136 0
121 123 -136 0
121 -123 136 0
-121 123 136 0
-124 -126 -138 0
124 126 -138 0
-124 126 138 0
124 -126 138 0
-128 -130 -140 0
128 130 -140 0
-128 130 140 0
128 -130 140 0
-132 -134 -142 0
132 134 -142 0
-132 134 142 0
132 -134 142 0
-135 -136 -144 0
135 136 -144 0
-135 136 144 0
135 -136 144 0
-138 -140 -146 0
138 140 -146 0
-138 140 146 0
138 -140 146 0
-142 -144 146 0
142 144 146 0
-142 144 -146 0
142 -144 -146 0
-6 -13 -148 0
6 13 -148 0
-6 13 148 0
6 -13 148 0
-22 -31 -150 0
22 31 -150 0
-22 31 150 0
22 -31 150 0
-40 -49 -152 0
40 49 -152 0
-40 49 152 0
40 -49 152 0
-58 -125 -154 0
58 125 -154 0
-58 125 154 0
58 -125 154 0
-127 -129 -156 0
127 129 -156 0
-127 129 156 0
127 -129 156 0
-131 -133 -158 0
131 133 -158 0
-131 133 158 0
131 -133 158 0
-137 -139 -161 0
137 139 -161 0
-137 139 161 0
137 -139 161 0
-141 -143 -162 0
141 143 -162 0
-141 143 162 0
141 -143 162 0
-145 -147 -164 0
145 147 -164 0
-145 147 164 0
145 -147 164 0
-148 -150 -167 0
148 150 -167 0
-148 150 167 0
148 -150 167 0
-152 -154 -168 0
152 154 -168 0
-152 154 168 0
152 -154 168 0
-156 -158 -170 0
156 158 -170 0
-156 158 170 0
156 -158 170 0
-160 -161 -172 0
160 161 -172 0
-160 161 172 0
160 -161 172 0
-162 -164 -174 0
162 164 -174 0
-162 164 174 0
162 -164 174 0
-166 -167 -176 0
166 167 -176 0
-166 167 176 0
166 -167 176 0
-168 -170 -178 0
168 170 -178 0
-168 170 178 0
168 -170 178 0
-172 -174 -180 0
172 174 -180 0
-172 174 180 0
172 -174 180 0
-176 -178 -180 0
176 178 -180 0
-176 178 180 0
176 -178 180 0
-7 -14 -183 0
7 14 -183 0
-7 14 183 0
7 -14 183 0
-23 -32 -185 0
23 32 -185 0
-23 32 185 0
23 -32 185 0
-41 -50 -187 0
41 50 -187 0
-41 50 187 0
41 -50 187 0
-59 -68 -189 0
59 68 -189 0
-59 68 189 0
59 -68 189 0
-149 -151 -191 0
149 151 -191 0
-149 151 191 0
149 -151 191 0
-153 -155 -193 0
153 155 -193 0
-153 155 193 0
153 -155 193 0
-157 -159 -195 0
157 159 -195 0
-157 159 195 0
157 -159 195 0
-163 -165 -198 0
163 165 -198 0
-163 165 198 0
163 -165 198 0
-169 -171 -200 0
169 171 -200 0
-169 171 200 0
169 -171 200 0
-173 -175 -201 0
173 175 -201 0
-173 175 201 0
173 -175 201 0
-177 -179 -203 0
177 179 -203 0
-177 179 203 0
177 -179 203 0
-181 -182 -205 0
181 182 -205 0
-181 182 205 0
181 -182 205 0
-180 -183 -207 0
180 183 -207 0
-180 183 207 0
180 -183 207 0
-185 -187 -209 0
185 187 -209 0
-185 187 209 0
185 -187 209 0
-189 -191 -211 0
189 191 -211 0
-189 191 211 0
189 -191 211 0
-193 -195 -213 0
193 195 -213 0
-193 195 213 0
193 -195 213 0
-197 -198 -215 0
197 198 -215 0
-197 198 215 0
197 -198 215 0
-199 -200 -217 0
199 200 -217 0
-199 200 217 0
199 -200 217 0
-201 -203 -219 0
201 203 -219 0
-201 203 219 0
201 -203 219 0
-205 -207 -221 0
205 207 -221 0
-205 207 221 0
205 -207 221 0
-209 -211 -223 0
209 211 -223 0
-209 211 223 0
209 -211 223 0
-213 -215 -225 0
213 215 -225 0
-213 215 225 0
213 -215 225 0
-217 -219 -227 0
217 219 -227 0
-217 219 227 0
217 -219 227 0
-221 -223 -229 0
221 223 -229 0
-221 223 229 0
221 -223 229 0
-225 -227 -229 0
225 227 -229 0
-225 227 229 0
225 -227 229 0
-8 -15 -232 0
8 15 -232 0
-8 15 232 0
8 -15 232 0
-24 -33 -234 0
24 33 -234 0
-24 33 234 0
24 -33 234 0
-42 -51 -236 0
42 51 -236 0
-42 51 236 0
42 -51 236 0
-60 -69 -238 0
60 69 -238 0
-60 69 238 0
60 -69 238 0
-78 -184 -240 0
78 184 -240 0
-78 184 240 0
78 -184 240 0
-186 -188 -242 0
186 188 -242 0
-186 188 242 0
186 -188 242 0
-190 -192 -244 0
190 192 -244 0
-190 192 244 0
190 -192 244 0
-194 -196 -246 0
194 196 -246 0
-194 196 246 0
194 -196 246 0
-202 -204 -250 0
202 204 -250 0
-202 204 250 0
202 -204 250 0
-206 -208 -252 0
206 208 -252 0
-206 208 252 0
206 -208 252 0
-210 -212 -254 0
210 212 -254 0
-210 212 254 0
210 -212 254 0
-214 -216 -256 0
214 216 -256 0
-214 216 256 0
214 -216 256 0
-218 -220 -258 0
218 220 -258 0
-218 220 258 0
218 -220 258 0
-222 -224 -260 0
222 224 -260 0
-222 224 260 0
222 -224 260 0
-226 -228 -262 0
226 228 -262 0
-226 228 262 0
226 -228 262 0
-230 -231 -264 0
230 231 -264 0
-230 231 264 0
230 -231 264 0
-229 -232 -266 0
229 232 -266 0
-229 232 266 0
229 -232 266 0
-234 -236 -268 0
234 236 -268 0
-234 236 268 0
234 -236 268 0
-238 -240 -270 0
238 240 -270 0
-238 240 270 0
238 -240 270 0
-242 -244 -272 0
242 244 -272 0
-242 244 272 0
242 -244 272 0
-246 -248 -274 0
246 248 -274 0
-246 248 274 0
246 -248 274 0
-249 -250 -276 0
249 250 -276 0
-249 250 276 0
249 -250 276 0
-252 -254 -278 0
252 254 -278 0
-252 254 278 0
252 -254 278 0
-256 -258 -280 0
256 258 -280 0
-256 258 280 0
256 -258 280 0
-260 -262 -282 0
260 262 -282 0
-260 262 282 0
260 -262 282 0
-264 -266 -284 0
264 266 -284 0
-264 266 284 0
264 -266 284 0
-268 -270 -286 0
268 270 -286 0
-268 270 286 0
268 -270 286 0
-272 -274 -288 0
272 274 -288 0
-272 274 288 0
272 -274 288 0
-276 -278 -290 0
276 278 -290 0
-276 278 290 0
276 -278 290 0
-280 -282 -292 0
280 282 -292 0
-280 282 292 0
280 -282 292 0
-284 -286 -294 0
284 286 -294 0
-284 286 294 0
284 -286 294 0
-288 -290 -296 0
288 290 -296 0
-288 290 296 0
288 -290 296 0
-292 -294 -296 0
292 294 -296 0
-292 294 296 0
292 -294 296 0
-9 -16 -299 0
9 16 -299 0
-9 16 299 0
9 -16 299 0
-25 -34 -301 0
25 34 -301 0
-25 34 301 0
25 -34 301 0
-43 -52 -303 0
43 52 -303 0
-43 52 303 0
43 -52 303 0
-61 -70 -305 0
61 70 -305 0
-61 70 305 0
61 -70 305 0
-79 -88 -307 0
79 88 -307 0
-79 88 307 0
79 -88 307 0
-233 -235 -309 0
233 235 -309 0
-233 235 309 0
233 -235 309 0
-237 -239 -311 0
237 239 -311 0
-237 239 311 0
237 -239 311 0
-241 -243 -313 0
241 243 -313 0
-241 243 313 0
241 -243 313 0
-245 -247 -349 0
245 247 -349 0
-245 247 349 0
245 -247 349 0
-251 -253 -316 0
251 253 -316 0
-251 253 316 0
251 -253 316 0
-255 -257 -317 0
255 257 -317 0
-255 257 317 0
255 -257 317 0
-259 -261 -319 0
259 261 -319 0
-259 261 319 0
259 -261 319 0
-263 -265 -321 0
263 265 -321 0
-263 265 321 0
263 -265 321 0
-267 -269 -323 0
267 269 -323 0
-267 269 323 0
267 -269 323 0
-271 -273 -325 0
271 273 -325 0
-271 273 325 0
271 -273 325 0
-275 -277 -327 0
275 277 -327 0
-275 277 327 0
275 -277 327 0
-279 -281 -329 0
279 281 -329 0
-279 281 329 0
279 -281 329 0
-283 -285 -331 0
283 285 -331 0
-283 285 331 0
283 -285 331 0
-287 -289 -333 0
287 289 -333 0
-287 289 333 0
287 -289 333 0
-291 -293 -335 0
291 293 -335 0
-291 293 335 0
291 -293 335 0
-295 -297 -337 0
295 297 -337 0
-295 297 337 0
295 -297 337 0
-296 -298 -339 0
296 298 -339 0
296 -298 339 0
-296 298 339 0
-299 -301 -341 0
299 301 -341 0
-299 301 341 0
299 -301 341 0
-303 -305 -343 0
303 305 -343 0
-303 305 343 0
303 -305 343 0
-307 -309 -345 0
307 309 -345 0
-307 309 345 0
307 -309 345 0
-311 -313 -347 0
311 313 -347 0
-311 313 347 0
311 -313 347 0
-316 -317 -350 0
316 317 -350 0
-316 317 350 0
316 -317 350 0
-319 -321 -351 0
319 321 -351 0
-319 321 351 0
319 -321 351 0
-323 -325 -353 0
323 325 -353 0
-323 325 353 0
323 -325 353 0
-327 -329 -355 0
327 329 -355 0
-327 329 355 0
327 -329 355 0
-331 -333 -357 0
331 333 -357 0
-331 333 357 0
331 -333 357 0
-335 -337 -359 0
335 337 -359 0
-335 337 359 0
335 -337 359 0
-339 -341 -361 0
339 341 -361 0
-339 341 361 0
339 -341 361 0
-343 -345 -363 0
343 345 -363 0
-343 345 363 0
343 -345 363 0
-347 -349 -365 0
347 349 -365 0
-347 349 365 0
347 -349 365 0
-350 -351 -367 0
350 351 -367 0
-350 351 367 0
350 -351 367 0
-353 -355 -369 0
353 355 -369 0
-353 355 369 0
353 -355 369 0
-357 -359 -371 0
357 359 -371 0
-357 359 371 0
357 -359 371 0
-361 -363 -373 0
361 363 -373 0
-361 363 373 0
361 -363 373 0
-365 -367 -375 0
365 367 -375 0
-365 367 375 0
365 -367 375 0
-369 -371 -377 0
369 371 -377 0
-369 371 377 0
369 -371 377 0
-373 -375 -377 0
373 375 -377 0
-373 375 377 0
373 -375 377 0
-17 -26 -380 0
17 26 -380 0
-17 26 380 0
17 -26 380 0
-35 -44 -382 0
35 44 -382 0
-35 44 382 0
35 -44 382 0
-53 -62 -384 0
53 62 -384 0
-53 62 384 0
53 -62 384 0
-71 -80 -386 0
71 80 -386 0
-71 80 386 0
71 -80 386 0
-89 -300 -388 0
89 300 -388 0
-89 300 388 0
89 -300 388 0
-302 -304 -390 0
302 304 -390 0
-302 304 390 0
302 -304 390 0
-306 -308 -392 0
306 308 -392 0
-306 308 392 0
306 -308 392 0
-310 -312 -394 0
310 312 -394 0
-310 312 394 0
310 -312 394 0
-314 -315 -396 0
314 315 -396 0
-314 315 396 0
314 -315 396 0
-318 -320 -398 0
318 320 -398 0
-318 320 398 0
318 -320 398 0
-322 -324 -400 0
322 324 -400 0
-322 324 400 0
322 -324 400 0
-326 -328 -402 0
326 328 -402 0
-326 328 402 0
326 -328 402 0
-330 -332 -404 0
330 332 -404 0
-330 332 404 0
330 -332 404 0
-334 -336 -406 0
334 336 -406 0
-334 336 406 0
334 -336 406 0
-338 -340 -408 0
338 340 -408 0
-338 340 408 0
338 -340 408 0
-342 -344 -410 0
342 344 -410 0
-342 344 410 0
342 -344 410 0
-346 -348 -412 0
346 348 -412 0
-346 348 412 0
346 -348 412 0
-352 -354 -415 0
352 354 -415 0
-352 354 415 0
352 -354 415 0
-356 -358 -416 0
356 358 -416 0
-356 358 416 0
356 -358 416 0
-360 -362 -418 0
360 362 -418 0
-360 362 418 0
360 -362 418 0
-364 -366 -420 0
364 366 -420 0
-364 366 420 0
364 -366 420 0
-368 -370 -422 0
368 370 -422 0
-368 370 422 0
368 -370 422 0
-372 -374 -424 0
372 374 -424 0
-372 374 424 0
372 -374 424 0
-376 -378 -426 0
376 378 -426 0
-376 378 426 0
376 -378 426 0
-377 -379 -428 0
377 379 -428 0
377 -379 428 0
-377 379 428 0
-380 -382 -430 0
380 382 -430 0
-380 382 430 0
380 -382 430 0
-384 -386 -432 0
384 386 -432 0
-384 386 432 0
384 -386 432 0
-388 -390 -434 0
388 390 -434 0
-388 390 434 0
388 -390 434 0
-392 -394 -436 0
392 394 -436 0
-392 394 436 0
392 -394 436 0
-396 -397 -438 0
396 397 -438 0
-396 397 438 0
396 -397 438 0
-398 -400 -440 0
398 400 -440 0
-398 400 440 0
398 -400 440 0
-402 -404 -442 0
402 404 -442 0
-402 404 442 0
402 -404 442 0
-406 -408 -444 0
406 408 -444 0
-406 408 444 0
406 -408 444 0
-410 -412 -446 0
410 412 -446 0
-410 412 446 0
410 -412 446 0
-414 -415 -448 0
414 415 -448 0
-414 415 448 0
414 -415 448 0
-416 -418 -450 0
416 418 -450 0
-416 418 450 0
416 -418 450 0
-420 -422 -452 0
420 422 -452 0
-420 422 452 0
420 -422 452 0
-424 -426 -454 0
424 426 -454 0
-424 426 454 0
424 -426 454 0
-428 -430 -456 0
428 430 -456 0
-428 430 456 0
428 -430 456 0
-432 -434 -458 0
432 434 -458 0
-432 434 458 0
432 -434 458 0
-436 -438 -460 0
436 438 -460 0
-436 438 460 0
436 -438 460 0
-440 -442 -462 0
440 442 -462 0
-440 442 462 0
440 -442 462 0
-444 -446 -464 0
444 446 -464 0
-444 446 464 0
444 -446 464 0
-448 -450 -466 0
448 450 -466 0
-448 450 466 0
448 -450 466 0
-452 -454 -468 0
452 454 -468 0
-452 454 468 0
452 -454 468 0
-456 -458 -470 0
456 458 -470 0
-456 458 470 0
456 -458 470 0
-460 -462 -472 0
460 462 -472 0
-460 462 472 0
460 -462 472 0
-464 -466 -474 0
464 466 -474 0
-464 466 474 0
464 -466 474 0
-468 -470 -476 0
468 470 -476 0
-468 470 476 0
468 -470 476 0
-472 -474 -476 0
472 474 -476 0
-472 474 476 0
472 -474 476 0
-27 -36 -479 0
27 36 -479 0
-27 36 479 0
27 -36 479 0
-45 -54 -481 0
45 54 -481 0
-45 54 481 0
45 -54 481 0
-63 -72 -483 0
63 72 -483 0
-63 72 483 0
63 -72 483 0
-81 -90 -485 0
81 90 -485 0
-81 90 485 0
81 -90 485 0
-381 -383 -487 0
381 383 -487 0
-381 383 487 0
381 -383 487 0
-385 -387 -489 0
385 387 -489 0
-385 387 489 0
385 -387 489 0
-389 -391 -491 0
389 391 -491 0
-389 391 491 0
389 -391 491 0
-393 -395 -493 0
393 395 -493 0
-393 395 493 0
393 -395 493 0
-399 -401 -495 0
399 401 -495 0
-399 401 495 0
399 -401 495 0
-403 -405 -497 0
403 405 -497 0
-403 405 497 0
403 -405 497 0
-407 -409 -499 0
407 409 -499 0
-407 409 499 0
407 -409 499 0
-411 -413 -501 0
411 413 -501 0
-411 413 501 0
411 -413 501 0
-417 -419 -504 0
417 419 -504 0
-417 419 504 0
417 -419 504 0
-421 -423 -505 0
421 423 -505 0
-421 423 505 0
421 -423 505 0
-425 -427 -507 0
425 427 -507 0
-425 427 507 0
425 -427 507 0
-429 -431 -509 0
429 431 -509 0
-429 431 509 0
429 -431 509 0
-433 -435 -511 0
433 435 -511 0
-433 435 511 0
433 -435 511 0
-437 -439 -513 0
437 439 -513 0
-437 439 513 0
437 -439 513 0
-441 -443 -515 0
441 443 -515 0
-441 443 515 0
441 -443 515 0
-445 -447 -517 0
445 447 -517 0
-445 447 517 0
445 -447 517 0
-449 -451 -519 0
449 451 -519 0
-449 451 519 0
449 -451 519 0
-453 -455 -521 0
453 455 -521 0
-453 455 521 0
453 -455 521 0
-457 -459 -523 0
457 459 -523 0
-457 459 523 0
457 -459 523 0
-461 -463 -525 0
461 463 -525 0
-461 463 525 0
461 -463 525 0
-465 -467 -527 0
465 467 -527 0
-465 467 527 0
465 -467 527 0
-469 -471 -529 0
469 471 -529 0
-469 471 529 0
469 -471 529 0
-473 -475 -531 0
473 475 -531 0
-473 475 531 0
473 -475 531 0
-477 -478 -533 0
477 478 -533 0
-477 478 533 0
477 -478 533 0
-476 -479 -535 0
476 479 -535 0
-476 479 535 0
476 -479 535 0
-481 -483 -537 0
481 483 -537 0
-481 483 537 0
481 -483 537 0
-485 -487 -539 0
485 487 -539 0
-485 487 539 0
485 -487 539 0
-489 -491 -541 0
489 491 -541 0
-489 491 541 0
489 -491 541 0
-493 -494 -543 0
493 494 -543 0
-493 494 543 0
493 -494 543 0
-495 -497 -545 0
495 497 -545 0
-495 497 545 0
495 -497 545 0
-499 -501 -547 0
499 501 -547 0
-499 501 547 0
499 -501 547 0
-503 -504 -549 0
503 504 -549 0
-503 504 549 0
503 -504 549 0
-505 -507 -551 0
505 507 -551 0
-505 507 551 0
505 -507 551 0
-509 -511 -553 0
509 511 -553 0
-509 511 553 0
509 -511 553 0
-513 -515 -555 0
513 515 -555 0
-513 515 555 0
513 -515 555 0
-517 -519 -557 0
517 519 -557 0
-517 519 557 0
517 -519 557 0
-521 -523 -559 0
521 523 -559 0
-521 523 559 0
521 -523 559 0
-525 -527 -561 0
525 527 -561 0
-525 527 561 0
525 -527 561 0
-529 -531 -563 0
529 531 -563 0
-529 531 563 0
529 -531 563 0
-533 -535 -565 0
533 535 -565 0
-533 535 565 0
533 -535 565 0
-537 -539 -567 0
537 539 -567 0
-537 539 567 0
537 -539 567 0
-541 -543 -569 0
541 543 -569 0
-541 543 569 0
541 -543 569 0
-545 -547 -571 0
545 547 -571 0
-545 547 571 0
545 -547 571 0
-549 -551 -573 0
549 551 -573 0
-549 551 573 0
549 -551 573 0
-553 -555 -575 0
553 555 -575 0
-553 555 575 0
553 -555 575 0
-557 -559 -577 0
557 559 -577 0
-557 559 577 0
557 -559 577 0
-561 -563 -579 0
561 563 -579 0
-561 563 579 0
561 -563 579 0
-565 -567 -581 0
565 567 -581 0
-565 567 581 0
565 -567 581 0
-569 -571 -583 0
569 571 -583 0
-569 571 583 0
569 -571 583 0
-573 -575 -585 0
573 575 -585 0
-573 575 585 0
573 -575 585 0
-577 -579 -587 0
577 579 -587 0
-577 579 587 0
577 -579 587 0
-581 -583 -589 0
581 583 -589 0
-581 583 589 0
581 -583 589 0
-585 -587 589 0
585 587 589 0
-585 587 -589 0
585 -587 -589 0
-37 -46 -652 0
37 46 -652 0
-37 46 652 0
37 -46 652 0
-55 -64 -593 0
55 64 -593 0
-55 64 593 0
55 -64 593 0
-73 -82 -595 0
73 82 -595 0
-73 82 595 0
73 -82 595 0
-91 -480 -597 0
91 480 -597 0
-91 480 597 0
91 -480 597 0
-482 -484 -599 0
482 484 -599 0
-482 484 599 0
482 -484 599 0
-486 -488 -601 0
486 488 -601 0
-486 488 601 0
486 -488 601 0
-490 -492 -603 0
490 492 -603 0
-490 492 603 0
490 -492 603 0
-496 -498 -605 0
496 498 -605 0
-496 498 605 0
496 -498 605 0
-500 -502 -607 0
500 502 -607 0
-500 502 607 0
500 -502 607 0
-506 -508 -610 0
506 508 -610 0
-506 508 610 0
506 -508 610 0
-510 -512 -611 0
510 512 -611 0
-510 512 611 0
510 -512 611 0
-514 -516 -613 0
514 516 -613 0
-514 516 613 0
514 -516 613 0
-518 -520 -615 0
518 520 -615 0
-518 520 615 0
518 -520 615 0
-522 -524 -617 0
522 524 -617 0
-522 524 617 0
522 -524 617 0
-526 -528 -619 0
526 528 -619 0
-526 528 619 0
526 -528 619 0
-530 -532 -621 0
530 532 -621 0
-530 532 621 0
530 -532 621 0
-534 -536 -623 0
534 536 -623 0
-534 536 623 0
534 -536 623 0
-538 -540 -625 0
538 540 -625 0
-538 540 625 0
538 -540 625 0
-542 -544 -627 0
542 544 -627 0
-542 544 627 0
542 -544 627 0
-546 -548 -629 0
546 548 -629 0
-546 548 629 0
546 -548 629 0
-550 -552 -631 0
550 552 -631 0
-550 552 631 0
550 -552 631 0
-554 -556 -633 0
554 556 -633 0
-554 556 633 0
554 -556 633 0
-558 -560 -635 0
558 560 -635 0
-558 560 635 0
558 -560 635 0
-562 -564 -637 0
562 564 -637 0
-562 564 637 0
562 -564 637 0
-566 -568 -639 0
566 568 -639 0
-566 568 639 0
566 -568 639 0
-570 -572 -641 0
570 572 -641 0
-570 572 641 0
570 -572 641 0
-574 -576 -643 0
574 576 -643 0
-574 576 643 0
574 -576 643 0
-578 -580 -645 0
578 580 -645 0
-578 580 645 0
578 -580 645 0
-582 -584 -647 0
582 584 -647 0
-582 584 647 0
582 -584 647 0
-586 -588 -649 0
586 588 -649 0
-586 588 649 0
586 -588 649 0
-590 -591 -651 0
590 591 -651 0
-590 591 651 0
590 -591 651 0
-593 -595 -653 0
593 595 -653 0
-593 595 653 0
593 -595 653 0
-597 -599 -655 0
597 599 -655 0
-597 599 655 0
597 -599 655 0
-601 -603 -657 0
601 603 -657 0
-601 603 657 0
601 -603 657 0
-604 -605 -659 0
604 605 -659 0
-604 605 659 0
604 -605 659 0
-607 -609 -661 0
607 609 -661 0
-607 609 661 0
607 -609 661 0
-610 -611 -663 0
610 611 -663 0
-610 611 663 0
610 -611 663 0
-613 -615 -665 0
613 615 -665 0
-613 615 665 0
613 -615 665 0
-617 -619 -667 0
617 619 -667 0
-617 619 667 0
617 -619 667 0
-621 -623 -669 0
621 623 -669 0
-621 623 669 0
621 -623 669 0
-625 -627 -671 0
625 627 -671 0
-625 627 671 0
625 -627 671 0
-629 -631 -673 0
629 631 -673 0
-629 631 673 0
629 -631 673 0
-633 -635 -675 0
633 635 -675 0
-633 635 675 0
633 -635 675 0
-637 -639 -677 0
637 639 -677 0
-637 639 677 0
637 -639 677 0
-641 -643 -679 0
641 643 -679 0
-641 643 679 0
641 -643 679 0
-645 -647 -681 0
645 647 -681 0
-645 647 681 0
645 -647 681 0
-649 -651 -683 0
649 651 -683 0
-649 651 683 0
649 -651 683 0
-652 -653 -685 0
652 653 -685 0
-652 653 685 0
652 -653 685 0
-655 -657 -687 0
655 657 -687 0
-655 657 687 0
655 -657 687 0
-659 -661 -689 0
659 661 -689 0
-659 661 689 0
659 -661 689 0
-663 -665 -691 0
663 665 -691 0
-663 665 691 0
663 -665 691 0
-667 -669 -693 0
667 669 -693 0
-667 669 693 0
667 -669 693 0
-671 -673 -695 0
671 673 -695 0
-671 673 695 0
671 -673 695 0
-675 -677 -697 0
675 677 -697 0
-675 677 697 0
675 -677 697 0
-679 -681 -699 0
679 681 -699 0
-679 681 699 0
679 -681 699 0
-683 -685 -701 0
683 685 -701 0
-683 685 701 0
683 -685 701 0
-687 -689 -703 0
687 689 -703 0
-687 689 703 0
687 -689 703 0
-691 -693 -705 0
691 693 -705 0
-691 693 705 0
691 -693 705 0
-695 -697 -707 0
695 697 -707 0
-695 697 707 0
695 -697 707 0
-699 -701 -709 0
699 701 -709 0
-699 701 709 0
699 -701 709 0
-703 -705 -711 0
703 705 -711 0
-703 705 711 0
703 -705 711 0
-707 -709 711 0
707 709 711 0
-707 709 -711 0
707 -709 -711 0
-47 -56 -713 0
47 56 -713 0
-47 56 713 0
47 -56 713 0
-65 -74 -715 0
65 74 -715 0
-65 74 715 0
65 -74 715 0
-83 -92 -717 0
83 92 -717 0
-83 92 717 0
83 -92 717 0
-592 -594 -719 0
592 594 -719 0
-592 594 719 0
592 -594 719 0
-596 -598 -721 0
596 598 -721 0
-596 598 721 0
596 -598 721 0
-600 -602 -723 0
600 602 -723 0
-600 602 723 0
600 -602 723 0
-606 -608 -725 0
606 608 -725 0
-606 608 725 0
606 -608 725 0
-612 -614 -727 0
612 614 -727 0
-612 614 727 0
612 -614 727 0
-616 -618 -729 0
616 618 -729 0
-616 618 729 0
616 -618 729 0
-620 -622 -731 0
620 622 -731 0
-620 622 731 0
620 -622 731 0
-624 -626 -733 0
624 626 -733 0
-624 626 733 0
624 -626 733 0
-628 -630 -735 0
628 630 -735 0
-628 630 735 0
628 -630 735 0
-632 -634 -737 0
632 634 -737 0
-632 634 737 0
632 -634 737 0
-636 -638 -739 0
636 638 -739 0
-636 638 739 0
636 -638 739 0
-640 -642 -741 0
640 642 -741 0
-640 642 741 0
640 -642 741 0
-644 -646 -743 0
644 646 -743 0
-644 646 743 0
644 -646 743 0
-648 -650 -745 0
648 650 -745 0
-648 650 745 0
648 -650 745 0
-654 -656 -748 0
654 656 -748 0
-654 656 748 0
654 -656 748 0
-658 -660 -749 0
658 660 -749 0
-658 660 749 0
658 -660 749 0
-662 -664 -751 0
662 664 -751 0
-662 664 751 0
662 -664 751 0
-666 -668 -753 0
666 668 -753 0
-666 668 753 0
666 -668 753 0
-670 -672 -755 0
670 672 -755 0
-670 672 755 0
670 -672 755 0
-674 -676 -757 0
674 676 -757 0
-674 676 757 0
674 -676 757 0
-678 -680 -759 0
678 680 -759 0
-678 680 759 0
678 -680 759 0
-682 -684 -761 0
682 684 -761 0
-682 684 761 0
682 -684 761 0
-686 -688 -763 0
686 688 -763 0
-686 688 763 0
686 -688 763 0
-690 -692 -765 0
690 692 -765 0
-690 692 765 0
690 -692 765 0
-694 -696 -767 0
694 696 -767 0
-694 696 767 0
694 -696 767 0
-698 -700 -769 0
698 700 -769 0
-698 700 769 0
698 -700 769 0
-702 -704 -771 0
702 704 -771 0
-702 704 771 0
702 -704 771 0
-706 -708 -773 0
706 708 -773 0
-706 708 773 0
706 -708 773 0
-710 -712 -775 0
710 712 -775 0
-710 712 775 0
710 -712 775 0
-713 -715 -778 0
713 715 -778 0
-713 715 778 0
713 -715 778 0
-717 -719 -779 0
717 719 -779 0
-717 719 779 0
717 -719 779 0
-721 -723 -781 0
721 723 -781 0
-721 723 781 0
721 -723 781 0
-724 -725 -783 0
724 725 -783 0
-724 725 783 0
724 -725 783 0
-726 -727 -785 0
726 727 -785 0
-726 727 785 0
726 -727 785 0
-729 -731 -787 0
729 731 -787 0
-729 731 787 0
729 -731 787 0
-733 -735 -789 0
733 735 -789 0
-733 735 789 0
733 -735 789 0
-737 -739 -791 0
737 739 -791 0
-737 739 791 0
737 -739 791 0
-741 -743 -793 0
741 743 -793 0
-741 743 793 0
741 -743 793 0
-745 -747 -795 0
745 747 -795 0
-745 747 795 0
745 -747 795 0
-748 -749 -797 0
748 749 -797 0
-748 749 797 0
748 -749 797 0
-751 -753 -799 0
751 753 -799 0
-751 753 799 0
751 -753 799 0
-755 -757 -801 0
755 757 -801 0
-755 757 801 0
755 -757 801 0
-759 -761 -803 0
759 761 -803 0
-759 761 803 0
759 -761 803 0
-763 -765 -805 0
763 765 -805 0
-763 765 805 0
763 -765 805 0
-767 -769 -807 0
767 769 -807 0
-767 769 807 0
767 -769 807 0
-771 -773 -809 0
771 773 -809 0
-771 773 809 0
771 -773 809 0
-775 -777 -811 0
775 777 -811 0
-775 777 811 0
775 -777 811 0
-778 -779 -813 0
778 779 -813 0
-778 779 813 0
778 -779 813 0
-781 -783 -815 0
781 783 -815 0
-781 783 815 0
781 -783 815 0
-785 -787 -817 0
785 787 -817 0
-785 787 817 0
785 -787 817 0
-789 -791 -819 0
789 791 -819 0
-789 791 819 0
789 -791 819 0
-793 -795 -821 0
793 795 -821 0
-793 795 821 0
793 -795 821 0
-797 -799 -823 0
797 799 -823 0
-797 799 823 0
797 -799 823 0
-801 -803 -825 0
801 803 -825 0
-801 803 825 0
801 -803 825 0
-805 -807 -827 0
805 807 -827 0
-805 807 827 0
805 -807 827 0
-809 -811 -829 0
809 811 -829 0
-809 811 829 0
809 -811 829 0
-813 -815 -831 0
813 815 -831 0
-813 815 831 0
813 -815 831 0
-817 -819 -833 0
817 819 -833 0
-817 819 833 0
817 -819 833 0
-821 -823 -835 0
821 823 -835 0
-821 823 835 0
821 -823 835 0
-825 -827 -837 0
825 827 -837 0
-825 827 837 0
825 -827 837 0
-829 -831 -839 0
829 831 -839 0
-829 831 839 0
829 -831 839 0
-833 -835 -841 0
833 835 -841 0
-833 835 841 0
833 -835 841 0
-837 -839 -841 0
837 839 -841 0
-837 839 841 0
837 -839 841 0
-57 -66 -844 0
57 66 -844 0
-57 66 844 0
57 -66 844 0
-75 -84 -846 0
75 84 -846 0
-75 84 846 0
75 -84 846 0
-93 -714 -848 0
93 714 -848 0
-93 714 848 0
93 -714 848 0
-716 -718 -850 0
716 718 -850 0
-716 718 850 0
716 -718 850 0
-720 -722 -852 0
720 722 -852 0
-720 722 852 0
720 -722 852 0
-728 -730 -855 0
728 730 -855 0
-728 730 855 0
728 -730 855 0
-732 -734 -856 0
732 734 -856 0
-732 734 856 0
732 -734 856 0
-736 -738 -858 0
736 738 -858 0
-736 738 858 0
736 -738 858 0
-740 -742 -860 0
740 742 -860 0
-740 742 860 0
740 -742 860 0
-744 -746 -862 0
744 746 -862 0
-744 746 862 0
744 -746 862 0
-750 -752 -865 0
750 752 -865 0
-750 752 865 0
750 -752 865 0
-754 -756 -866 0
754 756 -866 0
-754 756 866 0
754 -756 866 0
-758 -760 -868 0
758 760 -868 0
-758 760 868 0
758 -760 868 0
-762 -764 -870 0
762 764 -870 0
-762 764 870 0
762 -764 870 0
-766 -768 -872 0
766 768 -872 0
-766 768 872 0
766 -768 872 0
-770 -772 -874 0
770 772 -874 0
-770 772 874 0
770 -772 874 0
-774 -776 -876 0
774 776 -876 0
-774 776 876 0
774 -776 876 0
-780 -782 -879 0
780 782 -879 0
-780 782 879 0
780 -782 879 0
-784 -786 -880 0
784 786 -880 0
-784 786 880 0
784 -786 880 0
-788 -790 -882 0
788 790 -882 0
-788 790 882 0
788 -790 882 0
-792 -794 -884 0
792 794 -884 0
-792 794 884 0
792 -794 884 0
-796 -798 -886 0
796 798 -886 0
-796 798 886 0
796 -798 886 0
-800 -802 -888 0
800 802 -888 0
-800 802 888 0
800 -802 888 0
-804 -806 -890 0
804 806 -890 0
-804 806 890 0
804 -806 890 0
-808 -810 -892 0
808 810 -892 0
-808 810 892 0
808 -810 892 0
-812 -814 -894 0
812 814 -894 0
-812 814 894 0
812 -814 894 0
-816 -818 -896 0
816 818 -896 0
-816 818 896 0
816 -818 896 0
-820 -822 -898 0
820 822 -898 0
-820 822 898 0
820 -822 898 0
-824 -826 -900 0
824 826 -900 0
-824 826 900 0
824 -826 900 0
-828 -830 -902 0
828 830 -902 0
-828 830 902 0
828 -830 902 0
-832 -834 -904 0
832 834 -904 0
-832 834 904 0
832 -834 904 0
-836 -838 -906 0
836 838 -906 0
-836 838 906 0
836 -838 906 0
-840 -842 -908 0
840 842 -908 0
-840 842 908 0
840 -842 908 0
-841 -843 -910 0
841 843 -910 0
841 -843 910 0
-841 843 910 0
-844 -846 -912 0
844 846 -912 0
-844 846 912 0
844 -846 912 0
-848 -850 -914 0
848 850 -914 0
-848 850 914 0
848 -850 914 0
-852 -853 -916 0
852 853 -916 0
-852 853 916 0
852 -853 916 0
-854 -855 -918 0
854 855 -918 0
-854 855 918 0
854 -855 918 0
-856 -858 -920 0
856 858 -920 0
-856 858 920 0
856 -858 920 0
-860 -862 -922 0
860 862 -922 0
-860 862 922 0
860 -862 922 0
-864 -865 -924 0
864 865 -924 0
-864 865 924 0
864 -865 924 0
-866 -868 -926 0
866 868 -926 0
-866 868 926 0
866 -868 926 0
-870 -872 -928 0
870 872 -928 0
-870 872 928 0
870 -872 928 0
-874 -876 -930 0
874 876 -930 0
-874 876 930 0
874 -876 930 0
-878 -879 -932 0
878 879 -932 0
-878 879 932 0
878 -879 932 0
-880 -882 -934 0
880 882 -934 0
-880 882 934 0
880 -882 934 0
-884 -886 -936 0
884 886 -936 0
-884 886 936 0
884 -886 936 0
-888 -890 -938 0
888 890 -938 0
-888 890 938 0
888 -890 938 0
-892 -894 -940 0
892 894 -940 0
-892 894 940 0
892 -894 940 0
-896 -898 -942 0
896 898 -942 0
-896 898 942 0
896 -898 942 0
-900 -902 -944 0
900 902 -944 0
-900 902 944 0
900 -902 944 0
-904 -906 -946 0
904 906 -946 0
-904 906 946 0
904 -906 946 0
-908 -910 -948 0
908 910 -948 0
-908 910 948 0
908 -910 948 0
-912 -914 -950 0
912 914 -950 0
-912 914 950 0
912 -914 950 0
-916 -918 -952 0
916 918 -952 0
-916 918 952 0
916 -918 952 0
-920 -922 -954 0
920 922 -954 0
-920 922 954 0
920 -922 954 0
-924 -926 -956 0
924 926 -956 0
-924 926 956 0
924 -926 956 0
-928 -930 -958 0
928 930 -958 0
-928 930 958 0
928 -930 958 0
-932 -934 -960 0
932 934 -960 0
-932 934 960 0
932 -934 960 0
-936 -938 -962 0
936 938 -962 0
-936 938 962 0
936 -938 962 0
-940 -942 -964 0
940 942 -964 0
-940 942 964 0
940 -942 964 0
-944 -946 -966 0
944 946 -966 0
-944 946 966 0
944 -946 966 0
-948 -950 -968 0
948 950 -968 0
-948 950 968 0
948 -950 968 0
-952 -954 -970 0
952 954 -970 0
-952 954 970 0
952 -954 970 0
-956 -958 -972 0
956 958 -972 0
-956 958 972 0
956 -958 972 0
-960 -962 -974 0
960 962 -974 0
-960 962 974 0
960 -962 974 0
-964 -966 -976 0
964 966 -976 0
-964 966 976 0
964 -966 976 0
-968 -970 -978 0
968 970 -978 0
-968 970 978 0
968 -970 978 0
-972 -974 -980 0
972 974 -980 0
-972 974 980 0
972 -974 980 0
-976 -978 980 0
976 978 980 0
-976 978 -980 0
976 -978 -980 0
-67 -76 -1052 0
67 76 -1052 0
-67 76 1052 0
67 -76 1052 0
-85 -94 -984 0
85 94 -984 0
-85 94 984 0
85 -94 984 0
-845 -847 -986 0
845 847 -986 0
-845 847 986 0
845 -847 986 0
-849 -851 -988 0
849 851 -988 0
-849 851 988 0
849 -851 988 0
-857 -859 -991 0
857 859 -991 0
-857 859 991 0
857 -859 991 0
-861 -863 -992 0
861 863 -992 0
-861 863 992 0
861 -863 992 0
-867 -869 -994 0
867 869 -994 0
-867 869 994 0
867 -869 994 0
-871 -873 -996 0
871 873 -996 0
-871 873 996 0
871 -873 996 0
-875 -877 -998 0
875 877 -998 0
-875 877 998 0
875 -877 998 0
-881 -883 -1000 0
881 883 -1000 0
-881 883 1000 0
881 -883 1000 0
-885 -887 -1002 0
885 887 -1002 0
-885 887 1002 0
885 -887 1002 0
-889 -891 -1004 0
889 891 -1004 0
-889 891 1004 0
889 -891 1004 0
-893 -895 -1006 0
893 895 -1006 0
-893 895 1006 0
893 -895 1006 0
-897 -899 -1008 0
897 899 -1008 0
-897 899 1008 0
897 -899 1008 0
-901 -903 -1010 0
901 903 -1010 0
-901 903 1010 0
901 -903 1010 0
-905 -907 -1012 0
905 907 -1012 0
-905 907 1012 0
905 -907 1012 0
-909 -911 -1014 0
909 911 -1014 0
-909 911 1014 0
909 -911 1014 0
-913 -915 -1016 0
913 915 -1016 0
-913 915 1016 0
913 -915 1016 0
-917 -919 -1018 0
917 919 -1018 0
-917 919 1018 0
917 -919 1018 0
-921 -923 -1020 0
921 923 -1020 0
-921 923 1020 0
921 -923 1020 0
-925 -927 -1022 0
925 927 -1022 0
-925 927 1022 0
925 -927 1022 0
-929 -931 -1024 0
929 931 -1024 0
-929 931 1024 0
929 -931 1024 0
-933 -935 -1026 0
933 935 -1026 0
-933 935 1026 0
933 -935 1026 0
-937 -939 -1028 0
937 939 -1028 0
-937 939 1028 0
937 -939 1028 0
-941 -943 -1030 0
941 943 -1030 0
-941 943 1030 0
941 -943 1030 0
-945 -947 -1032 0
945 947 -1032 0
-945 947 1032 0
945 -947 1032 0
-949 -951 -1034 0
949 951 -1034 0
-949 951 1034 0
949 -951 1034 0
-953 -955 -1036 0
953 955 -1036 0
-953 955 1036 0
953 -955 1036 0
-957 -959 -1038 0
957 959 -1038 0
-957 959 1038 0
957 -959 1038 0
-961 -963 -1040 0
961 963 -1040 0
-961 963 1040 0
961 -963 1040 0
-965 -967 -1042 0
965 967 -1042 0
-965 967 1042 0
965 -967 1042 0
-969 -971 -1044 0
969 971 -1044 0
-969 971 1044 0
969 -971 1044 0
-973 -975 -1046 0
973 975 -1046 0
-973 975 1046 0
973 -975 1046 0
-977 -979 -1048 0
977 979 -1048 0
-977 979 1048 0
977 -979 1048 0
-981 -982 -1050 0
981 982 -1050 0
-981 982 1050 0
981 -982 1050 0
-984 -986 -1053 0
984 986 -1053 0
-984 986 1053 0
984 -986 1053 0
-988 -989 -1054 0
988 989 -1054 0
-988 989 1054 0
988 -989 1054 0
-990 -991 -1056 0
990 991 -1056 0
-990 991 1056 0
990 -991 1056 0
-992 -993 -1058 0
992 993 -1058 0
-992 993 1058 0
992 -993 1058 0
-994 -996 -1060 0
994 996 -1060 0
-994 996 1060 0
994 -996 1060 0
-998 -999 -1062 0
998 999 -1062 0
-998 999 1062 0
998 -999 1062 0
-1000 -1002 -1064 0
1000 1002 -1064 0
-1000 1002 1064 0
1000 -1002 1064 0
-1004 -1006 -1066 0
1004 1006 -1066 0
-1004 1006 1066 0
1004 -1006 1066 0
-1008 -1010 -1068 0
1008 1010 -1068 0
-1008 1010 1068 0
1008 -1010 1068 0
-1012 -1014 -1070 0
1012 1014 -1070 0
-1012 1014 1070 0
1012 -1014 1070 0
-1016 -1018 -1072 0
1016 1018 -1072 0
-1016 1018 1072 0
1016 -1018 1072 0
-1020 -1022 -1074 0
1020 1022 -1074 0
-1020 1022 1074 0
1020 -1022 1074 0
-1024 -1026 -1076 0
1024 1026 -1076 0
-1024 1026 1076 0
1024 -1026 1076 0
-1028 -1030 -1078 0
1028 1030 -1078 0
-1028 1030 1078 0
1028 -1030 1078 0
-1032 -1034 -1080 0
1032 1034 -1080 0
-1032 1034 1080 0
1032 -1034 1080 0
-1036 -1038 -1082 0
1036 1038 -1082 0
-1036 1038 1082 0
1036 -1038 1082 0
-1040 -1042 -1084 0
1040 1042 -1084 0
-1040 1042 1084 0
1040 -1042 1084 0
-1044 -1046 -1086 0
1044 1046 -1086 0
-1044 1046 1086 0
1044 -1046 1086 0
-1048 -1050 -1088 0
1048 1050 -1088 0
-1048 1050 1088 0
1048 -1050 1088 0
-1052 -1053 -1090 0
1052 1053 -1090 0
-1052 1053 1090 0
1052 -1053 1090 0
-1054 -1056 -1092 0
1054 1056 -1092 0
-1054 1056 1092 0
1054 -1056 1092 0
-1058 -1060 -1094 0
1058 1060 -1094 0
-1058 1060 1094 0
1058 -1060 1094 0
-1062 -1064 -1096 0
1062 1064 -1096 0
-1062 1064 1096 0
1062 -1064 1096 0
-1066 -1068 -1098 0
1066 1068 -1098 0
-1066 1068 1098 0
1066 -1068 1098 0
-1070 -1072 -1100 0
1070 1072 -1100 0
-1070 1072 1100 0
1070 -1072 1100 0
-1074 -1076 -1102 0
1074 1076 -1102 0
-1074 1076 1102 0
1074 -1076 1102 0
-1078 -1080 -1104 0
1078 1080 -1104 0
-1078 1080 1104 0
1078 -1080 1104 0
-1082 -1084 -1106 0
1082 1084 -1106 0
-1082 1084 1106 0
1082 -1084 1106 0
-1086 -1088 -1108 0
1086 1088 -1108 0
-1086 1088 1108 0
1086 -1088 1108 0
-1090 -1092 -1110 0
1090 1092 -1110 0
-1090 1092 1110 0
1090 -1092 1110 0
-1094 -1096 -1112 0
1094 1096 -1112 0
-1094 1096 1112 0
1094 -1096 1112 0
-1098 -1100 -1114 0
1098 1100 -1114 0
-1098 1100 1114 0
1098 -1100 1114 0
-1102 -1104 -1116 0
1102 1104 -1116 0
-1102 1104 1116 0
1102 -1104 1116 0
-1106 -1108 -1118 0
1106 1108 -1118 0
-1106 1108 1118 0
1106 -1108 1118 0
-1110 -1112 -1120 0
1110 1112 -1120 0
-1110 1112 1120 0
1110 -1112 1120 0
-1114 -1116 -1122 0
1114 1116 -1122 0
-1114 1116 1122 0
1114 -1116 1122 0
-1118 -1120 1122 0
1118 1120 1122 0
-1118 1120 -1122 0
1118 -1120 -1122 0
-77 -86 -1196 0
77 86 -1196 0
-77 86 1196 0
77 -86 1196 0
-95 -983 -1126 0
95 983 -1126 0
-95 983 1126 0
95 -983 1126 0
-985 -987 -1128 0
985 987 -1128 0
-985 987 1128 0
985 -987 1128 0
-995 -997 -1132 0
995 997 -1132 0
-995 997 1132 0
995 -997 1132 0
-1001 -1003 -1134 0
1001 1003 -1134 0
-1001 1003 1134 0
1001 -1003 1134 0
-1005 -1007 -1136 0
1005 1007 -1136 0
-1005 1007 1136 0
1005 -1007 1136 0
-1009 -1011 -1138 0
1009 1011 -1138 0
-1009 1011 1138 0
1009 -1011 1138 0
-1013 -1015 -1140 0
1013 1015 -1140 0
-1013 1015 1140 0
1013 -1015 1140 0
-1017 -1019 -1142 0
1017 1019 -1142 0
-1017 1019 1142 0
1017 -1019 1142 0
-1021 -1023 -1144 0
1021 1023 -1144 0
-1021 1023 1144 0
1021 -1023 1144 0
-1025 -1027 -1146 0
1025 1027 -1146 0
-1025 1027 1146 0
1025 -1027 1146 0
-1029 -1031 -1148 0
1029 1031 -1148 0
-1029 1031 1148 0
1029 -1031 1148 0
-1033 -1035 -1150 0
1033 1035 -1150 0
-1033 1035 1150 0
1033 -1035 1150 0
-1037 -1039 -1152 0
1037 1039 -1152 0
-1037 1039 1152 0
1037 -1039 1152 0
-1041 -1043 -1154 0
1041 1043 -1154 0
-1041 1043 1154 0
1041 -1043 1154 0
-1045 -1047 -1156 0
1045 1047 -1156 0
-1045 1047 1156 0
1045 -1047 1156 0
-1049 -1051 -1158 0
1049 1051 -1158 0
-1049 1051 1158 0
1049 -1051 1158 0
-1055 -1057 -1160 0
1055 1057 -1160 0
-1055 1057 1160 0
1055 -1057 1160 0
-1059 -1061 -1162 0
1059 1061 -1162 0
-1059 1061 1162 0
1059 -1061 1162 0
-1063 -1065 -1164 0
1063 1065 -1164 0
-1063 1065 1164 0
1063 -1065 1164 0
-1067 -1069 -1166 0
1067 1069 -1166 0
-1067 1069 1166 0
1067 -1069 1166 0
-1071 -1073 -1168 0
1071 1073 -1168 0
-1071 1073 1168 0
1071 -1073 1168 0
-1075 -1077 -1170 0
1075 1077 -1170 0
-1075 1077 1170 0
1075 -1077 1170 0
-1079 -1081 -1172 0
1079 1081 -1172 0
-1079 1081 1172 0
1079 -1081 1172 0
-1083 -1085 -1174 0
1083 1085 -1174 0
-1083 1085 1174 0
1083 -1085 1174 0
-1087 -1089 -1176 0
1087 1089 -1176 0
-1087 1089 1176 0
1087 -1089 1176 0
-1091 -1093 -1178 0
1091 1093 -1178 0
-1091 1093 1178 0
1091 -1093 1178 0
-1095 -1097 -1180 0
1095 1097 -1180 0
-1095 1097 1180 0
1095 -1097 1180 0
-1099 -1101 -1182 0
1099 1101 -1182 0
-1099 1101 1182 0
1099 -1101 1182 0
-1103 -1105 -1184 0
1103 1105 -1184 0
-1103 1105 1184 0
1103 -1105 1184 0
-1107 -1109 -1186 0
1107 1109 -1186 0
-1107 1109 1186 0
1107 -1109 1186 0
-1111 -1113 -1188 0
1111 1113 -1188 0
-1111 1113 1188 0
1111 -1113 1188 0
-1115 -1117 -1190 0
1115 1117 -1190 0
-1115 1117 1190 0
1115 -1117 1190 0
-1119 -1121 -1192 0
1119 1121 -1192 0
-1119 1121 1192 0
1119 -1121 1192 0
-1123 -1124 -1194 0
1123 1124 -1194 0
-1123 1124 1194 0
1123 -1124 1194 0
-1126 -1128 -1197 0
1126 1128 -1197 0
-1126 1128 1197 0
1126 -1128 1197 0
-1129 -1130 -1198 0
1129 1130 -1198 0
-1129 1130 1198 0
1129 -1130 1198 0
-1131 -1132 -1200 0
1131 1132 -1200 0
-1131 1132 1200 0
1131 -1132 1200 0
-1133 -1134 -1202 0
1133 1134 -1202 0
-1133 1134 1202 0
1133 -1134 1202 0
-1136 -1138 -1204 0
1136 1138 -1204 0
-1136 1138 1204 0
1136 -1138 1204 0
-1140 -1142 -1206 0
1140 1142 -1206 0
-1140 1142 1206 0
1140 -1142 1206 0
-1144 -1146 -1208 0
1144 1146 -1208 0
-1144 1146 1208 0
1144 -1146 1208 0
-1148 -1150 -1210 0
1148 1150 -1210 0
-1148 1150 1210 0
1148 -1150 1210 0
-1152 -1154 -1212 0
1152 1154 -1212 0
-1152 1154 1212 0
1152 -1154 1212 0
-1156 -1158 -1214 0
1156 1158 -1214 0
-1156 1158 1214 0
1156 -1158 1214 0
-1159 -1160 -1216 0
1159 1160 -1216 0
-1159 1160 1216 0
1159 -1160 1216 0
-1162 -1164 -1218 0
1162 1164 -1218 0
-1162 1164 1218 0
1162 -1164 1218 0
-1166 -1168 -1220 0
1166 1168 -1220 0
-1166 1168 1220 0
1166 -1168 1220 0
-1170 -1172 -1222 0
1170 1172 -1222 0
-1170 1172 1222 0
1170 -1172 1222 0
-1174 -1176 -1224 0
1174 1176 -1224 0
-1174 1176 1224 0
1174 -1176 1224 0
-1178 -1180 -1226 0
1178 1180 -1226 0
-1178 1180 1226 0
1178 -1180 1226 0
-1182 -1184 -1228 0
1182 1184 -1228 0
-1182 1184 1228 0
1182 -1184 1228 0
-1186 -1188 -1230 0
1186 1188 -1230 0
-1186 1188 1230 0
1186 -1188 1230 0
-1190 -1192 -1232 0
1190 1192 -1232 0
-1190 1192 1232 0
1190 -1192 1232 0
-1194 -1196 -1234 0
1194 1196 -1234 0
-1194 1196 1234 0
1194 -1196 1234 0
-1197 -1198 -1236 0
1197 1198 -1236 0
-1197 1198 1236 0
1197 -1198 1236 0
-1200 -1202 -1238 0
1200 1202 -1238 0
-1200 1202 1238 0
1200 -1202 1238 0
-1204 -1206 -1240 0
1204 1206 -1240 0
-1204 1206 1240 0
1204 -1206 1240 0
-1208 -1210 -1242 0
1208 1210 -1242 0
-1208 1210 1242 0
1208 -1210 1242 0
-1212 -1214 -1244 0
1212 1214 -1244 0
-1212 1214 1244 0
1212 -1214 1244 0
-1216 -1218 -1246 0
1216 1218 -1246 0
-1216 1218 1246 0
1216 -1218 1246 0
-1220 -1222 -1248 0
1220 1222 -1248 0
-1220 1222 1248 0
1220 -1222 1248 0
-1224 -1226 -1250 0
1224 1226 -1250 0
-1224 1226 1250 0
1224 -1226 1250 0
-1228 -1230 -1252 0
1228 1230 -1252 0
-1228 1230 1252 0
1228 -1230 1252 0
-1232 -1234 -1254 0
1232 1234 -1254 0
-1232 1234 1254 0
1232 -1234 1254 0
-1236 -1238 -1256 0
1236 1238 -1256 0
-1236 1238 1256 0
1236 -1238 1256 0
-1240 -1242 -1258 0
1240 1242 -1258 0
-1240 1242 1258 0
1240 -1242 1258 0
-1244 -1246 -1260 0
1244 1246 -1260 0
-1244 1246 1260 0
1244 -1246 1260 0
-1248 -1250 -1262 0
1248 1250 -1262 0
-1248 1250 1262 0
1248 -1250 1262 0
-1252 -1254 -1264 0
1252 1254 -1264 0
-1252 1254 1264 0
1252 -1254 1264 0
-1256 -1258 -1266 0
1256 1258 -1266 0
-1256 1258 1266 0
1256 -1258 1266 0
-1260 -1262 -1268 0
1260 1262 -1268 0
-1260 1262 1268 0
1260 -1262 1268 0
-1264 -1266 1268 0
1264 1266 1268 0
-1264 1266 -1268 0
1264 -1266 -1268 0
-87 -96 -1270 0
87 96 -1270 0
-87 96 1270 0
87 -96 1270 0
-1125 -1127 -1272 0
1125 1127 -1272 0
-1125 1127 1272 0
1125 -1127 1272 0
-1135 -1137 -1275 0
1135 1137 -1275 0
-1135 1137 1275 0
1135 -1137 1275 0
-1139 -1141 -1277 0
1139 1141 -1277 0
-1139 1141 1277 0
1139 -1141 1277 0
-1143 -1145 -1279 0
1143 1145 -1279 0
-1143 1145 1279 0
1143 -1145 1279 0
-1147 -1149 -1281 0
1147 1149 -1281 0
-1147 1149 1281 0
1147 -1149 1281 0
-1151 -1153 -1283 0
1151 1153 -1283 0
-1151 1153 1283 0
1151 -1153 1283 0
-1155 -1157 -1285 0
1155 1157 -1285 0
-1155 1157 1285 0
1155 -1157 1285 0
-1161 -1163 -1288 0
1161 1163 -1288 0
-1161 1163 1288 0
1161 -1163 1288 0
-1165 -1167 -1289 0
1165 1167 -1289 0
-1165 1167 1289 0
1165 -1167 1289 0
-1169 -1171 -1291 0
1169 1171 -1291 0
-1169 1171 1291 0
1169 -1171 1291 0
-1173 -1175 -1293 0
1173 1175 -1293 0
-1173 1175 1293 0
1173 -1175 1293 0
-1177 -1179 -1295 0
1177 1179 -1295 0
-1177 1179 1295 0
1177 -1179 1295 0
-1181 -1183 -1297 0
1181 1183 -1297 0
-1181 1183 1297 0
1181 -1183 1297 0
-1185 -1187 -1299 0
1185 1187 -1299 0
-1185 1187 1299 0
1185 -1187 1299 0
-1189 -1191 -1301 0
1189 1191 -1301 0
-1189 1191 1301 0
1189 -1191 1301 0
-1193 -1195 -1303 0
1193 1195 -1303 0
-1193 1195 1303 0
1193 -1195 1303 0
-1199 -1201 -1306 0
1199 1201 -1306 0
-1199 1201 1306 0
1199 -1201 1306 0
-1203 -1205 -1307 0
1203 1205 -1307 0
-1203 1205 1307 0
1203 -1205 1307 0
-1207 -1209 -1309 0
1207 1209 -1309 0
-1207 1209 1309 0
1207 -1209 1309 0
-1211 -1213 -1311 0
1211 1213 -1311 0
-1211 1213 1311 0
1211 -1213 1311 0
-1215 -1217 -1313 0
1215 1217 -1313 0
-1215 1217 1313 0
1215 -1217 1313 0
-1219 -1221 -1315 0
1219 1221 -1315 0
-1219 1221 1315 0
1219 -1221 1315 0
-1223 -1225 -1317 0
1223 1225 -1317 0
-1223 1225 1317 0
1223 -1225 1317 0
-1227 -1229 -1319 0
1227 1229 -1319 0
-1227 1229 1319 0
1227 -1229 1319 0
-1231 -1233 -1321 0
1231 1233 -1321 0
-1231 1233 1321 0
1231 -1233 1321 0
-1235 -1237 -1323 0
1235 1237 -1323 0
-1235 1237 1323 0
1235 -1237 1323 0
-1239 -1241 -1325 0
1239 1241 -1325 0
-1239 1241 1325 0
1239 -1241 1325 0
-1243 -1245 -1327 0
1243 1245 -1327 0
-1243 1245 1327 0
1243 -1245 1327 0
-1247 -1249 -1329 0
1247 1249 -1329 0
-1247 1249 1329 0
1247 -1249 1329 0
-1251 -1253 -1331 0
1251 1253 -1331 0
-1251 1253 1331 0
1251 -1253 1331 0
-1255 -1257 -1333 0
1255 1257 -1333 0
-1255 1257 1333 0
1255 -1257 1333 0
-1259 -1261 -1335 0
1259 1261 -1335 0
-1259 1261 1335 0
1259 -1261 1335 0
-1263 -1265 -1337 0
1263 1265 -1337 0
-1263 1265 1337 0
1263 -1265 1337 0
-1267 -1269 -1339 0
1267 1269 -1339 0
-1267 1269 1339 0
1267 -1269 1339 0
-1270 -1272 -1341 0
1270 1272 -1341 0
-1270 1272 1341 0
1270 -1272 1341 0
-1274 -1275 -1342 0
1274 1275 -1342 0
-1274 1275 1342 0
1274 -1275 1342 0
-1277 -1279 -1344 0
1277 1279 -1344 0
-1277 1279 1344 0
1277 -1279 1344 0
-1281 -1283 -1346 0
1281 1283 -1346 0
-1281 1283 1346 0
1281 -1283 1346 0
-1285 -1287 -1348 0
1285 1287 -1348 0
-1285 1287 1348 0
1285 -1287 1348 0
-1288 -1289 -1350 0
1288 1289 -1350 0
-1288 1289 1350 0
1288 -1289 1350 0
-1291 -1293 -1352 0
1291 1293 -1352 0
-1291 1293 1352 0
1291 -1293 1352 0
-1295 -1297 -1354 0
1295 1297 -1354 0
-1295 1297 1354 0
1295 -1297 1354 0
-1299 -1301 -1356 0
1299 1301 -1356 0
-1299 1301 1356 0
1299 -1301 1356 0
-1303 -1305 -1358 0
1303 1305 -1358 0
-1303 1305 1358 0
1303 -1305 1358 0
-1306 -1307 -1360 0
1306 1307 -1360 0
-1306 1307 1360 0
1306 -1307 1360 0
-1309 -1311 -1362 0
1309 1311 -1362 0
-1309 1311 1362 0
1309 -1311 1362 0
-1313 -1315 -1364 0
1313 1315 -1364 0
-1313 1315 1364 0
1313 -1315 1364 0
-1317 -1319 -1366 0
1317 1319 -1366 0
-1317 1319 1366 0
1317 -1319 1366 0
-1321 -1323 -1368 0
1321 1323 -1368 0
-1321 1323 1368 0
1321 -1323 1368 0
-1325 -1327 -1370 0
1325 1327 -1370 0
-1325 1327 1370 0
1325 -1327 1370 0
-1329 -1331 -1372 0
1329 1331 -1372 0
-1329 1331 1372 0
1329 -1331 1372 0
-1333 -1335 -1374 0
1333 1335 -1374 0
-1333 1335 1374 0
1333 -1335 1374 0
-1337 -1339 -1376 0
1337 1339 -1376 0
-1337 1339 1376 0
1337 -1339 1376 0
-1340 -1341 -1378 0
1340 1341 -1378 0
-1340 1341 1378 0
1340 -1341 1378 0
-1273 -1342 -1380 0
1273 1342 -1380 0
-1273 1342 1380 0
1273 -1342 1380 0
-1344 -1346 -1382 0
1344 1346 -1382 0
-1344 1346 1382 0
1344 -1346 1382 0
-1348 -1350 -1384 0
1348 1350 -1384 0
-1348 1350 1384 0
1348 -1350 1384 0
-1352 -1354 -1386 0
1352 1354 -1386 0
-1352 1354 1386 0
1352 -1354 1386 0
-1356 -1358 -1388 0
1356 1358 -1388 0
-1356 1358 1388 0
1356 -1358 1388 0
-1360 -1362 -1390 0
1360 1362 -1390 0
-1360 1362 1390 0
1360 -1362 1390 0
-1364 -1366 -1392 0
1364 1366 -1392 0
-1364 1366 1392 0
1364 -1366 1392 0
-1368 -1370 -1394 0
1368 1370 -1394 0
-1368 1370 1394 0
1368 -1370 1394 0
-1372 -1374 -1396 0
1372 1374 -1396 0
-1372 1374 1396 0
1372 -1374 1396 0
-1376 -1378 -1398 0
1376 1378 -1398 0
-1376 1378 1398 0
1376 -1378 1398 0
-1380 -1382 -1400 0
1380 1382 -1400 0
-1380 1382 1400 0
1380 -1382 1400 0
-1384 -1386 -1402 0
1384 1386 -1402 0
-1384 1386 1402 0
1384 -1386 1402 0
-1388 -1390 -1404 0
1388 1390 -1404 0
-1388 1390 1404 0
1388 -1390 1404 0
-1392 -1394 -1406 0
1392 1394 -1406 0
-1392 1394 1406 0
1392 -1394 1406 0
-1396 -1398 -1408 0
1396 1398 -1408 0
-1396 1398 1408 0
1396 -1398 1408 0
-1400 -1402 -1410 0
1400 1402 -1410 0
-1400 1402 1410 0
1400 -1402 1410 0
-1404 -1406 -1412 0
1404 1406 -1412 0
-1404 1406 1412 0
1404 -1406 1412 0
-1408 -1410 -1412 0
1408 1410 -1412 0
-1408 1410 1412 0
1408 -1410 1412 0
-97 -1271 -1415 0
97 1271 -1415 0
-97 1271 1415 0
97 -1271 1415 0
-1276 -1278 -1487 0
1276 1278 -1487 0
-1276 1278 1487 0
1276 -1278 1487 0
-1280 -1282 -1417 0
1280 1282 -1417 0
-1280 1282 1417 0
1280 -1282 1417 0
-1284 -1286 -1419 0
1284 1286 -1419 0
-1284 1286 1419 0
1284 -1286 1419 0
-1290 -1292 -1422 0
1290 1292 -1422 0
-1290 1292 1422 0
1290 -1292 1422 0
-1294 -1296 -1423 0
1294 1296 -1423 0
-1294 1296 1423 0
1294 -1296 1423 0
-1298 -1300 -1425 0
1298 1300 -1425 0
-1298 1300 1425 0
1298 -1300 1425 0
-1302 -1304 -1427 0
1302 1304 -1427 0
-1302 1304 1427 0
1302 -1304 1427 0
-1308 -1310 -1429 0
1308 1310 -1429 0
-1308 1310 1429 0
1308 -1310 1429 0
-1312 -1314 -1431 0
1312 1314 -1431 0
-1312 1314 1431 0
1312 -1314 1431 0
-1316 -1318 -1433 0
1316 1318 -1433 0
-1316 1318 1433 0
1316 -1318 1433 0
-1320 -1322 -1435 0
1320 1322 -1435 0
-1320 1322 1435 0
1320 -1322 1435 0
-1324 -1326 -1437 0
1324 1326 -1437 0
-1324 1326 1437 0
1324 -1326 1437 0
-1328 -1330 -1439 0
1328 1330 -1439 0
-1328 1330 1439 0
1328 -1330 1439 0
-1332 -1334 -1441 0
1332 1334 -1441 0
-1332 1334 1441 0
1332 -1334 1441 0
-1336 -1338 -1443 0
1336 1338 -1443 0
-1336 1338 1443 0
1336 -1338 1443 0
-1343 -1345 -1447 0
1343 1345 -1447 0
-1343 1345 1447 0
1343 -1345 1447 0
-1347 -1349 -1449 0
1347 1349 -1449 0
-1347 1349 1449 0
1347 -1349 1449 0
-1351 -1353 -1451 0
1351 1353 -1451 0
-1351 1353 1451 0
1351 -1353 1451 0
-1355 -1357 -1453 0
1355 1357 -1453 0
-1355 1357 1453 0
1355 -1357 1453 0
-1359 -1361 -1455 0
1359 1361 -1455 0
-1359 1361 1455 0
1359 -1361 1455 0
-1363 -1365 -1457 0
1363 1365 -1457 0
-1363 1365 1457 0
1363 -1365 1457 0
-1367 -1369 -1459 0
1367 1369 -1459 0
-1367 1369 1459 0
1367 -1369 1459 0
-1371 -1373 -1461 0
1371 1373 -1461 0
-1371 1373 1461 0
1371 -1373 1461 0
-1375 -1377 -1463 0
1375 1377 -1463 0
-1375 1377 1463 0
1375 -1377 1463 0
-1379 -1381 -1465 0
1379 1381 -1465 0
-1379 1381 1465 0
1379 -1381 1465 0
-1383 -1385 -1467 0
1383 1385 -1467 0
-1383 1385 1467 0
1383 -1385 1467 0
-1387 -1389 -1469 0
1387 1389 -1469 0
-1387 1389 1469 0
1387 -1389 1469 0
-1391 -1393 -1471 0
1391 1393 -1471 0
-1391 1393 1471 0
1391 -1393 1471 0
-1395 -1397 -1473 0
1395 1397 -1473 0
-1395 1397 1473 0
1395 -1397 1473 0
-1399 -1401 -1475 0
1399 1401 -1475 0
-1399 1401 1475 0
1399 -1401 1475 0
-1403 -1405 -1477 0
1403 1405 -1477 0
-1403 1405 1477 0
1403 -1405 1477 0
-1407 -1409 -1479 0
1407 1409 -1479 0
-1407 1409 1479 0
1407 -1409 1479 0
-1411 -1413 -1481 0
1411 1413 -1481 0
-1411 1413 1481 0
1411 -1413 1481 0
-1412 -1414 -1483 0
1412 1414 -1483 0
1412 -1414 1483 0
-1412 1414 1483 0
-1415 -1416 -1485 0
1415 1416 -1485 0
-1415 1416 1485 0
1415 -1416 1485 0
-1417 -1419 -1488 0
1417 1419 -1488 0
-1417 1419 1488 0
1417 -1419 1488 0
-1421 -1422 -1489 0
1421 1422 -1489 0
-1421 1422 1489 0
1421 -1422 1489 0
-1423 -1425 -1491 0
1423 1425 -1491 0
-1423 1425 1491 0
1423 -1425 1491 0
-1427 -1428 -1493 0
1427 1428 -1493 0
-1427 1428 1493 0
1427 -1428 1493 0
-1429 -1431 -1495 0
1429 1431 -1495 0
-1429 1431 1495 0
1429 -1431 1495 0
-1433 -1435 -1497 0
1433 1435 -1497 0
-1433 1435 1497 0
1433 -1435 1497 0
-1437 -1439 -1499 0
1437 1439 -1499 0
-1437 1439 1499 0
1437 -1439 1499 0
-1441 -1443 -1501 0
1441 1443 -1501 0
-1441 1443 1501 0
1441 -1443 1501 0
-1445 -1446 -1503 0
1445 1446 -1503 0
-1445 1446 1503 0
1445 -1446 1503 0
-1447 -1449 -1505 0
1447 1449 -1505 0
-1447 1449 1505 0
1447 -1449 1505 0
-1451 -1453 -1507 0
1451 1453 -1507 0
-1451 1453 1507 0
1451 -1453 1507 0
-1455 -1457 -1509 0
1455 1457 -1509 0
-1455 1457 1509 0
1455 -1457 1509 0
-1459 -1461 -1511 0
1459 1461 -1511 0
-1459 1461 1511 0
1459 -1461 1511 0
-1463 -1465 -1513 0
1463 1465 -1513 0
-1463 1465 1513 0
1463 -1465 1513 0
-1467 -1469 -1515 0
1467 1469 -1515 0
-1467 1469 1515 0
1467 -1469 1515 0
-1471 -1473 -1517 0
1471 1473 -1517 0
-1471 1473 1517 0
1471 -1473 1517 0
-1475 -1477 -1519 0
1475 1477 -1519 0
-1475 1477 1519 0
1475 -1477 1519 0
-1479 -1481 -1521 0
1479 1481 -1521 0
-1479 1481 1521 0
1479 -1481 1521 0
-1483 -1485 -1523 0
1483 1485 -1523 0
-1483 1485 1523 0
1483 -1485 1523 0
-1487 -1488 -1525 0
1487 1488 -1525 0
-1487 1488 1525 0
1487 -1488 1525 0
-1489 -1491 -1527 0
1489 1491 -1527 0
-1489 1491 1527 0
1489 -1491 1527 0
-1493 -1495 -1529 0
1493 1495 -1529 0
-1493 1495 1529 0
1493 -1495 1529 0
-1497 -1499 -1531 0
1497 1499 -1531 0
-1497 1499 1531 0
1497 -1499 1531 0
-1501 -1503 -1533 0
1501 1503 -1533 0
-1501 1503 1533 0
1501 -1503 1533 0
-1505 -1507 -1535 0
1505 1507 -1535 0
-1505 1507 1535 0
1505 -1507 1535 0
-1509 -1511 -1537 0
1509 1511 -1537 0
-1509 1511 1537 0
1509 -1511 1537 0
-1513 -1515 -1539 0
1513 1515 -1539 0
-1513 1515 1539 0
1513 -1515 1539 0
-1517 -1519 -1541 0
1517 1519 -1541 0
-1517 1519 1541 0
1517 -1519 1541 0
-1521 -1523 -1543 0
1521 1523 -1543 0
-1521 1523 1543 0
1521 -1523 1543 0
-1525 -1527 -1545 0
1525 1527 -1545 0
-1525 1527 1545 0
1525 -1527 1545 0
-1529 -1531 -1547 0
1529 1531 -1547 0
-1529 1531 1547 0
1529 -1531 1547 0
-1533 -1535 -1549 0
1533 1535 -1549 0
-1533 1535 1549 0
1533 -1535 1549 0
-1537 -1539 -1551 0
1537 1539 -1551 0
-1537 1539 1551 0
1537 -1539 1551 0
-1541 -1543 -1553 0
1541 1543 -1553 0
-1541 1543 1553 0
1541 -1543 1553 0
-1545 -1547 -1555 0
1545 1547 -1555 0
-1545 1547 1555 0
1545 -1547 1555 0
-1549 -1551 -1557 0
1549 1551 -1557 0
-1549 1551 1557 0
1549 -1551 1557 0
-1553 -1555 1557 0
1553 1555 1557 0
-1553 1555 -1557 0
1553 -1555 -1557 0
-1418 -1420 -1562 0
1418 1420 -1562 0
-1418 1420 1562 0
1418 -1420 1562 0
-1424 -1426 -1564 0
1424 1426 -1564 0
-1424 1426 1564 0
1424 -1426 1564 0
-1430 -1432 -1566 0
1430 1432 -1566 0
-1430 1432 1566 0
1430 -1432 1566 0
-1434 -1436 -1568 0
1434 1436 -1568 0
-1434 1436 1568 0
1434 -1436 1568 0
-1438 -1440 -1570 0
1438 1440 -1570 0
-1438 1440 1570 0
1438 -1440 1570 0
-1442 -1444 -1634 0
1442 1444 -1634 0
-1442 1444 1634 0
1442 -1444 1634 0
-1448 -1450 -1573 0
1448 1450 -1573 0
-1448 1450 1573 0
1448 -1450 1573 0
-1452 -1454 -1574 0
1452 1454 -1574 0
-1452 1454 1574 0
1452 -1454 1574 0
-1456 -1458 -1576 0
1456 1458 -1576 0
-1456 1458 1576 0
1456 -1458 1576 0
-1460 -1462 -1578 0
1460 1462 -1578 0
-1460 1462 1578 0
1460 -1462 1578 0
-1464 -1466 -1580 0
1464 1466 -1580 0
-1464 1466 1580 0
1464 -1466 1580 0
-1468 -1470 -1582 0
1468 1470 -1582 0
-1468 1470 1582 0
1468 -1470 1582 0
-1472 -1474 -1584 0
1472 1474 -1584 0
-1472 1474 1584 0
1472 -1474 1584 0
-1476 -1478 -1586 0
1476 1478 -1586 0
-1476 1478 1586 0
1476 -1478 1586 0
-1480 -1482 -1588 0
1480 1482 -1588 0
-1480 1482 1588 0
1480 -1482 1588 0
-1484 -1486 -1590 0
1484 1486 -1590 0
-1484 1486 1590 0
1484 -1486 1590 0
-1490 -1492 -1592 0
1490 1492 -1592 0
-1490 1492 1592 0
1490 -1492 1592 0
-1494 -1496 -1594 0
1494 1496 -1594 0
-1494 1496 1594 0
1494 -1496 1594 0
-1498 -1500 -1596 0
1498 1500 -1596 0
-1498 1500 1596 0
1498 -1500 1596 0
-1502 -1504 -1598 0
1502 1504 -1598 0
-1502 1504 1598 0
1502 -1504 1598 0
-1506 -1508 -1600 0
1506 1508 -1600 0
-1506 1508 1600 0
1506 -1508 1600 0
-1510 -1512 -1602 0
1510 1512 -1602 0
-1510 1512 1602 0
1510 -1512 1602 0
-1514 -1516 -1604 0
1514 1516 -1604 0
-1514 1516 1604 0
1514 -1516 1604 0
-1518 -1520 -1606 0
1518 1520 -1606 0
-1518 1520 1606 0
1518 -1520 1606 0
-1522 -1524 -1608 0
1522 1524 -1608 0
-1522 1524 1608 0
1522 -1524 1608 0
-1526 -1528 -1610 0
1526 1528 -1610 0
-1526 1528 1610 0
1526 -1528 1610 0
-1530 -1532 -1612 0
1530 1532 -1612 0
-1530 1532 1612 0
1530 -1532 1612 0
-1534 -1536 -1614 0
1534 1536 -1614 0
-1534 1536 1614 0
1534 -1536 1614 0
-1538 -1540 -1616 0
1538 1540 -1616 0
-1538 1540 1616 0
1538 -1540 1616 0
-1542 -1544 -1618 0
1542 1544 -1618 0
-1542 1544 1618 0
1542 -1544 1618 0
-1546 -1548 -1620 0
1546 1548 -1620 0
-1546 1548 1620 0
1546 -1548 1620 0
-1550 -1552 -1622 0
1550 1552 -1622 0
-1550 1552 1622 0
1550 -1552 1622 0
-1554 -1556 -1624 0
1554 1556 -1624 0
-1554 1556 1624 0
1554 -1556 1624 0
-1558 -1559 -1626 0
1558 1559 -1626 0
-1558 1559 1626 0
1558 -1559 1626 0
-1561 -1562 -1628 0
1561 1562 -1628 0
-1561 1562 1628 0
1561 -1562 1628 0
-1563 -1564 -1629 0
1563 1564 -1629 0
-1563 1564 1629 0
1563 -1564 1629 0
-1565 -1566 -1631 0
1565 1566 -1631 0
-1565 1566 1631 0
1565 -1566 1631 0
-1568 -1570 -1633 0
1568 1570 -1633 0
-1568 1570 1633 0
1568 -1570 1633 0
-1573 -1574 -1635 0
1573 1574 -1635 0
-1573 1574 1635 0
1573 -1574 1635 0
-1576 -1578 -1637 0
1576 1578 -1637 0
-1576 1578 1637 0
1576 -1578 1637 0
-1580 -1582 -1639 0
1580 1582 -1639 0
-1580 1582 1639 0
1580 -1582 1639 0
-1584 -1586 -1641 0
1584 1586 -1641 0
-1584 1586 1641 0
1584 -1586 1641 0
-1588 -1590 -1643 0
1588 1590 -1643 0
-1588 1590 1643 0
1588 -1590 1643 0
-1591 -1592 -1645 0
1591 1592 -1645 0
-1591 1592 1645 0
1591 -1592 1645 0
-1594 -1596 -1647 0
1594 1596 -1647 0
-1594 1596 1647 0
1594 -1596 1647 0
-1598 -1600 -1649 0
1598 1600 -1649 0
-1598 1600 1649 0
1598 -1600 1649 0
-1602 -1604 -1651 0
1602 1604 -1651 0
-1602 1604 1651 0
1602 -1604 1651 0
-1606 -1608 -1653 0
1606 1608 -1653 0
-1606 1608 1653 0
1606 -1608 1653 0
-1610 -1612 -1655 0
1610 1612 -1655 0
-1610 1612 1655 0
1610 -1612 1655 0
-1614 -1616 -1657 0
1614 1616 -1657 0
-1614 1616 1657 0
1614 -1616 1657 0
-1618 -1620 -1659 0
1618 1620 -1659 0
-1618 1620 1659 0
1618 -1620 1659 0
-1622 -1624 -1661 0
1622 1624 -1661 0
-1622 1624 1661 0
1622 -1624 1661 0
-1560 -1626 -1663 0
1560 1626 -1663 0
1560 -1626 1663 0
-1560 1626 1663 0
-1628 -1629 -1665 0
1628 1629 -1665 0
-1628 1629 1665 0
1628 -1629 1665 0
-1631 -1633 -1667 0
1631 1633 -1667 0
-1631 1633 1667 0
1631 -1633 1667 0
-1634 -1635 -1669 0
1634 1635 -1669 0
-1634 1635 1669 0
1634 -1635 1669 0
-1637 -1639 -1671 0
1637 1639 -1671 0
-1637 1639 1671 0
1637 -1639 1671 0
-1641 -1643 -1673 0
1641 1643 -1673 0
-1641 1643 1673 0
1641 -1643 1673 0
-1645 -1647 -1675 0
1645 1647 -1675 0
-1645 1647 1675 0
1645 -1647 1675 0
-1649 -1651 -1677 0
1649 1651 -1677 0
-1649 1651 1677 0
1649 -1651 1677 0
-1653 -1655 -1679 0
1653 1655 -1679 0
-1653 1655 1679 0
1653 -1655 1679 0
-1657 -1659 -1681 0
1657 1659 -1681 0
-1657 1659 1681 0
1657 -1659 1681 0
-1661 -1663 -1683 0
1661 1663 -1683 0
-1661 1663 1683 0
1661 -1663 1683 0
-1665 -1667 -1685 0
1665 1667 -1685 0
-1665 1667 1685 0
1665 -1667 1685 0
-1669 -1671 -1687 0
1669 1671 -1687 0
-1669 1671 1687 0
1669 -1671 1687 0
-1673 -1675 -1689 0
1673 1675 -1689 0
-1673 1675 1689 0
1673 -1675 1689 0
-1677 -1679 -1691 0
1677 1679 -1691 0
-1677 1679 1691 0
1677 -1679 1691 0
-1681 -1683 -1693 0
1681 1683 -1693 0
-1681 1683 1693 0
1681 -1683 1693 0
-1685 -1687 -1695 0
1685 1687 -1695 0
-1685 1687 1695 0
1685 -1687 1695 0
-1689 -1691 -1697 0
1689 1691 -1697 0
-1689 1691 1697 0
1689 -1691 1697 0
-1693 -1695 -1697 0
1693 1695 -1697 0
-1693 1695 1697 0
1693 -1695 1697 0
-1567 -1569 -1702 0
1567 1569 -1702 0
-1567 1569 1702 0
1567 -1569 1702 0
-1571 -1572 -1703 0
1571 1572 -1703 0
-1571 1572 1703 0
1571 -1572 1703 0
-1575 -1577 -1705 0
1575 1577 -1705 0
-1575 1577 1705 0
1575 -1577 1705 0
-1579 -1581 -1707 0
1579 1581 -1707 0
-1579 1581 1707 0
1579 -1581 1707 0
-1583 -1585 -1709 0
1583 1585 -1709 0
-1583 1585 1709 0
1583 -1585 1709 0
-1587 -1589 -1711 0
1587 1589 -1711 0
-1587 1589 1711 0
1587 -1589 1711 0
-1593 -1595 -1714 0
1593 1595 -1714 0
-1593 1595 1714 0
1593 -1595 1714 0
-1597 -1599 -1715 0
1597 1599 -1715 0
-1597 1599 1715 0
1597 -1599 1715 0
-1601 -1603 -1717 0
1601 1603 -1717 0
-1601 1603 1717 0
1601 -1603 1717 0
-1605 -1607 -1719 0
1605 1607 -1719 0
-1605 1607 1719 0
1605 -1607 1719 0
-1609 -1611 -1721 0
1609 1611 -1721 0
-1609 1611 1721 0
1609 -1611 1721 0
-1613 -1615 -1723 0
1613 1615 -1723 0
-1613 1615 1723 0
1613 -1615 1723 0
-1617 -1619 -1725 0
1617 1619 -1725 0
-1617 1619 1725 0
1617 -1619 1725 0
-1621 -1623 -1727 0
1621 1623 -1727 0
-1621 1623 1727 0
1621 -1623 1727 0
-1625 -1627 -1729 0
1625 1627 -1729 0
-1625 1627 1729 0
1625 -1627 1729 0
-1630 -1632 -1732 0
1630 1632 -1732 0
-1630 1632 1732 0
1630 -1632 1732 0
-1636 -1638 -1734 0
1636 1638 -1734 0
-1636 1638 1734 0
1636 -1638 1734 0
-1640 -1642 -1735 0
1640 1642 -1735 0
-1640 1642 1735 0
1640 -1642 1735 0
-1644 -1646 -1737 0
1644 1646 -1737 0
-1644 1646 1737 0
1644 -1646 1737 0
-1648 -1650 -1739 0
1648 1650 -1739 0
-1648 1650 1739 0
1648 -1650 1739 0
-1652 -1654 -1741 0
1652 1654 -1741 0
-1652 1654 1741 0
1652 -1654 1741 0
-1656 -1658 -1743 0
1656 1658 -1743 0
-1656 1658 1743 0
1656 -1658 1743 0
-1660 -1662 -1745 0
1660 1662 -1745 0
-1660 1662 1745 0
1660 -1662 1745 0
-1664 -1666 -1747 0
1664 1666 -1747 0
-1664 1666 1747 0
1664 -1666 1747 0
-1668 -1670 -1749 0
1668 1670 -1749 0
-1668 1670 1749 0
1668 -1670 1749 0
-1672 -1674 -1751 0
1672 1674 -1751 0
-1672 1674 1751 0
1672 -1674 1751 0
-1676 -1678 -1753 0
1676 1678 -1753 0
-1676 1678 1753 0
1676 -1678 1753 0
-1680 -1682 -1755 0
1680 1682 -1755 0
-1680 1682 1755 0
1680 -1682 1755 0
-1684 -1686 -1757 0
1684 1686 -1757 0
-1684 1686 1757 0
1684 -1686 1757 0
-1688 -1690 -1759 0
1688 1690 -1759 0
-1688 1690 1759 0
1688 -1690 1759 0
-1692 -1694 -1761 0
1692 1694 -1761 0
-1692 1694 1761 0
1692 -1694 1761 0
-1696 -1698 -1763 0
1696 1698 -1763 0
-1696 1698 1763 0
1696 -1698 1763 0
-1697 -1699 -1765 0
1697 1699 -1765 0
1697 -1699 1765 0
-1697 1699 1765 0
-1701 -1702 -1767 0
1701 1702 -1767 0
-1701 1702 1767 0
1701 -1702 1767 0
-1703 -1704 -1768 0
1703 1704 -1768 0
-1703 1704 1768 0
1703 -1704 1768 0
-1705 -1707 -1770 0
1705 1707 -1770 0
-1705 1707 1770 0
1705 -1707 1770 0
-1709 -1711 -1772 0
1709 1711 -1772 0
-1709 1711 1772 0
1709 -1711 1772 0
-1713 -1714 -1774 0
1713 1714 -1774 0
-1713 1714 1774 0
1713 -1714 1774 0
-1715 -1717 -1776 0
1715 1717 -1776 0
-1715 1717 1776 0
1715 -1717 1776 0
-1719 -1721 -1778 0
1719 1721 -1778 0
-1719 1721 1778 0
1719 -1721 1778 0
-1723 -1725 -1780 0
1723 1725 -1780 0
-1723 1725 1780 0
1723 -1725 1780 0
-1727 -1729 -1782 0
1727 1729 -1782 0
-1727 1729 1782 0
1727 -1729 1782 0
-1731 -1732 -1784 0
1731 1732 -1784 0
-1731 1732 1784 0
1731 -1732 1784 0
-1733 -1734 -1786 0
1733 1734 -1786 0
-1733 1734 1786 0
1733 -1734 1786 0
-1735 -1737 -1788 0
1735 1737 -1788 0
-1735 1737 1788 0
1735 -1737 1788 0
-1739 -1741 -1790 0
1739 1741 -1790 0
-1739 1741 1790 0
1739 -1741 1790 0
-1743 -1745 -1792 0
1743 1745 -1792 0
-1743 1745 1792 0
1743 -1745 1792 0
-1747 -1749 -1794 0
1747 1749 -1794 0
-1747 1749 1794 0
1747 -1749 1794 0
-1751 -1753 -1796 0
1751 1753 -1796 0
-1751 1753 1796 0
1751 -1753 1796 0
-1755 -1757 -1798 0
1755 1757 -1798 0
-1755 1757 1798 0
1755 -1757 1798 0
-1759 -1761 -1800 0
1759 1761 -1800 0
-1759 1761 1800 0
1759 -1761 1800 0
-1763 -1765 -1802 0
1763 1765 -1802 0
-1763 1765 1802 0
1763 -1765 1802 0
-1700 -1767 -1804 0
1700 1767 -1804 0
-1700 1767 1804 0
1700 -1767 1804 0
-1768 -1770 -1806 0
1768 1770 -1806 0
-1768 1770 1806 0
1768 -1770 1806 0
-1772 -1774 -1808 0
1772 1774 -1808 0
-1772 1774 1808 0
1772 -1774 1808 0
-1776 -1778 -1810 0
1776 1778 -1810 0
-1776 1778 1810 0
1776 -1778 1810 0
-1780 -1782 -1812 0
1780 1782 -1812 0
-1780 1782 1812 0
1780 -1782 1812 0
-1784 -1786 -1814 0
1784 1786 -1814 0
-1784 1786 1814 0
1784 -1786 1814 0
-1788 -1790 -1816 0
1788 1790 -1816 0
-1788 1790 1816 0
1788 -1790 1816 0
-1792 -1794 -1818 0
1792 1794 -1818 0
-1792 1794 1818 0
1792 -1794 1818 0
-1796 -1798 -1820 0
1796 1798 -1820 0
-1796 1798 1820 0
1796 -1798 1820 0
-1800 -1802 -1822 0
1800 1802 -1822 0
-1800 1802 1822 0
1800 -1802 1822 0
-1804 -1806 -1824 0
1804 1806 -1824 0
-1804 1806 1824 0
1804 -1806 1824 0
-1808 -1810 -1826 0
1808 1810 -1826 0
-1808 1810 1826 0
1808 -1810 1826 0
-1812 -1814 -1828 0
1812 1814 -1828 0
-1812 1814 1828 0
1812 -1814 1828 0
-1816 -1818 -1830 0
1816 1818 -1830 0
-1816 1818 1830 0
1816 -1818 1830 0
-1820 -1822 -1832 0
1820 1822 -1832 0
-1820 1822 1832 0
1820 -1822 1832 0
-1824 -1826 -1834 0
1824 1826 -1834 0
-1824 1826 1834 0
1824 -1826 1834 0
-1828 -1830 -1836 0
1828 1830 -1836 0
-1828 1830 1836 0
1828 -1830 1836 0
-1832 -1834 -1836 0
1832 1834 -1836 0
-1832 1834 1836 0
1832 -1834 1836 0
-1706 -1708 -1841 0
1706 1708 -1841 0
-1706 1708 1841 0
1706 -1708 1841 0
-1710 -1712 -1842 0
1710 1712 -1842 0
-1710 1712 1842 0
1710 -1712 1842 0
-1716 -1718 -1844 0
1716 1718 -1844 0
-1716 1718 1844 0
1716 -1718 1844 0
-1720 -1722 -1846 0
1720 1722 -1846 0
-1720 1722 1846 0
1720 -1722 1846 0
-1724 -1726 -1848 0
1724 1726 -1848 0
-1724 1726 1848 0
1724 -1726 1848 0
-1728 -1730 -1850 0
1728 1730 -1850 0
-1728 1730 1850 0
1728 -1730 1850 0
-1736 -1738 -1854 0
1736 1738 -1854 0
-1736 1738 1854 0
1736 -1738 1854 0
-1740 -1742 -1856 0
1740 1742 -1856 0
-1740 1742 1856 0
1740 -1742 1856 0
-1744 -1746 -1858 0
1744 1746 -1858 0
-1744 1746 1858 0
1744 -1746 1858 0
-1748 -1750 -1860 0
1748 1750 -1860 0
-1748 1750 1860 0
1748 -1750 1860 0
-1752 -1754 -1862 0
1752 1754 -1862 0
-1752 1754 1862 0
1752 -1754 1862 0
-1756 -1758 -1864 0
1756 1758 -1864 0
-1756 1758 1864 0
1756 -1758 1864 0
-1760 -1762 -1866 0
1760 1762 -1866 0
-1760 1762 1866 0
1760 -1762 1866 0
-1764 -1766 -1868 0
1764 1766 -1868 0
-1764 1766 1868 0
1764 -1766 1868 0
-1769 -1771 -1871 0
1769 1771 -1871 0
-1769 1771 1871 0
1769 -1771 1871 0
-1773 -1775 -1872 0
1773 1775 -1872 0
-1773 1775 1872 0
1773 -1775 1872 0
-1777 -1779 -1874 0
1777 1779 -1874 0
-1777 1779 1874 0
1777 -1779 1874 0
-1781 -1783 -1876 0
1781 1783 -1876 0
-1781 1783 1876 0
1781 -1783 1876 0
-1785 -1787 -1878 0
1785 1787 -1878 0
-1785 1787 1878 0
1785 -1787 1878 0
-1789 -1791 -1880 0
1789 1791 -1880 0
-1789 1791 1880 0
1789 -1791 1880 0
-1793 -1795 -1882 0
1793 1795 -1882 0
-1793 1795 1882 0
1793 -1795 1882 0
-1797 -1799 -1884 0
1797 1799 -1884 0
-1797 1799 1884 0
1797 -1799 1884 0
-1801 -1803 -1886 0
1801 1803 -1886 0
-1801 1803 1886 0
1801 -1803 1886 0
-1805 -1807 -1888 0
1805 1807 -1888 0
-1805 1807 1888 0
1805 -1807 1888 0
-1809 -1811 -1890 0
1809 1811 -1890 0
-1809 1811 1890 0
1809 -1811 1890 0
-1813 -1815 -1892 0
1813 1815 -1892 0
-1813 1815 1892 0
1813 -1815 1892 0
-1817 -1819 -1894 0
1817 1819 -1894 0
-1817 1819 1894 0
1817 -1819 1894 0
-1821 -1823 -1896 0
1821 1823 -1896 0
-1821 1823 1896 0
1821 -1823 1896 0
-1825 -1827 -1898 0
1825 1827 -1898 0
-1825 1827 1898 0
1825 -1827 1898 0
-1829 -1831 -1900 0
1829 1831 -1900 0
-1829 1831 1900 0
1829 -1831 1900 0
-1833 -1835 -1902 0
1833 1835 -1902 0
-1833 1835 1902 0
1833 -1835 1902 0
-1837 -1838 -1904 0
1837 1838 -1904 0
-1837 1838 1904 0
1837 -1838 1904 0
-1839 -1840 -1905 0
1839 1840 -1905 0
-1839 1840 1905 0
1839 -1840 1905 0
-1841 -1842 -1907 0
1841 1842 -1907 0
-1841 1842 1907 0
1841 -1842 1907 0
-1843 -1844 -1909 0
1843 1844 -1909 0
-1843 1844 1909 0
1843 -1844 1909 0
-1846 -1848 -1911 0
1846 1848 -1911 0
-1846 1848 1911 0
1846 -1848 1911 0
-1850 -1852 -1913 0
1850 1852 -1913 0
-1850 1852 1913 0
1850 -1852 1913 0
-1853 -1854 -1915 0
1853 1854 -1915 0
-1853 1854 1915 0
1853 -1854 1915 0
-1856 -1858 -1917 0
1856 1858 -1917 0
-1856 1858 1917 0
1856 -1858 1917 0
-1860 -1862 -1919 0
1860 1862 -1919 0
-1860 1862 1919 0
1860 -1862 1919 0
-1864 -1866 -1921 0
1864 1866 -1921 0
-1864 1866 1921 0
1864 -1866 1921 0
-1868 -1870 -1923 0
1868 1870 -1923 0
-1868 1870 1923 0
1868 -1870 1923 0
-1871 -1872 -1925 0
1871 1872 -1925 0
-1871 1872 1925 0
1871 -1872 1925 0
-1874 -1876 -1927 0
1874 1876 -1927 0
-1874 1876 1927 0
1874 -1876 1927 0
-1878 -1880 -1929 0
1878 1880 -1929 0
-1878 1880 1929 0
1878 -1880 1929 0
-1882 -1884 -1931 0
1882 1884 -1931 0
-1882 1884 1931 0
1882 -1884 1931 0
-1886 -1888 -1933 0
1886 1888 -1933 0
-1886 1888 1933 0
1886 -1888 1933 0
-1890 -1892 -1935 0
1890 1892 -1935 0
-1890 1892 1935 0
1890 -1892 1935 0
-1894 -1896 -1937 0
1894 1896 -1937 0
-1894 1896 1937 0
1894 -1896 1937 0
-1898 -1900 -1939 0
1898 1900 -1939 0
-1898 1900 1939 0
1898 -1900 1939 0
-1902 -1904 -1941 0
1902 1904 -1941 0
-1902 1904 1941 0
1902 -1904 1941 0
-1836 -1905 -1943 0
1836 1905 -1943 0
-1836 1905 1943 0
1836 -1905 1943 0
-1907 -1909 -1945 0
1907 1909 -1945 0
-1907 1909 1945 0
1907 -1909 1945 0
-1911 -1913 -1947 0
1911 1913 -1947 0
-1911 1913 1947 0
1911 -1913 1947 0
-1915 -1917 -1949 0
1915 1917 -1949 0
-1915 1917 1949 0
1915 -1917 1949 0
-1919 -1921 -1951 0
1919 1921 -1951 0
-1919 1921 1951 0
1919 -1921 1951 0
-1923 -1925 -1953 0
1923 1925 -1953 0
-1923 1925 1953 0
1923 -1925 1953 0
-1927 -1929 -1955 0
1927 1929 -1955 0
-1927 1929 1955 0
1927 -1929 1955 0
-1931 -1933 -1957 0
1931 1933 -1957 0
-1931 1933 1957 0
1931 -1933 1957 0
-1935 -1937 -1959 0
1935 1937 -1959 0
-1935 1937 1959 0
1935 -1937 1959 0
-1939 -1941 -1961 0
1939 1941 -1961 0
-1939 1941 1961 0
1939 -1941 1961 0
-1943 -1945 -1963 0
1943 1945 -1963 0
-1943 1945 1963 0
1943 -1945 1963 0
-1947 -1949 -1965 0
1947 1949 -1965 0
-1947 1949 1965 0
1947 -1949 1965 0
-1951 -1953 -1967 0
1951 1953 -1967 0
-1951 1953 1967 0
1951 -1953 1967 0
-1955 -1957 -1969 0
1955 1957 -1969 0
-1955 1957 1969 0
1955 -1957 1969 0
-1959 -1961 -1971 0
1959 1961 -1971 0
-1959 1961 1971 0
1959 -1961 1971 0
-1963 -1965 -1973 0
1963 1965 -1973 0
-1963 1965 1973 0
1963 -1965 1973 0
-1967 -1969 -1975 0
1967 1969 -1975 0
-1967 1969 1975 0
1967 -1969 1975 0
-1971 -1973 -1975 0
1971 1973 -1975 0
-1971 1973 1975 0
1971 -1973 1975 0
-1845 -1847 -1980 0
1845 1847 -1980 0
-1845 1847 1980 0
1845 -1847 1980 0
-1849 -1851 -2043 0
1849 1851 -2043 0
-1849 1851 2043 0
1849 -1851 2043 0
-1855 -1857 -1981 0
1855 1857 -1981 0
-1855 1857 1981 0
1855 -1857 1981 0
-1859 -1861 -1983 0
1859 1861 -1983 0
-1859 1861 1983 0
1859 -1861 1983 0
-1863 -1865 -1985 0
1863 1865 -1985 0
-1863 1865 1985 0
1863 -1865 1985 0
-1867 -1869 -1987 0
1867 1869 -1987 0
-1867 1869 1987 0
1867 -1869 1987 0
-1873 -1875 -1990 0
1873 1875 -1990 0
-1873 1875 1990 0
1873 -1875 1990 0
-1877 -1879 -1991 0
1877 1879 -1991 0
-1877 1879 1991 0
1877 -1879 1991 0
-1881 -1883 -1993 0
1881 1883 -1993 0
-1881 1883 1993 0
1881 -1883 1993 0
-1885 -1887 -1995 0
1885 1887 -1995 0
-1885 1887 1995 0
1885 -1887 1995 0
-1889 -1891 -1997 0
1889 1891 -1997 0
-1889 1891 1997 0
1889 -1891 1997 0
-1893 -1895 -1999 0
1893 1895 -1999 0
-1893 1895 1999 0
1893 -1895 1999 0
-1897 -1899 -2001 0
1897 1899 -2001 0
-1897 1899 2001 0
1897 -1899 2001 0
-1901 -1903 -2003 0
1901 1903 -2003 0
-1901 1903 2003 0
1901 -1903 2003 0
-1906 -1908 -2005 0
1906 1908 -2005 0
-1906 1908 2005 0
1906 -1908 2005 0
-1910 -1912 -2007 0
1910 1912 -2007 0
-1910 1912 2007 0
1910 -1912 2007 0
-1914 -1916 -2009 0
1914 1916 -2009 0
-1914 1916 2009 0
1914 -1916 2009 0
-1918 -1920 -2011 0
1918 1920 -2011 0
-1918 1920 2011 0
1918 -1920 2011 0
-1922 -1924 -2013 0
1922 1924 -2013 0
-1922 1924 2013 0
1922 -1924 2013 0
-1926 -1928 -2015 0
1926 1928 -2015 0
-1926 1928 2015 0
1926 -1928 2015 0
-1930 -1932 -2017 0
1930 1932 -2017 0
-1930 1932 2017 0
1930 -1932 2017 0
-1934 -1936 -2019 0
1934 1936 -2019 0
-1934 1936 2019 0
1934 -1936 2019 0
-1938 -1940 -2021 0
1938 1940 -2021 0
-1938 1940 2021 0
1938 -1940 2021 0
-1942 -1944 -2023 0
1942 1944 -2023 0
-1942 1944 2023 0
1942 -1944 2023 0
-1946 -1948 -2025 0
1946 1948 -2025 0
-1946 1948 2025 0
1946 -1948 2025 0
-1950 -1952 -2027 0
1950 1952 -2027 0
-1950 1952 2027 0
1950 -1952 2027 0
-1954 -1956 -2029 0
1954 1956 -2029 0
-1954 1956 2029 0
1954 -1956 2029 0
-1958 -1960 -2031 0
1958 1960 -2031 0
-1958 1960 2031 0
1958 -1960 2031 0
-1962 -1964 -2033 0
1962 1964 -2033 0
-1962 1964 2033 0
1962 -1964 2033 0
-1966 -1968 -2035 0
1966 1968 -2035 0
-1966 1968 2035 0
1966 -1968 2035 0
-1970 -1972 -2037 0
1970 1972 -2037 0
-1970 1972 2037 0
1970 -1972 2037 0
-1974 -1976 -2039 0
1974 1976 -2039 0
-1974 1976 2039 0
1974 -1976 2039 0
-1975 -1977 -2041 0
1975 1977 -2041 0
1975 -1977 2041 0
-1975 1977 2041 0
-1979 -1980 -2042 0
1979 1980 -2042 0
-1979 1980 2042 0
1979 -1980 2042 0
-1981 -1983 -2044 0
1981 1983 -2044 0
-1981 1983 2044 0
1981 -1983 2044 0
-1985 -1987 -2046 0
1985 1987 -2046 0
-1985 1987 2046 0
1985 -1987 2046 0
-1989 -1990 -2048 0
1989 1990 -2048 0
-1989 1990 2048 0
1989 -1990 2048 0
-1991 -1993 -2050 0
1991 1993 -2050 0
-1991 1993 2050 0
1991 -1993 2050 0
-1995 -1997 -2052 0
1995 1997 -2052 0
-1995 1997 2052 0
1995 -1997 2052 0
-1999 -2001 -2054 0
1999 2001 -2054 0
-1999 2001 2054 0
1999 -2001 2054 0
-2003 -2004 -2056 0
2003 2004 -2056 0
-2003 2004 2056 0
2003 -2004 2056 0
-2005 -2007 -2058 0
2005 2007 -2058 0
-2005 2007 2058 0
2005 -2007 2058 0
-2009 -2011 -2060 0
2009 2011 -2060 0
-2009 2011 2060 0
2009 -2011 2060 0
-2013 -2015 -2062 0
2013 2015 -2062 0
-2013 2015 2062 0
2013 -2015 2062 0
-2017 -2019 -2064 0
2017 2019 -2064 0
-2017 2019 2064 0
2017 -2019 2064 0
-2021 -2023 -2066 0
2021 2023 -2066 0
-2021 2023 2066 0
2021 -2023 2066 0
-2025 -2027 -2068 0
2025 2027 -2068 0
-2025 2027 2068 0
2025 -2027 2068 0
-2029 -2031 -2070 0
2029 2031 -2070 0
-2029 2031 2070 0
2029 -2031 2070 0
-2033 -2035 -2072 0
2033 2035 -2072 0
-2033 2035 2072 0
2033 -2035 2072 0
-2037 -2039 -2074 0
2037 2039 -2074 0
-2037 2039 2074 0
2037 -2039 2074 0
-1978 -2041 -2076 0
1978 2041 -2076 0
1978 -2041 2076 0
-1978 2041 2076 0
-2042 -2043 -2078 0
2042 2043 -2078 0
-2042 2043 2078 0
2042 -2043 2078 0
-2044 -2046 -2080 0
2044 2046 -2080 0
-2044 2046 2080 0
2044 -2046 2080 0
-2048 -2050 -2082 0
2048 2050 -2082 0
-2048 2050 2082 0
2048 -2050 2082 0
-2052 -2054 -2084 0
2052 2054 -2084 0
-2052 2054 2084 0
2052 -2054 2084 0
-2056 -2058 -2086 0
2056 2058 -2086 0
-2056 2058 2086 0
2056 -2058 2086 0
-2060 -2062 -2088 0
2060 2062 -2088 0
-2060 2062 2088 0
2060 -2062 2088 0
-2064 -2066 -2090 0
2064 2066 -2090 0
-2064 2066 2090 0
2064 -2066 2090 0
-2068 -2070 -2092 0
2068 2070 -2092 0
-2068 2070 2092 0
2068 -2070 2092 0
-2072 -2074 -2094 0
2072 2074 -2094 0
-2072 2074 2094 0
2072 -2074 2094 0
-2076 -2078 -2096 0
2076 2078 -2096 0
-2076 2078 2096 0
2076 -2078 2096 0
-2080 -2082 -2098 0
2080 2082 -2098 0
-2080 2082 2098 0
2080 -2082 2098 0
-2084 -2086 -2100 0
2084 2086 -2100 0
-2084 2086 2100 0
2084 -2086 2100 0
-2088 -2090 -2102 0
2088 2090 -2102 0
-2088 2090 2102 0
2088 -2090 2102 0
-2092 -2094 -2104 0
2092 2094 -2104 0
-2092 2094 2104 0
2092 -2094 2104 0
-2096 -2098 -2106 0
2096 2098 -2106 0
-2096 2098 2106 0
2096 -2098 2106 0
-2100 -2102 -2108 0
2100 2102 -2108 0
-2100 2102 2108 0
2100 -2102 2108 0
-2104 -2106 -2108 0
2104 2106 -2108 0
-2104 2106 2108 0
2104 -2106 2108 0
-1982 -1984 -2113 0
1982 1984 -2113 0
-1982 1984 2113 0
1982 -1984 2113 0
-1986 -1988 -2114 0
1986 1988 -2114 0
-1986 1988 2114 0
1986 -1988 2114 0
-1992 -1994 -2116 0
1992 1994 -2116 0
-1992 1994 2116 0
1992 -1994 2116 0
-1996 -1998 -2118 0
1996 1998 -2118 0
-1996 1998 2118 0
1996 -1998 2118 0
-2000 -2002 -2120 0
2000 2002 -2120 0
-2000 2002 2120 0
2000 -2002 2120 0
-2006 -2008 -2122 0
2006 2008 -2122 0
-2006 2008 2122 0
2006 -2008 2122 0
-2010 -2012 -2124 0
2010 2012 -2124 0
-2010 2012 2124 0
2010 -2012 2124 0
-2014 -2016 -2126 0
2014 2016 -2126 0
-2014 2016 2126 0
2014 -2016 2126 0
-2018 -2020 -2128 0
2018 2020 -2128 0
-2018 2020 2128 0
2018 -2020 2128 0
-2022 -2024 -2130 0
2022 2024 -2130 0
-2022 2024 2130 0
2022 -2024 2130 0
-2026 -2028 -2132 0
2026 2028 -2132 0
-2026 2028 2132 0
2026 -2028 2132 0
-2030 -2032 -2134 0
2030 2032 -2134 0
-2030 2032 2134 0
2030 -2032 2134 0
-2034 -2036 -2136 0
2034 2036 -2136 0
-2034 2036 2136 0
2034 -2036 2136 0
-2038 -2040 -2138 0
2038 2040 -2138 0
-2038 2040 2138 0
2038 -2040 2138 0
-2045 -2047 -2141 0
2045 2047 -2141 0
-2045 2047 2141 0
2045 -2047 2141 0
-2049 -2051 -2142 0
2049 2051 -2142 0
-2049 2051 2142 0
2049 -2051 2142 0
-2053 -2055 -2144 0
2053 2055 -2144 0
-2053 2055 2144 0
2053 -2055 2144 0
-2057 -2059 -2146 0
2057 2059 -2146 0
-2057 2059 2146 0
2057 -2059 2146 0
-2061 -2063 -2148 0
2061 2063 -2148 0
-2061 2063 2148 0
2061 -2063 2148 0
-2065 -2067 -2150 0
2065 2067 -2150 0
-2065 2067 2150 0
2065 -2067 2150 0
-2069 -2071 -2152 0
2069 2071 -2152 0
-2069 2071 2152 0
2069 -2071 2152 0
-2073 -2075 -2154 0
2073 2075 -2154 0
-2073 2075 2154 0
2073 -2075 2154 0
-2077 -2079 -2156 0
2077 2079 -2156 0
-2077 2079 2156 0
2077 -2079 2156 0
-2081 -2083 -2158 0
2081 2083 -2158 0
-2081 2083 2158 0
2081 -2083 2158 0
-2085 -2087 -2160 0
2085 2087 -2160 0
-2085 2087 2160 0
2085 -2087 2160 0
-2089 -2091 -2162 0
2089 2091 -2162 0
-2089 2091 2162 0
2089 -2091 2162 0
-2093 -2095 -2164 0
2093 2095 -2164 0
-2093 2095 2164 0
2093 -2095 2164 0
-2097 -2099 -2166 0
2097 2099 -2166 0
-2097 2099 2166 0
2097 -2099 2166 0
-2101 -2103 -2168 0
2101 2103 -2168 0
-2101 2103 2168 0
2101 -2103 2168 0
-2105 -2107 -2170 0
2105 2107 -2170 0
-2105 2107 2170 0
2105 -2107 2170 0
-2109 -2110 -2172 0
2109 2110 -2172 0
-2109 2110 2172 0
2109 -2110 2172 0
-2111 -2112 -2174 0
2111 2112 -2174 0
-2111 2112 2174 0
2111 -2112 2174 0
-2113 -2114 -2175 0
2113 2114 -2175 0
-2113 2114 2175 0
2113 -2114 2175 0
-2115 -2116 -2177 0
2115 2116 -2177 0
-2115 2116 2177 0
2115 -2116 2177 0
-2118 -2120 -2179 0
2118 2120 -2179 0
-2118 2120 2179 0
2118 -2120 2179 0
-2121 -2122 -2181 0
2121 2122 -2181 0
-2121 2122 2181 0
2121 -2122 2181 0
-2124 -2126 -2183 0
2124 2126 -2183 0
-2124 2126 2183 0
2124 -2126 2183 0
-2128 -2130 -2185 0
2128 2130 -2185 0
-2128 2130 2185 0
2128 -2130 2185 0
-2132 -2134 -2187 0
2132 2134 -2187 0
-2132 2134 2187 0
2132 -2134 2187 0
-2136 -2138 -2189 0
2136 2138 -2189 0
-2136 2138 2189 0
2136 -2138 2189 0
-2139 -2140 -2191 0
2139 2140 -2191 0
-2139 2140 2191 0
2139 -2140 2191 0
-2141 -2142 -2193 0
2141 2142 -2193 0
-2141 2142 2193 0
2141 -2142 2193 0
-2144 -2146 -2195 0
2144 2146 -2195 0
-2144 2146 2195 0
2144 -2146 2195 0
-2148 -2150 -2197 0
2148 2150 -2197 0
-2148 2150 2197 0
2148 -2150 2197 0
-2152 -2154 -2199 0
2152 2154 -2199 0
-2152 2154 2199 0
2152 -2154 2199 0
-2156 -2158 -2201 0
2156 2158 -2201 0
-2156 2158 2201 0
2156 -2158 2201 0
-2160 -2162 -2203 0
2160 2162 -2203 0
-2160 2162 2203 0
2160 -2162 2203 0
-2164 -2166 -2205 0
2164 2166 -2205 0
-2164 2166 2205 0
2164 -2166 2205 0
-2168 -2170 -2207 0
2168 2170 -2207 0
-2168 2170 2207 0
2168 -2170 2207 0
-2108 -2172 -2209 0
2108 2172 -2209 0
2108 -2172 2209 0
-2108 2172 2209 0
-2174 -2175 -2211 0
2174 2175 -2211 0
-2174 2175 2211 0
2174 -2175 2211 0
-2177 -2179 -2213 0
2177 2179 -2213 0
-2177 2179 2213 0
2177 -2179 2213 0
-2181 -2183 -2215 0
2181 2183 -2215 0
-2181 2183 2215 0
2181 -2183 2215 0
-2185 -2187 -2217 0
2185 2187 -2217 0
-2185 2187 2217 0
2185 -2187 2217 0
-2189 -2191 -2219 0
2189 2191 -2219 0
-2189 2191 2219 0
2189 -2191 2219 0
-2193 -2195 -2221 0
2193 2195 -2221 0
-2193 2195 2221 0
2193 -2195 2221 0
-2197 -2199 -2223 0
2197 2199 -2223 0
-2197 2199 2223 0
2197 -2199 2223 0
-2201 -2203 -2225 0
2201 2203 -2225 0
-2201 2203 2225 0
2201 -2203 2225 0
-2205 -2207 -2227 0
2205 2207 -2227 0
-2205 2207 2227 0
2205 -2207 2227 0
-2209 -2211 -2229 0
2209 2211 -2229 0
-2209 2211 2229 0
2209 -2211 2229 0
-2213 -2215 -2231 0
2213 2215 -2231 0
-2213 2215 2231 0
2213 -2215 2231 0
-2217 -2219 -2233 0
2217 2219 -2233 0
-2217 2219 2233 0
2217 -2219 2233 0
-2221 -2223 -2235 0
2221 2223 -2235 0
-2221 2223 2235 0
2221 -2223 2235 0
-2225 -2227 -2237 0
2225 2227 -2237 0
-2225 2227 2237 0
2225 -2227 2237 0
-2229 -2231 -2239 0
2229 2231 -2239 0
-2229 2231 2239 0
2229 -2231 2239 0
-2233 -2235 -2241 0
2233 2235 -2241 0
-2233 2235 2241 0
2233 -2235 2241 0
-2237 -2239 -2241 0
2237 2239 -2241 0
-2237 2239 2241 0
2237 -2239 2241 0
-2117 -2119 -2246 0
2117 2119 -2246 0
-2117 2119 2246 0
2117 -2119 2246 0
-2123 -2125 -2248 0
2123 2125 -2248 0
-2123 2125 2248 0
2123 -2125 2248 0
-2127 -2129 -2249 0
2127 2129 -2249 0
-2127 2129 2249 0
2127 -2129 2249 0
-2131 -2133 -2251 0
2131 2133 -2251 0
-2131 2133 2251 0
2131 -2133 2251 0
-2135 -2137 -2253 0
2135 2137 -2253 0
-2135 2137 2253 0
2135 -2137 2253 0
-2143 -2145 -2256 0
2143 2145 -2256 0
-2143 2145 2256 0
2143 -2145 2256 0
-2147 -2149 -2257 0
2147 2149 -2257 0
-2147 2149 2257 0
2147 -2149 2257 0
-2151 -2153 -2259 0
2151 2153 -2259 0
-2151 2153 2259 0
2151 -2153 2259 0
-2155 -2157 -2261 0
2155 2157 -2261 0
-2155 2157 2261 0
2155 -2157 2261 0
-2159 -2161 -2263 0
2159 2161 -2263 0
-2159 2161 2263 0
2159 -2161 2263 0
-2163 -2165 -2265 0
2163 2165 -2265 0
-2163 2165 2265 0
2163 -2165 2265 0
-2167 -2169 -2267 0
2167 2169 -2267 0
-2167 2169 2267 0
2167 -2169 2267 0
-2171 -2173 -2269 0
2171 2173 -2269 0
-2171 2173 2269 0
2171 -2173 2269 0
-2176 -2178 -2271 0
2176 2178 -2271 0
-2176 2178 2271 0
2176 -2178 2271 0
-2180 -2182 -2273 0
2180 2182 -2273 0
-2180 2182 2273 0
2180 -2182 2273 0
-2184 -2186 -2275 0
2184 2186 -2275 0
-2184 2186 2275 0
2184 -2186 2275 0
-2188 -2190 -2277 0
2188 2190 -2277 0
-2188 2190 2277 0
2188 -2190 2277 0
-2192 -2194 -2279 0
2192 2194 -2279 0
-2192 2194 2279 0
2192 -2194 2279 0
-2196 -2198 -2281 0
2196 2198 -2281 0
-2196 2198 2281 0
2196 -2198 2281 0
-2200 -2202 -2283 0
2200 2202 -2283 0
-2200 2202 2283 0
2200 -2202 2283 0
-2204 -2206 -2285 0
2204 2206 -2285 0
-2204 2206 2285 0
2204 -2206 2285 0
-2208 -2210 -2287 0
2208 2210 -2287 0
-2208 2210 2287 0
2208 -2210 2287 0
-2212 -2214 -2289 0
2212 2214 -2289 0
-2212 2214 2289 0
2212 -2214 2289 0
-2216 -2218 -2291 0
2216 2218 -2291 0
-2216 2218 2291 0
2216 -2218 2291 0
-2220 -2222 -2293 0
2220 2222 -2293 0
-2220 2222 2293 0
2220 -2222 2293 0
-2224 -2226 -2295 0
2224 2226 -2295 0
-2224 2226 2295 0
2224 -2226 2295 0
-2228 -2230 -2297 0
2228 2230 -2297 0
-2228 2230 2297 0
2228 -2230 2297 0
-2232 -2234 -2299 0
2232 2234 -2299 0
-2232 2234 2299 0
2232 -2234 2299 0
-2236 -2238 -2301 0
2236 2238 -2301 0
-2236 2238 2301 0
2236 -2238 2301 0
-2240 -2242 -2303 0
2240 2242 -2303 0
-2240 2242 2303 0
2240 -2242 2303 0
-2241 -2243 -2305 0
2241 2243 -2305 0
2241 -2243 2305 0
-2241 2243 2305 0
-2245 -2246 -2307 0
2245 2246 -2307 0
-2245 2246 2307 0
2245 -2246 2307 0
-2247 -2248 -2308 0
2247 2248 -2308 0
-2247 2248 2308 0
2247 -2248 2308 0
-2249 -2251 -2310 0
2249 2251 -2310 0
-2249 2251 2310 0
2249 -2251 2310 0
-2253 -2254 -2312 0
2253 2254 -2312 0
-2253 2254 2312 0
2253 -2254 2312 0
-2255 -2256 -2314 0
2255 2256 -2314 0
-2255 2256 2314 0
2255 -2256 2314 0
-2257 -2259 -2316 0
2257 2259 -2316 0
-2257 2259 2316 0
2257 -2259 2316 0
-2261 -2263 -2318 0
2261 2263 -2318 0
-2261 2263 2318 0
2261 -2263 2318 0
-2265 -2267 -2320 0
2265 2267 -2320 0
-2265 2267 2320 0
2265 -2267 2320 0
-2269 -2270 -2322 0
2269 2270 -2322 0
-2269 2270 2322 0
2269 -2270 2322 0
-2271 -2273 -2324 0
2271 2273 -2324 0
-2271 2273 2324 0
2271 -2273 2324 0
-2275 -2277 -2326 0
2275 2277 -2326 0
-2275 2277 2326 0
2275 -2277 2326 0
-2279 -2281 -2328 0
2279 2281 -2328 0
-2279 2281 2328 0
2279 -2281 2328 0
-2283 -2285 -2330 0
2283 2285 -2330 0
-2283 2285 2330 0
2283 -2285 2330 0
-2287 -2289 -2332 0
2287 2289 -2332 0
-2287 2289 2332 0
2287 -2289 2332 0
-2291 -2293 -2334 0
2291 2293 -2334 0
-2291 2293 2334 0
2291 -2293 2334 0
-2295 -2297 -2336 0
2295 2297 -2336 0
-2295 2297 2336 0
2295 -2297 2336 0
-2299 -2301 -2338 0
2299 2301 -2338 0
-2299 2301 2338 0
2299 -2301 2338 0
-2303 -2305 -2340 0
2303 2305 -2340 0
-2303 2305 2340 0
2303 -2305 2340 0
-2244 -2307 -2342 0
2244 2307 -2342 0
-2244 2307 2342 0
2244 -2307 2342 0
-2308 -2310 -2344 0
2308 2310 -2344 0
-2308 2310 2344 0
2308 -2310 2344 0
-2312 -2314 -2346 0
2312 2314 -2346 0
-2312 2314 2346 0
2312 -2314 2346 0
-2316 -2318 -2348 0
2316 2318 -2348 0
-2316 2318 2348 0
2316 -2318 2348 0
-2320 -2322 -2350 0
2320 2322 -2350 0
-2320 2322 2350 0
2320 -2322 2350 0
-2324 -2326 -2352 0
2324 2326 -2352 0
-2324 2326 2352 0
2324 -2326 2352 0
-2328 -2330 -2354 0
2328 2330 -2354 0
-2328 2330 2354 0
2328 -2330 2354 0
-2332 -2334 -2356 0
2332 2334 -2356 0
-2332 2334 2356 0
2332 -2334 2356 0
-2336 -2338 -2358 0
2336 2338 -2358 0
-2336 2338 2358 0
2336 -2338 2358 0
-2340 -2342 -2360 0
2340 2342 -2360 0
-2340 2342 2360 0
2340 -2342 2360 0
-2344 -2346 -2362 0
2344 2346 -2362 0
-2344 2346 2362 0
2344 -2346 2362 0
-2348 -2350 -2364 0
2348 2350 -2364 0
-2348 2350 2364 0
2348 -2350 2364 0
-2352 -2354 -2366 0
2352 2354 -2366 0
-2352 2354 2366 0
2352 -2354 2366 0
-2356 -2358 -2368 0
2356 2358 -2368 0
-2356 2358 2368 0
2356 -2358 2368 0
-2360 -2362 -2370 0
2360 2362 -2370 0
-2360 2362 2370 0
2360 -2362 2370 0
-2364 -2366 -2372 0
2364 2366 -2372 0
-2364 2366 2372 0
2364 -2366 2372 0
-2368 -2370 -2372 0
2368 2370 -2372 0
-2368 2370 2372 0
2368 -2370 2372 0
-2250 -2252 -2377 0
2250 2252 -2377 0
-2250 2252 2377 0
2250 -2252 2377 0
-2258 -2260 -2380 0
2258 2260 -2380 0
-2258 2260 2380 0
2258 -2260 2380 0
-2262 -2264 -2382 0
2262 2264 -2382 0
-2262 2264 2382 0
2262 -2264 2382 0
-2266 -2268 -2384 0
2266 2268 -2384 0
-2266 2268 2384 0
2266 -2268 2384 0
-2272 -2274 -2386 0
2272 2274 -2386 0
-2272 2274 2386 0
2272 -2274 2386 0
-2276 -2278 -2388 0
2276 2278 -2388 0
-2276 2278 2388 0
2276 -2278 2388 0
-2280 -2282 -2390 0
2280 2282 -2390 0
-2280 2282 2390 0
2280 -2282 2390 0
-2284 -2286 -2392 0
2284 2286 -2392 0
-2284 2286 2392 0
2284 -2286 2392 0
-2288 -2290 -2394 0
2288 2290 -2394 0
-2288 2290 2394 0
2288 -2290 2394 0
-2292 -2294 -2396 0
2292 2294 -2396 0
-2292 2294 2396 0
2292 -2294 2396 0
-2296 -2298 -2398 0
2296 2298 -2398 0
-2296 2298 2398 0
2296 -2298 2398 0
-2300 -2302 -2400 0
2300 2302 -2400 0
-2300 2302 2400 0
2300 -2302 2400 0
-2304 -2306 -2402 0
2304 2306 -2402 0
-2304 2306 2402 0
2304 -2306 2402 0
-2309 -2311 -2404 0
2309 2311 -2404 0
-2309 2311 2404 0
2309 -2311 2404 0
-2313 -2315 -2406 0
2313 2315 -2406 0
-2313 2315 2406 0
2313 -2315 2406 0
-2317 -2319 -2408 0
2317 2319 -2408 0
-2317 2319 2408 0
2317 -2319 2408 0
-2321 -2323 -2410 0
2321 2323 -2410 0
-2321 2323 2410 0
2321 -2323 2410 0
-2325 -2327 -2412 0
2325 2327 -2412 0
-2325 2327 2412 0
2325 -2327 2412 0
-2329 -2331 -2414 0
2329 2331 -2414 0
-2329 2331 2414 0
2329 -2331 2414 0
-2333 -2335 -2416 0
2333 2335 -2416 0
-2333 2335 2416 0
2333 -2335 2416 0
-2337 -2339 -2418 0
2337 2339 -2418 0
-2337 2339 2418 0
2337 -2339 2418 0
-2341 -2343 -2420 0
2341 2343 -2420 0
-2341 2343 2420 0
2341 -2343 2420 0
-2345 -2347 -2422 0
2345 2347 -2422 0
-2345 2347 2422 0
2345 -2347 2422 0
-2349 -2351 -2424 0
2349 2351 -2424 0
-2349 2351 2424 0
2349 -2351 2424 0
-2353 -2355 -2426 0
2353 2355 -2426 0
-2353 2355 2426 0
2353 -2355 2426 0
-2357 -2359 -2428 0
2357 2359 -2428 0
-2357 2359 2428 0
2357 -2359 2428 0
-2361 -2363 -2430 0
2361 2363 -2430 0
-2361 2363 2430 0
2361 -2363 2430 0
-2365 -2367 -2432 0
2365 2367 -2432 0
-2365 2367 2432 0
2365 -2367 2432 0
-2369 -2371 -2434 0
2369 2371 -2434 0
-2369 2371 2434 0
2369 -2371 2434 0
-2373 -2374 -2436 0
2373 2374 -2436 0
-2373 2374 2436 0
2373 -2374 2436 0
-2375 -2376 -2437 0
2375 2376 -2437 0
-2375 2376 2437 0
2375 -2376 2437 0
-2377 -2378 -2439 0
2377 2378 -2439 0
-2377 2378 2439 0
2377 -2378 2439 0
-2379 -2380 -2441 0
2379 2380 -2441 0
-2379 2380 2441 0
2379 -2380 2441 0
-2382 -2384 -2443 0
2382 2384 -2443 0
-2382 2384 2443 0
2382 -2384 2443 0
-2385 -2386 -2445 0
2385 2386 -2445 0
-2385 2386 2445 0
2385 -2386 2445 0
-2388 -2390 -2447 0
2388 2390 -2447 0
-2388 2390 2447 0
2388 -2390 2447 0
-2392 -2394 -2449 0
2392 2394 -2449 0
-2392 2394 2449 0
2392 -2394 2449 0
-2396 -2398 -2451 0
2396 2398 -2451 0
-2396 2398 2451 0
2396 -2398 2451 0
-2400 -2402 -2453 0
2400 2402 -2453 0
-2400 2402 2453 0
2400 -2402 2453 0
-2403 -2404 -2455 0
2403 2404 -2455 0
-2403 2404 2455 0
2403 -2404 2455 0
-2406 -2408 -2457 0
2406 2408 -2457 0
-2406 2408 2457 0
2406 -2408 2457 0
-2410 -2412 -2459 0
2410 2412 -2459 0
-2410 2412 2459 0
2410 -2412 2459 0
-2414 -2416 -2461 0
2414 2416 -2461 0
-2414 2416 2461 0
2414 -2416 2461 0
-2418 -2420 -2463 0
2418 2420 -2463 0
-2418 2420 2463 0
2418 -2420 2463 0
-2422 -2424 -2465 0
2422 2424 -2465 0
-2422 2424 2465 0
2422 -2424 2465 0
-2426 -2428 -2467 0
2426 2428 -2467 0
-2426 2428 2467 0
2426 -2428 2467 0
-2430 -2432 -2469 0
2430 2432 -2469 0
-2430 2432 2469 0
2430 -2432 2469 0
-2434 -2436 -2471 0
2434 2436 -2471 0
-2434 2436 2471 0
2434 -2436 2471 0
-2372 -2437 -2473 0
2372 2437 -2473 0
-2372 2437 2473 0
2372 -2437 2473 0
-2439 -2441 -2475 0
2439 2441 -2475 0
-2439 2441 2475 0
2439 -2441 2475 0
-2443 -2445 -2477 0
2443 2445 -2477 0
-2443 2445 2477 0
2443 -2445 2477 0
-2447 -2449 -2479 0
2447 2449 -2479 0
-2447 2449 2479 0
2447 -2449 2479 0
-2451 -2453 -2481 0
2451 2453 -2481 0
-2451 2453 2481 0
2451 -2453 2481 0
-2455 -2457 -2483 0
2455 2457 -2483 0
-2455 2457 2483 0
2455 -2457 2483 0
-2459 -2461 -2485 0
2459 2461 -2485 0
-2459 2461 2485 0
2459 -2461 2485 0
-2463 -2465 -2487 0
2463 2465 -2487 0
-2463 2465 2487 0
2463 -2465 2487 0
-2467 -2469 -2489 0
2467 2469 -2489 0
-2467 2469 2489 0
2467 -2469 2489 0
-2471 -2473 -2491 0
2471 2473 -2491 0
-2471 2473 2491 0
2471 -2473 2491 0
-2475 -2477 -2493 0
2475 2477 -2493 0
-2475 2477 2493 0
2475 -2477 2493 0
-2479 -2481 -2495 0
2479 2481 -2495 0
-2479 2481 2495 0
2479 -2481 2495 0
-2483 -2485 -2497 0
2483 2485 -2497 0
-2483 2485 2497 0
2483 -2485 2497 0
-2487 -2489 -2499 0
2487 2489 -2499 0
-2487 2489 2499 0
2487 -2489 2499 0
-2491 -2493 -2501 0
2491 2493 -2501 0
-2491 2493 2501 0
2491 -2493 2501 0
-2495 -2497 -2503 0
2495 2497 -2503 0
-2495 2497 2503 0
2495 -2497 2503 0
-2499 -2501 -2503 0
2499 2501 -2503 0
-2499 2501 2503 0
2499 -2501 2503 0
-2381 -2383 -2566 0
2381 2383 -2566 0
-2381 2383 2566 0
2381 -2383 2566 0
-2387 -2389 -2508 0
2387 2389 -2508 0
-2387 2389 2508 0
2387 -2389 2508 0
-2391 -2393 -2509 0
2391 2393 -2509 0
-2391 2393 2509 0
2391 -2393 2509 0
-2395 -2397 -2511 0
2395 2397 -2511 0
-2395 2397 2511 0
2395 -2397 2511 0
-2399 -2401 -2513 0
2399 2401 -2513 0
-2399 2401 2513 0
2399 -2401 2513 0
-2405 -2407 -2515 0
2405 2407 -2515 0
-2405 2407 2515 0
2405 -2407 2515 0
-2409 -2411 -2517 0
2409 2411 -2517 0
-2409 2411 2517 0
2409 -2411 2517 0
-2413 -2415 -2519 0
2413 2415 -2519 0
-2413 2415 2519 0
2413 -2415 2519 0
-2417 -2419 -2521 0
2417 2419 -2521 0
-2417 2419 2521 0
2417 -2419 2521 0
-2421 -2423 -2523 0
2421 2423 -2523 0
-2421 2423 2523 0
2421 -2423 2523 0
-2425 -2427 -2525 0
2425 2427 -2525 0
-2425 2427 2525 0
2425 -2427 2525 0
-2429 -2431 -2527 0
2429 2431 -2527 0
-2429 2431 2527 0
2429 -2431 2527 0
-2433 -2435 -2529 0
2433 2435 -2529 0
-2433 2435 2529 0
2433 -2435 2529 0
-2438 -2440 -2532 0
2438 2440 -2532 0
-2438 2440 2532 0
2438 -2440 2532 0
-2442 -2444 -2533 0
2442 2444 -2533 0
-2442 2444 2533 0
2442 -2444 2533 0
-2446 -2448 -2535 0
2446 2448 -2535 0
-2446 2448 2535 0
2446 -2448 2535 0
-2450 -2452 -2537 0
2450 2452 -2537 0
-2450 2452 2537 0
2450 -2452 2537 0
-2454 -2456 -2539 0
2454 2456 -2539 0
-2454 2456 2539 0
2454 -2456 2539 0
-2458 -2460 -2541 0
2458 2460 -2541 0
-2458 2460 2541 0
2458 -2460 2541 0
-2462 -2464 -2543 0
2462 2464 -2543 0
-2462 2464 2543 0
2462 -2464 2543 0
-2466 -2468 -2545 0
2466 2468 -2545 0
-2466 2468 2545 0
2466 -2468 2545 0
-2470 -2472 -2547 0
2470 2472 -2547 0
-2470 2472 2547 0
2470 -2472 2547 0
-2474 -2476 -2549 0
2474 2476 -2549 0
-2474 2476 2549 0
2474 -2476 2549 0
-2478 -2480 -2551 0
2478 2480 -2551 0
-2478 2480 2551 0
2478 -2480 2551 0
-2482 -2484 -2553 0
2482 2484 -2553 0
-2482 2484 2553 0
2482 -2484 2553 0
-2486 -2488 -2555 0
2486 2488 -2555 0
-2486 2488 2555 0
2486 -2488 2555 0
-2490 -2492 -2557 0
2490 2492 -2557 0
-2490 2492 2557 0
2490 -2492 2557 0
-2494 -2496 -2559 0
2494 2496 -2559 0
-2494 2496 2559 0
2494 -2496 2559 0
-2498 -2500 -2561 0
2498 2500 -2561 0
-2498 2500 2561 0
2498 -2500 2561 0
-2502 -2504 -2563 0
2502 2504 -2563 0
-2502 2504 2563 0
2502 -2504 2563 0
-2503 -2505 -2565 0
2503 2505 -2565 0
2503 -2505 2565 0
-2503 2505 2565 0
-2507 -2508 -2567 0
2507 2508 -2567 0
-2507 2508 2567 0
2507 -2508 2567 0
-2509 -2511 -2568 0
2509 2511 -2568 0
-2509 2511 2568 0
2509 -2511 2568 0
-2513 -2514 -2570 0
2513 2514 -2570 0
-2513 2514 2570 0
2513 -2514 2570 0
-2515 -2517 -2572 0
2515 2517 -2572 0
-2515 2517 2572 0
2515 -2517 2572 0
-2519 -2521 -2574 0
2519 2521 -2574 0
-2519 2521 2574 0
2519 -2521 2574 0
-2523 -2525 -2576 0
2523 2525 -2576 0
-2523 2525 2576 0
2523 -2525 2576 0
-2527 -2529 -2578 0
2527 2529 -2578 0
-2527 2529 2578 0
2527 -2529 2578 0
-2531 -2532 -2580 0
2531 2532 -2580 0
-2531 2532 2580 0
2531 -2532 2580 0
-2533 -2535 -2582 0
2533 2535 -2582 0
-2533 2535 2582 0
2533 -2535 2582 0
-2537 -2539 -2584 0
2537 2539 -2584 0
-2537 2539 2584 0
2537 -2539 2584 0
-2541 -2543 -2586 0
2541 2543 -2586 0
-2541 2543 2586 0
2541 -2543 2586 0
-2545 -2547 -2588 0
2545 2547 -2588 0
-2545 2547 2588 0
2545 -2547 2588 0
-2549 -2551 -2590 0
2549 2551 -2590 0
-2549 2551 2590 0
2549 -2551 2590 0
-2553 -2555 -2592 0
2553 2555 -2592 0
-2553 2555 2592 0
2553 -2555 2592 0
-2557 -2559 -2594 0
2557 2559 -2594 0
-2557 2559 2594 0
2557 -2559 2594 0
-2561 -2563 -2596 0
2561 2563 -2596 0
-2561 2563 2596 0
2561 -2563 2596 0
-2506 -2565 -2598 0
2506 2565 -2598 0
2506 -2565 2598 0
-2506 2565 2598 0
-2566 -2567 -2600 0
2566 2567 -2600 0
-2566 2567 2600 0
2566 -2567 2600 0
-2568 -2570 -2602 0
2568 2570 -2602 0
-2568 2570 2602 0
2568 -2570 2602 0
-2572 -2574 -2604 0
2572 2574 -2604 0
-2572 2574 2604 0
2572 -2574 2604 0
-2576 -2578 -2606 0
2576 2578 -2606 0
-2576 2578 2606 0
2576 -2578 2606 0
-2580 -2582 -2608 0
2580 2582 -2608 0
-2580 2582 2608 0
2580 -2582 2608 0
-2584 -2586 -2610 0
2584 2586 -2610 0
-2584 2586 2610 0
2584 -2586 2610 0
-2588 -2590 -2612 0
2588 2590 -2612 0
-2588 2590 2612 0
2588 -2590 2612 0
-2592 -2594 -2614 0
2592 2594 -2614 0
-2592 2594 2614 0
2592 -2594 2614 0
-2596 -2598 -2616 0
2596 2598 -2616 0
-2596 2598 2616 0
2596 -2598 2616 0
-2600 -2602 -2618 0
2600 2602 -2618 0
-2600 2602 2618 0
2600 -2602 2618 0
-2604 -2606 -2620 0
2604 2606 -2620 0
-2604 2606 2620 0
2604 -2606 2620 0
-2608 -2610 -2622 0
2608 2610 -2622 0
-2608 2610 2622 0
2608 -2610 2622 0
-2612 -2614 -2624 0
2612 2614 -2624 0
-2612 2614 2624 0
2612 -2614 2624 0
-2616 -2618 -2626 0
2616 2618 -2626 0
-2616 2618 2626 0
2616 -2618 2626 0
-2620 -2622 -2628 0
2620 2622 -2628 0
-2620 2622 2628 0
2620 -2622 2628 0
-2624 -2626 -2628 0
2624 2626 -2628 0
-2624 2626 2628 0
2624 -2626 2628 0
-2510 -2512 -2633 0
2510 2512 -2633 0
-2510 2512 2633 0
2510 -2512 2633 0
-2516 -2518 -2635 0
2516 2518 -2635 0
-2516 2518 2635 0
2516 -2518 2635 0
-2520 -2522 -2636 0
2520 2522 -2636 0
-2520 2522 2636 0
2520 -2522 2636 0
-2524 -2526 -2638 0
2524 2526 -2638 0
-2524 2526 2638 0
2524 -2526 2638 0
-2528 -2530 -2640 0
2528 2530 -2640 0
-2528 2530 2640 0
2528 -2530 2640 0
-2534 -2536 -2642 0
2534 2536 -2642 0
-2534 2536 2642 0
2534 -2536 2642 0
-2538 -2540 -2644 0
2538 2540 -2644 0
-2538 2540 2644 0
2538 -2540 2644 0
-2542 -2544 -2646 0
2542 2544 -2646 0
-2542 2544 2646 0
2542 -2544 2646 0
-2546 -2548 -2648 0
2546 2548 -2648 0
-2546 2548 2648 0
2546 -2548 2648 0
-2550 -2552 -2650 0
2550 2552 -2650 0
-2550 2552 2650 0
2550 -2552 2650 0
-2554 -2556 -2652 0
2554 2556 -2652 0
-2554 2556 2652 0
2554 -2556 2652 0
-2558 -2560 -2654 0
2558 2560 -2654 0
-2558 2560 2654 0
2558 -2560 2654 0
-2562 -2564 -2656 0
2562 2564 -2656 0
-2562 2564 2656 0
2562 -2564 2656 0
-2569 -2571 -2660 0
2569 2571 -2660 0
-2569 2571 2660 0
2569 -2571 2660 0
-2573 -2575 -2662 0
2573 2575 -2662 0
-2573 2575 2662 0
2573 -2575 2662 0
-2577 -2579 -2664 0
2577 2579 -2664 0
-2577 2579 2664 0
2577 -2579 2664 0
-2581 -2583 -2666 0
2581 2583 -2666 0
-2581 2583 2666 0
2581 -2583 2666 0
-2585 -2587 -2668 0
2585 2587 -2668 0
-2585 2587 2668 0
2585 -2587 2668 0
-2589 -2591 -2670 0
2589 2591 -2670 0
-2589 2591 2670 0
2589 -2591 2670 0
-2593 -2595 -2672 0
2593 2595 -2672 0
-2593 2595 2672 0
2593 -2595 2672 0
-2597 -2599 -2674 0
2597 2599 -2674 0
-2597 2599 2674 0
2597 -2599 2674 0
-2601 -2603 -2676 0
2601 2603 -2676 0
-2601 2603 2676 0
2601 -2603 2676 0
-2605 -2607 -2678 0
2605 2607 -2678 0
-2605 2607 2678 0
2605 -2607 2678 0
-2609 -2611 -2680 0
2609 2611 -2680 0
-2609 2611 2680 0
2609 -2611 2680 0
-2613 -2615 -2682 0
2613 2615 -2682 0
-2613 2615 2682 0
2613 -2615 2682 0
-2617 -2619 -2684 0
2617 2619 -2684 0
-2617 2619 2684 0
2617 -2619 2684 0
-2621 -2623 -2686 0
2621 2623 -2686 0
-2621 2623 2686 0
2621 -2623 2686 0
-2625 -2627 -2688 0
2625 2627 -2688 0
-2625 2627 2688 0
2625 -2627 2688 0
-2629 -2630 -2690 0
2629 2630 -2690 0
-2629 2630 2690 0
2629 -2630 2690 0
-2631 -2632 -2692 0
2631 2632 -2692 0
-2631 2632 2692 0
2631 -2632 2692 0
-2633 -2634 -2693 0
2633 2634 -2693 0
-2633 2634 2693 0
2633 -2634 2693 0
-2635 -2636 -2695 0
2635 2636 -2695 0
-2635 2636 2695 0
2635 -2636 2695 0
-2638 -2640 -2697 0
2638 2640 -2697 0
-2638 2640 2697 0
2638 -2640 2697 0
-2641 -2642 -2699 0
2641 2642 -2699 0
-2641 2642 2699 0
2641 -2642 2699 0
-2644 -2646 -2701 0
2644 2646 -2701 0
-2644 2646 2701 0
2644 -2646 2701 0
-2648 -2650 -2703 0
2648 2650 -2703 0
-2648 2650 2703 0
2648 -2650 2703 0
-2652 -2654 -2705 0
2652 2654 -2705 0
-2652 2654 2705 0
2652 -2654 2705 0
-2656 -2658 -2707 0
2656 2658 -2707 0
-2656 2658 2707 0
2656 -2658 2707 0
-2659 -2660 -2709 0
2659 2660 -2709 0
-2659 2660 2709 0
2659 -2660 2709 0
-2662 -2664 -2711 0
2662 2664 -2711 0
-2662 2664 2711 0
2662 -2664 2711 0
-2666 -2668 -2713 0
2666 2668 -2713 0
-2666 2668 2713 0
2666 -2668 2713 0
-2670 -2672 -2715 0
2670 2672 -2715 0
-2670 2672 2715 0
2670 -2672 2715 0
-2674 -2676 -2717 0
2674 2676 -2717 0
-2674 2676 2717 0
2674 -2676 2717 0
-2678 -2680 -2719 0
2678 2680 -2719 0
-2678 2680 2719 0
2678 -2680 2719 0
-2682 -2684 -2721 0
2682 2684 -2721 0
-2682 2684 2721 0
2682 -2684 2721 0
-2686 -2688 -2723 0
2686 2688 -2723 0
-2686 2688 2723 0
2686 -2688 2723 0
-2628 -2690 -2725 0
2628 2690 -2725 0
2628 -2690 2725 0
-2628 2690 2725 0
-2692 -2693 -2727 0
2692 2693 -2727 0
-2692 2693 2727 0
2692 -2693 2727 0
-2695 -2697 -2729 0
2695 2697 -2729 0
-2695 2697 2729 0
2695 -2697 2729 0
-2699 -2701 -2731 0
2699 2701 -2731 0
-2699 2701 2731 0
2699 -2701 2731 0
-2703 -2705 -2733 0
2703 2705 -2733 0
-2703 2705 2733 0
2703 -2705 2733 0
-2707 -2709 -2735 0
2707 2709 -2735 0
-2707 2709 2735 0
2707 -2709 2735 0
-2711 -2713 -2737 0
2711 2713 -2737 0
-2711 2713 2737 0
2711 -2713 2737 0
-2715 -2717 -2739 0
2715 2717 -2739 0
-2715 2717 2739 0
2715 -2717 2739 0
-2719 -2721 -2741 0
2719 2721 -2741 0
-2719 2721 2741 0
2719 -2721 2741 0
-2723 -2725 -2743 0
2723 2725 -2743 0
-2723 2725 2743 0
2723 -2725 2743 0
-2727 -2729 -2745 0
2727 2729 -2745 0
-2727 2729 2745 0
2727 -2729 2745 0
-2731 -2733 -2747 0
2731 2733 -2747 0
-2731 2733 2747 0
2731 -2733 2747 0
-2735 -2737 -2749 0
2735 2737 -2749 0
-2735 2737 2749 0
2735 -2737 2749 0
-2739 -2741 -2751 0
2739 2741 -2751 0
-2739 2741 2751 0
2739 -2741 2751 0
-2743 -2745 -2753 0
2743 2745 -2753 0
-2743 2745 2753 0
2743 -2745 2753 0
-2747 -2749 -2755 0
2747 2749 -2755 0
-2747 2749 2755 0
2747 -2749 2755 0
-2751 -2753 -2755 0
2751 2753 -2755 0
-2751 2753 2755 0
2751 -2753 2755 0
-2637 -2639 -2760 0
2637 2639 -2760 0
-2637 2639 2760 0
2637 -2639 2760 0
-2643 -2645 -2762 0
2643 2645 -2762 0
-2643 2645 2762 0
2643 -2645 2762 0
-2647 -2649 -2763 0
2647 2649 -2763 0
-2647 2649 2763 0
2647 -2649 2763 0
-2651 -2653 -2765 0
2651 2653 -2765 0
-2651 2653 2765 0
2651 -2653 2765 0
-2655 -2657 -2822 0
2655 2657 -2822 0
-2655 2657 2822 0
2655 -2657 2822 0
-2661 -2663 -2767 0
2661 2663 -2767 0
-2661 2663 2767 0
2661 -2663 2767 0
-2665 -2667 -2769 0
2665 2667 -2769 0
-2665 2667 2769 0
2665 -2667 2769 0
-2669 -2671 -2771 0
2669 2671 -2771 0
-2669 2671 2771 0
2669 -2671 2771 0
-2673 -2675 -2773 0
2673 2675 -2773 0
-2673 2675 2773 0
2673 -2675 2773 0
-2677 -2679 -2775 0
2677 2679 -2775 0
-2677 2679 2775 0
2677 -2679 2775 0
-2681 -2683 -2777 0
2681 2683 -2777 0
-2681 2683 2777 0
2681 -2683 2777 0
-2685 -2687 -2779 0
2685 2687 -2779 0
-2685 2687 2779 0
2685 -2687 2779 0
-2689 -2691 -2781 0
2689 2691 -2781 0
-2689 2691 2781 0
2689 -2691 2781 0
-2694 -2696 -2784 0
2694 2696 -2784 0
-2694 2696 2784 0
2694 -2696 2784 0
-2698 -2700 -2785 0
2698 2700 -2785 0
-2698 2700 2785 0
2698 -2700 2785 0
-2702 -2704 -2787 0
2702 2704 -2787 0
-2702 2704 2787 0
2702 -2704 2787 0
-2706 -2708 -2789 0
2706 2708 -2789 0
-2706 2708 2789 0
2706 -2708 2789 0
-2710 -2712 -2791 0
2710 2712 -2791 0
-2710 2712 2791 0
2710 -2712 2791 0
-2714 -2716 -2793 0
2714 2716 -2793 0
-2714 2716 2793 0
2714 -2716 2793 0
-2718 -2720 -2795 0
2718 2720 -2795 0
-2718 2720 2795 0
2718 -2720 2795 0
-2722 -2724 -2797 0
2722 2724 -2797 0
-2722 2724 2797 0
2722 -2724 2797 0
-2726 -2728 -2799 0
2726 2728 -2799 0
-2726 2728 2799 0
2726 -2728 2799 0
-2730 -2732 -2801 0
2730 2732 -2801 0
-2730 2732 2801 0
2730 -2732 2801 0
-2734 -2736 -2803 0
2734 2736 -2803 0
-2734 2736 2803 0
2734 -2736 2803 0
-2738 -2740 -2805 0
2738 2740 -2805 0
-2738 2740 2805 0
2738 -2740 2805 0
-2742 -2744 -2807 0
2742 2744 -2807 0
-2742 2744 2807 0
2742 -2744 2807 0
-2746 -2748 -2809 0
2746 2748 -2809 0
-2746 2748 2809 0
2746 -2748 2809 0
-2750 -2752 -2811 0
2750 2752 -2811 0
-2750 2752 2811 0
2750 -2752 2811 0
-2754 -2756 -2813 0
2754 2756 -2813 0
-2754 2756 2813 0
2754 -2756 2813 0
-2755 -2757 -2815 0
2755 2757 -2815 0
2755 -2757 2815 0
-2755 2757 2815 0
-2759 -2760 -2817 0
2759 2760 -2817 0
-2759 2760 2817 0
2759 -2760 2817 0
-2761 -2762 -2818 0
2761 2762 -2818 0
-2761 2762 2818 0
2761 -2762 2818 0
-2763 -2765 -2820 0
2763 2765 -2820 0
-2763 2765 2820 0
2763 -2765 2820 0
-2767 -2769 -2823 0
2767 2769 -2823 0
-2767 2769 2823 0
2767 -2769 2823 0
-2771 -2773 -2824 0
2771 2773 -2824 0
-2771 2773 2824 0
2771 -2773 2824 0
-2775 -2777 -2826 0
2775 2777 -2826 0
-2775 2777 2826 0
2775 -2777 2826 0
-2779 -2781 -2828 0
2779 2781 -2828 0
-2779 2781 2828 0
2779 -2781 2828 0
-2783 -2784 -2830 0
2783 2784 -2830 0
-2783 2784 2830 0
2783 -2784 2830 0
-2785 -2787 -2832 0
2785 2787 -2832 0
-2785 2787 2832 0
2785 -2787 2832 0
-2789 -2791 -2834 0
2789 2791 -2834 0
-2789 2791 2834 0
2789 -2791 2834 0
-2793 -2795 -2836 0
2793 2795 -2836 0
-2793 2795 2836 0
2793 -2795 2836 0
-2797 -2799 -2838 0
2797 2799 -2838 0
-2797 2799 2838 0
2797 -2799 2838 0
-2801 -2803 -2840 0
2801 2803 -2840 0
-2801 2803 2840 0
2801 -2803 2840 0
-2805 -2807 -2842 0
2805 2807 -2842 0
-2805 2807 2842 0
2805 -2807 2842 0
-2809 -2811 -2844 0
2809 2811 -2844 0
-2809 2811 2844 0
2809 -2811 2844 0
-2813 -2815 -2846 0
2813 2815 -2846 0
-2813 2815 2846 0
2813 -2815 2846 0
-2758 -2817 -2848 0
2758 2817 -2848 0
-2758 2817 2848 0
2758 -2817 2848 0
-2818 -2820 -2850 0
2818 2820 -2850 0
-2818 2820 2850 0
2818 -2820 2850 0
-2822 -2823 -2852 0
2822 2823 -2852 0
-2822 2823 2852 0
2822 -2823 2852 0
-2824 -2826 -2854 0
2824 2826 -2854 0
-2824 2826 2854 0
2824 -2826 2854 0
-2828 -2830 -2856 0
2828 2830 -2856 0
-2828 2830 2856 0
2828 -2830 2856 0
-2832 -2834 -2858 0
2832 2834 -2858 0
-2832 2834 2858 0
2832 -2834 2858 0
-2836 -2838 -2860 0
2836 2838 -2860 0
-2836 2838 2860 0
2836 -2838 2860 0
-2840 -2842 -2862 0
2840 2842 -2862 0
-2840 2842 2862 0
2840 -2842 2862 0
-2844 -2846 -2864 0
2844 2846 -2864 0
-2844 2846 2864 0
2844 -2846 2864 0
-2848 -2850 -2866 0
2848 2850 -2866 0
-2848 2850 2866 0
2848 -2850 2866 0
-2852 -2854 -2868 0
2852 2854 -2868 0
-2852 2854 2868 0
2852 -2854 2868 0
-2856 -2858 -2870 0
2856 2858 -2870 0
-2856 2858 2870 0
2856 -2858 2870 0
-2860 -2862 -2872 0
2860 2862 -2872 0
-2860 2862 2872 0
2860 -2862 2872 0
-2864 -2866 -2874 0
2864 2866 -2874 0
-2864 2866 2874 0
2864 -2866 2874 0
-2868 -2870 -2876 0
2868 2870 -2876 0
-2868 2870 2876 0
2868 -2870 2876 0
-2872 -2874 -2876 0
2872 2874 -2876 0
-2872 2874 2876 0
2872 -2874 2876 0
-2764 -2766 -2881 0
2764 2766 -2881 0
-2764 2766 2881 0
2764 -2766 2881 0
-2768 -2770 -2883 0
2768 2770 -2883 0
-2768 2770 2883 0
2768 -2770 2883 0
-2772 -2774 -2884 0
2772 2774 -2884 0
-2772 2774 2884 0
2772 -2774 2884 0
-2776 -2778 -2886 0
2776 2778 -2886 0
-2776 2778 2886 0
2776 -2778 2886 0
-2780 -2782 -2888 0
2780 2782 -2888 0
-2780 2782 2888 0
2780 -2782 2888 0
-2786 -2788 -2890 0
2786 2788 -2890 0
-2786 2788 2890 0
2786 -2788 2890 0
-2790 -2792 -2892 0
2790 2792 -2892 0
-2790 2792 2892 0
2790 -2792 2892 0
-2794 -2796 -2894 0
2794 2796 -2894 0
-2794 2796 2894 0
2794 -2796 2894 0
-2798 -2800 -2896 0
2798 2800 -2896 0
-2798 2800 2896 0
2798 -2800 2896 0
-2802 -2804 -2898 0
2802 2804 -2898 0
-2802 2804 2898 0
2802 -2804 2898 0
-2806 -2808 -2900 0
2806 2808 -2900 0
-2806 2808 2900 0
2806 -2808 2900 0
-2810 -2812 -2902 0
2810 2812 -2902 0
-2810 2812 2902 0
2810 -2812 2902 0
-2814 -2816 -2904 0
2814 2816 -2904 0
-2814 2816 2904 0
2814 -2816 2904 0
-2819 -2821 -2907 0
2819 2821 -2907 0
-2819 2821 2907 0
2819 -2821 2907 0
-2825 -2827 -2909 0
2825 2827 -2909 0
-2825 2827 2909 0
2825 -2827 2909 0
-2829 -2831 -2910 0
2829 2831 -2910 0
-2829 2831 2910 0
2829 -2831 2910 0
-2833 -2835 -2912 0
2833 2835 -2912 0
-2833 2835 2912 0
2833 -2835 2912 0
-2837 -2839 -2914 0
2837 2839 -2914 0
-2837 2839 2914 0
2837 -2839 2914 0
-2841 -2843 -2916 0
2841 2843 -2916 0
-2841 2843 2916 0
2841 -2843 2916 0
-2845 -2847 -2918 0
2845 2847 -2918 0
-2845 2847 2918 0
2845 -2847 2918 0
-2849 -2851 -2920 0
2849 2851 -2920 0
-2849 2851 2920 0
2849 -2851 2920 0
-2853 -2855 -2922 0
2853 2855 -2922 0
-2853 2855 2922 0
2853 -2855 2922 0
-2857 -2859 -2924 0
2857 2859 -2924 0
-2857 2859 2924 0
2857 -2859 2924 0
-2861 -2863 -2926 0
2861 2863 -2926 0
-2861 2863 2926 0
2861 -2863 2926 0
-2865 -2867 -2928 0
2865 2867 -2928 0
-2865 2867 2928 0
2865 -2867 2928 0
-2869 -2871 -2930 0
2869 2871 -2930 0
-2869 2871 2930 0
2869 -2871 2930 0
-2873 -2875 -2932 0
2873 2875 -2932 0
-2873 2875 2932 0
2873 -2875 2932 0
-2877 -2878 -2934 0
2877 2878 -2934 0
-2877 2878 2934 0
2877 -2878 2934 0
-2879 -2880 -2935 0
2879 2880 -2935 0
-2879 2880 2935 0
2879 -2880 2935 0
-2881 -2882 -2937 0
2881 2882 -2937 0
-2881 2882 2937 0
2881 -2882 2937 0
-2883 -2884 -2939 0
2883 2884 -2939 0
-2883 2884 2939 0
2883 -2884 2939 0
-2886 -2888 -2941 0
2886 2888 -2941 0
-2886 2888 2941 0
2886 -2888 2941 0
-2889 -2890 -2943 0
2889 2890 -2943 0
-2889 2890 2943 0
2889 -2890 2943 0
-2892 -2894 -2945 0
2892 2894 -2945 0
-2892 2894 2945 0
2892 -2894 2945 0
-2896 -2898 -2947 0
2896 2898 -2947 0
-2896 2898 2947 0
2896 -2898 2947 0
-2900 -2902 -2949 0
2900 2902 -2949 0
-2900 2902 2949 0
2900 -2902 2949 0
-2904 -2906 -2951 0
2904 2906 -2951 0
-2904 2906 2951 0
2904 -2906 2951 0
-2907 -2908 -2953 0
2907 2908 -2953 0
-2907 2908 2953 0
2907 -2908 2953 0
-2909 -2910 -2955 0
2909 2910 -2955 0
-2909 2910 2955 0
2909 -2910 2955 0
-2912 -2914 -2957 0
2912 2914 -2957 0
-2912 2914 2957 0
2912 -2914 2957 0
-2916 -2918 -2959 0
2916 2918 -2959 0
-2916 2918 2959 0
2916 -2918 2959 0
-2920 -2922 -2961 0
2920 2922 -2961 0
-2920 2922 2961 0
2920 -2922 2961 0
-2924 -2926 -2963 0
2924 2926 -2963 0
-2924 2926 2963 0
2924 -2926 2963 0
-2928 -2930 -2965 0
2928 2930 -2965 0
-2928 2930 2965 0
2928 -2930 2965 0
-2932 -2934 -2967 0
2932 2934 -2967 0
-2932 2934 2967 0
2932 -2934 2967 0
-2876 -2935 -2969 0
2876 2935 -2969 0
-2876 2935 2969 0
2876 -2935 2969 0
-2937 -2939 -2971 0
2937 2939 -2971 0
-2937 2939 2971 0
2937 -2939 2971 0
-2941 -2943 -2973 0
2941 2943 -2973 0
-2941 2943 2973 0
2941 -2943 2973 0
-2945 -2947 -2975 0
2945 2947 -2975 0
-2945 2947 2975 0
2945 -2947 2975 0
-2949 -2951 -2977 0
2949 2951 -2977 0
-2949 2951 2977 0
2949 -2951 2977 0
-2953 -2955 -2979 0
2953 2955 -2979 0
-2953 2955 2979 0
2953 -2955 2979 0
-2957 -2959 -2981 0
2957 2959 -2981 0
-2957 2959 2981 0
2957 -2959 2981 0
-2961 -2963 -2983 0
2961 2963 -2983 0
-2961 2963 2983 0
2961 -2963 2983 0
-2965 -2967 -2985 0
2965 2967 -2985 0
-2965 2967 2985 0
2965 -2967 2985 0
-2969 -2971 -2987 0
2969 2971 -2987 0
-2969 2971 2987 0
2969 -2971 2987 0
-2973 -2975 -2989 0
2973 2975 -2989 0
-2973 2975 2989 0
2973 -2975 2989 0
-2977 -2979 -2991 0
2977 2979 -2991 0
-2977 2979 2991 0
2977 -2979 2991 0
-2981 -2983 -2993 0
2981 2983 -2993 0
-2981 2983 2993 0
2981 -2983 2993 0
-2985 -2987 -2995 0
2985 2987 -2995 0
-2985 2987 2995 0
2985 -2987 2995 0
-2989 -2991 -2997 0
2989 2991 -2997 0
-2989 2991 2997 0
2989 -2991 2997 0
-2993 -2995 -2997 0
2993 2995 -2997 0
-2993 2995 2997 0
2993 -2995 2997 0
-2885 -2887 -3002 0
2885 2887 -3002 0
-2885 2887 3002 0
2885 -2887 3002 0
-2891 -2893 -3004 0
2891 2893 -3004 0
-2891 2893 3004 0
2891 -2893 3004 0
-2895 -2897 -3005 0
2895 2897 -3005 0
-2895 2897 3005 0
2895 -2897 3005 0
-2899 -2901 -3007 0
2899 2901 -3007 0
-2899 2901 3007 0
2899 -2901 3007 0
-2903 -2905 -3009 0
2903 2905 -3009 0
-2903 2905 3009 0
2903 -2905 3009 0
-2911 -2913 -3012 0
2911 2913 -3012 0
-2911 2913 3012 0
2911 -2913 3012 0
-2915 -2917 -3013 0
2915 2917 -3013 0
-2915 2917 3013 0
2915 -2917 3013 0
-2919 -2921 -3015 0
2919 2921 -3015 0
-2919 2921 3015 0
2919 -2921 3015 0
-2923 -2925 -3017 0
2923 2925 -3017 0
-2923 2925 3017 0
2923 -2925 3017 0
-2927 -2929 -3019 0
2927 2929 -3019 0
-2927 2929 3019 0
2927 -2929 3019 0
-2931 -2933 -3021 0
2931 2933 -3021 0
-2931 2933 3021 0
2931 -2933 3021 0
-2936 -2938 -3023 0
2936 2938 -3023 0
-2936 2938 3023 0
2936 -2938 3023 0
-2940 -2942 -3025 0
2940 2942 -3025 0
-2940 2942 3025 0
2940 -2942 3025 0
-2944 -2946 -3027 0
2944 2946 -3027 0
-2944 2946 3027 0
2944 -2946 3027 0
-2948 -2950 -3029 0
2948 2950 -3029 0
-2948 2950 3029 0
2948 -2950 3029 0
-2952 -2954 -3031 0
2952 2954 -3031 0
-2952 2954 3031 0
2952 -2954 3031 0
-2956 -2958 -3033 0
2956 2958 -3033 0
-2956 2958 3033 0
2956 -2958 3033 0
-2960 -2962 -3035 0
2960 2962 -3035 0
-2960 2962 3035 0
2960 -2962 3035 0
-2964 -2966 -3037 0
2964 2966 -3037 0
-2964 2966 3037 0
2964 -2966 3037 0
-2968 -2970 -3039 0
2968 2970 -3039 0
-2968 2970 3039 0
2968 -2970 3039 0
-2972 -2974 -3041 0
2972 2974 -3041 0
-2972 2974 3041 0
2972 -2974 3041 0
-2976 -2978 -3043 0
2976 2978 -3043 0
-2976 2978 3043 0
2976 -2978 3043 0
-2980 -2982 -3045 0
2980 2982 -3045 0
-2980 2982 3045 0
2980 -2982 3045 0
-2984 -2986 -3047 0
2984 2986 -3047 0
-2984 2986 3047 0
2984 -2986 3047 0
-2988 -2990 -3049 0
2988 2990 -3049 0
-2988 2990 3049 0
2988 -2990 3049 0
-2992 -2994 -3051 0
2992 2994 -3051 0
-2992 2994 3051 0
2992 -2994 3051 0
-2996 -2998 -3053 0
2996 2998 -3053 0
-2996 2998 3053 0
2996 -2998 3053 0
-2997 -2999 -3055 0
2997 2999 -3055 0
2997 -2999 3055 0
-2997 2999 3055 0
-3001 -3002 -3056 0
3001 3002 -3056 0
-3001 3002 3056 0
3001 -3002 3056 0
-3003 -3004 -3058 0
3003 3004 -3058 0
-3003 3004 3058 0
3003 -3004 3058 0
-3005 -3007 -3060 0
3005 3007 -3060 0
-3005 3007 3060 0
3005 -3007 3060 0
-3009 -3010 -3062 0
3009 3010 -3062 0
-3009 3010 3062 0
3009 -3010 3062 0
-3011 -3012 -3064 0
3011 3012 -3064 0
-3011 3012 3064 0
3011 -3012 3064 0
-3013 -3015 -3066 0
3013 3015 -3066 0
-3013 3015 3066 0
3013 -3015 3066 0
-3017 -3019 -3068 0
3017 3019 -3068 0
-3017 3019 3068 0
3017 -3019 3068 0
-3021 -3022 -3070 0
3021 3022 -3070 0
-3021 3022 3070 0
3021 -3022 3070 0
-3023 -3025 -3072 0
3023 3025 -3072 0
-3023 3025 3072 0
3023 -3025 3072 0
-3027 -3029 -3074 0
3027 3029 -3074 0
-3027 3029 3074 0
3027 -3029 3074 0
-3031 -3033 -3076 0
3031 3033 -3076 0
-3031 3033 3076 0
3031 -3033 3076 0
-3035 -3037 -3078 0
3035 3037 -3078 0
-3035 3037 3078 0
3035 -3037 3078 0
-3039 -3041 -3080 0
3039 3041 -3080 0
-3039 3041 3080 0
3039 -3041 3080 0
-3043 -3045 -3082 0
3043 3045 -3082 0
-3043 3045 3082 0
3043 -3045 3082 0
-3047 -3049 -3084 0
3047 3049 -3084 0
-3047 3049 3084 0
3047 -3049 3084 0
-3051 -3053 -3086 0
3051 3053 -3086 0
-3051 3053 3086 0
3051 -3053 3086 0
-3000 -3055 -3088 0
3000 3055 -3088 0
3000 -3055 3088 0
-3000 3055 3088 0
-3056 -3058 -3090 0
3056 3058 -3090 0
-3056 3058 3090 0
3056 -3058 3090 0
-3060 -3062 -3092 0
3060 3062 -3092 0
-3060 3062 3092 0
3060 -3062 3092 0
-3064 -3066 -3094 0
3064 3066 -3094 0
-3064 3066 3094 0
3064 -3066 3094 0
-3068 -3070 -3096 0
3068 3070 -3096 0
-3068 3070 3096 0
3068 -3070 3096 0
-3072 -3074 -3098 0
3072 3074 -3098 0
-3072 3074 3098 0
3072 -3074 3098 0
-3076 -3078 -3100 0
3076 3078 -3100 0
-3076 3078 3100 0
3076 -3078 3100 0
-3080 -3082 -3102 0
3080 3082 -3102 0
-3080 3082 3102 0
3080 -3082 3102 0
-3084 -3086 -3104 0
3084 3086 -3104 0
-3084 3086 3104 0
3084 -3086 3104 0
-3088 -3090 -3106 0
3088 3090 -3106 0
-3088 3090 3106 0
3088 -3090 3106 0
-3092 -3094 -3108 0
3092 3094 -3108 0
-3092 3094 3108 0
3092 -3094 3108 0
-3096 -3098 -3110 0
3096 3098 -3110 0
-3096 3098 3110 0
3096 -3098 3110 0
-3100 -3102 -3112 0
3100 3102 -3112 0
-3100 3102 3112 0
3100 -3102 3112 0
-3104 -3106 -3114 0
3104 3106 -3114 0
-3104 3106 3114 0
3104 -3106 3114 0
-3108 -3110 -3116 0
3108 3110 -3116 0
-3108 3110 3116 0
3108 -3110 3116 0
-3112 -3114 -3116 0
3112 3114 -3116 0
-3112 3114 3116 0
3112 -3114 3116 0
-3006 -3008 -3121 0
3006 3008 -3121 0
-3006 3008 3121 0
3006 -3008 3121 0
-3014 -3016 -3124 0
3014 3016 -3124 0
-3014 3016 3124 0
3014 -3016 3124 0
-3018 -3020 -3126 0
3018 3020 -3126 0
-3018 3020 3126 0
3018 -3020 3126 0
-3024 -3026 -3129 0
3024 3026 -3129 0
-3024 3026 3129 0
3024 -3026 3129 0
-3028 -3030 -3130 0
3028 3030 -3130 0
-3028 3030 3130 0
3028 -3030 3130 0
-3032 -3034 -3132 0
3032 3034 -3132 0
-3032 3034 3132 0
3032 -3034 3132 0
-3036 -3038 -3134 0
3036 3038 -3134 0
-3036 3038 3134 0
3036 -3038 3134 0
-3040 -3042 -3136 0
3040 3042 -3136 0
-3040 3042 3136 0
3040 -3042 3136 0
-3044 -3046 -3138 0
3044 3046 -3138 0
-3044 3046 3138 0
3044 -3046 3138 0
-3048 -3050 -3140 0
3048 3050 -3140 0
-3048 3050 3140 0
3048 -3050 3140 0
-3052 -3054 -3142 0
3052 3054 -3142 0
-3052 3054 3142 0
3052 -3054 3142 0
-3057 -3059 -3144 0
3057 3059 -3144 0
-3057 3059 3144 0
3057 -3059 3144 0
-3061 -3063 -3146 0
3061 3063 -3146 0
-3061 3063 3146 0
3061 -3063 3146 0
-3065 -3067 -3148 0
3065 3067 -3148 0
-3065 3067 3148 0
3065 -3067 3148 0
-3069 -3071 -3150 0
3069 3071 -3150 0
-3069 3071 3150 0
3069 -3071 3150 0
-3073 -3075 -3152 0
3073 3075 -3152 0
-3073 3075 3152 0
3073 -3075 3152 0
-3077 -3079 -3154 0
3077 3079 -3154 0
-3077 3079 3154 0
3077 -3079 3154 0
-3081 -3083 -3156 0
3081 3083 -3156 0
-3081 3083 3156 0
3081 -3083 3156 0
-3085 -3087 -3158 0
3085 3087 -3158 0
-3085 3087 3158 0
3085 -3087 3158 0
-3089 -3091 -3160 0
3089 3091 -3160 0
-3089 3091 3160 0
3089 -3091 3160 0
-3093 -3095 -3162 0
3093 3095 -3162 0
-3093 3095 3162 0
3093 -3095 3162 0
-3097 -3099 -3164 0
3097 3099 -3164 0
-3097 3099 3164 0
3097 -3099 3164 0
-3101 -3103 -3166 0
3101 3103 -3166 0
-3101 3103 3166 0
3101 -3103 3166 0
-3105 -3107 -3168 0
3105 3107 -3168 0
-3105 3107 3168 0
3105 -3107 3168 0
-3109 -3111 -3170 0
3109 3111 -3170 0
-3109 3111 3170 0
3109 -3111 3170 0
-3113 -3115 -3172 0
3113 3115 -3172 0
-3113 3115 3172 0
3113 -3115 3172 0
-3117 -3118 -3174 0
3117 3118 -3174 0
-3117 3118 3174 0
3117 -3118 3174 0
-3119 -3120 -3176 0
3119 3120 -3176 0
-3119 3120 3176 0
3119 -3120 3176 0
-3121 -3122 -3177 0
3121 3122 -3177 0
-3121 3122 3177 0
3121 -3122 3177 0
-3123 -3124 -3179 0
3123 3124 -3179 0
-3123 3124 3179 0
3123 -3124 3179 0
-3126 -3128 -3181 0
3126 3128 -3181 0
-3126 3128 3181 0
3126 -3128 3181 0
-3129 -3130 -3183 0
3129 3130 -3183 0
-3129 3130 3183 0
3129 -3130 3183 0
-3132 -3134 -3185 0
3132 3134 -3185 0
-3132 3134 3185 0
3132 -3134 3185 0
-3136 -3138 -3187 0
3136 3138 -3187 0
-3136 3138 3187 0
3136 -3138 3187 0
-3140 -3142 -3189 0
3140 3142 -3189 0
-3140 3142 3189 0
3140 -3142 3189 0
-3143 -3144 -3191 0
3143 3144 -3191 0
-3143 3144 3191 0
3143 -3144 3191 0
-3146 -3148 -3193 0
3146 3148 -3193 0
-3146 3148 3193 0
3146 -3148 3193 0
-3150 -3152 -3195 0
3150 3152 -3195 0
-3150 3152 3195 0
3150 -3152 3195 0
-3154 -3156 -3197 0
3154 3156 -3197 0
-3154 3156 3197 0
3154 -3156 3197 0
-3158 -3160 -3199 0
3158 3160 -3199 0
-3158 3160 3199 0
3158 -3160 3199 0
-3162 -3164 -3201 0
3162 3164 -3201 0
-3162 3164 3201 0
3162 -3164 3201 0
-3166 -3168 -3203 0
3166 3168 -3203 0
-3166 3168 3203 0
3166 -3168 3203 0
-3170 -3172 -3205 0
3170 3172 -3205 0
-3170 3172 3205 0
3170 -3172 3205 0
-3116 -3174 -3207 0
3116 3174 -3207 0
3116 -3174 3207 0
-3116 3174 3207 0
-3176 -3177 -3209 0
3176 3177 -3209 0
-3176 3177 3209 0
3176 -3177 3209 0
-3179 -3181 -3211 0
3179 3181 -3211 0
-3179 3181 3211 0
3179 -3181 3211 0
-3183 -3185 -3213 0
3183 3185 -3213 0
-3183 3185 3213 0
3183 -3185 3213 0
-3187 -3189 -3215 0
3187 3189 -3215 0
-3187 3189 3215 0
3187 -3189 3215 0
-3191 -3193 -3217 0
3191 3193 -3217 0
-3191 3193 3217 0
3191 -3193 3217 0
-3195 -3197 -3219 0
3195 3197 -3219 0
-3195 3197 3219 0
3195 -3197 3219 0
-3199 -3201 -3221 0
3199 3201 -3221 0
-3199 3201 3221 0
3199 -3201 3221 0
-3203 -3205 -3223 0
3203 3205 -3223 0
-3203 3205 3223 0
3203 -3205 3223 0
-3207 -3209 -3225 0
3207 3209 -3225 0
-3207 3209 3225 0
3207 -3209 3225 0
-3211 -3213 -3227 0
3211 3213 -3227 0
-3211 3213 3227 0
3211 -3213 3227 0
-3215 -3217 -3229 0
3215 3217 -3229 0
-3215 3217 3229 0
3215 -3217 3229 0
-3219 -3221 -3231 0
3219 3221 -3231 0
-3219 3221 3231 0
3219 -3221 3231 0
-3223 -3225 -3233 0
3223 3225 -3233 0
-3223 3225 3233 0
3223 -3225 3233 0
-3227 -3229 -3235 0
3227 3229 -3235 0
-3227 3229 3235 0
3227 -3229 3235 0
-3231 -3233 -3235 0
3231 3233 -3235 0
-3231 3233 3235 0
3231 -3233 3235 0
-3125 -3127 -3293 0
3125 3127 -3293 0
-3125 3127 3293 0
3125 -3127 3293 0
-3131 -3133 -3240 0
3131 3133 -3240 0
-3131 3133 3240 0
3131 -3133 3240 0
-3135 -3137 -3241 0
3135 3137 -3241 0
-3135 3137 3241 0
3135 -3137 3241 0
-3139 -3141 -3243 0
3139 3141 -3243 0
-3139 3141 3243 0
3139 -3141 3243 0
-3145 -3147 -3246 0
3145 3147 -3246 0
-3145 3147 3246 0
3145 -3147 3246 0
-3149 -3151 -3247 0
3149 3151 -3247 0
-3149 3151 3247 0
3149 -3151 3247 0
-3153 -3155 -3249 0
3153 3155 -3249 0
-3153 3155 3249 0
3153 -3155 3249 0
-3157 -3159 -3251 0
3157 3159 -3251 0
-3157 3159 3251 0
3157 -3159 3251 0
-3161 -3163 -3253 0
3161 3163 -3253 0
-3161 3163 3253 0
3161 -3163 3253 0
-3165 -3167 -3255 0
3165 3167 -3255 0
-3165 3167 3255 0
3165 -3167 3255 0
-3169 -3171 -3257 0
3169 3171 -3257 0
-3169 3171 3257 0
3169 -3171 3257 0
-3173 -3175 -3259 0
3173 3175 -3259 0
-3173 3175 3259 0
3173 -3175 3259 0
-3178 -3180 -3261 0
3178 3180 -3261 0
-3178 3180 3261 0
3178 -3180 3261 0
-3182 -3184 -3263 0
3182 3184 -3263 0
-3182 3184 3263 0
3182 -3184 3263 0
-3186 -3188 -3265 0
3186 3188 -3265 0
-3186 3188 3265 0
3186 -3188 3265 0
-3190 -3192 -3267 0
3190 3192 -3267 0
-3190 3192 3267 0
3190 -3192 3267 0
-3194 -3196 -3269 0
3194 3196 -3269 0
-3194 3196 3269 0
3194 -3196 3269 0
-3198 -3200 -3271 0
3198 3200 -3271 0
-3198 3200 3271 0
3198 -3200 3271 0
-3202 -3204 -3273 0
3202 3204 -3273 0
-3202 3204 3273 0
3202 -3204 3273 0
-3206 -3208 -3275 0
3206 3208 -3275 0
-3206 3208 3275 0
3206 -3208 3275 0
-3210 -3212 -3277 0
3210 3212 -3277 0
-3210 3212 3277 0
3210 -3212 3277 0
-3214 -3216 -3279 0
3214 3216 -3279 0
-3214 3216 3279 0
3214 -3216 3279 0
-3218 -3220 -3281 0
3218 3220 -3281 0
-3218 3220 3281 0
3218 -3220 3281 0
-3222 -3224 -3283 0
3222 3224 -3283 0
-3222 3224 3283 0
3222 -3224 3283 0
-3226 -3228 -3285 0
3226 3228 -3285 0
-3226 3228 3285 0
3226 -3228 3285 0
-3230 -3232 -3287 0
3230 3232 -3287 0
-3230 3232 3287 0
3230 -3232 3287 0
-3234 -3236 -3289 0
3234 3236 -3289 0
-3234 3236 3289 0
3234 -3236 3289 0
-3235 -3237 -3291 0
3235 3237 -3291 0
3235 -3237 3291 0
-3235 3237 3291 0
-3239 -3240 -3294 0
3239 3240 -3294 0
-3239 3240 3294 0
3239 -3240 3294 0
-3241 -3243 -3296 0
3241 3243 -3296 0
-3241 3243 3296 0
3241 -3243 3296 0
-3245 -3246 -3298 0
3245 3246 -3298 0
-3245 3246 3298 0
3245 -3246 3298 0
-3247 -3249 -3300 0
3247 3249 -3300 0
-3247 3249 3300 0
3247 -3249 3300 0
-3251 -3253 -3302 0
3251 3253 -3302 0
-3251 3253 3302 0
3251 -3253 3302 0
-3255 -3257 -3304 0
3255 3257 -3304 0
-3255 3257 3304 0
3255 -3257 3304 0
-3259 -3260 -3306 0
3259 3260 -3306 0
-3259 3260 3306 0
3259 -3260 3306 0
-3261 -3263 -3308 0
3261 3263 -3308 0
-3261 3263 3308 0
3261 -3263 3308 0
-3265 -3267 -3310 0
3265 3267 -3310 0
-3265 3267 3310 0
3265 -3267 3310 0
-3269 -3271 -3312 0
3269 3271 -3312 0
-3269 3271 3312 0
3269 -3271 3312 0
-3273 -3275 -3314 0
3273 3275 -3314 0
-3273 3275 3314 0
3273 -3275 3314 0
-3277 -3279 -3316 0
3277 3279 -3316 0
-3277 3279 3316 0
3277 -3279 3316 0
-3281 -3283 -3318 0
3281 3283 -3318 0
-3281 3283 3318 0
3281 -3283 3318 0
-3285 -3287 -3320 0
3285 3287 -3320 0
-3285 3287 3320 0
3285 -3287 3320 0
-3289 -3291 -3322 0
3289 3291 -3322 0
-3289 3291 3322 0
3289 -3291 3322 0
-3238 -3293 -3324 0
3238 3293 -3324 0
-3238 3293 3324 0
3238 -3293 3324 0
-3294 -3296 -3326 0
3294 3296 -3326 0
-3294 3296 3326 0
3294 -3296 3326 0
-3298 -3300 -3328 0
3298 3300 -3328 0
-3298 3300 3328 0
3298 -3300 3328 0
-3302 -3304 -3330 0
3302 3304 -3330 0
-3302 3304 3330 0
3302 -3304 3330 0
-3306 -3308 -3332 0
3306 3308 -3332 0
-3306 3308 3332 0
3306 -3308 3332 0
-3310 -3312 -3334 0
3310 3312 -3334 0
-3310 3312 3334 0
3310 -3312 3334 0
-3314 -3316 -3336 0
3314 3316 -3336 0
-3314 3316 3336 0
3314 -3316 3336 0
-3318 -3320 -3338 0
3318 3320 -3338 0
-3318 3320 3338 0
3318 -3320 3338 0
-3322 -3324 -3340 0
3322 3324 -3340 0
-3322 3324 3340 0
3322 -3324 3340 0
-3326 -3328 -3342 0
3326 3328 -3342 0
-3326 3328 3342 0
3326 -3328 3342 0
-3330 -3332 -3344 0
3330 3332 -3344 0
-3330 3332 3344 0
3330 -3332 3344 0
-3334 -3336 -3346 0
3334 3336 -3346 0
-3334 3336 3346 0
3334 -3336 3346 0
-3338 -3340 -3348 0
3338 3340 -3348 0
-3338 3340 3348 0
3338 -3340 3348 0
-3342 -3344 -3350 0
3342 3344 -3350 0
-3342 3344 3350 0
3342 -3344 3350 0
-3346 -3348 -3350 0
3346 3348 -3350 0
-3346 3348 3350 0
3346 -3348 3350 0
-3242 -3244 -3355 0
3242 3244 -3355 0
-3242 3244 3355 0
3242 -3244 3355 0
-3248 -3250 -3357 0
3248 3250 -3357 0
-3248 3250 3357 0
3248 -3250 3357 0
-3252 -3254 -3358 0
3252 3254 -3358 0
-3252 3254 3358 0
3252 -3254 3358 0
-3256 -3258 -3360 0
3256 3258 -3360 0
-3256 3258 3360 0
3256 -3258 3360 0
-3262 -3264 -3363 0
3262 3264 -3363 0
-3262 3264 3363 0
3262 -3264 3363 0
-3266 -3268 -3364 0
3266 3268 -3364 0
-3266 3268 3364 0
3266 -3268 3364 0
-3270 -3272 -3366 0
3270 3272 -3366 0
-3270 3272 3366 0
3270 -3272 3366 0
-3274 -3276 -3368 0
3274 3276 -3368 0
-3274 3276 3368 0
3274 -3276 3368 0
-3278 -3280 -3370 0
3278 3280 -3370 0
-3278 3280 3370 0
3278 -3280 3370 0
-3282 -3284 -3372 0
3282 3284 -3372 0
-3282 3284 3372 0
3282 -3284 3372 0
-3286 -3288 -3374 0
3286 3288 -3374 0
-3286 3288 3374 0
3286 -3288 3374 0
-3290 -3292 -3376 0
3290 3292 -3376 0
-3290 3292 3376 0
3290 -3292 3376 0
-3295 -3297 -3421 0
3295 3297 -3421 0
-3295 3297 3421 0
3295 -3297 3421 0
-3299 -3301 -3378 0
3299 3301 -3378 0
-3299 3301 3378 0
3299 -3301 3378 0
-3303 -3305 -3380 0
3303 3305 -3380 0
-3303 3305 3380 0
3303 -3305 3380 0
-3307 -3309 -3382 0
3307 3309 -3382 0
-3307 3309 3382 0
3307 -3309 3382 0
-3311 -3313 -3384 0
3311 3313 -3384 0
-3311 3313 3384 0
3311 -3313 3384 0
-3315 -3317 -3386 0
3315 3317 -3386 0
-3315 3317 3386 0
3315 -3317 3386 0
-3319 -3321 -3388 0
3319 3321 -3388 0
-3319 3321 3388 0
3319 -3321 3388 0
-3323 -3325 -3390 0
3323 3325 -3390 0
-3323 3325 3390 0
3323 -3325 3390 0
-3327 -3329 -3392 0
3327 3329 -3392 0
-3327 3329 3392 0
3327 -3329 3392 0
-3331 -3333 -3394 0
3331 3333 -3394 0
-3331 3333 3394 0
3331 -3333 3394 0
-3335 -3337 -3396 0
3335 3337 -3396 0
-3335 3337 3396 0
3335 -3337 3396 0
-3339 -3341 -3398 0
3339 3341 -3398 0
-3339 3341 3398 0
3339 -3341 3398 0
-3343 -3345 -3400 0
3343 3345 -3400 0
-3343 3345 3400 0
3343 -3345 3400 0
-3347 -3349 -3402 0
3347 3349 -3402 0
-3347 3349 3402 0
3347 -3349 3402 0
-3351 -3352 -3404 0
3351 3352 -3404 0
-3351 3352 3404 0
3351 -3352 3404 0
-3353 -3354 -3405 0
3353 3354 -3405 0
-3353 3354 3405 0
3353 -3354 3405 0
-3355 -3356 -3407 0
3355 3356 -3407 0
-3355 3356 3407 0
3355 -3356 3407 0
-3357 -3358 -3409 0
3357 3358 -3409 0
-3357 3358 3409 0
3357 -3358 3409 0
-3360 -3362 -3411 0
3360 3362 -3411 0
-3360 3362 3411 0
3360 -3362 3411 0
-3363 -3364 -3413 0
3363 3364 -3413 0
-3363 3364 3413 0
3363 -3364 3413 0
-3366 -3368 -3415 0
3366 3368 -3415 0
-3366 3368 3415 0
3366 -3368 3415 0
-3370 -3372 -3417 0
3370 3372 -3417 0
-3370 3372 3417 0
3370 -3372 3417 0
-3374 -3376 -3419 0
3374 3376 -3419 0
-3374 3376 3419 0
3374 -3376 3419 0
-3378 -3380 -3422 0
3378 3380 -3422 0
-3378 3380 3422 0
3378 -3380 3422 0
-3382 -3384 -3423 0
3382 3384 -3423 0
-3382 3384 3423 0
3382 -3384 3423 0
-3386 -3388 -3425 0
3386 3388 -3425 0
-3386 3388 3425 0
3386 -3388 3425 0
-3390 -3392 -3427 0
3390 3392 -3427 0
-3390 3392 3427 0
3390 -3392 3427 0
-3394 -3396 -3429 0
3394 3396 -3429 0
-3394 3396 3429 0
3394 -3396 3429 0
-3398 -3400 -3431 0
3398 3400 -3431 0
-3398 3400 3431 0
3398 -3400 3431 0
-3402 -3404 -3433 0
3402 3404 -3433 0
-3402 3404 3433 0
3402 -3404 3433 0
-3350 -3405 -3435 0
3350 3405 -3435 0
-3350 3405 3435 0
3350 -3405 3435 0
-3407 -3409 -3437 0
3407 3409 -3437 0
-3407 3409 3437 0
3407 -3409 3437 0
-3411 -3413 -3439 0
3411 3413 -3439 0
-3411 3413 3439 0
3411 -3413 3439 0
-3415 -3417 -3441 0
3415 3417 -3441 0
-3415 3417 3441 0
3415 -3417 3441 0
-3419 -3421 -3443 0
3419 3421 -3443 0
-3419 3421 3443 0
3419 -3421 3443 0
-3422 -3423 -3445 0
3422 3423 -3445 0
-3422 3423 3445 0
3422 -3423 3445 0
-3425 -3427 -3447 0
3425 3427 -3447 0
-3425 3427 3447 0
3425 -3427 3447 0
-3429 -3431 -3449 0
3429 3431 -3449 0
-3429 3431 3449 0
3429 -3431 3449 0
-3433 -3435 -3451 0
3433 3435 -3451 0
-3433 3435 3451 0
3433 -3435 3451 0
-3437 -3439 -3453 0
3437 3439 -3453 0
-3437 3439 3453 0
3437 -3439 3453 0
-3441 -3443 -3455 0
3441 3443 -3455 0
-3441 3443 3455 0
3441 -3443 3455 0
-3445 -3447 -3457 0
3445 3447 -3457 0
-3445 3447 3457 0
3445 -3447 3457 0
-3449 -3451 -3459 0
3449 3451 -3459 0
-3449 3451 3459 0
3449 -3451 3459 0
-3453 -3455 -3461 0
3453 3455 -3461 0
-3453 3455 3461 0
3453 -3455 3461 0
-3457 -3459 -3461 0
3457 3459 -3461 0
-3457 3459 3461 0
3457 -3459 3461 0
-3359 -3361 -3466 0
3359 3361 -3466 0
-3359 3361 3466 0
3359 -3361 3466 0
-3365 -3367 -3468 0
3365 3367 -3468 0
-3365 3367 3468 0
3365 -3367 3468 0
-3369 -3371 -3469 0
3369 3371 -3469 0
-3369 3371 3469 0
3369 -3371 3469 0
-3373 -3375 -3471 0
3373 3375 -3471 0
-3373 3375 3471 0
3373 -3375 3471 0
-3377 -3379 -3474 0
3377 3379 -3474 0
-3377 3379 3474 0
3377 -3379 3474 0
-3381 -3383 -3475 0
3381 3383 -3475 0
-3381 3383 3475 0
3381 -3383 3475 0
-3385 -3387 -3477 0
3385 3387 -3477 0
-3385 3387 3477 0
3385 -3387 3477 0
-3389 -3391 -3479 0
3389 3391 -3479 0
-3389 3391 3479 0
3389 -3391 3479 0
-3393 -3395 -3481 0
3393 3395 -3481 0
-3393 3395 3481 0
3393 -3395 3481 0
-3397 -3399 -3483 0
3397 3399 -3483 0
-3397 3399 3483 0
3397 -3399 3483 0
-3401 -3403 -3485 0
3401 3403 -3485 0
-3401 3403 3485 0
3401 -3403 3485 0
-3406 -3408 -3488 0
3406 3408 -3488 0
-3406 3408 3488 0
3406 -3408 3488 0
-3410 -3412 -3489 0
3410 3412 -3489 0
-3410 3412 3489 0
3410 -3412 3489 0
-3414 -3416 -3491 0
3414 3416 -3491 0
-3414 3416 3491 0
3414 -3416 3491 0
-3418 -3420 -3493 0
3418 3420 -3493 0
-3418 3420 3493 0
3418 -3420 3493 0
-3424 -3426 -3495 0
3424 3426 -3495 0
-3424 3426 3495 0
3424 -3426 3495 0
-3428 -3430 -3497 0
3428 3430 -3497 0
-3428 3430 3497 0
3428 -3430 3497 0
-3432 -3434 -3499 0
3432 3434 -3499 0
-3432 3434 3499 0
3432 -3434 3499 0
-3436 -3438 -3501 0
3436 3438 -3501 0
-3436 3438 3501 0
3436 -3438 3501 0
-3440 -3442 -3503 0
3440 3442 -3503 0
-3440 3442 3503 0
3440 -3442 3503 0
-3444 -3446 -3505 0
3444 3446 -3505 0
-3444 3446 3505 0
3444 -3446 3505 0
-3448 -3450 -3507 0
3448 3450 -3507 0
-3448 3450 3507 0
3448 -3450 3507 0
-3452 -3454 -3509 0
3452 3454 -3509 0
-3452 3454 3509 0
3452 -3454 3509 0
-3456 -3458 -3511 0
3456 3458 -3511 0
-3456 3458 3511 0
3456 -3458 3511 0
-3460 -3462 -3513 0
3460 3462 -3513 0
-3460 3462 3513 0
3460 -3462 3513 0
-3461 -3463 -3515 0
3461 3463 -3515 0
3461 -3463 3515 0
-3461 3463 3515 0
-3465 -3466 -3516 0
3465 3466 -3516 0
-3465 3466 3516 0
3465 -3466 3516 0
-3467 -3468 -3518 0
3467 3468 -3518 0
-3467 3468 3518 0
3467 -3468 3518 0
-3469 -3471 -3520 0
3469 3471 -3520 0
-3469 3471 3520 0
3469 -3471 3520 0
-3473 -3474 -3522 0
3473 3474 -3522 0
-3473 3474 3522 0
3473 -3474 3522 0
-3475 -3477 -3524 0
3475 3477 -3524 0
-3475 3477 3524 0
3475 -3477 3524 0
-3479 -3481 -3526 0
3479 3481 -3526 0
-3479 3481 3526 0
3479 -3481 3526 0
-3483 -3485 -3528 0
3483 3485 -3528 0
-3483 3485 3528 0
3483 -3485 3528 0
-3487 -3488 -3530 0
3487 3488 -3530 0
-3487 3488 3530 0
3487 -3488 3530 0
-3489 -3491 -3532 0
3489 3491 -3532 0
-3489 3491 3532 0
3489 -3491 3532 0
-3493 -3494 -3534 0
3493 3494 -3534 0
-3493 3494 3534 0
3493 -3494 3534 0
-3495 -3497 -3536 0
3495 3497 -3536 0
-3495 3497 3536 0
3495 -3497 3536 0
-3499 -3501 -3538 0
3499 3501 -3538 0
-3499 3501 3538 0
3499 -3501 3538 0
-3503 -3505 -3540 0
3503 3505 -3540 0
-3503 3505 3540 0
3503 -3505 3540 0
-3507 -3509 -3542 0
3507 3509 -3542 0
-3507 3509 3542 0
3507 -3509 3542 0
-3511 -3513 -3544 0
3511 3513 -3544 0
-3511 3513 3544 0
3511 -3513 3544 0
-3464 -3515 -3546 0
3464 3515 -3546 0
3464 -3515 3546 0
-3464 3515 3546 0
-3516 -3518 -3548 0
3516 3518 -3548 0
-3516 3518 3548 0
3516 -3518 3548 0
-3520 -3522 -3550 0
3520 3522 -3550 0
-3520 3522 3550 0
3520 -3522 3550 0
-3524 -3526 -3552 0
3524 3526 -3552 0
-3524 3526 3552 0
3524 -3526 3552 0
-3528 -3530 -3554 0
3528 3530 -3554 0
-3528 3530 3554 0
3528 -3530 3554 0
-3532 -3534 -3556 0
3532 3534 -3556 0
-3532 3534 3556 0
3532 -3534 3556 0
-3536 -3538 -3558 0
3536 3538 -3558 0
-3536 3538 3558 0
3536 -3538 3558 0
-3540 -3542 -3560 0
3540 3542 -3560 0
-3540 3542 3560 0
3540 -3542 3560 0
-3544 -3546 -3562 0
3544 3546 -3562 0
-3544 3546 3562 0
3544 -3546 3562 0
-3548 -3550 -3564 0
3548 3550 -3564 0
-3548 3550 3564 0
3548 -3550 3564 0
-3552 -3554 -3566 0
3552 3554 -3566 0
-3552 3554 3566 0
3552 -3554 3566 0
-3556 -3558 -3568 0
3556 3558 -3568 0
-3556 3558 3568 0
3556 -3558 3568 0
-3560 -3562 -3570 0
3560 3562 -3570 0
-3560 3562 3570 0
3560 -3562 3570 0
-3564 -3566 -3572 0
3564 3566 -3572 0
-3564 3566 3572 0
3564 -3566 3572 0
-3568 -3570 -3572 0
3568 3570 -3572 0
-3568 3570 3572 0
3568 -3570 3572 0
-3470 -3472 -3577 0
3470 3472 -3577 0
-3470 3472 3577 0
3470 -3472 3577 0
-3476 -3478 -3579 0
3476 3478 -3579 0
-3476 3478 3579 0
3476 -3478 3579 0
-3480 -3482 -3580 0
3480 3482 -3580 0
-3480 3482 3580 0
3480 -3482 3580 0
-3484 -3486 -3582 0
3484 3486 -3582 0
-3484 3486 3582 0
3484 -3486 3582 0
-3490 -3492 -3585 0
3490 3492 -3585 0
-3490 3492 3585 0
3490 -3492 3585 0
-3496 -3498 -3587 0
3496 3498 -3587 0
-3496 3498 3587 0
3496 -3498 3587 0
-3500 -3502 -3588 0
3500 3502 -3588 0
-3500 3502 3588 0
3500 -3502 3588 0
-3504 -3506 -3590 0
3504 3506 -3590 0
-3504 3506 3590 0
3504 -3506 3590 0
-3508 -3510 -3592 0
3508 3510 -3592 0
-3508 3510 3592 0
3508 -3510 3592 0
-3512 -3514 -3594 0
3512 3514 -3594 0
-3512 3514 3594 0
3512 -3514 3594 0
-3517 -3519 -3597 0
3517 3519 -3597 0
-3517 3519 3597 0
3517 -3519 3597 0
-3521 -3523 -3598 0
3521 3523 -3598 0
-3521 3523 3598 0
3521 -3523 3598 0
-3525 -3527 -3600 0
3525 3527 -3600 0
-3525 3527 3600 0
3525 -3527 3600 0
-3529 -3531 -3602 0
3529 3531 -3602 0
-3529 3531 3602 0
3529 -3531 3602 0
-3533 -3535 -3604 0
3533 3535 -3604 0
-3533 3535 3604 0
3533 -3535 3604 0
-3537 -3539 -3606 0
3537 3539 -3606 0
-3537 3539 3606 0
3537 -3539 3606 0
-3541 -3543 -3608 0
3541 3543 -3608 0
-3541 3543 3608 0
3541 -3543 3608 0
-3545 -3547 -3610 0
3545 3547 -3610 0
-3545 3547 3610 0
3545 -3547 3610 0
-3549 -3551 -3612 0
3549 3551 -3612 0
-3549 3551 3612 0
3549 -3551 3612 0
-3553 -3555 -3614 0
3553 3555 -3614 0
-3553 3555 3614 0
3553 -3555 3614 0
-3557 -3559 -3616 0
3557 3559 -3616 0
-3557 3559 3616 0
3557 -3559 3616 0
-3561 -3563 -3618 0
3561 3563 -3618 0
-3561 3563 3618 0
3561 -3563 3618 0
-3565 -3567 -3620 0
3565 3567 -3620 0
-3565 3567 3620 0
3565 -3567 3620 0
-3569 -3571 -3622 0
3569 3571 -3622 0
-3569 3571 3622 0
3569 -3571 3622 0
-3573 -3574 -3624 0
3573 3574 -3624 0
-3573 3574 3624 0
3573 -3574 3624 0
-3575 -3576 -3626 0
3575 3576 -3626 0
-3575 3576 3626 0
3575 -3576 3626 0
-3577 -3578 -3627 0
3577 3578 -3627 0
-3577 3578 3627 0
3577 -3578 3627 0
-3579 -3580 -3629 0
3579 3580 -3629 0
-3579 3580 3629 0
3579 -3580 3629 0
-3582 -3584 -3631 0
3582 3584 -3631 0
-3582 3584 3631 0
3582 -3584 3631 0
-3585 -3586 -3633 0
3585 3586 -3633 0
-3585 3586 3633 0
3585 -3586 3633 0
-3587 -3588 -3635 0
3587 3588 -3635 0
-3587 3588 3635 0
3587 -3588 3635 0
-3590 -3592 -3637 0
3590 3592 -3637 0
-3590 3592 3637 0
3590 -3592 3637 0
-3594 -3596 -3639 0
3594 3596 -3639 0
-3594 3596 3639 0
3594 -3596 3639 0
-3597 -3598 -3641 0
3597 3598 -3641 0
-3597 3598 3641 0
3597 -3598 3641 0
-3600 -3602 -3643 0
3600 3602 -3643 0
-3600 3602 3643 0
3600 -3602 3643 0
-3604 -3606 -3645 0
3604 3606 -3645 0
-3604 3606 3645 0
3604 -3606 3645 0
-3608 -3610 -3647 0
3608 3610 -3647 0
-3608 3610 3647 0
3608 -3610 3647 0
-3612 -3614 -3649 0
3612 3614 -3649 0
-3612 3614 3649 0
3612 -3614 3649 0
-3616 -3618 -3651 0
3616 3618 -3651 0
-3616 3618 3651 0
3616 -3618 3651 0
-3620 -3622 -3653 0
3620 3622 -3653 0
-3620 3622 3653 0
3620 -3622 3653 0
-3572 -3624 -3655 0
3572 3624 -3655 0
3572 -3624 3655 0
-3572 3624 3655 0
-3626 -3627 -3657 0
3626 3627 -3657 0
-3626 3627 3657 0
3626 -3627 3657 0
-3629 -3631 -3659 0
3629 3631 -3659 0
-3629 3631 3659 0
3629 -3631 3659 0
-3633 -3635 -3661 0
3633 3635 -3661 0
-3633 3635 3661 0
3633 -3635 3661 0
-3637 -3639 -3663 0
3637 3639 -3663 0
-3637 3639 3663 0
3637 -3639 3663 0
-3641 -3643 -3665 0
3641 3643 -3665 0
-3641 3643 3665 0
3641 -3643 3665 0
-3645 -3647 -3667 0
3645 3647 -3667 0
-3645 3647 3667 0
3645 -3647 3667 0
-3649 -3651 -3669 0
3649 3651 -3669 0
-3649 3651 3669 0
3649 -3651 3669 0
-3653 -3655 -3671 0
3653 3655 -3671 0
-3653 3655 3671 0
3653 -3655 3671 0
-3657 -3659 -3673 0
3657 3659 -3673 0
-3657 3659 3673 0
3657 -3659 3673 0
-3661 -3663 -3675 0
3661 3663 -3675 0
-3661 3663 3675 0
3661 -3663 3675 0
-3665 -3667 -3677 0
3665 3667 -3677 0
-3665 3667 3677 0
3665 -3667 3677 0
-3669 -3671 -3679 0
3669 3671 -3679 0
-3669 3671 3679 0
3669 -3671 3679 0
-3673 -3675 -3681 0
3673 3675 -3681 0
-3673 3675 3681 0
3673 -3675 3681 0
-3677 -3679 -3681 0
3677 3679 -3681 0
-3677 3679 3681 0
3677 -3679 3681 0
-3581 -3583 -3686 0
3581 3583 -3686 0
-3581 3583 3686 0
3581 -3583 3686 0
-3589 -3591 -3689 0
3589 3591 -3689 0
-3589 3591 3689 0
3589 -3591 3689 0
-3593 -3595 -3691 0
3593 3595 -3691 0
-3593 3595 3691 0
3593 -3595 3691 0
-3599 -3601 -3694 0
3599 3601 -3694 0
-3599 3601 3694 0
3599 -3601 3694 0
-3603 -3605 -3695 0
3603 3605 -3695 0
-3603 3605 3695 0
3603 -3605 3695 0
-3607 -3609 -3697 0
3607 3609 -3697 0
-3607 3609 3697 0
3607 -3609 3697 0
-3611 -3613 -3699 0
3611 3613 -3699 0
-3611 3613 3699 0
3611 -3613 3699 0
-3615 -3617 -3701 0
3615 3617 -3701 0
-3615 3617 3701 0
3615 -3617 3701 0
-3619 -3621 -3703 0
3619 3621 -3703 0
-3619 3621 3703 0
3619 -3621 3703 0
-3623 -3625 -3705 0
3623 3625 -3705 0
-3623 3625 3705 0
3623 -3625 3705 0
-3628 -3630 -3708 0
3628 3630 -3708 0
-3628 3630 3708 0
3628 -3630 3708 0
-3632 -3634 -3709 0
3632 3634 -3709 0
-3632 3634 3709 0
3632 -3634 3709 0
-3636 -3638 -3711 0
3636 3638 -3711 0
-3636 3638 3711 0
3636 -3638 3711 0
-3640 -3642 -3713 0
3640 3642 -3713 0
-3640 3642 3713 0
3640 -3642 3713 0
-3644 -3646 -3715 0
3644 3646 -3715 0
-3644 3646 3715 0
3644 -3646 3715 0
-3648 -3650 -3717 0
3648 3650 -3717 0
-3648 3650 3717 0
3648 -3650 3717 0
-3652 -3654 -3719 0
3652 3654 -3719 0
-3652 3654 3719 0
3652 -3654 3719 0
-3656 -3658 -3721 0
3656 3658 -3721 0
-3656 3658 3721 0
3656 -3658 3721 0
-3660 -3662 -3723 0
3660 3662 -3723 0
-3660 3662 3723 0
3660 -3662 3723 0
-3664 -3666 -3725 0
3664 3666 -3725 0
-3664 3666 3725 0
3664 -3666 3725 0
-3668 -3670 -3727 0
3668 3670 -3727 0
-3668 3670 3727 0
3668 -3670 3727 0
-3672 -3674 -3729 0
3672 3674 -3729 0
-3672 3674 3729 0
3672 -3674 3729 0
-3676 -3678 -3731 0
3676 3678 -3731 0
-3676 3678 3731 0
3676 -3678 3731 0
-3680 -3682 -3733 0
3680 3682 -3733 0
-3680 3682 3733 0
3680 -3682 3733 0
-3681 -3683 -3735 0
3681 3683 -3735 0
3681 -3683 3735 0
-3681 3683 3735 0
-3685 -3686 -3737 0
3685 3686 -3737 0
-3685 3686 3737 0
3685 -3686 3737 0
-3687 -3688 -3738 0
3687 3688 -3738 0
-3687 3688 3738 0
3687 -3688 3738 0
-3689 -3691 -3740 0
3689 3691 -3740 0
-3689 3691 3740 0
3689 -3691 3740 0
-3693 -3694 -3742 0
3693 3694 -3742 0
-3693 3694 3742 0
3693 -3694 3742 0
-3695 -3697 -3744 0
3695 3697 -3744 0
-3695 3697 3744 0
3695 -3697 3744 0
-3699 -3701 -3746 0
3699 3701 -3746 0
-3699 3701 3746 0
3699 -3701 3746 0
-3703 -3705 -3748 0
3703 3705 -3748 0
-3703 3705 3748 0
3703 -3705 3748 0
-3707 -3708 -3750 0
3707 3708 -3750 0
-3707 3708 3750 0
3707 -3708 3750 0
-3709 -3711 -3752 0
3709 3711 -3752 0
-3709 3711 3752 0
3709 -3711 3752 0
-3713 -3715 -3754 0
3713 3715 -3754 0
-3713 3715 3754 0
3713 -3715 3754 0
-3717 -3719 -3756 0
3717 3719 -3756 0
-3717 3719 3756 0
3717 -3719 3756 0
-3721 -3723 -3758 0
3721 3723 -3758 0
-3721 3723 3758 0
3721 -3723 3758 0
-3725 -3727 -3760 0
3725 3727 -3760 0
-3725 3727 3760 0
3725 -3727 3760 0
-3729 -3731 -3762 0
3729 3731 -3762 0
-3729 3731 3762 0
3729 -3731 3762 0
-3733 -3735 -3764 0
3733 3735 -3764 0
-3733 3735 3764 0
3733 -3735 3764 0
-3684 -3737 -3766 0
3684 3737 -3766 0
-3684 3737 3766 0
3684 -3737 3766 0
-3738 -3740 -3768 0
3738 3740 -3768 0
-3738 3740 3768 0
3738 -3740 3768 0
-3742 -3744 -3770 0
3742 3744 -3770 0
-3742 3744 3770 0
3742 -3744 3770 0
-3746 -3748 -3772 0
3746 3748 -3772 0
-3746 3748 3772 0
3746 -3748 3772 0
-3750 -3752 -3774 0
3750 3752 -3774 0
-3750 3752 3774 0
3750 -3752 3774 0
-3754 -3756 -3776 0
3754 3756 -3776 0
-3754 3756 3776 0
3754 -3756 3776 0
-3758 -3760 -3778 0
3758 3760 -3778 0
-3758 3760 3778 0
3758 -3760 3778 0
-3762 -3764 -3780 0
3762 3764 -3780 0
-3762 3764 3780 0
3762 -3764 3780 0
-3766 -3768 -3782 0
3766 3768 -3782 0
-3766 3768 3782 0
3766 -3768 3782 0
-3770 -3772 -3784 0
3770 3772 -3784 0
-3770 3772 3784 0
3770 -3772 3784 0
-3774 -3776 -3786 0
3774 3776 -3786 0
-3774 3776 3786 0
3774 -3776 3786 0
-3778 -3780 -3788 0
3778 3780 -3788 0
-3778 3780 3788 0
3778 -3780 3788 0
-3782 -3784 -3790 0
3782 3784 -3790 0
-3782 3784 3790 0
3782 -3784 3790 0
-3786 -3788 -3790 0
3786 3788 -3790 0
-3786 3788 3790 0
3786 -3788 3790 0
-3690 -3692 -3794 0
3690 3692 -3794 0
-3690 3692 3794 0
3690 -3692 3794 0
-3696 -3698 -3796 0
3696 3698 -3796 0
-3696 3698 3796 0
3696 -3698 3796 0
-3700 -3702 -3797 0
3700 3702 -3797 0
-3700 3702 3797 0
3700 -3702 3797 0
-3704 -3706 -3799 0
3704 3706 -3799 0
-3704 3706 3799 0
3704 -3706 3799 0
-3710 -3712 -3802 0
3710 3712 -3802 0
-3710 3712 3802 0
3710 -3712 3802 0
-3714 -3716 -3803 0
3714 3716 -3803 0
-3714 3716 3803 0
3714 -3716 3803 0
-3718 -3720 -3805 0
3718 3720 -3805 0
-3718 3720 3805 0
3718 -3720 3805 0
-3722 -3724 -3807 0
3722 3724 -3807 0
-3722 3724 3807 0
3722 -3724 3807 0
-3726 -3728 -3809 0
3726 3728 -3809 0
-3726 3728 3809 0
3726 -3728 3809 0
-3730 -3732 -3811 0
3730 3732 -3811 0
-3730 3732 3811 0
3730 -3732 3811 0
-3734 -3736 -3813 0
3734 3736 -3813 0
-3734 3736 3813 0
3734 -3736 3813 0
-3739 -3741 -3816 0
3739 3741 -3816 0
-3739 3741 3816 0
3739 -3741 3816 0
-3743 -3745 -3817 0
3743 3745 -3817 0
-3743 3745 3817 0
3743 -3745 3817 0
-3747 -3749 -3819 0
3747 3749 -3819 0
-3747 3749 3819 0
3747 -3749 3819 0
-3751 -3753 -3821 0
3751 3753 -3821 0
-3751 3753 3821 0
3751 -3753 3821 0
-3755 -3757 -3823 0
3755 3757 -3823 0
-3755 3757 3823 0
3755 -3757 3823 0
-3759 -3761 -3825 0
3759 3761 -3825 0
-3759 3761 3825 0
3759 -3761 3825 0
-3763 -3765 -3827 0
3763 3765 -3827 0
-3763 3765 3827 0
3763 -3765 3827 0
-3767 -3769 -3829 0
3767 3769 -3829 0
-3767 3769 3829 0
3767 -3769 3829 0
-3771 -3773 -3831 0
3771 3773 -3831 0
-3771 3773 3831 0
3771 -3773 3831 0
-3775 -3777 -3833 0
3775 3777 -3833 0
-3775 3777 3833 0
3775 -3777 3833 0
-3779 -3781 -3835 0
3779 3781 -3835 0
-3779 3781 3835 0
3779 -3781 3835 0
-3783 -3785 -3837 0
3783 3785 -3837 0
-3783 3785 3837 0
3783 -3785 3837 0
-3787 -3789 -3839 0
3787 3789 -3839 0
-3787 3789 3839 0
3787 -3789 3839 0
-3791 -3792 -3841 0
3791 3792 -3841 0
-3791 3792 3841 0
3791 -3792 3841 0
-3794 -3795 -3842 0
3794 3795 -3842 0
-3794 3795 3842 0
3794 -3795 3842 0
-3796 -3797 -3843 0
3796 3797 -3843 0
-3796 3797 3843 0
3796 -3797 3843 0
-3799 -3801 -3845 0
3799 3801 -3845 0
-3799 3801 3845 0
3799 -3801 3845 0
-3802 -3803 -3847 0
3802 3803 -3847 0
-3802 3803 3847 0
3802 -3803 3847 0
-3805 -3807 -3849 0
3805 3807 -3849 0
-3805 3807 3849 0
3805 -3807 3849 0
-3809 -3811 -3851 0
3809 3811 -3851 0
-3809 3811 3851 0
3809 -3811 3851 0
-3813 -3815 -3853 0
3813 3815 -3853 0
-3813 3815 3853 0
3813 -3815 3853 0
-3816 -3817 -3855 0
3816 3817 -3855 0
-3816 3817 3855 0
3816 -3817 3855 0
-3819 -3821 -3857 0
3819 3821 -3857 0
-3819 3821 3857 0
3819 -3821 3857 0
-3823 -3825 -3859 0
3823 3825 -3859 0
-3823 3825 3859 0
3823 -3825 3859 0
-3827 -3829 -3861 0
3827 3829 -3861 0
-3827 3829 3861 0
3827 -3829 3861 0
-3831 -3833 -3863 0
3831 3833 -3863 0
-3831 3833 3863 0
3831 -3833 3863 0
-3835 -3837 -3865 0
3835 3837 -3865 0
-3835 3837 3865 0
3835 -3837 3865 0
-3839 -3841 -3867 0
3839 3841 -3867 0
-3839 3841 3867 0
3839 -3841 3867 0
-3790 -3793 -3869 0
3790 3793 -3869 0
-3790 3793 3869 0
3790 -3793 3869 0
-3842 -3843 -3871 0
3842 3843 -3871 0
-3842 3843 3871 0
3842 -3843 3871 0
-3845 -3847 -3873 0
3845 3847 -3873 0
-3845 3847 3873 0
3845 -3847 3873 0
-3849 -3851 -3875 0
3849 3851 -3875 0
-3849 3851 3875 0
3849 -3851 3875 0
-3853 -3855 -3877 0
3853 3855 -3877 0
-3853 3855 3877 0
3853 -3855 3877 0
-3857 -3859 -3879 0
3857 3859 -3879 0
-3857 3859 3879 0
3857 -3859 3879 0
-3861 -3863 -3881 0
3861 3863 -3881 0
-3861 3863 3881 0
3861 -3863 3881 0
-3865 -3867 -3883 0
3865 3867 -3883 0
-3865 3867 3883 0
3865 -3867 3883 0
-3869 -3871 -3885 0
3869 3871 -3885 0
-3869 3871 3885 0
3869 -3871 3885 0
-3873 -3875 -3887 0
3873 3875 -3887 0
-3873 3875 3887 0
3873 -3875 3887 0
-3877 -3879 -3889 0
3877 3879 -3889 0
-3877 3879 3889 0
3877 -3879 3889 0
-3881 -3883 -3891 0
3881 3883 -3891 0
-3881 3883 3891 0
3881 -3883 3891 0
-3885 -3887 -3893 0
3885 3887 -3893 0
-3885 3887 3893 0
3885 -3887 3893 0
-3889 -3891 -3893 0
3889 3891 -3893 0
-3889 3891 3893 0
3889 -3891 3893 0
-3798 -3800 -3898 0
3798 3800 -3898 0
-3798 3800 3898 0
3798 -3800 3898 0
-3804 -3806 -3900 0
3804 3806 -3900 0
-3804 3806 3900 0
3804 -3806 3900 0
-3808 -3810 -3901 0
3808 3810 -3901 0
-3808 3810 3901 0
3808 -3810 3901 0
-3812 -3814 -3903 0
3812 3814 -3903 0
-3812 3814 3903 0
3812 -3814 3903 0
-3818 -3820 -3906 0
3818 3820 -3906 0
-3818 3820 3906 0
3818 -3820 3906 0
-3822 -3824 -3907 0
3822 3824 -3907 0
-3822 3824 3907 0
3822 -3824 3907 0
-3826 -3828 -3909 0
3826 3828 -3909 0
-3826 3828 3909 0
3826 -3828 3909 0
-3830 -3832 -3911 0
3830 3832 -3911 0
-3830 3832 3911 0
3830 -3832 3911 0
-3834 -3836 -3913 0
3834 3836 -3913 0
-3834 3836 3913 0
3834 -3836 3913 0
-3838 -3840 -3915 0
3838 3840 -3915 0
-3838 3840 3915 0
3838 -3840 3915 0
-3844 -3846 -3918 0
3844 3846 -3918 0
-3844 3846 3918 0
3844 -3846 3918 0
-3848 -3850 -3919 0
3848 3850 -3919 0
-3848 3850 3919 0
3848 -3850 3919 0
-3852 -3854 -3921 0
3852 3854 -3921 0
-3852 3854 3921 0
3852 -3854 3921 0
-3856 -3858 -3923 0
3856 3858 -3923 0
-3856 3858 3923 0
3856 -3858 3923 0
-3860 -3862 -3925 0
3860 3862 -3925 0
-3860 3862 3925 0
3860 -3862 3925 0
-3864 -3866 -3927 0
3864 3866 -3927 0
-3864 3866 3927 0
3864 -3866 3927 0
-3868 -3870 -3929 0
3868 3870 -3929 0
-3868 3870 3929 0
3868 -3870 3929 0
-3872 -3874 -3931 0
3872 3874 -3931 0
-3872 3874 3931 0
3872 -3874 3931 0
-3876 -3878 -3933 0
3876 3878 -3933 0
-3876 3878 3933 0
3876 -3878 3933 0
-3880 -3882 -3935 0
3880 3882 -3935 0
-3880 3882 3935 0
3880 -3882 3935 0
-3884 -3886 -3937 0
3884 3886 -3937 0
-3884 3886 3937 0
3884 -3886 3937 0
-3888 -3890 -3939 0
3888 3890 -3939 0
-3888 3890 3939 0
3888 -3890 3939 0
-3892 -3894 -3941 0
3892 3894 -3941 0
-3892 3894 3941 0
3892 -3894 3941 0
-3893 -3895 -3943 0
3893 3895 -3943 0
3893 -3895 3943 0
-3893 3895 3943 0
-3897 -3898 -3944 0
3897 3898 -3944 0
-3897 3898 3944 0
3897 -3898 3944 0
-3899 -3900 -3946 0
3899 3900 -3946 0
-3899 3900 3946 0
3899 -3900 3946 0
-3901 -3903 -3948 0
3901 3903 -3948 0
-3901 3903 3948 0
3901 -3903 3948 0
-3905 -3906 -3950 0
3905 3906 -3950 0
-3905 3906 3950 0
3905 -3906 3950 0
-3907 -3909 -3952 0
3907 3909 -3952 0
-3907 3909 3952 0
3907 -3909 3952 0
-3911 -3913 -3954 0
3911 3913 -3954 0
-3911 3913 3954 0
3911 -3913 3954 0
-3915 -3916 -3956 0
3915 3916 -3956 0
-3915 3916 3956 0
3915 -3916 3956 0
-3917 -3918 -3958 0
3917 3918 -3958 0
-3917 3918 3958 0
3917 -3918 3958 0
-3919 -3921 -3960 0
3919 3921 -3960 0
-3919 3921 3960 0
3919 -3921 3960 0
-3923 -3925 -3962 0
3923 3925 -3962 0
-3923 3925 3962 0
3923 -3925 3962 0
-3927 -3929 -3964 0
3927 3929 -3964 0
-3927 3929 3964 0
3927 -3929 3964 0
-3931 -3933 -3966 0
3931 3933 -3966 0
-3931 3933 3966 0
3931 -3933 3966 0
-3935 -3937 -3968 0
3935 3937 -3968 0
-3935 3937 3968 0
3935 -3937 3968 0
-3939 -3941 -3970 0
3939 3941 -3970 0
-3939 3941 3970 0
3939 -3941 3970 0
-3896 -3943 -3972 0
3896 3943 -3972 0
3896 -3943 3972 0
-3896 3943 3972 0
-3944 -3946 -3974 0
3944 3946 -3974 0
-3944 3946 3974 0
3944 -3946 3974 0
-3948 -3950 -3976 0
3948 3950 -3976 0
-3948 3950 3976 0
3948 -3950 3976 0
-3952 -3954 -3978 0
3952 3954 -3978 0
-3952 3954 3978 0
3952 -3954 3978 0
-3956 -3958 -3980 0
3956 3958 -3980 0
-3956 3958 3980 0
3956 -3958 3980 0
-3960 -3962 -3982 0
3960 3962 -3982 0
-3960 3962 3982 0
3960 -3962 3982 0
-3964 -3966 -3984 0
3964 3966 -3984 0
-3964 3966 3984 0
3964 -3966 3984 0
-3968 -3970 -3986 0
3968 3970 -3986 0
-3968 3970 3986 0
3968 -3970 3986 0
-3972 -3974 -3988 0
3972 3974 -3988 0
-3972 3974 3988 0
3972 -3974 3988 0
-3976 -3978 -3990 0
3976 3978 -3990 0
-3976 3978 3990 0
3976 -3978 3990 0
-3980 -3982 -3992 0
3980 3982 -3992 0
-3980 3982 3992 0
3980 -3982 3992 0
-3984 -3986 -3994 0
3984 3986 -3994 0
-3984 3986 3994 0
3984 -3986 3994 0
-3988 -3990 -3996 0
3988 3990 -3996 0
-3988 3990 3996 0
3988 -3990 3996 0
-3992 -3994 -3996 0
3992 3994 -3996 0
-3992 3994 3996 0
3992 -3994 3996 0
-3902 -3904 -4001 0
3902 3904 -4001 0
-3902 3904 4001 0
3902 -3904 4001 0
-3908 -3910 -4003 0
3908 3910 -4003 0
-3908 3910 4003 0
3908 -3910 4003 0
-3912 -3914 -4004 0
3912 3914 -4004 0
-3912 3914 4004 0
3912 -3914 4004 0
-3920 -3922 -4007 0
3920 3922 -4007 0
-3920 3922 4007 0
3920 -3922 4007 0
-3924 -3926 -4008 0
3924 3926 -4008 0
-3924 3926 4008 0
3924 -3926 4008 0
-3928 -3930 -4010 0
3928 3930 -4010 0
-3928 3930 4010 0
3928 -3930 4010 0
-3932 -3934 -4012 0
3932 3934 -4012 0
-3932 3934 4012 0
3932 -3934 4012 0
-3936 -3938 -4014 0
3936 3938 -4014 0
-3936 3938 4014 0
3936 -3938 4014 0
-3940 -3942 -4016 0
3940 3942 -4016 0
-3940 3942 4016 0
3940 -3942 4016 0
-3945 -3947 -4018 0
3945 3947 -4018 0
-3945 3947 4018 0
3945 -3947 4018 0
-3949 -3951 -4020 0
3949 3951 -4020 0
-3949 3951 4020 0
3949 -3951 4020 0
-3953 -3955 -4022 0
3953 3955 -4022 0
-3953 3955 4022 0
3953 -3955 4022 0
-3957 -3959 -4024 0
3957 3959 -4024 0
-3957 3959 4024 0
3957 -3959 4024 0
-3961 -3963 -4026 0
3961 3963 -4026 0
-3961 3963 4026 0
3961 -3963 4026 0
-3965 -3967 -4028 0
3965 3967 -4028 0
-3965 3967 4028 0
3965 -3967 4028 0
-3969 -3971 -4030 0
3969 3971 -4030 0
-3969 3971 4030 0
3969 -3971 4030 0
-3973 -3975 -4032 0
3973 3975 -4032 0
-3973 3975 4032 0
3973 -3975 4032 0
-3977 -3979 -4034 0
3977 3979 -4034 0
-3977 3979 4034 0
3977 -3979 4034 0
-3981 -3983 -4036 0
3981 3983 -4036 0
-3981 3983 4036 0
3981 -3983 4036 0
-3985 -3987 -4038 0
3985 3987 -4038 0
-3985 3987 4038 0
3985 -3987 4038 0
-3989 -3991 -4040 0
3989 3991 -4040 0
-3989 3991 4040 0
3989 -3991 4040 0
-3993 -3995 -4042 0
3993 3995 -4042 0
-3993 3995 4042 0
3993 -3995 4042 0
-3997 -3998 -4044 0
3997 3998 -4044 0
-3997 3998 4044 0
3997 -3998 4044 0
-3999 -4000 -4046 0
3999 4000 -4046 0
-3999 4000 4046 0
3999 -4000 4046 0
-4001 -4002 -4047 0
4001 4002 -4047 0
-4001 4002 4047 0
4001 -4002 4047 0
-4003 -4004 -4049 0
4003 4004 -4049 0
-4003 4004 4049 0
4003 -4004 4049 0
-4005 -4006 -4051 0
4005 4006 -4051 0
-4005 4006 4051 0
4005 -4006 4051 0
-4007 -4008 -4053 0
4007 4008 -4053 0
-4007 4008 4053 0
4007 -4008 4053 0
-4010 -4012 -4055 0
4010 4012 -4055 0
-4010 4012 4055 0
4010 -4012 4055 0
-4014 -4016 -4057 0
4014 4016 -4057 0
-4014 4016 4057 0
4014 -4016 4057 0
-4017 -4018 -4059 0
4017 4018 -4059 0
-4017 4018 4059 0
4017 -4018 4059 0
-4020 -4022 -4061 0
4020 4022 -4061 0
-4020 4022 4061 0
4020 -4022 4061 0
-4024 -4026 -4063 0
4024 4026 -4063 0
-4024 4026 4063 0
4024 -4026 4063 0
-4028 -4030 -4065 0
4028 4030 -4065 0
-4028 4030 4065 0
4028 -4030 4065 0
-4032 -4034 -4067 0
4032 4034 -4067 0
-4032 4034 4067 0
4032 -4034 4067 0
-4036 -4038 -4069 0
4036 4038 -4069 0
-4036 4038 4069 0
4036 -4038 4069 0
-4040 -4042 -4071 0
4040 4042 -4071 0
-4040 4042 4071 0
4040 -4042 4071 0
-3996 -4044 -4073 0
3996 4044 -4073 0
3996 -4044 4073 0
-3996 4044 4073 0
-4046 -4047 -4075 0
4046 4047 -4075 0
-4046 4047 4075 0
4046 -4047 4075 0
-4049 -4051 -4077 0
4049 4051 -4077 0
-4049 4051 4077 0
4049 -4051 4077 0
-4053 -4055 -4079 0
4053 4055 -4079 0
-4053 4055 4079 0
4053 -4055 4079 0
-4057 -4059 -4081 0
4057 4059 -4081 0
-4057 4059 4081 0
4057 -4059 4081 0
-4061 -4063 -4083 0
4061 4063 -4083 0
-4061 4063 4083 0
4061 -4063 4083 0
-4065 -4067 -4085 0
4065 4067 -4085 0
-4065 4067 4085 0
4065 -4067 4085 0
-4069 -4071 -4087 0
4069 4071 -4087 0
-4069 4071 4087 0
4069 -4071 4087 0
-4073 -4075 -4089 0
4073 4075 -4089 0
-4073 4075 4089 0
4073 -4075 4089 0
-4077 -4079 -4091 0
4077 4079 -4091 0
-4077 4079 4091 0
4077 -4079 4091 0
-4081 -4083 -4093 0
4081 4083 -4093 0
-4081 4083 4093 0
4081 -4083 4093 0
-4085 -4087 -4095 0
4085 4087 -4095 0
-4085 4087 4095 0
4085 -4087 4095 0
-4089 -4091 -4097 0
4089 4091 -4097 0
-4089 4091 4097 0
4089 -4091 4097 0
-4093 -4095 -4097 0
4093 4095 -4097 0
-4093 4095 4097 0
4093 -4095 4097 0
-4009 -4011 -4104 0
4009 4011 -4104 0
-4009 4011 4104 0
4009 -4011 4104 0
-4013 -4015 -4105 0
4013 4015 -4105 0
-4013 4015 4105 0
4013 -4015 4105 0
-4019 -4021 -4107 0
4019 4021 -4107 0
-4019 4021 4107 0
4019 -4021 4107 0
-4023 -4025 -4109 0
4023 4025 -4109 0
-4023 4025 4109 0
4023 -4025 4109 0
-4027 -4029 -4111 0
4027 4029 -4111 0
-4027 4029 4111 0
4027 -4029 4111 0
-4031 -4033 -4113 0
4031 4033 -4113 0
-4031 4033 4113 0
4031 -4033 4113 0
-4035 -4037 -4115 0
4035 4037 -4115 0
-4035 4037 4115 0
4035 -4037 4115 0
-4039 -4041 -4117 0
4039 4041 -4117 0
-4039 4041 4117 0
4039 -4041 4117 0
-4043 -4045 -4119 0
4043 4045 -4119 0
-4043 4045 4119 0
4043 -4045 4119 0
-4048 -4050 -4121 0
4048 4050 -4121 0
-4048 4050 4121 0
4048 -4050 4121 0
-4052 -4054 -4123 0
4052 4054 -4123 0
-4052 4054 4123 0
4052 -4054 4123 0
-4056 -4058 -4125 0
4056 4058 -4125 0
-4056 4058 4125 0
4056 -4058 4125 0
-4060 -4062 -4127 0
4060 4062 -4127 0
-4060 4062 4127 0
4060 -4062 4127 0
-4064 -4066 -4129 0
4064 4066 -4129 0
-4064 4066 4129 0
4064 -4066 4129 0
-4068 -4070 -4131 0
4068 4070 -4131 0
-4068 4070 4131 0
4068 -4070 4131 0
-4072 -4074 -4133 0
4072 4074 -4133 0
-4072 4074 4133 0
4072 -4074 4133 0
-4076 -4078 -4135 0
4076 4078 -4135 0
-4076 4078 4135 0
4076 -4078 4135 0
-4080 -4082 -4137 0
4080 4082 -4137 0
-4080 4082 4137 0
4080 -4082 4137 0
-4084 -4086 -4139 0
4084 4086 -4139 0
-4084 4086 4139 0
4084 -4086 4139 0
-4088 -4090 -4141 0
4088 4090 -4141 0
-4088 4090 4141 0
4088 -4090 4141 0
-4092 -4094 -4143 0
4092 4094 -4143 0
-4092 4094 4143 0
4092 -4094 4143 0
-4096 -4098 -4145 0
4096 4098 -4145 0
-4096 4098 4145 0
4096 -4098 4145 0
-4097 -4099 -4147 0
4097 4099 -4147 0
4097 -4099 4147 0
-4097 4099 4147 0
-4101 -4102 -4149 0
4101 4102 -4149 0
-4101 4102 4149 0
4101 -4102 4149 0
-4103 -4104 -4150 0
4103 4104 -4150 0
-4103 4104 4150 0
4103 -4104 4150 0
-4105 -4106 -4152 0
4105 4106 -4152 0
-4105 4106 4152 0
4105 -4106 4152 0
-4107 -4109 -4154 0
4107 4109 -4154 0
-4107 4109 4154 0
4107 -4109 4154 0
-4111 -4113 -4156 0
4111 4113 -4156 0
-4111 4113 4156 0
4111 -4113 4156 0
-4115 -4117 -4158 0
4115 4117 -4158 0
-4115 4117 4158 0
4115 -4117 4158 0
-4119 -4120 -4160 0
4119 4120 -4160 0
-4119 4120 4160 0
4119 -4120 4160 0
-4121 -4123 -4162 0
4121 4123 -4162 0
-4121 4123 4162 0
4121 -4123 4162 0
-4125 -4127 -4164 0
4125 4127 -4164 0
-4125 4127 4164 0
4125 -4127 4164 0
-4129 -4131 -4166 0
4129 4131 -4166 0
-4129 4131 4166 0
4129 -4131 4166 0
-4133 -4135 -4168 0
4133 4135 -4168 0
-4133 4135 4168 0
4133 -4135 4168 0
-4137 -4139 -4170 0
4137 4139 -4170 0
-4137 4139 4170 0
4137 -4139 4170 0
-4141 -4143 -4172 0
4141 4143 -4172 0
-4141 4143 4172 0
4141 -4143 4172 0
-4145 -4147 -4174 0
4145 4147 -4174 0
-4145 4147 4174 0
4145 -4147 4174 0
-4100 -4149 -4176 0
4100 4149 -4176 0
-4100 4149 4176 0
4100 -4149 4176 0
-4150 -4152 -4178 0
4150 4152 -4178 0
-4150 4152 4178 0
4150 -4152 4178 0
-4154 -4156 -4180 0
4154 4156 -4180 0
-4154 4156 4180 0
4154 -4156 4180 0
-4158 -4160 -4182 0
4158 4160 -4182 0
-4158 4160 4182 0
4158 -4160 4182 0
-4162 -4164 -4184 0
4162 4164 -4184 0
-4162 4164 4184 0
4162 -4164 4184 0
-4166 -4168 -4186 0
4166 4168 -4186 0
-4166 4168 4186 0
4166 -4168 4186 0
-4170 -4172 -4188 0
4170 4172 -4188 0
-4170 4172 4188 0
4170 -4172 4188 0
-4174 -4176 -4190 0
4174 4176 -4190 0
-4174 4176 4190 0
4174 -4176 4190 0
-4178 -4180 -4192 0
4178 4180 -4192 0
-4178 4180 4192 0
4178 -4180 4192 0
-4182 -4184 -4194 0
4182 4184 -4194 0
-4182 4184 4194 0
4182 -4184 4194 0
-4186 -4188 -4196 0
4186 4188 -4196 0
-4186 4188 4196 0
4186 -4188 4196 0
-4190 -4192 -4198 0
4190 4192 -4198 0
-4190 4192 4198 0
4190 -4192 4198 0
-4194 -4196 -4198 0
4194 4196 -4198 0
-4194 4196 4198 0
4194 -4196 4198 0
-4108 -4110 -4202 0
4108 4110 -4202 0
-4108 4110 4202 0
4108 -4110 4202 0
-4112 -4114 -4204 0
4112 4114 -4204 0
-4112 4114 4204 0
4112 -4114 4204 0
-4116 -4118 -4206 0
4116 4118 -4206 0
-4116 4118 4206 0
4116 -4118 4206 0
-4122 -4124 -4208 0
4122 4124 -4208 0
-4122 4124 4208 0
4122 -4124 4208 0
-4126 -4128 -4210 0
4126 4128 -4210 0
-4126 4128 4210 0
4126 -4128 4210 0
-4130 -4132 -4212 0
4130 4132 -4212 0
-4130 4132 4212 0
4130 -4132 4212 0
-4134 -4136 -4214 0
4134 4136 -4214 0
-4134 4136 4214 0
4134 -4136 4214 0
-4138 -4140 -4216 0
4138 4140 -4216 0
-4138 4140 4216 0
4138 -4140 4216 0
-4142 -4144 -4218 0
4142 4144 -4218 0
-4142 4144 4218 0
4142 -4144 4218 0
-4146 -4148 -4220 0
4146 4148 -4220 0
-4146 4148 4220 0
4146 -4148 4220 0
-4151 -4153 -4222 0
4151 4153 -4222 0
-4151 4153 4222 0
4151 -4153 4222 0
-4155 -4157 -4224 0
4155 4157 -4224 0
-4155 4157 4224 0
4155 -4157 4224 0
-4159 -4161 -4226 0
4159 4161 -4226 0
-4159 4161 4226 0
4159 -4161 4226 0
-4163 -4165 -4228 0
4163 4165 -4228 0
-4163 4165 4228 0
4163 -4165 4228 0
-4167 -4169 -4230 0
4167 4169 -4230 0
-4167 4169 4230 0
4167 -4169 4230 0
-4171 -4173 -4232 0
4171 4173 -4232 0
-4171 4173 4232 0
4171 -4173 4232 0
-4175 -4177 -4234 0
4175 4177 -4234 0
-4175 4177 4234 0
4175 -4177 4234 0
-4179 -4181 -4236 0
4179 4181 -4236 0
-4179 4181 4236 0
4179 -4181 4236 0
-4183 -4185 -4238 0
4183 4185 -4238 0
-4183 4185 4238 0
4183 -4185 4238 0
-4187 -4189 -4240 0
4187 4189 -4240 0
-4187 4189 4240 0
4187 -4189 4240 0
-4191 -4193 -4242 0
4191 4193 -4242 0
-4191 4193 4242 0
4191 -4193 4242 0
-4195 -4197 -4244 0
4195 4197 -4244 0
-4195 4197 4244 0
4195 -4197 4244 0
-4199 -4200 -4246 0
4199 4200 -4246 0
-4199 4200 4246 0
4199 -4200 4246 0
-4201 -4202 -4248 0
4201 4202 -4248 0
-4201 4202 4248 0
4201 -4202 4248 0
-4204 -4206 -4249 0
4204 4206 -4249 0
-4204 4206 4249 0
4204 -4206 4249 0
-4207 -4208 -4251 0
4207 4208 -4251 0
-4207 4208 4251 0
4207 -4208 4251 0
-4210 -4212 -4253 0
4210 4212 -4253 0
-4210 4212 4253 0
4210 -4212 4253 0
-4214 -4216 -4255 0
4214 4216 -4255 0
-4214 4216 4255 0
4214 -4216 4255 0
-4218 -4220 -4257 0
4218 4220 -4257 0
-4218 4220 4257 0
4218 -4220 4257 0
-4221 -4222 -4259 0
4221 4222 -4259 0
-4221 4222 4259 0
4221 -4222 4259 0
-4224 -4226 -4261 0
4224 4226 -4261 0
-4224 4226 4261 0
4224 -4226 4261 0
-4228 -4230 -4263 0
4228 4230 -4263 0
-4228 4230 4263 0
4228 -4230 4263 0
-4232 -4234 -4265 0
4232 4234 -4265 0
-4232 4234 4265 0
4232 -4234 4265 0
-4236 -4238 -4267 0
4236 4238 -4267 0
-4236 4238 4267 0
4236 -4238 4267 0
-4240 -4242 -4269 0
4240 4242 -4269 0
-4240 4242 4269 0
4240 -4242 4269 0
-4244 -4246 -4271 0
4244 4246 -4271 0
-4244 4246 4271 0
4244 -4246 4271 0
-4198 -4247 -4273 0
4198 4247 -4273 0
-4198 4247 4273 0
4198 -4247 4273 0
-4248 -4249 -4275 0
4248 4249 -4275 0
-4248 4249 4275 0
4248 -4249 4275 0
-4251 -4253 -4277 0
4251 4253 -4277 0
-4251 4253 4277 0
4251 -4253 4277 0
-4255 -4257 -4279 0
4255 4257 -4279 0
-4255 4257 4279 0
4255 -4257 4279 0
-4259 -4261 -4281 0
4259 4261 -4281 0
-4259 4261 4281 0
4259 -4261 4281 0
-4263 -4265 -4283 0
4263 4265 -4283 0
-4263 4265 4283 0
4263 -4265 4283 0
-4267 -4269 -4285 0
4267 4269 -4285 0
-4267 4269 4285 0
4267 -4269 4285 0
-4271 -4273 -4287 0
4271 4273 -4287 0
-4271 4273 4287 0
4271 -4273 4287 0
-4275 -4277 -4289 0
4275 4277 -4289 0
-4275 4277 4289 0
4275 -4277 4289 0
-4279 -4281 -4291 0
4279 4281 -4291 0
-4279 4281 4291 0
4279 -4281 4291 0
-4283 -4285 -4293 0
4283 4285 -4293 0
-4283 4285 4293 0
4283 -4285 4293 0
-4287 -4289 -4295 0
4287 4289 -4295 0
-4287 4289 4295 0
4287 -4289 4295 0
-4291 -4293 -4295 0
4291 4293 -4295 0
-4291 4293 4295 0
4291 -4293 4295 0
-4203 -4205 -4298 0
4203 4205 -4298 0
-4203 4205 4298 0
4203 -4205 4298 0
-4209 -4211 -4300 0
4209 4211 -4300 0
-4209 4211 4300 0
4209 -4211 4300 0
-4213 -4215 -4302 0
4213 4215 -4302 0
-4213 4215 4302 0
4213 -4215 4302 0
-4217 -4219 -4304 0
4217 4219 -4304 0
-4217 4219 4304 0
4217 -4219 4304 0
-4223 -4225 -4306 0
4223 4225 -4306 0
-4223 4225 4306 0
4223 -4225 4306 0
-4227 -4229 -4308 0
4227 4229 -4308 0
-4227 4229 4308 0
4227 -4229 4308 0
-4231 -4233 -4310 0
4231 4233 -4310 0
-4231 4233 4310 0
4231 -4233 4310 0
-4235 -4237 -4312 0
4235 4237 -4312 0
-4235 4237 4312 0
4235 -4237 4312 0
-4239 -4241 -4314 0
4239 4241 -4314 0
-4239 4241 4314 0
4239 -4241 4314 0
-4243 -4245 -4316 0
4243 4245 -4316 0
-4243 4245 4316 0
4243 -4245 4316 0
-4250 -4252 -4320 0
4250 4252 -4320 0
-4250 4252 4320 0
4250 -4252 4320 0
-4254 -4256 -4322 0
4254 4256 -4322 0
-4254 4256 4322 0
4254 -4256 4322 0
-4258 -4260 -4324 0
4258 4260 -4324 0
-4258 4260 4324 0
4258 -4260 4324 0
-4262 -4264 -4326 0
4262 4264 -4326 0
-4262 4264 4326 0
4262 -4264 4326 0
-4266 -4268 -4328 0
4266 4268 -4328 0
-4266 4268 4328 0
4266 -4268 4328 0
-4270 -4272 -4330 0
4270 4272 -4330 0
-4270 4272 4330 0
4270 -4272 4330 0
-4274 -4276 -4332 0
4274 4276 -4332 0
-4274 4276 4332 0
4274 -4276 4332 0
-4278 -4280 -4334 0
4278 4280 -4334 0
-4278 4280 4334 0
4278 -4280 4334 0
-4282 -4284 -4336 0
4282 4284 -4336 0
-4282 4284 4336 0
4282 -4284 4336 0
-4286 -4288 -4338 0
4286 4288 -4338 0
-4286 4288 4338 0
4286 -4288 4338 0
-4290 -4292 -4340 0
4290 4292 -4340 0
-4290 4292 4340 0
4290 -4292 4340 0
-4294 -4296 -4342 0
4294 4296 -4342 0
-4294 4296 4342 0
4294 -4296 4342 0
-4295 -4297 -4369 0
4295 4297 -4369 0
4295 -4297 4369 0
-4295 4297 4369 0
-4298 -4299 -4344 0
4298 4299 -4344 0
-4298 4299 4344 0
4298 -4299 4344 0
-4300 -4302 -4346 0
4300 4302 -4346 0
-4300 4302 4346 0
4300 -4302 4346 0
-4304 -4305 -4348 0
4304 4305 -4348 0
-4304 4305 4348 0
4304 -4305 4348 0
-4306 -4308 -4350 0
4306 4308 -4350 0
-4306 4308 4350 0
4306 -4308 4350 0
-4310 -4312 -4352 0
4310 4312 -4352 0
-4310 4312 4352 0
4310 -4312 4352 0
-4314 -4316 -4354 0
4314 4316 -4354 0
-4314 4316 4354 0
4314 -4316 4354 0
-4318 -4319 -4356 0
4318 4319 -4356 0
-4318 4319 4356 0
4318 -4319 4356 0
-4320 -4322 -4358 0
4320 4322 -4358 0
-4320 4322 4358 0
4320 -4322 4358 0
-4324 -4326 -4360 0
4324 4326 -4360 0
-4324 4326 4360 0
4324 -4326 4360 0
-4328 -4330 -4362 0
4328 4330 -4362 0
-4328 4330 4362 0
4328 -4330 4362 0
-4332 -4334 -4364 0
4332 4334 -4364 0
-4332 4334 4364 0
4332 -4334 4364 0
-4336 -4338 -4366 0
4336 4338 -4366 0
-4336 4338 4366 0
4336 -4338 4366 0
-4340 -4342 -4368 0
4340 4342 -4368 0
-4340 4342 4368 0
4340 -4342 4368 0
-4344 -4346 -4370 0
4344 4346 -4370 0
-4344 4346 4370 0
4344 -4346 4370 0
-4348 -4350 -4372 0
4348 4350 -4372 0
-4348 4350 4372 0
4348 -4350 4372 0
-4352 -4354 -4374 0
4352 4354 -4374 0
-4352 4354 4374 0
4352 -4354 4374 0
-4356 -4358 -4376 0
4356 4358 -4376 0
-4356 4358 4376 0
4356 -4358 4376 0
-4360 -4362 -4378 0
4360 4362 -4378 0
-4360 4362 4378 0
4360 -4362 4378 0
-4364 -4366 -4380 0
4364 4366 -4380 0
-4364 4366 4380 0
4364 -4366 4380 0
-4368 -4369 -4382 0
4368 4369 -4382 0
-4368 4369 4382 0
4368 -4369 4382 0
-4370 -4372 -4384 0
4370 4372 -4384 0
-4370 4372 4384 0
4370 -4372 4384 0
-4374 -4376 -4386 0
4374 4376 -4386 0
-4374 4376 4386 0
4374 -4376 4386 0
-4378 -4380 -4388 0
4378 4380 -4388 0
-4378 4380 4388 0
4378 -4380 4388 0
-4382 -4384 -4390 0
4382 4384 -4390 0
-4382 4384 4390 0
4382 -4384 4390 0
-4386 -4388 -4390 0
4386 4388 -4390 0
-4386 4388 4390 0
4386 -4388 4390 0
-4301 -4303 -4394 0
4301 4303 -4394 0
-4301 4303 4394 0
4301 -4303 4394 0
-4307 -4309 -4396 0
4307 4309 -4396 0
-4307 4309 4396 0
4307 -4309 4396 0
-4311 -4313 -4398 0
4311 4313 -4398 0
-4311 4313 4398 0
4311 -4313 4398 0
-4315 -4317 -4400 0
4315 4317 -4400 0
-4315 4317 4400 0
4315 -4317 4400 0
-4321 -4323 -4441 0
4321 4323 -4441 0
-4321 4323 4441 0
4321 -4323 4441 0
-4325 -4327 -4402 0
4325 4327 -4402 0
-4325 4327 4402 0
4325 -4327 4402 0
-4329 -4331 -4404 0
4329 4331 -4404 0
-4329 4331 4404 0
4329 -4331 4404 0
-4333 -4335 -4406 0
4333 4335 -4406 0
-4333 4335 4406 0
4333 -4335 4406 0
-4337 -4339 -4408 0
4337 4339 -4408 0
-4337 4339 4408 0
4337 -4339 4408 0
-4341 -4343 -4410 0
4341 4343 -4410 0
-4341 4343 4410 0
4341 -4343 4410 0
-4345 -4347 -4413 0
4345 4347 -4413 0
-4345 4347 4413 0
4345 -4347 4413 0
-4349 -4351 -4414 0
4349 4351 -4414 0
-4349 4351 4414 0
4349 -4351 4414 0
-4353 -4355 -4416 0
4353 4355 -4416 0
-4353 4355 4416 0
4353 -4355 4416 0
-4357 -4359 -4418 0
4357 4359 -4418 0
-4357 4359 4418 0
4357 -4359 4418 0
-4361 -4363 -4420 0
4361 4363 -4420 0
-4361 4363 4420 0
4361 -4363 4420 0
-4365 -4367 -4422 0
4365 4367 -4422 0
-4365 4367 4422 0
4365 -4367 4422 0
-4371 -4373 -4424 0
4371 4373 -4424 0
-4371 4373 4424 0
4371 -4373 4424 0
-4375 -4377 -4426 0
4375 4377 -4426 0
-4375 4377 4426 0
4375 -4377 4426 0
-4379 -4381 -4428 0
4379 4381 -4428 0
-4379 4381 4428 0
4379 -4381 4428 0
-4383 -4385 -4430 0
4383 4385 -4430 0
-4383 4385 4430 0
4383 -4385 4430 0
-4387 -4389 -4432 0
4387 4389 -4432 0
-4387 4389 4432 0
4387 -4389 4432 0
-4391 -4392 -4434 0
4391 4392 -4434 0
-4391 4392 4434 0
4391 -4392 4434 0
-4393 -4394 -4436 0
4393 4394 -4436 0
-4393 4394 4436 0
4393 -4394 4436 0
-4395 -4396 -4437 0
4395 4396 -4437 0
-4395 4396 4437 0
4395 -4396 4437 0
-4398 -4400 -4439 0
4398 4400 -4439 0
-4398 4400 4439 0
4398 -4400 4439 0
-4402 -4404 -4442 0
4402 4404 -4442 0
-4402 4404 4442 0
4402 -4404 4442 0
-4406 -4408 -4443 0
4406 4408 -4443 0
-4406 4408 4443 0
4406 -4408 4443 0
-4410 -4412 -4445 0
4410 4412 -4445 0
-4410 4412 4445 0
4410 -4412 4445 0
-4413 -4414 -4447 0
4413 4414 -4447 0
-4413 4414 4447 0
4413 -4414 4447 0
-4416 -4418 -4449 0
4416 4418 -4449 0
-4416 4418 4449 0
4416 -4418 4449 0
-4420 -4422 -4451 0
4420 4422 -4451 0
-4420 4422 4451 0
4420 -4422 4451 0
-4423 -4424 -4453 0
4423 4424 -4453 0
-4423 4424 4453 0
4423 -4424 4453 0
-4426 -4428 -4455 0
4426 4428 -4455 0
-4426 4428 4455 0
4426 -4428 4455 0
-4430 -4432 -4457 0
4430 4432 -4457 0
-4430 4432 4457 0
4430 -4432 4457 0
-4390 -4434 -4459 0
4390 4434 -4459 0
4390 -4434 4459 0
-4390 4434 4459 0
-4436 -4437 -4461 0
4436 4437 -4461 0
-4436 4437 4461 0
4436 -4437 4461 0
-4439 -4441 -4463 0
4439 4441 -4463 0
-4439 4441 4463 0
4439 -4441 4463 0
-4442 -4443 -4465 0
4442 4443 -4465 0
-4442 4443 4465 0
4442 -4443 4465 0
-4445 -4447 -4467 0
4445 4447 -4467 0
-4445 4447 4467 0
4445 -4447 4467 0
-4449 -4451 -4469 0
4449 4451 -4469 0
-4449 4451 4469 0
4449 -4451 4469 0
-4453 -4455 -4471 0
4453 4455 -4471 0
-4453 4455 4471 0
4453 -4455 4471 0
-4457 -4459 -4473 0
4457 4459 -4473 0
-4457 4459 4473 0
4457 -4459 4473 0
-4461 -4463 -4475 0
4461 4463 -4475 0
-4461 4463 4475 0
4461 -4463 4475 0
-4465 -4467 -4477 0
4465 4467 -4477 0
-4465 4467 4477 0
4465 -4467 4477 0
-4469 -4471 -4479 0
4469 4471 -4479 0
-4469 4471 4479 0
4469 -4471 4479 0
-4473 -4475 -4481 0
4473 4475 -4481 0
-4473 4475 4481 0
4473 -4475 4481 0
-4477 -4479 -4481 0
4477 4479 -4481 0
-4477 4479 4481 0
4477 -4479 4481 0
-4397 -4399 -4485 0
4397 4399 -4485 0
-4397 4399 4485 0
4397 -4399 4485 0
-4401 -4403 -4487 0
4401 4403 -4487 0
-4401 4403 4487 0
4401 -4403 4487 0
-4405 -4407 -4489 0
4405 4407 -4489 0
-4405 4407 4489 0
4405 -4407 4489 0
-4409 -4411 -4491 0
4409 4411 -4491 0
-4409 4411 4491 0
4409 -4411 4491 0
-4415 -4417 -4493 0
4415 4417 -4493 0
-4415 4417 4493 0
4415 -4417 4493 0
-4419 -4421 -4495 0
4419 4421 -4495 0
-4419 4421 4495 0
4419 -4421 4495 0
-4425 -4427 -4498 0
4425 4427 -4498 0
-4425 4427 4498 0
4425 -4427 4498 0
-4429 -4431 -4499 0
4429 4431 -4499 0
-4429 4431 4499 0
4429 -4431 4499 0
-4433 -4435 -4501 0
4433 4435 -4501 0
-4433 4435 4501 0
4433 -4435 4501 0
-4438 -4440 -4504 0
4438 4440 -4504 0
-4438 4440 4504 0
4438 -4440 4504 0
-4444 -4446 -4506 0
4444 4446 -4506 0
-4444 4446 4506 0
4444 -4446 4506 0
-4448 -4450 -4507 0
4448 4450 -4507 0
-4448 4450 4507 0
4448 -4450 4507 0
-4452 -4454 -4509 0
4452 4454 -4509 0
-4452 4454 4509 0
4452 -4454 4509 0
-4456 -4458 -4511 0
4456 4458 -4511 0
-4456 4458 4511 0
4456 -4458 4511 0
-4460 -4462 -4513 0
4460 4462 -4513 0
-4460 4462 4513 0
4460 -4462 4513 0
-4464 -4466 -4515 0
4464 4466 -4515 0
-4464 4466 4515 0
4464 -4466 4515 0
-4468 -4470 -4517 0
4468 4470 -4517 0
-4468 4470 4517 0
4468 -4470 4517 0
-4472 -4474 -4519 0
4472 4474 -4519 0
-4472 4474 4519 0
4472 -4474 4519 0
-4476 -4478 -4521 0
4476 4478 -4521 0
-4476 4478 4521 0
4476 -4478 4521 0
-4480 -4482 -4523 0
4480 4482 -4523 0
-4480 4482 4523 0
4480 -4482 4523 0
-4481 -4483 -4525 0
4481 4483 -4525 0
4481 -4483 4525 0
-4481 4483 4525 0
-4485 -4486 -4527 0
4485 4486 -4527 0
-4485 4486 4527 0
4485 -4486 4527 0
-4487 -4489 -4528 0
4487 4489 -4528 0
-4487 4489 4528 0
4487 -4489 4528 0
-4491 -4492 -4530 0
4491 4492 -4530 0
-4491 4492 4530 0
4491 -4492 4530 0
-4493 -4495 -4532 0
4493 4495 -4532 0
-4493 4495 4532 0
4493 -4495 4532 0
-4497 -4498 -4534 0
4497 4498 -4534 0
-4497 4498 4534 0
4497 -4498 4534 0
-4499 -4501 -4536 0
4499 4501 -4536 0
-4499 4501 4536 0
4499 -4501 4536 0
-4503 -4504 -4538 0
4503 4504 -4538 0
-4503 4504 4538 0
4503 -4504 4538 0
-4505 -4506 -4540 0
4505 4506 -4540 0
-4505 4506 4540 0
4505 -4506 4540 0
-4507 -4509 -4542 0
4507 4509 -4542 0
-4507 4509 4542 0
4507 -4509 4542 0
-4511 -4513 -4544 0
4511 4513 -4544 0
-4511 4513 4544 0
4511 -4513 4544 0
-4515 -4517 -4546 0
4515 4517 -4546 0
-4515 4517 4546 0
4515 -4517 4546 0
-4519 -4521 -4548 0
4519 4521 -4548 0
-4519 4521 4548 0
4519 -4521 4548 0
-4523 -4525 -4550 0
4523 4525 -4550 0
-4523 4525 4550 0
4523 -4525 4550 0
-4484 -4527 -4552 0
4484 4527 -4552 0
-4484 4527 4552 0
4484 -4527 4552 0
-4528 -4530 -4554 0
4528 4530 -4554 0
-4528 4530 4554 0
4528 -4530 4554 0
-4532 -4534 -4556 0
4532 4534 -4556 0
-4532 4534 4556 0
4532 -4534 4556 0
-4536 -4538 -4558 0
4536 4538 -4558 0
-4536 4538 4558 0
4536 -4538 4558 0
-4540 -4542 -4560 0
4540 4542 -4560 0
-4540 4542 4560 0
4540 -4542 4560 0
-4544 -4546 -4562 0
4544 4546 -4562 0
-4544 4546 4562 0
4544 -4546 4562 0
-4548 -4550 -4564 0
4548 4550 -4564 0
-4548 4550 4564 0
4548 -4550 4564 0
-4552 -4554 -4566 0
4552 4554 -4566 0
-4552 4554 4566 0
4552 -4554 4566 0
-4556 -4558 -4568 0
4556 4558 -4568 0
-4556 4558 4568 0
4556 -4558 4568 0
-4560 -4562 -4570 0
4560 4562 -4570 0
-4560 4562 4570 0
4560 -4562 4570 0
-4564 -4566 -4572 0
4564 4566 -4572 0
-4564 4566 4572 0
4564 -4566 4572 0
-4568 -4570 -4572 0
4568 4570 -4572 0
-4568 4570 4572 0
4568 -4570 4572 0
-4488 -4490 -4576 0
4488 4490 -4576 0
-4488 4490 4576 0
4488 -4490 4576 0
-4494 -4496 -4578 0
4494 4496 -4578 0
-4494 4496 4578 0
4494 -4496 4578 0
-4500 -4502 -4580 0
4500 4502 -4580 0
-4500 4502 4580 0
4500 -4502 4580 0
-4508 -4510 -4583 0
4508 4510 -4583 0
-4508 4510 4583 0
4508 -4510 4583 0
-4512 -4514 -4584 0
4512 4514 -4584 0
-4512 4514 4584 0
4512 -4514 4584 0
-4516 -4518 -4586 0
4516 4518 -4586 0
-4516 4518 4586 0
4516 -4518 4586 0
-4520 -4522 -4588 0
4520 4522 -4588 0
-4520 4522 4588 0
4520 -4522 4588 0
-4524 -4526 -4590 0
4524 4526 -4590 0
-4524 4526 4590 0
4524 -4526 4590 0
-4529 -4531 -4593 0
4529 4531 -4593 0
-4529 4531 4593 0
4529 -4531 4593 0
-4533 -4535 -4594 0
4533 4535 -4594 0
-4533 4535 4594 0
4533 -4535 4594 0
-4537 -4539 -4596 0
4537 4539 -4596 0
-4537 4539 4596 0
4537 -4539 4596 0
-4541 -4543 -4598 0
4541 4543 -4598 0
-4541 4543 4598 0
4541 -4543 4598 0
-4545 -4547 -4600 0
4545 4547 -4600 0
-4545 4547 4600 0
4545 -4547 4600 0
-4549 -4551 -4602 0
4549 4551 -4602 0
-4549 4551 4602 0
4549 -4551 4602 0
-4553 -4555 -4604 0
4553 4555 -4604 0
-4553 4555 4604 0
4553 -4555 4604 0
-4557 -4559 -4606 0
4557 4559 -4606 0
-4557 4559 4606 0
4557 -4559 4606 0
-4561 -4563 -4608 0
4561 4563 -4608 0
-4561 4563 4608 0
4561 -4563 4608 0
-4565 -4567 -4610 0
4565 4567 -4610 0
-4565 4567 4610 0
4565 -4567 4610 0
-4569 -4571 -4612 0
4569 4571 -4612 0
-4569 4571 4612 0
4569 -4571 4612 0
-4573 -4574 -4614 0
4573 4574 -4614 0
-4573 4574 4614 0
4573 -4574 4614 0
-4575 -4576 -4615 0
4575 4576 -4615 0
-4575 4576 4615 0
4575 -4576 4615 0
-4577 -4578 -4617 0
4577 4578 -4617 0
-4577 4578 4617 0
4577 -4578 4617 0
-4579 -4580 -4619 0
4579 4580 -4619 0
-4579 4580 4619 0
4579 -4580 4619 0
-4581 -4582 -4621 0
4581 4582 -4621 0
-4581 4582 4621 0
4581 -4582 4621 0
-4583 -4584 -4623 0
4583 4584 -4623 0
-4583 4584 4623 0
4583 -4584 4623 0
-4586 -4588 -4625 0
4586 4588 -4625 0
-4586 4588 4625 0
4586 -4588 4625 0
-4590 -4592 -4627 0
4590 4592 -4627 0
-4590 4592 4627 0
4590 -4592 4627 0
-4593 -4594 -4629 0
4593 4594 -4629 0
-4593 4594 4629 0
4593 -4594 4629 0
-4596 -4598 -4631 0
4596 4598 -4631 0
-4596 4598 4631 0
4596 -4598 4631 0
-4600 -4602 -4633 0
4600 4602 -4633 0
-4600 4602 4633 0
4600 -4602 4633 0
-4604 -4606 -4635 0
4604 4606 -4635 0
-4604 4606 4635 0
4604 -4606 4635 0
-4608 -4610 -4637 0
4608 4610 -4637 0
-4608 4610 4637 0
4608 -4610 4637 0
-4612 -4614 -4639 0
4612 4614 -4639 0
-4612 4614 4639 0
4612 -4614 4639 0
-4572 -4615 -4641 0
4572 4615 -4641 0
-4572 4615 4641 0
4572 -4615 4641 0
-4617 -4619 -4643 0
4617 4619 -4643 0
-4617 4619 4643 0
4617 -4619 4643 0
-4621 -4623 -4645 0
4621 4623 -4645 0
-4621 4623 4645 0
4621 -4623 4645 0
-4625 -4627 -4647 0
4625 4627 -4647 0
-4625 4627 4647 0
4625 -4627 4647 0
-4629 -4631 -4649 0
4629 4631 -4649 0
-4629 4631 4649 0
4629 -4631 4649 0
-4633 -4635 -4651 0
4633 4635 -4651 0
-4633 4635 4651 0
4633 -4635 4651 0
-4637 -4639 -4653 0
4637 4639 -4653 0
-4637 4639 4653 0
4637 -4639 4653 0
-4641 -4643 -4655 0
4641 4643 -4655 0
-4641 4643 4655 0
4641 -4643 4655 0
-4645 -4647 -4657 0
4645 4647 -4657 0
-4645 4647 4657 0
4645 -4647 4657 0
-4649 -4651 -4659 0
4649 4651 -4659 0
-4649 4651 4659 0
4649 -4651 4659 0
-4653 -4655 -4661 0
4653 4655 -4661 0
-4653 4655 4661 0
4653 -4655 4661 0
-4657 -4659 -4661 0
4657 4659 -4661 0
-4657 4659 4661 0
4657 -4659 4661 0
-4585 -4587 -4668 0
4585 4587 -4668 0
-4585 4587 4668 0
4585 -4587 4668 0
-4589 -4591 -4669 0
4589 4591 -4669 0
-4589 4591 4669 0
4589 -4591 4669 0
-4595 -4597 -4671 0
4595 4597 -4671 0
-4595 4597 4671 0
4595 -4597 4671 0
-4599 -4601 -4673 0
4599 4601 -4673 0
-4599 4601 4673 0
4599 -4601 4673 0
-4603 -4605 -4675 0
4603 4605 -4675 0
-4603 4605 4675 0
4603 -4605 4675 0
-4607 -4609 -4677 0
4607 4609 -4677 0
-4607 4609 4677 0
4607 -4609 4677 0
-4611 -4613 -4679 0
4611 4613 -4679 0
-4611 4613 4679 0
4611 -4613 4679 0
-4616 -4618 -4681 0
4616 4618 -4681 0
-4616 4618 4681 0
4616 -4618 4681 0
-4620 -4622 -4683 0
4620 4622 -4683 0
-4620 4622 4683 0
4620 -4622 4683 0
-4624 -4626 -4685 0
4624 4626 -4685 0
-4624 4626 4685 0
4624 -4626 4685 0
-4628 -4630 -4687 0
4628 4630 -4687 0
-4628 4630 4687 0
4628 -4630 4687 0
-4632 -4634 -4689 0
4632 4634 -4689 0
-4632 4634 4689 0
4632 -4634 4689 0
-4636 -4638 -4691 0
4636 4638 -4691 0
-4636 4638 4691 0
4636 -4638 4691 0
-4640 -4642 -4693 0
4640 4642 -4693 0
-4640 4642 4693 0
4640 -4642 4693 0
-4644 -4646 -4695 0
4644 4646 -4695 0
-4644 4646 4695 0
4644 -4646 4695 0
-4648 -4650 -4697 0
4648 4650 -4697 0
-4648 4650 4697 0
4648 -4650 4697 0
-4652 -4654 -4699 0
4652 4654 -4699 0
-4652 4654 4699 0
4652 -4654 4699 0
-4656 -4658 -4701 0
4656 4658 -4701 0
-4656 4658 4701 0
4656 -4658 4701 0
-4660 -4662 -4703 0
4660 4662 -4703 0
-4660 4662 4703 0
4660 -4662 4703 0
-4661 -4663 -4705 0
4661 4663 -4705 0
4661 -4663 4705 0
-4661 4663 4705 0
-4665 -4666 -4706 0
4665 4666 -4706 0
-4665 4666 4706 0
4665 -4666 4706 0
-4667 -4668 -4708 0
4667 4668 -4708 0
-4667 4668 4708 0
4667 -4668 4708 0
-4669 -4670 -4710 0
4669 4670 -4710 0
-4669 4670 4710 0
4669 -4670 4710 0
-4671 -4673 -4712 0
4671 4673 -4712 0
-4671 4673 4712 0
4671 -4673 4712 0
-4675 -4677 -4714 0
4675 4677 -4714 0
-4675 4677 4714 0
4675 -4677 4714 0
-4679 -4680 -4716 0
4679 4680 -4716 0
-4679 4680 4716 0
4679 -4680 4716 0
-4681 -4683 -4718 0
4681 4683 -4718 0
-4681 4683 4718 0
4681 -4683 4718 0
-4685 -4687 -4720 0
4685 4687 -4720 0
-4685 4687 4720 0
4685 -4687 4720 0
-4689 -4691 -4722 0
4689 4691 -4722 0
-4689 4691 4722 0
4689 -4691 4722 0
-4693 -4695 -4724 0
4693 4695 -4724 0
-4693 4695 4724 0
4693 -4695 4724 0
-4697 -4699 -4726 0
4697 4699 -4726 0
-4697 4699 4726 0
4697 -4699 4726 0
-4701 -4703 -4728 0
4701 4703 -4728 0
-4701 4703 4728 0
4701 -4703 4728 0
-4664 -4705 -4730 0
4664 4705 -4730 0
4664 -4705 4730 0
-4664 4705 4730 0
-4706 -4708 -4732 0
4706 4708 -4732 0
-4706 4708 4732 0
4706 -4708 4732 0
-4710 -4712 -4734 0
4710 4712 -4734 0
-4710 4712 4734 0
4710 -4712 4734 0
-4714 -4716 -4736 0
4714 4716 -4736 0
-4714 4716 4736 0
4714 -4716 4736 0
-4718 -4720 -4738 0
4718 4720 -4738 0
-4718 4720 4738 0
4718 -4720 4738 0
-4722 -4724 -4740 0
4722 4724 -4740 0
-4722 4724 4740 0
4722 -4724 4740 0
-4726 -4728 -4742 0
4726 4728 -4742 0
-4726 4728 4742 0
4726 -4728 4742 0
-4730 -4732 -4744 0
4730 4732 -4744 0
-4730 4732 4744 0
4730 -4732 4744 0
-4734 -4736 -4746 0
4734 4736 -4746 0
-4734 4736 4746 0
4734 -4736 4746 0
-4738 -4740 -4748 0
4738 4740 -4748 0
-4738 4740 4748 0
4738 -4740 4748 0
-4742 -4744 -4750 0
4742 4744 -4750 0
-4742 4744 4750 0
4742 -4744 4750 0
-4746 -4748 -4750 0
4746 4748 -4750 0
-4746 4748 4750 0
4746 -4748 4750 0
-4672 -4674 -4755 0
4672 4674 -4755 0
-4672 4674 4755 0
4672 -4674 4755 0
-4676 -4678 -4757 0
4676 4678 -4757 0
-4676 4678 4757 0
4676 -4678 4757 0
-4682 -4684 -4760 0
4682 4684 -4760 0
-4682 4684 4760 0
4682 -4684 4760 0
-4686 -4688 -4761 0
4686 4688 -4761 0
-4686 4688 4761 0
4686 -4688 4761 0
-4690 -4692 -4763 0
4690 4692 -4763 0
-4690 4692 4763 0
4690 -4692 4763 0
-4694 -4696 -4765 0
4694 4696 -4765 0
-4694 4696 4765 0
4694 -4696 4765 0
-4698 -4700 -4767 0
4698 4700 -4767 0
-4698 4700 4767 0
4698 -4700 4767 0
-4702 -4704 -4769 0
4702 4704 -4769 0
-4702 4704 4769 0
4702 -4704 4769 0
-4707 -4709 -4771 0
4707 4709 -4771 0
-4707 4709 4771 0
4707 -4709 4771 0
-4711 -4713 -4773 0
4711 4713 -4773 0
-4711 4713 4773 0
4711 -4713 4773 0
-4715 -4717 -4775 0
4715 4717 -4775 0
-4715 4717 4775 0
4715 -4717 4775 0
-4719 -4721 -4777 0
4719 4721 -4777 0
-4719 4721 4777 0
4719 -4721 4777 0
-4723 -4725 -4779 0
4723 4725 -4779 0
-4723 4725 4779 0
4723 -4725 4779 0
-4727 -4729 -4781 0
4727 4729 -4781 0
-4727 4729 4781 0
4727 -4729 4781 0
-4731 -4733 -4783 0
4731 4733 -4783 0
-4731 4733 4783 0
4731 -4733 4783 0
-4735 -4737 -4785 0
4735 4737 -4785 0
-4735 4737 4785 0
4735 -4737 4785 0
-4739 -4741 -4787 0
4739 4741 -4787 0
-4739 4741 4787 0
4739 -4741 4787 0
-4743 -4745 -4789 0
4743 4745 -4789 0
-4743 4745 4789 0
4743 -4745 4789 0
-4747 -4749 -4791 0
4747 4749 -4791 0
-4747 4749 4791 0
4747 -4749 4791 0
-4751 -4752 -4793 0
4751 4752 -4793 0
-4751 4752 4793 0
4751 -4752 4793 0
-4754 -4755 -4795 0
4754 4755 -4795 0
-4754 4755 4795 0
4754 -4755 4795 0
-4757 -4759 -4797 0
4757 4759 -4797 0
-4757 4759 4797 0
4757 -4759 4797 0
-4760 -4761 -4799 0
4760 4761 -4799 0
-4760 4761 4799 0
4760 -4761 4799 0
-4763 -4765 -4801 0
4763 4765 -4801 0
-4763 4765 4801 0
4763 -4765 4801 0
-4767 -4769 -4803 0
4767 4769 -4803 0
-4767 4769 4803 0
4767 -4769 4803 0
-4770 -4771 -4805 0
4770 4771 -4805 0
-4770 4771 4805 0
4770 -4771 4805 0
-4773 -4775 -4807 0
4773 4775 -4807 0
-4773 4775 4807 0
4773 -4775 4807 0
-4777 -4779 -4809 0
4777 4779 -4809 0
-4777 4779 4809 0
4777 -4779 4809 0
-4781 -4783 -4811 0
4781 4783 -4811 0
-4781 4783 4811 0
4781 -4783 4811 0
-4785 -4787 -4813 0
4785 4787 -4813 0
-4785 4787 4813 0
4785 -4787 4813 0
-4789 -4791 -4815 0
4789 4791 -4815 0
-4789 4791 4815 0
4789 -4791 4815 0
-4750 -4793 -4817 0
4750 4793 -4817 0
4750 -4793 4817 0
-4750 4793 4817 0
-4753 -4795 -4819 0
4753 4795 -4819 0
-4753 4795 4819 0
4753 -4795 4819 0
-4797 -4799 -4821 0
4797 4799 -4821 0
-4797 4799 4821 0
4797 -4799 4821 0
-4801 -4803 -4823 0
4801 4803 -4823 0
-4801 4803 4823 0
4801 -4803 4823 0
-4805 -4807 -4825 0
4805 4807 -4825 0
-4805 4807 4825 0
4805 -4807 4825 0
-4809 -4811 -4827 0
4809 4811 -4827 0
-4809 4811 4827 0
4809 -4811 4827 0
-4813 -4815 -4829 0
4813 4815 -4829 0
-4813 4815 4829 0
4813 -4815 4829 0
-4817 -4819 -4831 0
4817 4819 -4831 0
-4817 4819 4831 0
4817 -4819 4831 0
-4821 -4823 -4833 0
4821 4823 -4833 0
-4821 4823 4833 0
4821 -4823 4833 0
-4825 -4827 -4835 0
4825 4827 -4835 0
-4825 4827 4835 0
4825 -4827 4835 0
-4829 -4831 -4837 0
4829 4831 -4837 0
-4829 4831 4837 0
4829 -4831 4837 0
-4833 -4835 -4837 0
4833 4835 -4837 0
-4833 4835 4837 0
4833 -4835 4837 0
-4756 -4758 -4840 0
4756 4758 -4840 0
-4756 4758 4840 0
4756 -4758 4840 0
-4762 -4764 -4842 0
4762 4764 -4842 0
-4762 4764 4842 0
4762 -4764 4842 0
-4766 -4768 -4844 0
4766 4768 -4844 0
-4766 4768 4844 0
4766 -4768 4844 0
-4772 -4774 -4847 0
4772 4774 -4847 0
-4772 4774 4847 0
4772 -4774 4847 0
-4776 -4778 -4848 0
4776 4778 -4848 0
-4776 4778 4848 0
4776 -4778 4848 0
-4780 -4782 -4850 0
4780 4782 -4850 0
-4780 4782 4850 0
4780 -4782 4850 0
-4784 -4786 -4852 0
4784 4786 -4852 0
-4784 4786 4852 0
4784 -4786 4852 0
-4788 -4790 -4854 0
4788 4790 -4854 0
-4788 4790 4854 0
4788 -4790 4854 0
-4792 -4794 -4888 0
4792 4794 -4888 0
-4792 4794 4888 0
4792 -4794 4888 0
-4796 -4798 -4856 0
4796 4798 -4856 0
-4796 4798 4856 0
4796 -4798 4856 0
-4800 -4802 -4858 0
4800 4802 -4858 0
-4800 4802 4858 0
4800 -4802 4858 0
-4804 -4806 -4860 0
4804 4806 -4860 0
-4804 4806 4860 0
4804 -4806 4860 0
-4808 -4810 -4862 0
4808 4810 -4862 0
-4808 4810 4862 0
4808 -4810 4862 0
-4812 -4814 -4864 0
4812 4814 -4864 0
-4812 4814 4864 0
4812 -4814 4864 0
-4816 -4818 -4866 0
4816 4818 -4866 0
-4816 4818 4866 0
4816 -4818 4866 0
-4820 -4822 -4868 0
4820 4822 -4868 0
-4820 4822 4868 0
4820 -4822 4868 0
-4824 -4826 -4870 0
4824 4826 -4870 0
-4824 4826 4870 0
4824 -4826 4870 0
-4828 -4830 -4872 0
4828 4830 -4872 0
-4828 4830 4872 0
4828 -4830 4872 0
-4832 -4834 -4874 0
4832 4834 -4874 0
-4832 4834 4874 0
4832 -4834 4874 0
-4836 -4838 -4876 0
4836 4838 -4876 0
-4836 4838 4876 0
4836 -4838 4876 0
-4837 -4839 -4878 0
4837 4839 -4878 0
4837 -4839 4878 0
-4837 4839 4878 0
-4840 -4841 -4899 0
4840 4841 -4899 0
-4840 4841 4899 0
4840 -4841 4899 0
-4842 -4844 -4880 0
4842 4844 -4880 0
-4842 4844 4880 0
4842 -4844 4880 0
-4846 -4847 -4882 0
4846 4847 -4882 0
-4846 4847 4882 0
4846 -4847 4882 0
-4848 -4850 -4884 0
4848 4850 -4884 0
-4848 4850 4884 0
4848 -4850 4884 0
-4852 -4854 -4886 0
4852 4854 -4886 0
-4852 4854 4886 0
4852 -4854 4886 0
-4856 -4858 -4889 0
4856 4858 -4889 0
-4856 4858 4889 0
4856 -4858 4889 0
-4860 -4862 -4890 0
4860 4862 -4890 0
-4860 4862 4890 0
4860 -4862 4890 0
-4864 -4866 -4892 0
4864 4866 -4892 0
-4864 4866 4892 0
4864 -4866 4892 0
-4868 -4870 -4894 0
4868 4870 -4894 0
-4868 4870 4894 0
4868 -4870 4894 0
-4872 -4874 -4896 0
4872 4874 -4896 0
-4872 4874 4896 0
4872 -4874 4896 0
-4876 -4878 -4898 0
4876 4878 -4898 0
-4876 4878 4898 0
4876 -4878 4898 0
-4880 -4882 -4900 0
4880 4882 -4900 0
-4880 4882 4900 0
4880 -4882 4900 0
-4884 -4886 -4902 0
4884 4886 -4902 0
-4884 4886 4902 0
4884 -4886 4902 0
-4888 -4889 -4904 0
4888 4889 -4904 0
-4888 4889 4904 0
4888 -4889 4904 0
-4890 -4892 -4906 0
4890 4892 -4906 0
-4890 4892 4906 0
4890 -4892 4906 0
-4894 -4896 -4908 0
4894 4896 -4908 0
-4894 4896 4908 0
4894 -4896 4908 0
-4898 -4899 -4910 0
4898 4899 -4910 0
-4898 4899 4910 0
4898 -4899 4910 0
-4900 -4902 -4912 0
4900 4902 -4912 0
-4900 4902 4912 0
4900 -4902 4912 0
-4904 -4906 -4914 0
4904 4906 -4914 0
-4904 4906 4914 0
4904 -4906 4914 0
-4908 -4910 -4916 0
4908 4910 -4916 0
-4908 4910 4916 0
4908 -4910 4916 0
-4912 -4914 -4916 0
4912 4914 -4916 0
-4912 4914 4916 0
4912 -4914 4916 0
-4843 -4845 -4920 0
4843 4845 -4920 0
-4843 4845 4920 0
4843 -4845 4920 0
-4849 -4851 -4922 0
4849 4851 -4922 0
-4849 4851 4922 0
4849 -4851 4922 0
-4853 -4855 -4924 0
4853 4855 -4924 0
-4853 4855 4924 0
4853 -4855 4924 0
-4857 -4859 -4927 0
4857 4859 -4927 0
-4857 4859 4927 0
4857 -4859 4927 0
-4861 -4863 -4928 0
4861 4863 -4928 0
-4861 4863 4928 0
4861 -4863 4928 0
-4865 -4867 -4930 0
4865 4867 -4930 0
-4865 4867 4930 0
4865 -4867 4930 0
-4869 -4871 -4932 0
4869 4871 -4932 0
-4869 4871 4932 0
4869 -4871 4932 0
-4873 -4875 -4934 0
4873 4875 -4934 0
-4873 4875 4934 0
4873 -4875 4934 0
-4877 -4879 -4936 0
4877 4879 -4936 0
-4877 4879 4936 0
4877 -4879 4936 0
-4881 -4883 -4938 0
4881 4883 -4938 0
-4881 4883 4938 0
4881 -4883 4938 0
-4885 -4887 -4940 0
4885 4887 -4940 0
-4885 4887 4940 0
4885 -4887 4940 0
-4891 -4893 -4943 0
4891 4893 -4943 0
-4891 4893 4943 0
4891 -4893 4943 0
-4895 -4897 -4944 0
4895 4897 -4944 0
-4895 4897 4944 0
4895 -4897 4944 0
-4901 -4903 -4946 0
4901 4903 -4946 0
-4901 4903 4946 0
4901 -4903 4946 0
-4905 -4907 -4948 0
4905 4907 -4948 0
-4905 4907 4948 0
4905 -4907 4948 0
-4909 -4911 -4950 0
4909 4911 -4950 0
-4909 4911 4950 0
4909 -4911 4950 0
-4913 -4915 -4952 0
4913 4915 -4952 0
-4913 4915 4952 0
4913 -4915 4952 0
-4917 -4918 -4954 0
4917 4918 -4954 0
-4917 4918 4954 0
4917 -4918 4954 0
-4919 -4920 -4955 0
4919 4920 -4955 0
-4919 4920 4955 0
4919 -4920 4955 0
-4921 -4922 -4957 0
4921 4922 -4957 0
-4921 4922 4957 0
4921 -4922 4957 0
-4924 -4926 -4959 0
4924 4926 -4959 0
-4924 4926 4959 0
4924 -4926 4959 0
-4927 -4928 -4961 0
4927 4928 -4961 0
-4927 4928 4961 0
4927 -4928 4961 0
-4930 -4932 -4963 0
4930 4932 -4963 0
-4930 4932 4963 0
4930 -4932 4963 0
-4934 -4936 -4965 0
4934 4936 -4965 0
-4934 4936 4965 0
4934 -4936 4965 0
-4937 -4938 -4967 0
4937 4938 -4967 0
-4937 4938 4967 0
4937 -4938 4967 0
-4940 -4942 -4969 0
4940 4942 -4969 0
-4940 4942 4969 0
4940 -4942 4969 0
-4943 -4944 -4971 0
4943 4944 -4971 0
-4943 4944 4971 0
4943 -4944 4971 0
-4945 -4946 -4973 0
4945 4946 -4973 0
-4945 4946 4973 0
4945 -4946 4973 0
-4948 -4950 -4975 0
4948 4950 -4975 0
-4948 4950 4975 0
4948 -4950 4975 0
-4952 -4954 -4977 0
4952 4954 -4977 0
-4952 4954 4977 0
4952 -4954 4977 0
-4916 -4955 -4979 0
4916 4955 -4979 0
-4916 4955 4979 0
4916 -4955 4979 0
-4957 -4959 -4981 0
4957 4959 -4981 0
-4957 4959 4981 0
4957 -4959 4981 0
-4961 -4963 -4983 0
4961 4963 -4983 0
-4961 4963 4983 0
4961 -4963 4983 0
-4965 -4967 -4985 0
4965 4967 -4985 0
-4965 4967 4985 0
4965 -4967 4985 0
-4969 -4971 -4987 0
4969 4971 -4987 0
-4969 4971 4987 0
4969 -4971 4987 0
-4973 -4975 -4989 0
4973 4975 -4989 0
-4973 4975 4989 0
4973 -4975 4989 0
-4977 -4979 -4991 0
4977 4979 -4991 0
-4977 4979 4991 0
4977 -4979 4991 0
-4981 -4983 -4993 0
4981 4983 -4993 0
-4981 4983 4993 0
4981 -4983 4993 0
-4985 -4987 -4995 0
4985 4987 -4995 0
-4985 4987 4995 0
4985 -4987 4995 0
-4989 -4991 -4997 0
4989 4991 -4997 0
-4989 4991 4997 0
4989 -4991 4997 0
-4993 -4995 -4997 0
4993 4995 -4997 0
-4993 4995 4997 0
4993 -4995 4997 0
-4923 -4925 -5001 0
4923 4925 -5001 0
-4923 4925 5001 0
4923 -4925 5001 0
-4929 -4931 -5003 0
4929 4931 -5003 0
-4929 4931 5003 0
4929 -4931 5003 0
-4933 -4935 -5005 0
4933 4935 -5005 0
-4933 4935 5005 0
4933 -4935 5005 0
-4939 -4941 -5008 0
4939 4941 -5008 0
-4939 4941 5008 0
4939 -4941 5008 0
-4947 -4949 -5011 0
4947 4949 -5011 0
-4947 4949 5011 0
4947 -4949 5011 0
-4951 -4953 -5013 0
4951 4953 -5013 0
-4951 4953 5013 0
4951 -4953 5013 0
-4956 -4958 -5016 0
4956 4958 -5016 0
-4956 4958 5016 0
4956 -4958 5016 0
-4960 -4962 -5017 0
4960 4962 -5017 0
-4960 4962 5017 0
4960 -4962 5017 0
-4964 -4966 -5019 0
4964 4966 -5019 0
-4964 4966 5019 0
4964 -4966 5019 0
-4968 -4970 -5021 0
4968 4970 -5021 0
-4968 4970 5021 0
4968 -4970 5021 0
-4972 -4974 -5023 0
4972 4974 -5023 0
-4972 4974 5023 0
4972 -4974 5023 0
-4976 -4978 -5025 0
4976 4978 -5025 0
-4976 4978 5025 0
4976 -4978 5025 0
-4980 -4982 -5027 0
4980 4982 -5027 0
-4980 4982 5027 0
4980 -4982 5027 0
-4984 -4986 -5029 0
4984 4986 -5029 0
-4984 4986 5029 0
4984 -4986 5029 0
-4988 -4990 -5031 0
4988 4990 -5031 0
-4988 4990 5031 0
4988 -4990 5031 0
-4992 -4994 -5033 0
4992 4994 -5033 0
-4992 4994 5033 0
4992 -4994 5033 0
-4996 -4998 -5035 0
4996 4998 -5035 0
-4996 4998 5035 0
4996 -4998 5035 0
-4997 -4999 -5037 0
4997 4999 -5037 0
4997 -4999 5037 0
-4997 4999 5037 0
-5001 -5002 -5038 0
5001 5002 -5038 0
-5001 5002 5038 0
5001 -5002 5038 0
-5003 -5005 -5040 0
5003 5005 -5040 0
-5003 5005 5040 0
5003 -5005 5040 0
-5007 -5008 -5042 0
5007 5008 -5042 0
-5007 5008 5042 0
5007 -5008 5042 0
-5009 -5010 -5044 0
5009 5010 -5044 0
-5009 5010 5044 0
5009 -5010 5044 0
-5011 -5013 -5046 0
5011 5013 -5046 0
-5011 5013 5046 0
5011 -5013 5046 0
-5015 -5016 -5048 0
5015 5016 -5048 0
-5015 5016 5048 0
5015 -5016 5048 0
-5017 -5019 -5050 0
5017 5019 -5050 0
-5017 5019 5050 0
5017 -5019 5050 0
-5021 -5023 -5052 0
5021 5023 -5052 0
-5021 5023 5052 0
5021 -5023 5052 0
-5025 -5027 -5054 0
5025 5027 -5054 0
-5025 5027 5054 0
5025 -5027 5054 0
-5029 -5031 -5056 0
5029 5031 -5056 0
-5029 5031 5056 0
5029 -5031 5056 0
-5033 -5035 -5058 0
5033 5035 -5058 0
-5033 5035 5058 0
5033 -5035 5058 0
-5000 -5037 -5060 0
5000 5037 -5060 0
5000 -5037 5060 0
-5000 5037 5060 0
-5038 -5040 -5062 0
5038 5040 -5062 0
-5038 5040 5062 0
5038 -5040 5062 0
-5042 -5044 -5064 0
5042 5044 -5064 0
-5042 5044 5064 0
5042 -5044 5064 0
-5046 -5048 -5066 0
5046 5048 -5066 0
-5046 5048 5066 0
5046 -5048 5066 0
-5050 -5052 -5068 0
5050 5052 -5068 0
-5050 5052 5068 0
5050 -5052 5068 0
-5054 -5056 -5070 0
5054 5056 -5070 0
-5054 5056 5070 0
5054 -5056 5070 0
-5058 -5060 -5072 0
5058 5060 -5072 0
-5058 5060 5072 0
5058 -5060 5072 0
-5062 -5064 -5074 0
5062 5064 -5074 0
-5062 5064 5074 0
5062 -5064 5074 0
-5066 -5068 -5076 0
5066 5068 -5076 0
-5066 5068 5076 0
5066 -5068 5076 0
-5070 -5072 -5078 0
5070 5072 -5078 0
-5070 5072 5078 0
5070 -5072 5078 0
-5074 -5076 -5078 0
5074 5076 -5078 0
-5074 5076 5078 0
5074 -5076 5078 0
-5004 -5006 -5082 0
5004 5006 -5082 0
-5004 5006 5082 0
5004 -5006 5082 0
-5012 -5014 -5084 0
5012 5014 -5084 0
-5012 5014 5084 0
5012 -5014 5084 0
-5018 -5020 -5086 0
5018 5020 -5086 0
-5018 5020 5086 0
5018 -5020 5086 0
-5022 -5024 -5087 0
5022 5024 -5087 0
-5022 5024 5087 0
5022 -5024 5087 0
-5026 -5028 -5089 0
5026 5028 -5089 0
-5026 5028 5089 0
5026 -5028 5089 0
-5030 -5032 -5091 0
5030 5032 -5091 0
-5030 5032 5091 0
5030 -5032 5091 0
-5034 -5036 -5093 0
5034 5036 -5093 0
-5034 5036 5093 0
5034 -5036 5093 0
-5039 -5041 -5096 0
5039 5041 -5096 0
-5039 5041 5096 0
5039 -5041 5096 0
-5043 -5045 -5097 0
5043 5045 -5097 0
-5043 5045 5097 0
5043 -5045 5097 0
-5047 -5049 -5099 0
5047 5049 -5099 0
-5047 5049 5099 0
5047 -5049 5099 0
-5051 -5053 -5101 0
5051 5053 -5101 0
-5051 5053 5101 0
5051 -5053 5101 0
-5055 -5057 -5103 0
5055 5057 -5103 0
-5055 5057 5103 0
5055 -5057 5103 0
-5059 -5061 -5105 0
5059 5061 -5105 0
-5059 5061 5105 0
5059 -5061 5105 0
-5063 -5065 -5107 0
5063 5065 -5107 0
-5063 5065 5107 0
5063 -5065 5107 0
-5067 -5069 -5109 0
5067 5069 -5109 0
-5067 5069 5109 0
5067 -5069 5109 0
-5071 -5073 -5111 0
5071 5073 -5111 0
-5071 5073 5111 0
5071 -5073 5111 0
-5075 -5077 -5113 0
5075 5077 -5113 0
-5075 5077 5113 0
5075 -5077 5113 0
-5079 -5080 -5115 0
5079 5080 -5115 0
-5079 5080 5115 0
5079 -5080 5115 0
-5081 -5082 -5117 0
5081 5082 -5117 0
-5081 5082 5117 0
5081 -5082 5117 0
-5084 -5085 -5118 0
5084 5085 -5118 0
-5084 5085 5118 0
5084 -5085 5118 0
-5086 -5087 -5119 0
5086 5087 -5119 0
-5086 5087 5119 0
5086 -5087 5119 0
-5089 -5091 -5121 0
5089 5091 -5121 0
-5089 5091 5121 0
5089 -5091 5121 0
-5093 -5095 -5123 0
5093 5095 -5123 0
-5093 5095 5123 0
5093 -5095 5123 0
-5096 -5097 -5125 0
5096 5097 -5125 0
-5096 5097 5125 0
5096 -5097 5125 0
-5099 -5101 -5127 0
5099 5101 -5127 0
-5099 5101 5127 0
5099 -5101 5127 0
-5103 -5105 -5129 0
5103 5105 -5129 0
-5103 5105 5129 0
5103 -5105 5129 0
-5107 -5109 -5131 0
5107 5109 -5131 0
-5107 5109 5131 0
5107 -5109 5131 0
-5111 -5113 -5133 0
5111 5113 -5133 0
-5111 5113 5133 0
5111 -5113 5133 0
-5078 -5115 -5135 0
5078 5115 -5135 0
5078 -5115 5135 0
-5078 5115 5135 0
-5083 -5117 -5137 0
5083 5117 -5137 0
5083 -5117 5137 0
-5083 5117 5137 0
-5118 -5119 -5139 0
5118 5119 -5139 0
-5118 5119 5139 0
5118 -5119 5139 0
-5121 -5123 -5141 0
5121 5123 -5141 0
-5121 5123 5141 0
5121 -5123 5141 0
-5125 -5127 -5143 0
5125 5127 -5143 0
-5125 5127 5143 0
5125 -5127 5143 0
-5129 -5131 -5145 0
5129 5131 -5145 0
-5129 5131 5145 0
5129 -5131 5145 0
-5133 -5135 -5147 0
5133 5135 -5147 0
-5133 5135 5147 0
5133 -5135 5147 0
-5137 -5139 -5149 0
5137 5139 -5149 0
-5137 5139 5149 0
5137 -5139 5149 0
-5141 -5143 -5151 0
5141 5143 -5151 0
-5141 5143 5151 0
5141 -5143 5151 0
-5145 -5147 -5153 0
5145 5147 -5153 0
-5145 5147 5153 0
5145 -5147 5153 0
-5149 -5151 -5153 0
5149 5151 -5153 0
-5149 5151 5153 0
5149 -5151 5153 0
-5088 -5090 -5159 0
5088 5090 -5159 0
-5088 5090 5159 0
5088 -5090 5159 0
-5092 -5094 -5161 0
5092 5094 -5161 0
-5092 5094 5161 0
5092 -5094 5161 0
-5098 -5100 -5164 0
5098 5100 -5164 0
-5098 5100 5164 0
5098 -5100 5164 0
-5102 -5104 -5165 0
5102 5104 -5165 0
-5102 5104 5165 0
5102 -5104 5165 0
-5106 -5108 -5167 0
5106 5108 -5167 0
-5106 5108 5167 0
5106 -5108 5167 0
-5110 -5112 -5169 0
5110 5112 -5169 0
-5110 5112 5169 0
5110 -5112 5169 0
-5114 -5116 -5171 0
5114 5116 -5171 0
-5114 5116 5171 0
5114 -5116 5171 0
-5120 -5122 -5175 0
5120 5122 -5175 0
-5120 5122 5175 0
5120 -5122 5175 0
-5124 -5126 -5177 0
5124 5126 -5177 0
-5124 5126 5177 0
5124 -5126 5177 0
-5128 -5130 -5179 0
5128 5130 -5179 0
-5128 5130 5179 0
5128 -5130 5179 0
-5132 -5134 -5181 0
5132 5134 -5181 0
-5132 5134 5181 0
5132 -5134 5181 0
-5136 -5138 -5183 0
5136 5138 -5183 0
-5136 5138 5183 0
5136 -5138 5183 0
-5140 -5142 -5185 0
5140 5142 -5185 0
-5140 5142 5185 0
5140 -5142 5185 0
-5144 -5146 -5187 0
5144 5146 -5187 0
-5144 5146 5187 0
5144 -5146 5187 0
-5148 -5150 -5189 0
5148 5150 -5189 0
-5148 5150 5189 0
5148 -5150 5189 0
-5152 -5154 -5191 0
5152 5154 -5191 0
-5152 5154 5191 0
5152 -5154 5191 0
-5153 -5155 -5193 0
5153 5155 -5193 0
5153 -5155 5193 0
-5153 5155 5193 0
-5157 -5158 -5195 0
5157 5158 -5195 0
-5157 5158 5195 0
5157 -5158 5195 0
-5159 -5161 -5196 0
5159 5161 -5196 0
-5159 5161 5196 0
5159 -5161 5196 0
-5163 -5164 -5198 0
5163 5164 -5198 0
-5163 5164 5198 0
5163 -5164 5198 0
-5165 -5167 -5200 0
5165 5167 -5200 0
-5165 5167 5200 0
5165 -5167 5200 0
-5169 -5171 -5202 0
5169 5171 -5202 0
-5169 5171 5202 0
5169 -5171 5202 0
-5173 -5174 -5204 0
5173 5174 -5204 0
-5173 5174 5204 0
5173 -5174 5204 0
-5175 -5177 -5206 0
5175 5177 -5206 0
-5175 5177 5206 0
5175 -5177 5206 0
-5179 -5181 -5208 0
5179 5181 -5208 0
-5179 5181 5208 0
5179 -5181 5208 0
-5183 -5185 -5210 0
5183 5185 -5210 0
-5183 5185 5210 0
5183 -5185 5210 0
-5187 -5189 -5212 0
5187 5189 -5212 0
-5187 5189 5212 0
5187 -5189 5212 0
-5191 -5193 -5214 0
5191 5193 -5214 0
-5191 5193 5214 0
5191 -5193 5214 0
-5156 -5195 -5216 0
5156 5195 -5216 0
-5156 5195 5216 0
5156 -5195 5216 0
-5196 -5198 -5218 0
5196 5198 -5218 0
-5196 5198 5218 0
5196 -5198 5218 0
-5200 -5202 -5220 0
5200 5202 -5220 0
-5200 5202 5220 0
5200 -5202 5220 0
-5204 -5206 -5222 0
5204 5206 -5222 0
-5204 5206 5222 0
5204 -5206 5222 0
-5208 -5210 -5224 0
5208 5210 -5224 0
-5208 5210 5224 0
5208 -5210 5224 0
-5212 -5214 -5226 0
5212 5214 -5226 0
-5212 5214 5226 0
5212 -5214 5226 0
-5216 -5218 -5228 0
5216 5218 -5228 0
-5216 5218 5228 0
5216 -5218 5228 0
-5220 -5222 -5230 0
5220 5222 -5230 0
-5220 5222 5230 0
5220 -5222 5230 0
-5224 -5226 -5232 0
5224 5226 -5232 0
-5224 5226 5232 0
5224 -5226 5232 0
-5228 -5230 -5232 0
5228 5230 -5232 0
-5228 5230 5232 0
5228 -5230 5232 0
-5160 -5162 -5267 0
5160 5162 -5267 0
-5160 5162 5267 0
5160 -5162 5267 0
-5166 -5168 -5236 0
5166 5168 -5236 0
-5166 5168 5236 0
5166 -5168 5236 0
-5170 -5172 -5269 0
5170 5172 -5269 0
-5170 5172 5269 0
5170 -5172 5269 0
-5176 -5178 -5239 0
5176 5178 -5239 0
-5176 5178 5239 0
5176 -5178 5239 0
-5180 -5182 -5240 0
5180 5182 -5240 0
-5180 5182 5240 0
5180 -5182 5240 0
-5184 -5186 -5242 0
5184 5186 -5242 0
-5184 5186 5242 0
5184 -5186 5242 0
-5188 -5190 -5244 0
5188 5190 -5244 0
-5188 5190 5244 0
5188 -5190 5244 0
-5192 -5194 -5246 0
5192 5194 -5246 0
-5192 5194 5246 0
5192 -5194 5246 0
-5197 -5199 -5249 0
5197 5199 -5249 0
-5197 5199 5249 0
5197 -5199 5249 0
-5201 -5203 -5250 0
5201 5203 -5250 0
-5201 5203 5250 0
5201 -5203 5250 0
-5205 -5207 -5252 0
5205 5207 -5252 0
-5205 5207 5252 0
5205 -5207 5252 0
-5209 -5211 -5254 0
5209 5211 -5254 0
-5209 5211 5254 0
5209 -5211 5254 0
-5213 -5215 -5256 0
5213 5215 -5256 0
-5213 5215 5256 0
5213 -5215 5256 0
-5217 -5219 -5258 0
5217 5219 -5258 0
-5217 5219 5258 0
5217 -5219 5258 0
-5221 -5223 -5260 0
5221 5223 -5260 0
-5221 5223 5260 0
5221 -5223 5260 0
-5225 -5227 -5262 0
5225 5227 -5262 0
-5225 5227 5262 0
5225 -5227 5262 0
-5229 -5231 -5264 0
5229 5231 -5264 0
-5229 5231 5264 0
5229 -5231 5264 0
-5233 -5234 -5266 0
5233 5234 -5266 0
-5233 5234 5266 0
5233 -5234 5266 0
-5235 -5236 -5268 0
5235 5236 -5268 0
-5235 5236 5268 0
5235 -5236 5268 0
-5239 -5240 -5270 0
5239 5240 -5270 0
-5239 5240 5270 0
5239 -5240 5270 0
-5242 -5244 -5271 0
5242 5244 -5271 0
-5242 5244 5271 0
5242 -5244 5271 0
-5246 -5248 -5273 0
5246 5248 -5273 0
-5246 5248 5273 0
5246 -5248 5273 0
-5249 -5250 -5275 0
5249 5250 -5275 0
-5249 5250 5275 0
5249 -5250 5275 0
-5252 -5254 -5277 0
5252 5254 -5277 0
-5252 5254 5277 0
5252 -5254 5277 0
-5256 -5258 -5279 0
5256 5258 -5279 0
-5256 5258 5279 0
5256 -5258 5279 0
-5260 -5262 -5281 0
5260 5262 -5281 0
-5260 5262 5281 0
5260 -5262 5281 0
-5264 -5266 -5283 0
5264 5266 -5283 0
-5264 5266 5283 0
5264 -5266 5283 0
-5232 -5267 -5285 0
5232 5267 -5285 0
-5232 5267 5285 0
5232 -5267 5285 0
-5268 -5269 -5287 0
5268 5269 -5287 0
-5268 5269 5287 0
5268 -5269 5287 0
-5270 -5271 -5289 0
5270 5271 -5289 0
-5270 5271 5289 0
5270 -5271 5289 0
-5273 -5275 -5291 0
5273 5275 -5291 0
-5273 5275 5291 0
5273 -5275 5291 0
-5277 -5279 -5293 0
5277 5279 -5293 0
-5277 5279 5293 0
5277 -5279 5293 0
-5281 -5283 -5295 0
5281 5283 -5295 0
-5281 5283 5295 0
5281 -5283 5295 0
-5285 -5287 -5297 0
5285 5287 -5297 0
-5285 5287 5297 0
5285 -5287 5297 0
-5289 -5291 -5299 0
5289 5291 -5299 0
-5289 5291 5299 0
5289 -5291 5299 0
-5293 -5295 -5301 0
5293 5295 -5301 0
-5293 5295 5301 0
5293 -5295 5301 0
-5297 -5299 -5301 0
5297 5299 -5301 0
-5297 5299 5301 0
5297 -5299 5301 0
-5237 -5238 -5305 0
5237 5238 -5305 0
-5237 5238 5305 0
5237 -5238 5305 0
-5241 -5243 -5307 0
5241 5243 -5307 0
-5241 5243 5307 0
5241 -5243 5307 0
-5245 -5247 -5309 0
5245 5247 -5309 0
-5245 5247 5309 0
5245 -5247 5309 0
-5251 -5253 -5312 0
5251 5253 -5312 0
-5251 5253 5312 0
5251 -5253 5312 0
-5255 -5257 -5313 0
5255 5257 -5313 0
-5255 5257 5313 0
5255 -5257 5313 0
-5259 -5261 -5315 0
5259 5261 -5315 0
-5259 5261 5315 0
5259 -5261 5315 0
-5263 -5265 -5317 0
5263 5265 -5317 0
-5263 5265 5317 0
5263 -5265 5317 0
-5272 -5274 -5321 0
5272 5274 -5321 0
-5272 5274 5321 0
5272 -5274 5321 0
-5276 -5278 -5323 0
5276 5278 -5323 0
-5276 5278 5323 0
5276 -5278 5323 0
-5280 -5282 -5325 0
5280 5282 -5325 0
-5280 5282 5325 0
5280 -5282 5325 0
-5284 -5286 -5327 0
5284 5286 -5327 0
-5284 5286 5327 0
5284 -5286 5327 0
-5288 -5290 -5329 0
5288 5290 -5329 0
-5288 5290 5329 0
5288 -5290 5329 0
-5292 -5294 -5331 0
5292 5294 -5331 0
-5292 5294 5331 0
5292 -5294 5331 0
-5296 -5298 -5333 0
5296 5298 -5333 0
-5296 5298 5333 0
5296 -5298 5333 0
-5300 -5302 -5335 0
5300 5302 -5335 0
-5300 5302 5335 0
5300 -5302 5335 0
-5301 -5303 -5337 0
5301 5303 -5337 0
5301 -5303 5337 0
-5301 5303 5337 0
-5305 -5306 -5338 0
5305 5306 -5338 0
-5305 5306 5338 0
5305 -5306 5338 0
-5307 -5309 -5340 0
5307 5309 -5340 0
-5307 5309 5340 0
5307 -5309 5340 0
-5311 -5312 -5342 0
5311 5312 -5342 0
-5311 5312 5342 0
5311 -5312 5342 0
-5313 -5315 -5344 0
5313 5315 -5344 0
-5313 5315 5344 0
5313 -5315 5344 0
-5317 -5318 -5346 0
5317 5318 -5346 0
-5317 5318 5346 0
5317 -5318 5346 0
-5319 -5320 -5348 0
5319 5320 -5348 0
-5319 5320 5348 0
5319 -5320 5348 0
-5321 -5323 -5350 0
5321 5323 -5350 0
-5321 5323 5350 0
5321 -5323 5350 0
-5325 -5327 -5352 0
5325 5327 -5352 0
-5325 5327 5352 0
5325 -5327 5352 0
-5329 -5331 -5354 0
5329 5331 -5354 0
-5329 5331 5354 0
5329 -5331 5354 0
-5333 -5335 -5356 0
5333 5335 -5356 0
-5333 5335 5356 0
5333 -5335 5356 0
-5304 -5337 -5358 0
5304 5337 -5358 0
5304 -5337 5358 0
-5304 5337 5358 0
-5338 -5340 -5360 0
5338 5340 -5360 0
-5338 5340 5360 0
5338 -5340 5360 0
-5342 -5344 -5362 0
5342 5344 -5362 0
-5342 5344 5362 0
5342 -5344 5362 0
-5346 -5348 -5364 0
5346 5348 -5364 0
-5346 5348 5364 0
5346 -5348 5364 0
-5350 -5352 -5366 0
5350 5352 -5366 0
-5350 5352 5366 0
5350 -5352 5366 0
-5354 -5356 -5368 0
5354 5356 -5368 0
-5354 5356 5368 0
5354 -5356 5368 0
-5358 -5360 -5370 0
5358 5360 -5370 0
-5358 5360 5370 0
5358 -5360 5370 0
-5362 -5364 -5372 0
5362 5364 -5372 0
-5362 5364 5372 0
5362 -5364 5372 0
-5366 -5368 -5374 0
5366 5368 -5374 0
-5366 5368 5374 0
5366 -5368 5374 0
-5370 -5372 -5374 0
5370 5372 -5374 0
-5370 5372 5374 0
5370 -5372 5374 0
-5308 -5310 -5378 0
5308 5310 -5378 0
-5308 5310 5378 0
5308 -5310 5378 0
-5314 -5316 -5380 0
5314 5316 -5380 0
-5314 5316 5380 0
5314 -5316 5380 0
-5322 -5324 -5382 0
5322 5324 -5382 0
-5322 5324 5382 0
5322 -5324 5382 0
-5326 -5328 -5383 0
5326 5328 -5383 0
-5326 5328 5383 0
5326 -5328 5383 0
-5330 -5332 -5385 0
5330 5332 -5385 0
-5330 5332 5385 0
5330 -5332 5385 0
-5334 -5336 -5387 0
5334 5336 -5387 0
-5334 5336 5387 0
5334 -5336 5387 0
-5339 -5341 -5389 0
5339 5341 -5389 0
-5339 5341 5389 0
5339 -5341 5389 0
-5343 -5345 -5391 0
5343 5345 -5391 0
-5343 5345 5391 0
5343 -5345 5391 0
-5347 -5349 -5393 0
5347 5349 -5393 0
-5347 5349 5393 0
5347 -5349 5393 0
-5351 -5353 -5395 0
5351 5353 -5395 0
-5351 5353 5395 0
5351 -5353 5395 0
-5355 -5357 -5397 0
5355 5357 -5397 0
-5355 5357 5397 0
5355 -5357 5397 0
-5359 -5361 -5399 0
5359 5361 -5399 0
-5359 5361 5399 0
5359 -5361 5399 0
-5363 -5365 -5401 0
5363 5365 -5401 0
-5363 5365 5401 0
5363 -5365 5401 0
-5367 -5369 -5403 0
5367 5369 -5403 0
-5367 5369 5403 0
5367 -5369 5403 0
-5371 -5373 -5405 0
5371 5373 -5405 0
-5371 5373 5405 0
5371 -5373 5405 0
-5375 -5376 -5407 0
5375 5376 -5407 0
-5375 5376 5407 0
5375 -5376 5407 0
-5377 -5378 -5409 0
5377 5378 -5409 0
-5377 5378 5409 0
5377 -5378 5409 0
-5379 -5380 -5410 0
5379 5380 -5410 0
-5379 5380 5410 0
5379 -5380 5410 0
-5382 -5383 -5411 0
5382 5383 -5411 0
-5382 5383 5411 0
5382 -5383 5411 0
-5385 -5387 -5413 0
5385 5387 -5413 0
-5385 5387 5413 0
5385 -5387 5413 0
-5388 -5389 -5415 0
5388 5389 -5415 0
-5388 5389 5415 0
5388 -5389 5415 0
-5391 -5393 -5417 0
5391 5393 -5417 0
-5391 5393 5417 0
5391 -5393 5417 0
-5395 -5397 -5419 0
5395 5397 -5419 0
-5395 5397 5419 0
5395 -5397 5419 0
-5399 -5401 -5421 0
5399 5401 -5421 0
-5399 5401 5421 0
5399 -5401 5421 0
-5403 -5405 -5423 0
5403 5405 -5423 0
-5403 5405 5423 0
5403 -5405 5423 0
-5374 -5407 -5425 0
5374 5407 -5425 0
5374 -5407 5425 0
-5374 5407 5425 0
-5409 -5410 -5427 0
5409 5410 -5427 0
-5409 5410 5427 0
5409 -5410 5427 0
-5381 -5411 -5429 0
5381 5411 -5429 0
-5381 5411 5429 0
5381 -5411 5429 0
-5413 -5415 -5431 0
5413 5415 -5431 0
-5413 5415 5431 0
5413 -5415 5431 0
-5417 -5419 -5433 0
5417 5419 -5433 0
-5417 5419 5433 0
5417 -5419 5433 0
-5421 -5423 -5435 0
5421 5423 -5435 0
-5421 5423 5435 0
5421 -5423 5435 0
-5425 -5427 -5437 0
5425 5427 -5437 0
-5425 5427 5437 0
5425 -5427 5437 0
-5429 -5431 -5439 0
5429 5431 -5439 0
-5429 5431 5439 0
5429 -5431 5439 0
-5433 -5435 -5441 0
5433 5435 -5441 0
-5433 5435 5441 0
5433 -5435 5441 0
-5437 -5439 -5441 0
5437 5439 -5441 0
-5437 5439 5441 0
5437 -5439 5441 0
-5384 -5386 -5447 0
5384 5386 -5447 0
-5384 5386 5447 0
5384 -5386 5447 0
-5390 -5392 -5449 0
5390 5392 -5449 0
-5390 5392 5449 0
5390 -5392 5449 0
-5394 -5396 -5451 0
5394 5396 -5451 0
-5394 5396 5451 0
5394 -5396 5451 0
-5398 -5400 -5453 0
5398 5400 -5453 0
-5398 5400 5453 0
5398 -5400 5453 0
-5402 -5404 -5455 0
5402 5404 -5455 0
-5402 5404 5455 0
5402 -5404 5455 0
-5406 -5408 -5457 0
5406 5408 -5457 0
-5406 5408 5457 0
5406 -5408 5457 0
-5412 -5414 -5460 0
5412 5414 -5460 0
-5412 5414 5460 0
5412 -5414 5460 0
-5416 -5418 -5461 0
5416 5418 -5461 0
-5416 5418 5461 0
5416 -5418 5461 0
-5420 -5422 -5463 0
5420 5422 -5463 0
-5420 5422 5463 0
5420 -5422 5463 0
-5424 -5426 -5465 0
5424 5426 -5465 0
-5424 5426 5465 0
5424 -5426 5465 0
-5428 -5430 -5467 0
5428 5430 -5467 0
-5428 5430 5467 0
5428 -5430 5467 0
-5432 -5434 -5469 0
5432 5434 -5469 0
-5432 5434 5469 0
5432 -5434 5469 0
-5436 -5438 -5471 0
5436 5438 -5471 0
-5436 5438 5471 0
5436 -5438 5471 0
-5440 -5442 -5473 0
5440 5442 -5473 0
-5440 5442 5473 0
5440 -5442 5473 0
-5441 -5443 -5475 0
5441 5443 -5475 0
5441 -5443 5475 0
-5441 5443 5475 0
-5445 -5446 -5477 0
5445 5446 -5477 0
-5445 5446 5477 0
5445 -5446 5477 0
-5447 -5448 -5478 0
5447 5448 -5478 0
-5447 5448 5478 0
5447 -5448 5478 0
-5449 -5451 -5480 0
5449 5451 -5480 0
-5449 5451 5480 0
5449 -5451 5480 0
-5453 -5455 -5482 0
5453 5455 -5482 0
-5453 5455 5482 0
5453 -5455 5482 0
-5457 -5458 -5484 0
5457 5458 -5484 0
-5457 5458 5484 0
5457 -5458 5484 0
-5459 -5460 -5486 0
5459 5460 -5486 0
-5459 5460 5486 0
5459 -5460 5486 0
-5461 -5463 -5488 0
5461 5463 -5488 0
-5461 5463 5488 0
5461 -5463 5488 0
-5465 -5467 -5490 0
5465 5467 -5490 0
-5465 5467 5490 0
5465 -5467 5490 0
-5469 -5471 -5492 0
5469 5471 -5492 0
-5469 5471 5492 0
5469 -5471 5492 0
-5473 -5475 -5494 0
5473 5475 -5494 0
-5473 5475 5494 0
5473 -5475 5494 0
-5444 -5477 -5496 0
5444 5477 -5496 0
-5444 5477 5496 0
5444 -5477 5496 0
-5478 -5480 -5498 0
5478 5480 -5498 0
-5478 5480 5498 0
5478 -5480 5498 0
-5482 -5484 -5500 0
5482 5484 -5500 0
-5482 5484 5500 0
5482 -5484 5500 0
-5486 -5488 -5502 0
5486 5488 -5502 0
-5486 5488 5502 0
5486 -5488 5502 0
-5490 -5492 -5504 0
5490 5492 -5504 0
-5490 5492 5504 0
5490 -5492 5504 0
-5494 -5496 -5506 0
5494 5496 -5506 0
-5494 5496 5506 0
5494 -5496 5506 0
-5498 -5500 -5508 0
5498 5500 -5508 0
-5498 5500 5508 0
5498 -5500 5508 0
-5502 -5504 -5510 0
5502 5504 -5510 0
-5502 5504 5510 0
5502 -5504 5510 0
-5506 -5508 -5510 0
5506 5508 -5510 0
-5506 5508 5510 0
5506 -5508 5510 0
-5450 -5452 -5514 0
5450 5452 -5514 0
-5450 5452 5514 0
5450 -5452 5514 0
-5454 -5456 -5515 0
5454 5456 -5515 0
-5454 5456 5515 0
5454 -5456 5515 0
-5462 -5464 -5518 0
5462 5464 -5518 0
-5462 5464 5518 0
5462 -5464 5518 0
-5466 -5468 -5519 0
5466 5468 -5519 0
-5466 5468 5519 0
5466 -5468 5519 0
-5470 -5472 -5521 0
5470 5472 -5521 0
-5470 5472 5521 0
5470 -5472 5521 0
-5474 -5476 -5523 0
5474 5476 -5523 0
-5474 5476 5523 0
5474 -5476 5523 0
-5479 -5481 -5525 0
5479 5481 -5525 0
-5479 5481 5525 0
5479 -5481 5525 0
-5483 -5485 -5527 0
5483 5485 -5527 0
-5483 5485 5527 0
5483 -5485 5527 0
-5487 -5489 -5529 0
5487 5489 -5529 0
-5487 5489 5529 0
5487 -5489 5529 0
-5491 -5493 -5531 0
5491 5493 -5531 0
-5491 5493 5531 0
5491 -5493 5531 0
-5495 -5497 -5533 0
5495 5497 -5533 0
-5495 5497 5533 0
5495 -5497 5533 0
-5499 -5501 -5535 0
5499 5501 -5535 0
-5499 5501 5535 0
5499 -5501 5535 0
-5503 -5505 -5537 0
5503 5505 -5537 0
-5503 5505 5537 0
5503 -5505 5537 0
-5507 -5509 -5539 0
5507 5509 -5539 0
-5507 5509 5539 0
5507 -5509 5539 0
-5511 -5512 -5541 0
5511 5512 -5541 0
-5511 5512 5541 0
5511 -5512 5541 0
-5514 -5515 -5542 0
5514 5515 -5542 0
-5514 5515 5542 0
5514 -5515 5542 0
-5516 -5517 -5543 0
5516 5517 -5543 0
-5516 5517 5543 0
5516 -5517 5543 0
-5518 -5519 -5545 0
5518 5519 -5545 0
-5518 5519 5545 0
5518 -5519 5545 0
-5521 -5523 -5547 0
5521 5523 -5547 0
-5521 5523 5547 0
5521 -5523 5547 0
-5524 -5525 -5549 0
5524 5525 -5549 0
-5524 5525 5549 0
5524 -5525 5549 0
-5527 -5529 -5551 0
5527 5529 -5551 0
-5527 5529 5551 0
5527 -5529 5551 0
-5531 -5533 -5553 0
5531 5533 -5553 0
-5531 5533 5553 0
5531 -5533 5553 0
-5535 -5537 -5555 0
5535 5537 -5555 0
-5535 5537 5555 0
5535 -5537 5555 0
-5539 -5541 -5557 0
5539 5541 -5557 0
-5539 5541 5557 0
5539 -5541 5557 0
-5510 -5513 -5559 0
5510 5513 -5559 0
-5510 5513 5559 0
5510 -5513 5559 0
-5542 -5543 -5561 0
5542 5543 -5561 0
-5542 5543 5561 0
5542 -5543 5561 0
-5545 -5547 -5563 0
5545 5547 -5563 0
-5545 5547 5563 0
5545 -5547 5563 0
-5549 -5551 -5565 0
5549 5551 -5565 0
-5549 5551 5565 0
5549 -5551 5565 0
-5553 -5555 -5567 0
5553 5555 -5567 0
-5553 5555 5567 0
5553 -5555 5567 0
-5557 -5559 -5569 0
5557 5559 -5569 0
-5557 5559 5569 0
5557 -5559 5569 0
-5561 -5563 -5571 0
5561 5563 -5571 0
-5561 5563 5571 0
5561 -5563 5571 0
-5565 -5567 -5573 0
5565 5567 -5573 0
-5565 5567 5573 0
5565 -5567 5573 0
-5569 -5571 -5573 0
5569 5571 -5573 0
-5569 5571 5573 0
5569 -5571 5573 0
-5520 -5522 -5579 0
5520 5522 -5579 0
-5520 5522 5579 0
5520 -5522 5579 0
-5526 -5528 -5581 0
5526 5528 -5581 0
-5526 5528 5581 0
5526 -5528 5581 0
-5530 -5532 -5583 0
5530 5532 -5583 0
-5530 5532 5583 0
5530 -5532 5583 0
-5534 -5536 -5585 0
5534 5536 -5585 0
-5534 5536 5585 0
5534 -5536 5585 0
-5538 -5540 -5587 0
5538 5540 -5587 0
-5538 5540 5587 0
5538 -5540 5587 0
-5544 -5546 -5591 0
5544 5546 -5591 0
-5544 5546 5591 0
5544 -5546 5591 0
-5548 -5550 -5593 0
5548 5550 -5593 0
-5548 5550 5593 0
5548 -5550 5593 0
-5552 -5554 -5595 0
5552 5554 -5595 0
-5552 5554 5595 0
5552 -5554 5595 0
-5556 -5558 -5597 0
5556 5558 -5597 0
-5556 5558 5597 0
5556 -5558 5597 0
-5560 -5562 -5599 0
5560 5562 -5599 0
-5560 5562 5599 0
5560 -5562 5599 0
-5564 -5566 -5601 0
5564 5566 -5601 0
-5564 5566 5601 0
5564 -5566 5601 0
-5568 -5570 -5603 0
5568 5570 -5603 0
-5568 5570 5603 0
5568 -5570 5603 0
-5572 -5574 -5605 0
5572 5574 -5605 0
-5572 5574 5605 0
5572 -5574 5605 0
-5573 -5575 -5607 0
5573 5575 -5607 0
5573 -5575 5607 0
-5573 5575 5607 0
-5577 -5578 -5608 0
5577 5578 -5608 0
-5577 5578 5608 0
5577 -5578 5608 0
-5579 -5580 -5610 0
5579 5580 -5610 0
-5579 5580 5610 0
5579 -5580 5610 0
-5581 -5583 -5612 0
5581 5583 -5612 0
-5581 5583 5612 0
5581 -5583 5612 0
-5585 -5587 -5614 0
5585 5587 -5614 0
-5585 5587 5614 0
5585 -5587 5614 0
-5589 -5590 -5616 0
5589 5590 -5616 0
-5589 5590 5616 0
5589 -5590 5616 0
-5591 -5593 -5618 0
5591 5593 -5618 0
-5591 5593 5618 0
5591 -5593 5618 0
-5595 -5597 -5620 0
5595 5597 -5620 0
-5595 5597 5620 0
5595 -5597 5620 0
-5599 -5601 -5622 0
5599 5601 -5622 0
-5599 5601 5622 0
5599 -5601 5622 0
-5603 -5605 -5624 0
5603 5605 -5624 0
-5603 5605 5624 0
5603 -5605 5624 0
-5576 -5607 -5626 0
5576 5607 -5626 0
5576 -5607 5626 0
-5576 5607 5626 0
-5608 -5610 -5628 0
5608 5610 -5628 0
-5608 5610 5628 0
5608 -5610 5628 0
-5612 -5614 -5630 0
5612 5614 -5630 0
-5612 5614 5630 0
5612 -5614 5630 0
-5616 -5618 -5632 0
5616 5618 -5632 0
-5616 5618 5632 0
5616 -5618 5632 0
-5620 -5622 -5634 0
5620 5622 -5634 0
-5620 5622 5634 0
5620 -5622 5634 0
-5624 -5626 -5636 0
5624 5626 -5636 0
-5624 5626 5636 0
5624 -5626 5636 0
-5628 -5630 -5638 0
5628 5630 -5638 0
-5628 5630 5638 0
5628 -5630 5638 0
-5632 -5634 -5640 0
5632 5634 -5640 0
-5632 5634 5640 0
5632 -5634 5640 0
-5636 -5638 -5640 0
5636 5638 -5640 0
-5636 5638 5640 0
5636 -5638 5640 0
-5582 -5584 -5644 0
5582 5584 -5644 0
-5582 5584 5644 0
5582 -5584 5644 0
-5586 -5588 -5645 0
5586 5588 -5645 0
-5586 5588 5645 0
5586 -5588 5645 0
-5592 -5594 -5672 0
5592 5594 -5672 0
-5592 5594 5672 0
5592 -5594 5672 0
-5596 -5598 -5647 0
5596 5598 -5647 0
-5596 5598 5647 0
5596 -5598 5647 0
-5600 -5602 -5649 0
5600 5602 -5649 0
-5600 5602 5649 0
5600 -5602 5649 0
-5604 -5606 -5651 0
5604 5606 -5651 0
-5604 5606 5651 0
5604 -5606 5651 0
-5609 -5611 -5654 0
5609 5611 -5654 0
-5609 5611 5654 0
5609 -5611 5654 0
-5613 -5615 -5655 0
5613 5615 -5655 0
-5613 5615 5655 0
5613 -5615 5655 0
-5617 -5619 -5657 0
5617 5619 -5657 0
-5617 5619 5657 0
5617 -5619 5657 0
-5621 -5623 -5659 0
5621 5623 -5659 0
-5621 5623 5659 0
5621 -5623 5659 0
-5625 -5627 -5661 0
5625 5627 -5661 0
-5625 5627 5661 0
5625 -5627 5661 0
-5629 -5631 -5663 0
5629 5631 -5663 0
-5629 5631 5663 0
5629 -5631 5663 0
-5633 -5635 -5665 0
5633 5635 -5665 0
-5633 5635 5665 0
5633 -5635 5665 0
-5637 -5639 -5667 0
5637 5639 -5667 0
-5637 5639 5667 0
5637 -5639 5667 0
-5641 -5642 -5669 0
5641 5642 -5669 0
-5641 5642 5669 0
5641 -5642 5669 0
-5644 -5645 -5671 0
5644 5645 -5671 0
-5644 5645 5671 0
5644 -5645 5671 0
-5647 -5649 -5673 0
5647 5649 -5673 0
-5647 5649 5673 0
5647 -5649 5673 0
-5651 -5653 -5675 0
5651 5653 -5675 0
-5651 5653 5675 0
5651 -5653 5675 0
-5654 -5655 -5677 0
5654 5655 -5677 0
-5654 5655 5677 0
5654 -5655 5677 0
-5657 -5659 -5679 0
5657 5659 -5679 0
-5657 5659 5679 0
5657 -5659 5679 0
-5661 -5663 -5681 0
5661 5663 -5681 0
-5661 5663 5681 0
5661 -5663 5681 0
-5665 -5667 -5683 0
5665 5667 -5683 0
-5665 5667 5683 0
5665 -5667 5683 0
-5640 -5669 -5685 0
5640 5669 -5685 0
5640 -5669 5685 0
-5640 5669 5685 0
-5643 -5671 -5687 0
5643 5671 -5687 0
-5643 5671 5687 0
5643 -5671 5687 0
-5672 -5673 -5689 0
5672 5673 -5689 0
-5672 5673 5689 0
5672 -5673 5689 0
-5675 -5677 -5691 0
5675 5677 -5691 0
-5675 5677 5691 0
5675 -5677 5691 0
-5679 -5681 -5693 0
5679 5681 -5693 0
-5679 5681 5693 0
5679 -5681 5693 0
-5683 -5685 -5695 0
5683 5685 -5695 0
-5683 5685 5695 0
5683 -5685 5695 0
-5687 -5689 -5697 0
5687 5689 -5697 0
-5687 5689 5697 0
5687 -5689 5697 0
-5691 -5693 -5699 0
5691 5693 -5699 0
-5691 5693 5699 0
5691 -5693 5699 0
-5695 -5697 -5699 0
5695 5697 -5699 0
-5695 5697 5699 0
5695 -5697 5699 0
-5646 -5648 -5704 0
5646 5648 -5704 0
-5646 5648 5704 0
5646 -5648 5704 0
-5650 -5652 -5705 0
5650 5652 -5705 0
-5650 5652 5705 0
5650 -5652 5705 0
-5656 -5658 -5707 0
5656 5658 -5707 0
-5656 5658 5707 0
5656 -5658 5707 0
-5660 -5662 -5709 0
5660 5662 -5709 0
-5660 5662 5709 0
5660 -5662 5709 0
-5664 -5666 -5711 0
5664 5666 -5711 0
-5664 5666 5711 0
5664 -5666 5711 0
-5668 -5670 -5713 0
5668 5670 -5713 0
-5668 5670 5713 0
5668 -5670 5713 0
-5674 -5676 -5716 0
5674 5676 -5716 0
-5674 5676 5716 0
5674 -5676 5716 0
-5678 -5680 -5718 0
5678 5680 -5718 0
-5678 5680 5718 0
5678 -5680 5718 0
-5682 -5684 -5720 0
5682 5684 -5720 0
-5682 5684 5720 0
5682 -5684 5720 0
-5686 -5688 -5722 0
5686 5688 -5722 0
-5686 5688 5722 0
5686 -5688 5722 0
-5690 -5692 -5724 0
5690 5692 -5724 0
-5690 5692 5724 0
5690 -5692 5724 0
-5694 -5696 -5726 0
5694 5696 -5726 0
-5694 5696 5726 0
5694 -5696 5726 0
-5698 -5700 -5728 0
5698 5700 -5728 0
-5698 5700 5728 0
5698 -5700 5728 0
-5699 -5701 -5730 0
5699 5701 -5730 0
5699 -5701 5730 0
-5699 5701 5730 0
-5703 -5704 -5732 0
5703 5704 -5732 0
-5703 5704 5732 0
5703 -5704 5732 0
-5705 -5706 -5733 0
5705 5706 -5733 0
-5705 5706 5733 0
5705 -5706 5733 0
-5707 -5709 -5735 0
5707 5709 -5735 0
-5707 5709 5735 0
5707 -5709 5735 0
-5711 -5713 -5737 0
5711 5713 -5737 0
-5711 5713 5737 0
5711 -5713 5737 0
-5716 -5718 -5738 0
5716 5718 -5738 0
-5716 5718 5738 0
5716 -5718 5738 0
-5720 -5722 -5740 0
5720 5722 -5740 0
-5720 5722 5740 0
5720 -5722 5740 0
-5724 -5726 -5742 0
5724 5726 -5742 0
-5724 5726 5742 0
5724 -5726 5742 0
-5728 -5730 -5744 0
5728 5730 -5744 0
-5728 5730 5744 0
5728 -5730 5744 0
-5702 -5732 -5746 0
5702 5732 -5746 0
-5702 5732 5746 0
5702 -5732 5746 0
-5733 -5735 -5748 0
5733 5735 -5748 0
-5733 5735 5748 0
5733 -5735 5748 0
-5715 -5737 -5750 0
5715 5737 -5750 0
5715 -5737 5750 0
-5715 5737 5750 0
-5738 -5740 -5752 0
5738 5740 -5752 0
-5738 5740 5752 0
5738 -5740 5752 0
-5742 -5744 -5754 0
5742 5744 -5754 0
-5742 5744 5754 0
5742 -5744 5754 0
-5746 -5748 -5756 0
5746 5748 -5756 0
-5746 5748 5756 0
5746 -5748 5756 0
-5750 -5752 -5758 0
5750 5752 -5758 0
-5750 5752 5758 0
5750 -5752 5758 0
-5754 -5756 -5758 0
5754 5756 -5758 0
-5754 5756 5758 0
5754 -5756 5758 0
-5708 -5710 -5763 0
5708 5710 -5763 0
-5708 5710 5763 0
5708 -5710 5763 0
-5712 -5714 -5764 0
5712 5714 -5764 0
-5712 5714 5764 0
5712 -5714 5764 0
-5717 -5719 -5789 0
5717 5719 -5789 0
-5717 5719 5789 0
5717 -5719 5789 0
-5721 -5723 -5766 0
5721 5723 -5766 0
-5721 5723 5766 0
5721 -5723 5766 0
-5725 -5727 -5768 0
5725 5727 -5768 0
-5725 5727 5768 0
5725 -5727 5768 0
-5729 -5731 -5770 0
5729 5731 -5770 0
-5729 5731 5770 0
5729 -5731 5770 0
-5734 -5736 -5773 0
5734 5736 -5773 0
-5734 5736 5773 0
5734 -5736 5773 0
-5739 -5741 -5775 0
5739 5741 -5775 0
-5739 5741 5775 0
5739 -5741 5775 0
-5743 -5745 -5776 0
5743 5745 -5776 0
-5743 5745 5776 0
5743 -5745 5776 0
-5747 -5749 -5778 0
5747 5749 -5778 0
-5747 5749 5778 0
5747 -5749 5778 0
-5751 -5753 -5780 0
5751 5753 -5780 0
-5751 5753 5780 0
5751 -5753 5780 0
-5755 -5757 -5782 0
5755 5757 -5782 0
-5755 5757 5782 0
5755 -5757 5782 0
-5759 -5760 -5784 0
5759 5760 -5784 0
-5759 5760 5784 0
5759 -5760 5784 0
-5761 -5762 -5785 0
5761 5762 -5785 0
-5761 5762 5785 0
5761 -5762 5785 0
-5763 -5764 -5787 0
5763 5764 -5787 0
-5763 5764 5787 0
5763 -5764 5787 0
-5766 -5768 -5790 0
5766 5768 -5790 0
-5766 5768 5790 0
5766 -5768 5790 0
-5770 -5772 -5791 0
5770 5772 -5791 0
-5770 5772 5791 0
5770 -5772 5791 0
-5773 -5774 -5793 0
5773 5774 -5793 0
-5773 5774 5793 0
5773 -5774 5793 0
-5775 -5776 -5795 0
5775 5776 -5795 0
-5775 5776 5795 0
5775 -5776 5795 0
-5778 -5780 -5797 0
5778 5780 -5797 0
-5778 5780 5797 0
5778 -5780 5797 0
-5782 -5784 -5799 0
5782 5784 -5799 0
-5782 5784 5799 0
5782 -5784 5799 0
-5758 -5785 -5801 0
5758 5785 -5801 0
-5758 5785 5801 0
5758 -5785 5801 0
-5787 -5789 -5803 0
5787 5789 -5803 0
-5787 5789 5803 0
5787 -5789 5803 0
-5790 -5791 -5805 0
5790 5791 -5805 0
-5790 5791 5805 0
5790 -5791 5805 0
-5793 -5795 -5807 0
5793 5795 -5807 0
-5793 5795 5807 0
5793 -5795 5807 0
-5797 -5799 -5809 0
5797 5799 -5809 0
-5797 5799 5809 0
5797 -5799 5809 0
-5801 -5803 -5811 0
5801 5803 -5811 0
-5801 5803 5811 0
5801 -5803 5811 0
-5805 -5807 -5813 0
5805 5807 -5813 0
-5805 5807 5813 0
5805 -5807 5813 0
-5809 -5811 -5813 0
5809 5811 -5813 0
-5809 5811 5813 0
5809 -5811 5813 0
-5765 -5767 -5818 0
5765 5767 -5818 0
-5765 5767 5818 0
5765 -5767 5818 0
-5769 -5771 -5819 0
5769 5771 -5819 0
-5769 5771 5819 0
5769 -5771 5819 0
-5777 -5779 -5822 0
5777 5779 -5822 0
-5777 5779 5822 0
5777 -5779 5822 0
-5781 -5783 -5823 0
5781 5783 -5823 0
-5781 5783 5823 0
5781 -5783 5823 0
-5786 -5788 -5825 0
5786 5788 -5825 0
-5786 5788 5825 0
5786 -5788 5825 0
-5792 -5794 -5827 0
5792 5794 -5827 0
-5792 5794 5827 0
5792 -5794 5827 0
-5796 -5798 -5829 0
5796 5798 -5829 0
-5796 5798 5829 0
5796 -5798 5829 0
-5800 -5802 -5831 0
5800 5802 -5831 0
-5800 5802 5831 0
5800 -5802 5831 0
-5804 -5806 -5833 0
5804 5806 -5833 0
-5804 5806 5833 0
5804 -5806 5833 0
-5808 -5810 -5835 0
5808 5810 -5835 0
-5808 5810 5835 0
5808 -5810 5835 0
-5812 -5814 -5837 0
5812 5814 -5837 0
-5812 5814 5837 0
5812 -5814 5837 0
-5813 -5815 -5839 0
5813 5815 -5839 0
5813 -5815 5839 0
-5813 5815 5839 0
-5817 -5818 -5840 0
5817 5818 -5840 0
-5817 5818 5840 0
5817 -5818 5840 0
-5819 -5820 -5842 0
5819 5820 -5842 0
-5819 5820 5842 0
5819 -5820 5842 0
-5821 -5822 -5844 0
5821 5822 -5844 0
-5821 5822 5844 0
5821 -5822 5844 0
-5823 -5824 -5846 0
5823 5824 -5846 0
-5823 5824 5846 0
5823 -5824 5846 0
-5825 -5826 -5848 0
5825 5826 -5848 0
-5825 5826 5848 0
5825 -5826 5848 0
-5827 -5829 -5850 0
5827 5829 -5850 0
-5827 5829 5850 0
5827 -5829 5850 0
-5831 -5833 -5852 0
5831 5833 -5852 0
-5831 5833 5852 0
5831 -5833 5852 0
-5835 -5837 -5854 0
5835 5837 -5854 0
-5835 5837 5854 0
5835 -5837 5854 0
-5816 -5839 -5856 0
5816 5839 -5856 0
5816 -5839 5856 0
-5816 5839 5856 0
-5840 -5842 -5858 0
5840 5842 -5858 0
-5840 5842 5858 0
5840 -5842 5858 0
-5844 -5846 -5860 0
5844 5846 -5860 0
-5844 5846 5860 0
5844 -5846 5860 0
-5848 -5850 -5862 0
5848 5850 -5862 0
-5848 5850 5862 0
5848 -5850 5862 0
-5852 -5854 -5864 0
5852 5854 -5864 0
-5852 5854 5864 0
5852 -5854 5864 0
-5856 -5858 -5866 0
5856 5858 -5866 0
-5856 5858 5866 0
5856 -5858 5866 0
-5860 -5862 -5868 0
5860 5862 -5868 0
-5860 5862 5868 0
5860 -5862 5868 0
-5864 -5866 -5868 0
5864 5866 -5868 0
-5864 5866 5868 0
5864 -5866 5868 0
-5828 -5830 -5876 0
5828 5830 -5876 0
-5828 5830 5876 0
5828 -5830 5876 0
-5832 -5834 -5878 0
5832 5834 -5878 0
-5832 5834 5878 0
5832 -5834 5878 0
-5836 -5838 -5880 0
5836 5838 -5880 0
-5836 5838 5880 0
5836 -5838 5880 0
-5841 -5843 -5882 0
5841 5843 -5882 0
-5841 5843 5882 0
5841 -5843 5882 0
-5845 -5847 -5884 0
5845 5847 -5884 0
-5845 5847 5884 0
5845 -5847 5884 0
-5849 -5851 -5886 0
5849 5851 -5886 0
-5849 5851 5886 0
5849 -5851 5886 0
-5853 -5855 -5888 0
5853 5855 -5888 0
-5853 5855 5888 0
5853 -5855 5888 0
-5857 -5859 -5890 0
5857 5859 -5890 0
-5857 5859 5890 0
5857 -5859 5890 0
-5861 -5863 -5892 0
5861 5863 -5892 0
-5861 5863 5892 0
5861 -5863 5892 0
-5865 -5867 -5894 0
5865 5867 -5894 0
-5865 5867 5894 0
5865 -5867 5894 0
-5869 -5870 -5896 0
5869 5870 -5896 0
-5869 5870 5896 0
5869 -5870 5896 0
-5871 -5872 -5898 0
5871 5872 -5898 0
-5871 5872 5898 0
5871 -5872 5898 0
-5873 -5874 -5899 0
5873 5874 -5899 0
-5873 5874 5899 0
5873 -5874 5899 0
-5875 -5876 -5901 0
5875 5876 -5901 0
-5875 5876 5901 0
5875 -5876 5901 0
-5878 -5880 -5903 0
5878 5880 -5903 0
-5878 5880 5903 0
5878 -5880 5903 0
-5881 -5882 -5905 0
5881 5882 -5905 0
-5881 5882 5905 0
5881 -5882 5905 0
-5884 -5886 -5907 0
5884 5886 -5907 0
-5884 5886 5907 0
5884 -5886 5907 0
-5888 -5890 -5909 0
5888 5890 -5909 0
-5888 5890 5909 0
5888 -5890 5909 0
-5892 -5894 -5911 0
5892 5894 -5911 0
-5892 5894 5911 0
5892 -5894 5911 0
-5868 -5896 -5913 0
5868 5896 -5913 0
5868 -5896 5913 0
-5868 5896 5913 0
-5898 -5899 -5915 0
5898 5899 -5915 0
-5898 5899 5915 0
5898 -5899 5915 0
-5901 -5903 -5917 0
5901 5903 -5917 0
-5901 5903 5917 0
5901 -5903 5917 0
-5905 -5907 -5919 0
5905 5907 -5919 0
-5905 5907 5919 0
5905 -5907 5919 0
-5909 -5911 -5921 0
5909 5911 -5921 0
-5909 5911 5921 0
5909 -5911 5921 0
-5913 -5915 -5923 0
5913 5915 -5923 0
-5913 5915 5923 0
5913 -5915 5923 0
-5917 -5919 -5925 0
5917 5919 -5925 0
-5917 5919 5925 0
5917 -5919 5925 0
-5921 -5923 -5925 0
5921 5923 -5925 0
-5921 5923 5925 0
5921 -5923 5925 0
-5877 -5879 -5952 0
5877 5879 -5952 0
-5877 5879 5952 0
5877 -5879 5952 0
-5883 -5885 -5929 0
5883 5885 -5929 0
-5883 5885 5929 0
5883 -5885 5929 0
-5887 -5889 -5930 0
5887 5889 -5930 0
-5887 5889 5930 0
5887 -5889 5930 0
-5891 -5893 -5932 0
5891 5893 -5932 0
-5891 5893 5932 0
5891 -5893 5932 0
-5895 -5897 -5934 0
5895 5897 -5934 0
-5895 5897 5934 0
5895 -5897 5934 0
-5900 -5902 -5936 0
5900 5902 -5936 0
-5900 5902 5936 0
5900 -5902 5936 0
-5904 -5906 -5938 0
5904 5906 -5938 0
-5904 5906 5938 0
5904 -5906 5938 0
-5908 -5910 -5940 0
5908 5910 -5940 0
-5908 5910 5940 0
5908 -5910 5940 0
-5912 -5914 -5942 0
5912 5914 -5942 0
-5912 5914 5942 0
5912 -5914 5942 0
-5916 -5918 -5944 0
5916 5918 -5944 0
-5916 5918 5944 0
5916 -5918 5944 0
-5920 -5922 -5946 0
5920 5922 -5946 0
-5920 5922 5946 0
5920 -5922 5946 0
-5924 -5926 -5948 0
5924 5926 -5948 0
-5924 5926 5948 0
5924 -5926 5948 0
-5925 -5927 -5950 0
5925 5927 -5950 0
5925 -5927 5950 0
-5925 5927 5950 0
-5928 -5929 -5953 0
5928 5929 -5953 0
-5928 5929 5953 0
5928 -5929 5953 0
-5930 -5932 -5955 0
5930 5932 -5955 0
-5930 5932 5955 0
5930 -5932 5955 0
-5934 -5935 -5957 0
5934 5935 -5957 0
-5934 5935 5957 0
5934 -5935 5957 0
-5936 -5938 -5959 0
5936 5938 -5959 0
-5936 5938 5959 0
5936 -5938 5959 0
-5940 -5942 -5961 0
5940 5942 -5961 0
-5940 5942 5961 0
5940 -5942 5961 0
-5944 -5946 -5963 0
5944 5946 -5963 0
-5944 5946 5963 0
5944 -5946 5963 0
-5948 -5950 -5965 0
5948 5950 -5965 0
-5948 5950 5965 0
5948 -5950 5965 0
-5953 -5955 -5966 0
5953 5955 -5966 0
-5953 5955 5966 0
5953 -5955 5966 0
-5957 -5959 -5968 0
5957 5959 -5968 0
-5957 5959 5968 0
5957 -5959 5968 0
-5961 -5963 -5970 0
5961 5963 -5970 0
-5961 5963 5970 0
5961 -5963 5970 0
-5952 -5965 -5972 0
5952 5965 -5972 0
5952 -5965 5972 0
-5952 5965 5972 0
-5966 -5968 -5974 0
5966 5968 -5974 0
-5966 5968 5974 0
5966 -5968 5974 0
-5970 -5972 -5974 0
5970 5972 -5974 0
-5970 5972 5974 0
5970 -5972 5974 0
-5931 -5933 -5979 0
5931 5933 -5979 0
-5931 5933 5979 0
5931 -5933 5979 0
-5937 -5939 -5981 0
5937 5939 -5981 0
-5937 5939 5981 0
5937 -5939 5981 0
-5941 -5943 -5982 0
5941 5943 -5982 0
-5941 5943 5982 0
5941 -5943 5982 0
-5945 -5947 -5984 0
5945 5947 -5984 0
-5945 5947 5984 0
5945 -5947 5984 0
-5949 -5951 -5986 0
5949 5951 -5986 0
-5949 5951 5986 0
5949 -5951 5986 0
-5954 -5956 -6005 0
5954 5956 -6005 0
-5954 5956 6005 0
5954 -5956 6005 0
-5958 -5960 -5988 0
5958 5960 -5988 0
-5958 5960 5988 0
5958 -5960 5988 0
-5962 -5964 -5990 0
5962 5964 -5990 0
-5962 5964 5990 0
5962 -5964 5990 0
-5967 -5969 -5992 0
5967 5969 -5992 0
-5967 5969 5992 0
5967 -5969 5992 0
-5971 -5973 -5994 0
5971 5973 -5994 0
-5971 5973 5994 0
5971 -5973 5994 0
-5975 -5976 -5996 0
5975 5976 -5996 0
-5975 5976 5996 0
5975 -5976 5996 0
-5977 -5978 -5997 0
5977 5978 -5997 0
-5977 5978 5997 0
5977 -5978 5997 0
-5979 -5980 -5999 0
5979 5980 -5999 0
-5979 5980 5999 0
5979 -5980 5999 0
-5981 -5982 -6001 0
5981 5982 -6001 0
-5981 5982 6001 0
5981 -5982 6001 0
-5984 -5986 -6003 0
5984 5986 -6003 0
-5984 5986 6003 0
5984 -5986 6003 0
-5988 -5990 -6006 0
5988 5990 -6006 0
-5988 5990 6006 0
5988 -5990 6006 0
-5991 -5992 -6007 0
5991 5992 -6007 0
-5991 5992 6007 0
5991 -5992 6007 0
-5994 -5996 -6009 0
5994 5996 -6009 0
-5994 5996 6009 0
5994 -5996 6009 0
-5974 -5997 -6011 0
5974 5997 -6011 0
-5974 5997 6011 0
5974 -5997 6011 0
-5999 -6001 -6013 0
5999 6001 -6013 0
-5999 6001 6013 0
5999 -6001 6013 0
-6003 -6005 -6015 0
6003 6005 -6015 0
-6003 6005 6015 0
6003 -6005 6015 0
-6006 -6007 -6017 0
6006 6007 -6017 0
-6006 6007 6017 0
6006 -6007 6017 0
-6009 -6011 -6019 0
6009 6011 -6019 0
-6009 6011 6019 0
6009 -6011 6019 0
-6013 -6015 -6021 0
6013 6015 -6021 0
-6013 6015 6021 0
6013 -6015 6021 0
-6017 -6019 -6021 0
6017 6019 -6021 0
-6017 6019 6021 0
6017 -6019 6021 0
-5983 -5985 -6026 0
5983 5985 -6026 0
-5983 5985 6026 0
5983 -5985 6026 0
-5987 -5989 -6028 0
5987 5989 -6028 0
-5987 5989 6028 0
5987 -5989 6028 0
-5993 -5995 -6030 0
5993 5995 -6030 0
-5993 5995 6030 0
5993 -5995 6030 0
-5998 -6000 -6032 0
5998 6000 -6032 0
-5998 6000 6032 0
5998 -6000 6032 0
-6002 -6004 -6033 0
6002 6004 -6033 0
-6002 6004 6033 0
6002 -6004 6033 0
-6008 -6010 -6035 0
6008 6010 -6035 0
-6008 6010 6035 0
6008 -6010 6035 0
-6012 -6014 -6037 0
6012 6014 -6037 0
-6012 6014 6037 0
6012 -6014 6037 0
-6016 -6018 -6039 0
6016 6018 -6039 0
-6016 6018 6039 0
6016 -6018 6039 0
-6020 -6022 -6041 0
6020 6022 -6041 0
-6020 6022 6041 0
6020 -6022 6041 0
-6021 -6023 -6043 0
6021 6023 -6043 0
6021 -6023 6043 0
-6021 6023 6043 0
-6025 -6026 -6044 0
6025 6026 -6044 0
-6025 6026 6044 0
6025 -6026 6044 0
-6027 -6028 -6046 0
6027 6028 -6046 0
-6027 6028 6046 0
6027 -6028 6046 0
-6029 -6030 -6048 0
6029 6030 -6048 0
-6029 6030 6048 0
6029 -6030 6048 0
-6031 -6032 -6050 0
6031 6032 -6050 0
-6031 6032 6050 0
6031 -6032 6050 0
-6033 -6034 -6052 0
6033 6034 -6052 0
-6033 6034 6052 0
6033 -6034 6052 0
-6035 -6037 -6054 0
6035 6037 -6054 0
-6035 6037 6054 0
6035 -6037 6054 0
-6039 -6041 -6056 0
6039 6041 -6056 0
-6039 6041 6056 0
6039 -6041 6056 0
-6024 -6043 -6058 0
6024 6043 -6058 0
6024 -6043 6058 0
-6024 6043 6058 0
-6044 -6046 -6060 0
6044 6046 -6060 0
-6044 6046 6060 0
6044 -6046 6060 0
-6048 -6050 -6062 0
6048 6050 -6062 0
-6048 6050 6062 0
6048 -6050 6062 0
-6052 -6054 -6064 0
6052 6054 -6064 0
-6052 6054 6064 0
6052 -6054 6064 0
-6056 -6058 -6066 0
6056 6058 -6066 0
-6056 6058 6066 0
6056 -6058 6066 0
-6060 -6062 -6068 0
6060 6062 -6068 0
-6060 6062 6068 0
6060 -6062 6068 0
-6064 -6066 -6068 0
6064 6066 -6068 0
-6064 6066 6068 0
6064 -6066 6068 0
-6036 -6038 -6076 0
6036 6038 -6076 0
-6036 6038 6076 0
6036 -6038 6076 0
-6040 -6042 -6078 0
6040 6042 -6078 0
-6040 6042 6078 0
6040 -6042 6078 0
-6045 -6047 -6081 0
6045 6047 -6081 0
-6045 6047 6081 0
6045 -6047 6081 0
-6049 -6051 -6082 0
6049 6051 -6082 0
-6049 6051 6082 0
6049 -6051 6082 0
-6053 -6055 -6084 0
6053 6055 -6084 0
-6053 6055 6084 0
6053 -6055 6084 0
-6057 -6059 -6086 0
6057 6059 -6086 0
-6057 6059 6086 0
6057 -6059 6086 0
-6061 -6063 -6088 0
6061 6063 -6088 0
-6061 6063 6088 0
6061 -6063 6088 0
-6065 -6067 -6090 0
6065 6067 -6090 0
-6065 6067 6090 0
6065 -6067 6090 0
-6069 -6070 -6092 0
6069 6070 -6092 0
-6069 6070 6092 0
6069 -6070 6092 0
-6071 -6072 -6094 0
6071 6072 -6094 0
-6071 6072 6094 0
6071 -6072 6094 0
-6073 -6074 -6095 0
6073 6074 -6095 0
-6073 6074 6095 0
6073 -6074 6095 0
-6075 -6076 -6097 0
6075 6076 -6097 0
-6075 6076 6097 0
6075 -6076 6097 0
-6078 -6080 -6099 0
6078 6080 -6099 0
-6078 6080 6099 0
6078 -6080 6099 0
-6081 -6082 -6101 0
6081 6082 -6101 0
-6081 6082 6101 0
6081 -6082 6101 0
-6084 -6086 -6103 0
6084 6086 -6103 0
-6084 6086 6103 0
6084 -6086 6103 0
-6088 -6090 -6105 0
6088 6090 -6105 0
-6088 6090 6105 0
6088 -6090 6105 0
-6068 -6092 -6107 0
6068 6092 -6107 0
6068 -6092 6107 0
-6068 6092 6107 0
-6094 -6095 -6109 0
6094 6095 -6109 0
-6094 6095 6109 0
6094 -6095 6109 0
-6097 -6099 -6111 0
6097 6099 -6111 0
-6097 6099 6111 0
6097 -6099 6111 0
-6101 -6103 -6113 0
6101 6103 -6113 0
-6101 6103 6113 0
6101 -6103 6113 0
-6105 -6107 -6115 0
6105 6107 -6115 0
-6105 6107 6115 0
6105 -6107 6115 0
-6109 -6111 -6117 0
6109 6111 -6117 0
-6109 6111 6117 0
6109 -6111 6117 0
-6113 -6115 -6117 0
6113 6115 -6117 0
-6113 6115 6117 0
6113 -6115 6117 0
-6077 -6079 -6140 0
6077 6079 -6140 0
-6077 6079 6140 0
6077 -6079 6140 0
-6083 -6085 -6121 0
6083 6085 -6121 0
-6083 6085 6121 0
6083 -6085 6121 0
-6087 -6089 -6122 0
6087 6089 -6122 0
-6087 6089 6122 0
6087 -6089 6122 0
-6091 -6093 -6124 0
6091 6093 -6124 0
-6091 6093 6124 0
6091 -6093 6124 0
-6096 -6098 -6127 0
6096 6098 -6127 0
-6096 6098 6127 0
6096 -6098 6127 0
-6100 -6102 -6128 0
6100 6102 -6128 0
-6100 6102 6128 0
6100 -6102 6128 0
-6104 -6106 -6130 0
6104 6106 -6130 0
-6104 6106 6130 0
6104 -6106 6130 0
-6108 -6110 -6132 0
6108 6110 -6132 0
-6108 6110 6132 0
6108 -6110 6132 0
-6112 -6114 -6134 0
6112 6114 -6134 0
-6112 6114 6134 0
6112 -6114 6134 0
-6116 -6118 -6136 0
6116 6118 -6136 0
-6116 6118 6136 0
6116 -6118 6136 0
-6117 -6119 -6138 0
6117 6119 -6138 0
6117 -6119 6138 0
-6117 6119 6138 0
-6120 -6121 -6141 0
6120 6121 -6141 0
-6120 6121 6141 0
6120 -6121 6141 0
-6122 -6124 -6143 0
6122 6124 -6143 0
-6122 6124 6143 0
6122 -6124 6143 0
-6126 -6127 -6145 0
6126 6127 -6145 0
-6126 6127 6145 0
6126 -6127 6145 0
-6128 -6130 -6147 0
6128 6130 -6147 0
-6128 6130 6147 0
6128 -6130 6147 0
-6132 -6134 -6149 0
6132 6134 -6149 0
-6132 6134 6149 0
6132 -6134 6149 0
-6136 -6138 -6151 0
6136 6138 -6151 0
-6136 6138 6151 0
6136 -6138 6151 0
-6141 -6143 -6153 0
6141 6143 -6153 0
-6141 6143 6153 0
6141 -6143 6153 0
-6145 -6147 -6154 0
6145 6147 -6154 0
-6145 6147 6154 0
6145 -6147 6154 0
-6149 -6151 -6156 0
6149 6151 -6156 0
-6149 6151 6156 0
6149 -6151 6156 0
-6140 -6153 -6158 0
6140 6153 -6158 0
-6140 6153 6158 0
6140 -6153 6158 0
-6154 -6156 -6158 0
6154 6156 -6158 0
-6154 6156 6158 0
6154 -6156 6158 0
-6123 -6125 -6163 0
6123 6125 -6163 0
-6123 6125 6163 0
6123 -6125 6163 0
-6129 -6131 -6165 0
6129 6131 -6165 0
-6129 6131 6165 0
6129 -6131 6165 0
-6133 -6135 -6166 0
6133 6135 -6166 0
-6133 6135 6166 0
6133 -6135 6166 0
-6137 -6139 -6182 0
6137 6139 -6182 0
-6137 6139 6182 0
6137 -6139 6182 0
-6142 -6144 -6169 0
6142 6144 -6169 0
-6142 6144 6169 0
6142 -6144 6169 0
-6146 -6148 -6170 0
6146 6148 -6170 0
-6146 6148 6170 0
6146 -6148 6170 0
-6150 -6152 -6172 0
6150 6152 -6172 0
-6150 6152 6172 0
6150 -6152 6172 0
-6155 -6157 -6175 0
6155 6157 -6175 0
-6155 6157 6175 0
6155 -6157 6175 0
-6159 -6160 -6176 0
6159 6160 -6176 0
-6159 6160 6176 0
6159 -6160 6176 0
-6161 -6162 -6177 0
6161 6162 -6177 0
-6161 6162 6177 0
6161 -6162 6177 0
-6163 -6164 -6179 0
6163 6164 -6179 0
-6163 6164 6179 0
6163 -6164 6179 0
-6165 -6166 -6181 0
6165 6166 -6181 0
-6165 6166 6181 0
6165 -6166 6181 0
-6169 -6170 -6183 0
6169 6170 -6183 0
-6169 6170 6183 0
6169 -6170 6183 0
-6172 -6174 -6185 0
6172 6174 -6185 0
-6172 6174 6185 0
6172 -6174 6185 0
-6175 -6176 -6187 0
6175 6176 -6187 0
-6175 6176 6187 0
6175 -6176 6187 0
-6158 -6177 -6189 0
6158 6177 -6189 0
-6158 6177 6189 0
6158 -6177 6189 0
-6179 -6181 -6191 0
6179 6181 -6191 0
-6179 6181 6191 0
6179 -6181 6191 0
-6182 -6183 -6193 0
6182 6183 -6193 0
-6182 6183 6193 0
6182 -6183 6193 0
-6185 -6187 -6195 0
6185 6187 -6195 0
-6185 6187 6195 0
6185 -6187 6195 0
-6189 -6191 -6197 0
6189 6191 -6197 0
-6189 6191 6197 0
6189 -6191 6197 0
-6193 -6195 -6197 0
6193 6195 -6197 0
-6193 6195 6197 0
6193 -6195 6197 0
-6167 -6168 -6202 0
6167 6168 -6202 0
-6167 6168 6202 0
6167 -6168 6202 0
-6171 -6173 -6204 0
6171 6173 -6204 0
-6171 6173 6204 0
6171 -6173 6204 0
-6178 -6180 -6207 0
6178 6180 -6207 0
-6178 6180 6207 0
6178 -6180 6207 0
-6184 -6186 -6209 0
6184 6186 -6209 0
-6184 6186 6209 0
6184 -6186 6209 0
-6188 -6190 -6211 0
6188 6190 -6211 0
-6188 6190 6211 0
6188 -6190 6211 0
-6192 -6194 -6213 0
6192 6194 -6213 0
-6192 6194 6213 0
6192 -6194 6213 0
-6196 -6198 -6215 0
6196 6198 -6215 0
-6196 6198 6215 0
6196 -6198 6215 0
-6197 -6199 -6217 0
6197 6199 -6217 0
6197 -6199 6217 0
-6197 6199 6217 0
-6201 -6202 -6218 0
6201 6202 -6218 0
-6201 6202 6218 0
6201 -6202 6218 0
-6203 -6204 -6220 0
6203 6204 -6220 0
-6203 6204 6220 0
6203 -6204 6220 0
-6205 -6206 -6222 0
6205 6206 -6222 0
-6205 6206 6222 0
6205 -6206 6222 0
-6207 -6208 -6224 0
6207 6208 -6224 0
-6207 6208 6224 0
6207 -6208 6224 0
-6209 -6211 -6226 0
6209 6211 -6226 0
-6209 6211 6226 0
6209 -6211 6226 0
-6213 -6215 -6228 0
6213 6215 -6228 0
-6213 6215 6228 0
6213 -6215 6228 0
-6200 -6217 -6230 0
6200 6217 -6230 0
6200 -6217 6230 0
-6200 6217 6230 0
-6218 -6220 -6232 0
6218 6220 -6232 0
-6218 6220 6232 0
6218 -6220 6232 0
-6222 -6224 -6234 0
6222 6224 -6234 0
-6222 6224 6234 0
6222 -6224 6234 0
-6226 -6228 -6236 0
6226 6228 -6236 0
-6226 6228 6236 0
6226 -6228 6236 0
-6230 -6232 -6238 0
6230 6232 -6238 0
-6230 6232 6238 0
6230 -6232 6238 0
-6234 -6236 -6238 0
6234 6236 -6238 0
-6234 6236 6238 0
6234 -6236 6238 0
-6210 -6212 -6244 0
6210 6212 -6244 0
-6210 6212 6244 0
6210 -6212 6244 0
-6214 -6216 -6245 0
6214 6216 -6245 0
-6214 6216 6245 0
6214 -6216 6245 0
-6219 -6221 -6247 0
6219 6221 -6247 0
-6219 6221 6247 0
6219 -6221 6247 0
-6223 -6225 -6249 0
6223 6225 -6249 0
-6223 6225 6249 0
6223 -6225 6249 0
-6227 -6229 -6251 0
6227 6229 -6251 0
-6227 6229 6251 0
6227 -6229 6251 0
-6231 -6233 -6253 0
6231 6233 -6253 0
-6231 6233 6253 0
6231 -6233 6253 0
-6235 -6237 -6255 0
6235 6237 -6255 0
-6235 6237 6255 0
6235 -6237 6255 0
-6239 -6240 -6257 0
6239 6240 -6257 0
-6239 6240 6257 0
6239 -6240 6257 0
-6241 -6242 -6259 0
6241 6242 -6259 0
-6241 6242 6259 0
6241 -6242 6259 0
-6244 -6245 -6260 0
6244 6245 -6260 0
-6244 6245 6260 0
6244 -6245 6260 0
-6246 -6247 -6261 0
6246 6247 -6261 0
-6246 6247 6261 0
6246 -6247 6261 0
-6249 -6251 -6263 0
6249 6251 -6263 0
-6249 6251 6263 0
6249 -6251 6263 0
-6253 -6255 -6265 0
6253 6255 -6265 0
-6253 6255 6265 0
6253 -6255 6265 0
-6238 -6257 -6267 0
6238 6257 -6267 0
6238 -6257 6267 0
-6238 6257 6267 0
-6243 -6259 -6269 0
6243 6259 -6269 0
6243 -6259 6269 0
-6243 6259 6269 0
-6260 -6261 -6271 0
6260 6261 -6271 0
-6260 6261 6271 0
6260 -6261 6271 0
-6263 -6265 -6273 0
6263 6265 -6273 0
-6263 6265 6273 0
6263 -6265 6273 0
-6267 -6269 -6275 0
6267 6269 -6275 0
-6267 6269 6275 0
6267 -6269 6275 0
-6271 -6273 -6275 0
6271 6273 -6275 0
-6271 6273 6275 0
6271 -6273 6275 0
-6248 -6250 -6280 0
6248 6250 -6280 0
-6248 6250 6280 0
6248 -6250 6280 0
-6252 -6254 -6282 0
6252 6254 -6282 0
-6252 6254 6282 0
6252 -6254 6282 0
-6256 -6258 -6284 0
6256 6258 -6284 0
-6256 6258 6284 0
6256 -6258 6284 0
-6262 -6264 -6287 0
6262 6264 -6287 0
-6262 6264 6287 0
6262 -6264 6287 0
-6266 -6268 -6288 0
6266 6268 -6288 0
-6266 6268 6288 0
6266 -6268 6288 0
-6270 -6272 -6290 0
6270 6272 -6290 0
-6270 6272 6290 0
6270 -6272 6290 0
-6274 -6276 -6292 0
6274 6276 -6292 0
-6274 6276 6292 0
6274 -6276 6292 0
-6275 -6277 -6294 0
6275 6277 -6294 0
6275 -6277 6294 0
-6275 6277 6294 0
-6278 -6279 -6305 0
6278 6279 -6305 0
-6278 6279 6305 0
6278 -6279 6305 0
-6280 -6282 -6296 0
6280 6282 -6296 0
-6280 6282 6296 0
6280 -6282 6296 0
-6284 -6285 -6298 0
6284 6285 -6298 0
-6284 6285 6298 0
6284 -6285 6298 0
-6286 -6287 -6300 0
6286 6287 -6300 0
-6286 6287 6300 0
6286 -6287 6300 0
-6288 -6290 -6302 0
6288 6290 -6302 0
-6288 6290 6302 0
6288 -6290 6302 0
-6292 -6294 -6304 0
6292 6294 -6304 0
-6292 6294 6304 0
6292 -6294 6304 0
-6296 -6298 -6306 0
6296 6298 -6306 0
-6296 6298 6306 0
6296 -6298 6306 0
-6300 -6302 -6308 0
6300 6302 -6308 0
-6300 6302 6308 0
6300 -6302 6308 0
-6304 -6305 -6310 0
6304 6305 -6310 0
-6304 6305 6310 0
6304 -6305 6310 0
-6306 -6308 -6310 0
6306 6308 -6310 0
-6306 6308 6310 0
6306 -6308 6310 0
-6281 -6283 -6325 0
6281 6283 -6325 0
-6281 6283 6325 0
6281 -6283 6325 0
-6289 -6291 -6315 0
6289 6291 -6315 0
-6289 6291 6315 0
6289 -6291 6315 0
-6293 -6295 -6316 0
6293 6295 -6316 0
-6293 6295 6316 0
6293 -6295 6316 0
-6297 -6299 -6318 0
6297 6299 -6318 0
-6297 6299 6318 0
6297 -6299 6318 0
-6301 -6303 -6320 0
6301 6303 -6320 0
-6301 6303 6320 0
6301 -6303 6320 0
-6307 -6309 -6323 0
6307 6309 -6323 0
-6307 6309 6323 0
6307 -6309 6323 0
-6311 -6312 -6324 0
6311 6312 -6324 0
-6311 6312 6324 0
6311 -6312 6324 0
-6313 -6314 -6326 0
6313 6314 -6326 0
-6313 6314 6326 0
6313 -6314 6326 0
-6315 -6316 -6327 0
6315 6316 -6327 0
-6315 6316 6327 0
6315 -6316 6327 0
-6317 -6318 -6329 0
6317 6318 -6329 0
-6317 6318 6329 0
6317 -6318 6329 0
-6320 -6322 -6331 0
6320 6322 -6331 0
-6320 6322 6331 0
6320 -6322 6331 0
-6323 -6324 -6333 0
6323 6324 -6333 0
-6323 6324 6333 0
6323 -6324 6333 0
-6310 -6325 -6335 0
6310 6325 -6335 0
-6310 6325 6335 0
6310 -6325 6335 0
-6326 -6327 -6337 0
6326 6327 -6337 0
-6326 6327 6337 0
6326 -6327 6337 0
-6329 -6331 -6339 0
6329 6331 -6339 0
-6329 6331 6339 0
6329 -6331 6339 0
-6333 -6335 -6341 0
6333 6335 -6341 0
-6333 6335 6341 0
6333 -6335 6341 0
-6337 -6339 -6341 0
6337 6339 -6341 0
-6337 6339 6341 0
6337 -6339 6341 0
-6319 -6321 -6347 0
6319 6321 -6347 0
-6319 6321 6347 0
6319 -6321 6347 0
-6328 -6330 -6351 0
6328 6330 -6351 0
-6328 6330 6351 0
6328 -6330 6351 0
-6332 -6334 -6353 0
6332 6334 -6353 0
-6332 6334 6353 0
6332 -6334 6353 0
-6336 -6338 -6355 0
6336 6338 -6355 0
-6336 6338 6355 0
6336 -6338 6355 0
-6340 -6342 -6357 0
6340 6342 -6357 0
-6340 6342 6357 0
6340 -6342 6357 0
-6341 -6343 -6359 0
6341 6343 -6359 0
6341 -6343 6359 0
-6341 6343 6359 0
-6345 -6346 -6360 0
6345 6346 -6360 0
-6345 6346 6360 0
6345 -6346 6360 0
-6347 -6348 -6362 0
6347 6348 -6362 0
-6347 6348 6362 0
6347 -6348 6362 0
-6349 -6350 -6364 0
6349 6350 -6364 0
-6349 6350 6364 0
6349 -6350 6364 0
-6351 -6353 -6366 0
6351 6353 -6366 0
-6351 6353 6366 0
6351 -6353 6366 0
-6355 -6357 -6368 0
6355 6357 -6368 0
-6355 6357 6368 0
6355 -6357 6368 0
-6344 -6359 -6370 0
6344 6359 -6370 0
6344 -6359 6370 0
-6344 6359 6370 0
-6360 -6362 -6372 0
6360 6362 -6372 0
-6360 6362 6372 0
6360 -6362 6372 0
-6364 -6366 -6374 0
6364 6366 -6374 0
-6364 6366 6374 0
6364 -6366 6374 0
-6368 -6370 -6376 0
6368 6370 -6376 0
-6368 6370 6376 0
6368 -6370 6376 0
-6372 -6374 -6376 0
6372 6374 -6376 0
-6372 6374 6376 0
6372 -6374 6376 0
-6352 -6354 -6393 0
6352 6354 -6393 0
-6352 6354 6393 0
6352 -6354 6393 0
-6356 -6358 -6381 0
6356 6358 -6381 0
-6356 6358 6381 0
6356 -6358 6381 0
-6361 -6363 -6384 0
6361 6363 -6384 0
-6361 6363 6384 0
6361 -6363 6384 0
-6365 -6367 -6385 0
6365 6367 -6385 0
-6365 6367 6385 0
6365 -6367 6385 0
-6369 -6371 -6387 0
6369 6371 -6387 0
-6369 6371 6387 0
6369 -6371 6387 0
-6373 -6375 -6389 0
6373 6375 -6389 0
-6373 6375 6389 0
6373 -6375 6389 0
-6377 -6378 -6391 0
6377 6378 -6391 0
-6377 6378 6391 0
6377 -6378 6391 0
-6381 -6383 -6394 0
6381 6383 -6394 0
-6381 6383 6394 0
6381 -6383 6394 0
-6384 -6385 -6395 0
6384 6385 -6395 0
-6384 6385 6395 0
6384 -6385 6395 0
-6387 -6389 -6397 0
6387 6389 -6397 0
-6387 6389 6397 0
6387 -6389 6397 0
-6376 -6391 -6399 0
6376 6391 -6399 0
6376 -6391 6399 0
-6376 6391 6399 0
-6379 -6393 -6401 0
6379 6393 -6401 0
-6379 6393 6401 0
6379 -6393 6401 0
-6394 -6395 -6403 0
6394 6395 -6403 0
-6394 6395 6403 0
6394 -6395 6403 0
-6397 -6399 -6405 0
6397 6399 -6405 0
-6397 6399 6405 0
6397 -6399 6405 0
-6401 -6403 -6405 0
6401 6403 -6405 0
-6401 6403 6405 0
6401 -6403 6405 0
-6380 -6382 -6408 0
6380 6382 -6408 0
-6380 6382 6408 0
6380 -6382 6408 0
-6386 -6388 -6410 0
6386 6388 -6410 0
-6386 6388 6410 0
6386 -6388 6410 0
-6390 -6392 -6412 0
6390 6392 -6412 0
-6390 6392 6412 0
6390 -6392 6412 0
-6396 -6398 -6415 0
6396 6398 -6415 0
-6396 6398 6415 0
6396 -6398 6415 0
-6400 -6402 -6417 0
6400 6402 -6417 0
-6400 6402 6417 0
6400 -6402 6417 0
-6404 -6406 -6419 0
6404 6406 -6419 0
-6404 6406 6419 0
6404 -6406 6419 0
-6405 -6407 -6421 0
6405 6407 -6421 0
6405 -6407 6421 0
-6405 6407 6421 0
-6408 -6409 -6428 0
6408 6409 -6428 0
-6408 6409 6428 0
6408 -6409 6428 0
-6410 -6412 -6423 0
6410 6412 -6423 0
-6410 6412 6423 0
6410 -6412 6423 0
-6415 -6417 -6424 0
6415 6417 -6424 0
-6415 6417 6424 0
6415 -6417 6424 0
-6419 -6421 -6426 0
6419 6421 -6426 0
-6419 6421 6426 0
6419 -6421 6426 0
-6414 -6423 -6429 0
6414 6423 -6429 0
6414 -6423 6429 0
-6414 6423 6429 0
-6424 -6426 -6430 0
6424 6426 -6430 0
-6424 6426 6430 0
6424 -6426 6430 0
-6428 -6429 -6430 0
6428 6429 -6430 0
-6428 6429 6430 0
6428 -6429 6430 0
-6411 -6413 -6434 0
6411 6413 -6434 0
-6411 6413 6434 0
6411 -6413 6434 0
-6416 -6418 -6444 0
6416 6418 -6444 0
-6416 6418 6444 0
6416 -6418 6444 0
-6420 -6422 -6436 0
6420 6422 -6436 0
-6420 6422 6436 0
6420 -6422 6436 0
-6425 -6427 -6440 0
6425 6427 -6440 0
-6425 6427 6440 0
6425 -6427 6440 0
-6431 -6432 -6442 0
6431 6432 -6442 0
-6431 6432 6442 0
6431 -6432 6442 0
-6433 -6434 -6443 0
6433 6434 -6443 0
-6433 6434 6443 0
6433 -6434 6443 0
-6436 -6438 -6445 0
6436 6438 -6445 0
-6436 6438 6445 0
6436 -6438 6445 0
-6439 -6440 -6447 0
6439 6440 -6447 0
-6439 6440 6447 0
6439 -6440 6447 0
-6441 -6442 -6449 0
6441 6442 -6449 0
-6441 6442 6449 0
6441 -6442 6449 0
-6430 -6443 -6451 0
6430 6443 -6451 0
-6430 6443 6451 0
6430 -6443 6451 0
-6444 -6445 -6453 0
6444 6445 -6453 0
-6444 6445 6453 0
6444 -6445 6453 0
-6447 -6449 -6455 0
6447 6449 -6455 0
-6447 6449 6455 0
6447 -6449 6455 0
-6451 -6453 -6455 0
6451 6453 -6455 0
-6451 6453 6455 0
6451 -6453 6455 0
-6435 -6437 -6468 0
6435 6437 -6468 0
-6435 6437 6468 0
6435 -6437 6468 0
-6446 -6448 -6462 0
6446 6448 -6462 0
-6446 6448 6462 0
6446 -6448 6462 0
-6450 -6452 -6463 0
6450 6452 -6463 0
-6450 6452 6463 0
6450 -6452 6463 0
-6454 -6456 -6465 0
6454 6456 -6465 0
-6454 6456 6465 0
6454 -6456 6465 0
-6455 -6457 -6467 0
6455 6457 -6467 0
6455 -6457 6467 0
-6455 6457 6467 0
-6459 -6460 -6469 0
6459 6460 -6469 0
-6459 6460 6469 0
6459 -6460 6469 0
-6461 -6462 -6470 0
6461 6462 -6470 0
-6461 6462 6470 0
6461 -6462 6470 0
-6463 -6465 -6472 0
6463 6465 -6472 0
-6463 6465 6472 0
6463 -6465 6472 0
-6458 -6467 -6474 0
6458 6467 -6474 0
6458 -6467 6474 0
-6458 6467 6474 0
-6468 -6469 -6476 0
6468 6469 -6476 0
-6468 6469 6476 0
6468 -6469 6476 0
-6470 -6472 -6478 0
6470 6472 -6478 0
-6470 6472 6478 0
6470 -6472 6478 0
-6474 -6476 -6478 0
6474 6476 -6478 0
-6474 6476 6478 0
6474 -6476 6478 0
-6464 -6466 -6483 0
6464 6466 -6483 0
-6464 6466 6483 0
6464 -6466 6483 0
-6471 -6473 -6486 0
6471 6473 -6486 0
-6471 6473 6486 0
6471 -6473 6486 0
-6475 -6477 -6487 0
6475 6477 -6487 0
-6475 6477 6487 0
6475 -6477 6487 0
-6479 -6480 -6489 0
6479 6480 -6489 0
-6479 6480 6489 0
6479 -6480 6489 0
-6482 -6483 -6491 0
6482 6483 -6491 0
-6482 6483 6491 0
6482 -6483 6491 0
-6484 -6485 -6493 0
6484 6485 -6493 0
-6484 6485 6493 0
6484 -6485 6493 0
-6486 -6487 -6495 0
6486 6487 -6495 0
-6486 6487 6495 0
6486 -6487 6495 0
-6478 -6489 -6497 0
6478 6489 -6497 0
6478 -6489 6497 0
-6478 6489 6497 0
-6481 -6491 -6499 0
6481 6491 -6499 0
-6481 6491 6499 0
6481 -6491 6499 0
-6493 -6495 -6501 0
6493 6495 -6501 0
-6493 6495 6501 0
6493 -6495 6501 0
-6497 -6499 -6501 0
6497 6499 -6501 0
-6497 6499 6501 0
6497 -6499 6501 0
-6488 -6490 -6514 0
6488 6490 -6514 0
-6488 6490 6514 0
6488 -6490 6514 0
-6492 -6494 -6506 0
6492 6494 -6506 0
-6492 6494 6506 0
6492 -6494 6506 0
-6496 -6498 -6508 0
6496 6498 -6508 0
-6496 6498 6508 0
6496 -6498 6508 0
-6500 -6502 -6510 0
6500 6502 -6510 0
-6500 6502 6510 0
6500 -6502 6510 0
-6501 -6503 -6512 0
6501 6503 -6512 0
6501 -6503 6512 0
-6501 6503 6512 0
-6504 -6505 -6517 0
6504 6505 -6517 0
-6504 6505 6517 0
6504 -6505 6517 0
-6506 -6508 -6515 0
6506 6508 -6515 0
-6506 6508 6515 0
6506 -6508 6515 0
-6510 -6512 -6516 0
6510 6512 -6516 0
-6510 6512 6516 0
6510 -6512 6516 0
-6514 -6515 -6518 0
6514 6515 -6518 0
-6514 6515 6518 0
6514 -6515 6518 0
-6516 -6517 -6518 0
6516 6517 -6518 0
-6516 6517 6518 0
6516 -6517 6518 0
-6507 -6509 -6522 0
6507 6509 -6522 0
-6507 6509 6522 0
6507 -6509 6522 0
-6511 -6513 -6523 0
6511 6513 -6523 0
-6511 6513 6523 0
6511 -6513 6523 0
-6519 -6520 -6527 0
6519 6520 -6527 0
-6519 6520 6527 0
6519 -6520 6527 0
-6522 -6523 -6528 0
6522 6523 -6528 0
-6522 6523 6528 0
6522 -6523 6528 0
-6524 -6525 -6529 0
6524 6525 -6529 0
-6524 6525 6529 0
6524 -6525 6529 0
-6526 -6527 -6531 0
6526 6527 -6531 0
-6526 6527 6531 0
6526 -6527 6531 0
-6518 -6521 -6533 0
6518 6521 -6533 0
-6518 6521 6533 0
6518 -6521 6533 0
-6528 -6529 -6535 0
6528 6529 -6535 0
-6528 6529 6535 0
6528 -6529 6535 0
-6531 -6533 -6535 0
6531 6533 -6535 0
-6531 6533 6535 0
6531 -6533 6535 0
-6530 -6532 -6542 0
6530 6532 -6542 0
-6530 6532 6542 0
6530 -6532 6542 0
-6534 -6536 -6544 0
6534 6536 -6544 0
-6534 6536 6544 0
6534 -6536 6544 0
-6535 -6537 -6546 0
6535 6537 -6546 0
6535 -6537 6546 0
-6535 6537 6546 0
-6540 -6541 -6547 0
6540 6541 -6547 0
-6540 6541 6547 0
6540 -6541 6547 0
-6542 -6544 -6548 0
6542 6544 -6548 0
-6542 6544 6548 0
6542 -6544 6548 0
-6538 -6546 -6550 0
6538 6546 -6550 0
6538 -6546 6550 0
-6538 6546 6550 0
-6539 -6547 -6552 0
6539 6547 -6552 0
-6539 6547 6552 0
6539 -6547 6552 0
-6548 -6550 -6552 0
6548 6550 -6552 0
-6548 6550 6552 0
6548 -6550 6552 0
-6543 -6545 -6555 0
6543 6545 -6555 0
-6543 6545 6555 0
6543 -6545 6555 0
-6549 -6551 -6558 0
6549 6551 -6558 0
-6549 6551 6558 0
6549 -6551 6558 0
-6553 -6554 -6560 0
6553 6554 -6560 0
-6553 6554 6560 0
6553 -6554 6560 0
-6555 -6556 -6566 0
6555 6556 -6566 0
-6555 6556 6566 0
6555 -6556 6566 0
-6557 -6558 -6563 0
6557 6558 -6563 0
-6557 6558 6563 0
6557 -6558 6563 0
-6552 -6560 -6565 0
6552 6560 -6565 0
6552 -6560 6565 0
-6552 6560 6565 0
-6563 -6565 -6566 0
6563 6565 -6566 0
-6563 6565 6566 0
6563 -6565 6566 0
-6559 -6561 -6571 0
6559 6561 -6571 0
-6559 6561 6571 0
6559 -6561 6571 0
-6562 -6564 -6572 0
6562 6564 -6572 0
-6562 6564 6572 0
6562 -6564 6572 0
-6566 -6567 -6570 0
6566 6567 -6570 0
6566 -6567 6570 0
-6566 6567 6570 0
-6569 -6570 -6573 0
6569 6570 -6573 0
-6569 6570 6573 0
6569 -6570 6573 0
-6568 -6571 -6574 0
6568 6571 -6574 0
-6568 6571 6574 0
6568 -6571 6574 0
-6572 -6573 -6574 0
6572 6573 -6574 0
-6572 6573 6574 0
6572 -6573 6574 0
-6575 -6576 -6581 0
6575 6576 -6581 0
-6575 6576 6581 0
6575 -6576 6581 0
-6577 -6578 -6582 0
6577 6578 -6582 0
-6577 6578 6582 0
6577 -6578 6582 0
-6580 -6581 -6583 0
6580 6581 -6583 0
-6580 6581 6583 0
6580 -6581 6583 0
-6574 -6582 -6585 0
6574 6582 -6585 0
-6574 6582 6585 0
6574 -6582 6585 0
-6579 -6583 -6585 0
6579 6583 -6585 0
-6579 6583 6585 0
6579 -6583 6585 0
-6584 -6586 -6590 0
6584 6586 -6590 0
-6584 6586 6590 0
6584 -6586 6590 0
-6585 -6587 -6592 0
6585 6587 -6592 0
6585 -6587 6592 0
-6585 6587 6592 0
-6589 -6590 -6591 0
6589 6590 -6591 0
-6589 6590 6591 0
6589 -6590 6591 0
-6588 -6591 -6592 0
6588 6591 -6592 0
-6588 6591 6592 0
6588 -6591 6592 0
-6593 -6594 -6597 0
6593 6594 -6597 0
-6593 6594 6597 0
6593 -6594 6597 0
-6592 -6595 -6599 0
6592 6595 -6599 0
6592 -6595 6599 0
-6592 6595 6599 0
-6596 -6597 -6599 0
6596 6597 -6599 0
-6596 6597 6599 0
6596 -6597 6599 0
-6598 6600 6604 0
6598 -6600 6604 0
6599 -6601 6604 0
-6599 6601 6604 0
-6602 6603 6604 0
6602 -6603 6604 0
