c Factorization SAT instance #21: N = 405523 = 599 x 677
c p = 599 (10 bits), q = 677 (10 bits)
c N = 405523 (19 bits)
c Generator: generate_instances.py  d=3, k=50, seed=None
p cnf 6726 23752
1 9 -95 0
-1 -9 0
-9 95 0
1 -2 10 0
-1 -10 0
2 -10 0
1 -3 11 0
-1 -11 0
3 -11 0
1 -4 12 0
-1 -12 0
4 -12 0
1 -5 13 0
-1 -13 0
5 -13 0
1 -6 14 0
-1 -14 0
6 -14 0
1 -7 15 0
-1 -15 0
7 -15 0
1 -8 16 0
-1 -16 0
8 -16 0
-1 17 -95 0
-17 95 0
1 -17 0
-2 18 -95 0
-18 95 0
2 -18 0
-3 19 -95 0
-19 95 0
3 -19 0
-4 20 -95 0
-20 95 0
4 -20 0
-5 21 -95 0
-21 95 0
5 -21 0
-6 22 -95 0
-22 95 0
6 -22 0
-7 23 -95 0
-23 95 0
7 -23 0
-8 24 -95 0
-24 95 0
8 -24 0
-1 -25 26 0
25 -26 0
1 -26 0
-25 27 -95 0
25 -27 0
-27 95 0
-2 -25 28 0
25 -28 0
2 -28 0
-3 -25 29 0
25 -29 0
3 -29 0
-4 -25 30 0
25 -30 0
4 -30 0
-5 -25 31 0
25 -31 0
5 -31 0
-6 -25 32 0
25 -32 0
6 -32 0
-7 -25 33 0
25 -33 0
7 -33 0
-8 -25 34 0
25 -34 0
8 -34 0
-1 -35 36 0
35 -36 0
1 -36 0
-35 37 -95 0
35 -37 0
-37 95 0
-2 -35 38 0
35 -38 0
2 -38 0
-3 -35 39 0
35 -39 0
3 -39 0
-4 -35 40 0
35 -40 0
4 -40 0
-5 -35 41 0
35 -41 0
5 -41 0
-6 -35 42 0
35 -42 0
6 -42 0
-7 -35 43 0
35 -43 0
7 -43 0
-8 -35 44 0
35 -44 0
8 -44 0
-1 -45 46 0
45 -46 0
1 -46 0
-45 47 -95 0
45 -47 0
-47 95 0
-2 -45 48 0
45 -48 0
2 -48 0
-3 -45 49 0
45 -49 0
3 -49 0
-4 -45 50 0
45 -50 0
4 -50 0
-5 -45 51 0
45 -51 0
5 -51 0
-6 -45 52 0
45 -52 0
6 -52 0
-7 -45 53 0
45 -53 0
7 -53 0
-8 -45 54 0
45 -54 0
8 -54 0
-1 -55 56 0
55 -56 0
1 -56 0
-55 57 -95 0
55 -57 0
-57 95 0
-2 -55 58 0
55 -58 0
2 -58 0
-3 -55 59 0
55 -59 0
3 -59 0
-4 -55 60 0
55 -60 0
4 -60 0
-5 -55 61 0
55 -61 0
5 -61 0
-6 -55 62 0
55 -62 0
6 -62 0
-7 -55 63 0
55 -63 0
7 -63 0
-8 -55 64 0
55 -64 0
8 -64 0
-1 -65 66 0
65 -66 0
1 -66 0
-65 67 -95 0
65 -67 0
-67 95 0
-2 -65 68 0
65 -68 0
2 -68 0
-3 -65 69 0
65 -69 0
3 -69 0
-4 -65 70 0
65 -70 0
4 -70 0
-5 -65 71 0
65 -71 0
5 -71 0
-6 -65 72 0
65 -72 0
6 -72 0
-7 -65 73 0
65 -73 0
7 -73 0
-8 -65 74 0
65 -74 0
8 -74 0
-1 -75 76 0
75 -76 0
1 -76 0
-75 77 -95 0
75 -77 0
-77 95 0
-2 -75 78 0
75 -78 0
2 -78 0
-3 -75 79 0
75 -79 0
3 -79 0
-4 -75 80 0
75 -80 0
4 -80 0
-5 -75 81 0
75 -81 0
5 -81 0
-6 -75 82 0
75 -82 0
6 -82 0
-7 -75 83 0
75 -83 0
7 -83 0
-8 -75 84 0
75 -84 0
8 -84 0
-1 -85 86 0
85 -86 0
1 -86 0
-85 87 -95 0
85 -87 0
-87 95 0
-2 -85 88 0
85 -88 0
2 -88 0
-3 -85 89 0
85 -89 0
3 -89 0
-4 -85 90 0
85 -90 0
4 -90 0
-5 -85 91 0
85 -91 0
5 -91 0
-6 -85 92 0
85 -92 0
6 -92 0
-7 -85 93 0
85 -93 0
7 -93 0
-8 -85 94 0
85 -94 0
8 -94 0
-2 -9 97 0
2 -97 0
9 -97 0
-17 -25 104 0
17 -104 0
25 -104 0
-95 -96 105 0
95 -105 0
96 -105 0
-3 -10 100 0
3 -100 0
10 -100 0
-26 -95 102 0
95 -102 0
26 -102 0
-35 -97 118 0
35 -118 0
97 -118 0
-98 -99 119 0
98 -119 0
99 -119 0
-101 -103 108 0
101 -108 0
103 -108 0
-104 -105 110 0
104 -110 0
105 -110 0
-106 -107 121 0
106 -121 0
107 -121 0
-4 -11 112 0
4 -112 0
11 -112 0
-18 -27 114 0
18 -114 0
27 -114 0
-36 -45 116 0
36 -116 0
45 -116 0
-100 -102 141 0
100 -141 0
102 -141 0
-108 -110 142 0
108 -142 0
110 -142 0
-111 -113 143 0
111 -143 0
113 -143 0
-115 -117 124 0
115 -124 0
117 -124 0
-118 -119 126 0
118 -126 0
119 -126 0
-120 -121 128 0
120 -128 0
121 -128 0
-122 -123 130 0
122 -130 0
123 -130 0
-125 -127 131 0
125 -131 0
127 -131 0
-5 -12 133 0
5 -133 0
12 -133 0
-19 -28 135 0
19 -135 0
28 -135 0
-37 -46 137 0
37 -137 0
46 -137 0
-55 -112 139 0
55 -139 0
112 -139 0
-114 -116 178 0
114 -178 0
116 -178 0
-124 -126 145 0
124 -145 0
126 -145 0
-128 -130 147 0
128 -147 0
130 -147 0
-129 -131 149 0
131 -149 0
129 -149 0
-132 -134 151 0
132 -151 0
134 -151 0
-136 -138 153 0
136 -153 0
138 -153 0
-140 -141 155 0
140 -155 0
141 -155 0
-142 -143 157 0
142 -157 0
143 -157 0
-144 -146 159 0
144 -159 0
146 -159 0
-148 -150 161 0
148 -161 0
150 -161 0
-152 -154 163 0
152 -163 0
154 -163 0
-156 -158 165 0
156 -165 0
158 -165 0
-160 -162 166 0
160 -166 0
162 -166 0
-6 -13 168 0
6 -168 0
13 -168 0
-20 -29 170 0
20 -170 0
29 -170 0
-38 -47 172 0
38 -172 0
47 -172 0
-56 -65 174 0
56 -174 0
65 -174 0
-133 -135 176 0
133 -176 0
135 -176 0
-137 -139 225 0
137 -225 0
139 -225 0
-145 -147 226 0
145 -226 0
147 -226 0
-149 -151 180 0
149 -180 0
151 -180 0
-153 -155 182 0
153 -182 0
155 -182 0
-157 -159 184 0
157 -184 0
159 -184 0
-161 -163 186 0
161 -186 0
163 -186 0
-165 -166 188 0
165 -188 0
166 -188 0
-164 -167 190 0
164 -190 0
167 -190 0
-169 -171 192 0
169 -192 0
171 -192 0
-173 -175 194 0
173 -194 0
175 -194 0
-177 -178 233 0
177 -233 0
178 -233 0
-179 -181 198 0
179 -198 0
181 -198 0
-183 -185 200 0
183 -200 0
185 -200 0
-187 -189 202 0
187 -202 0
189 -202 0
-191 -193 204 0
191 -204 0
193 -204 0
-195 -196 206 0
195 -206 0
196 -206 0
-197 -199 208 0
197 -208 0
199 -208 0
-201 -203 210 0
201 -210 0
203 -210 0
-205 -207 211 0
205 -211 0
207 -211 0
-7 -14 213 0
7 -213 0
14 -213 0
-21 -30 215 0
21 -215 0
30 -215 0
-39 -48 217 0
39 -217 0
48 -217 0
-57 -66 219 0
57 -219 0
66 -219 0
-75 -168 221 0
75 -221 0
168 -221 0
-170 -172 223 0
170 -223 0
172 -223 0
-174 -176 290 0
174 -290 0
176 -290 0
-180 -182 291 0
180 -291 0
182 -291 0
-184 -186 229 0
184 -229 0
186 -229 0
-188 -190 231 0
188 -231 0
190 -231 0
-192 -194 293 0
192 -293 0
194 -293 0
-198 -200 235 0
198 -235 0
200 -235 0
-202 -204 237 0
202 -237 0
204 -237 0
-206 -208 239 0
206 -239 0
208 -239 0
-210 -211 241 0
210 -241 0
211 -241 0
-209 -212 243 0
209 -243 0
212 -243 0
-214 -216 245 0
214 -245 0
216 -245 0
-218 -220 247 0
218 -247 0
220 -247 0
-222 -224 249 0
222 -249 0
224 -249 0
-225 -226 251 0
225 -251 0
226 -251 0
-227 -228 253 0
227 -253 0
228 -253 0
-230 -232 255 0
230 -255 0
232 -255 0
-233 -234 257 0
233 -257 0
234 -257 0
-236 -238 259 0
236 -259 0
238 -259 0
-240 -242 261 0
240 -261 0
242 -261 0
-244 -246 263 0
244 -263 0
246 -263 0
-248 -250 265 0
248 -265 0
250 -265 0
-252 -254 267 0
252 -267 0
254 -267 0
-256 -258 269 0
256 -269 0
258 -269 0
-260 -262 271 0
260 -271 0
262 -271 0
-264 -266 273 0
264 -273 0
266 -273 0
-268 -270 274 0
268 -274 0
270 -274 0
-8 -15 276 0
8 -276 0
15 -276 0
-22 -31 278 0
22 -278 0
31 -278 0
-40 -49 280 0
40 -280 0
49 -280 0
-58 -67 282 0
58 -282 0
67 -282 0
-76 -85 284 0
76 -284 0
85 -284 0
-213 -215 286 0
213 -286 0
215 -286 0
-217 -219 288 0
217 -288 0
219 -288 0
-221 -223 372 0
221 -372 0
223 -372 0
-229 -231 373 0
229 -373 0
231 -373 0
-235 -237 374 0
235 -374 0
237 -374 0
-239 -241 296 0
239 -296 0
241 -296 0
-243 -245 298 0
243 -298 0
245 -298 0
-247 -249 300 0
247 -300 0
249 -300 0
-251 -253 302 0
251 -302 0
253 -302 0
-255 -257 304 0
255 -304 0
257 -304 0
-259 -261 306 0
259 -306 0
261 -306 0
-263 -265 308 0
263 -308 0
265 -308 0
-267 -269 310 0
267 -310 0
269 -310 0
-271 -273 312 0
271 -312 0
273 -312 0
-272 -274 314 0
274 -314 0
272 -314 0
-275 -277 316 0
275 -316 0
277 -316 0
-279 -281 318 0
279 -318 0
281 -318 0
-283 -285 320 0
283 -320 0
285 -320 0
-287 -289 322 0
287 -322 0
289 -322 0
-290 -291 324 0
290 -324 0
291 -324 0
-292 -293 326 0
292 -326 0
293 -326 0
-294 -295 328 0
294 -328 0
295 -328 0
-297 -299 330 0
297 -330 0
299 -330 0
-301 -303 332 0
301 -332 0
303 -332 0
-305 -307 334 0
305 -334 0
307 -334 0
-309 -311 336 0
309 -336 0
311 -336 0
-313 -315 338 0
313 -338 0
315 -338 0
-317 -319 340 0
317 -340 0
319 -340 0
-321 -323 342 0
321 -342 0
323 -342 0
-325 -327 344 0
325 -344 0
327 -344 0
-329 -331 346 0
329 -346 0
331 -346 0
-333 -335 348 0
333 -348 0
335 -348 0
-337 -339 350 0
337 -350 0
339 -350 0
-341 -343 352 0
341 -352 0
343 -352 0
-345 -347 354 0
345 -354 0
347 -354 0
-349 -351 355 0
349 -355 0
351 -355 0
-16 -23 357 0
16 -357 0
23 -357 0
-32 -41 359 0
32 -359 0
41 -359 0
-50 -59 361 0
50 -361 0
59 -361 0
-68 -77 363 0
68 -363 0
77 -363 0
-86 -276 365 0
86 -365 0
276 -365 0
-278 -280 367 0
278 -367 0
280 -367 0
-282 -284 369 0
282 -369 0
284 -369 0
-286 -288 371 0
286 -371 0
288 -371 0
-296 -298 469 0
296 -469 0
298 -469 0
-300 -302 377 0
300 -377 0
302 -377 0
-304 -306 379 0
304 -379 0
306 -379 0
-308 -310 381 0
308 -381 0
310 -381 0
-312 -314 383 0
312 -383 0
314 -383 0
-316 -318 385 0
316 -385 0
318 -385 0
-320 -322 387 0
320 -387 0
322 -387 0
-324 -326 389 0
324 -389 0
326 -389 0
-328 -330 391 0
328 -391 0
330 -391 0
-332 -334 393 0
332 -393 0
334 -393 0
-336 -338 395 0
336 -395 0
338 -395 0
-340 -342 397 0
340 -397 0
342 -397 0
-344 -346 399 0
344 -399 0
346 -399 0
-348 -350 401 0
348 -401 0
350 -401 0
-352 -354 403 0
352 -403 0
354 -403 0
-353 -355 405 0
355 -405 0
353 -405 0
-356 -358 407 0
356 -407 0
358 -407 0
-360 -362 409 0
360 -409 0
362 -409 0
-364 -366 411 0
364 -411 0
366 -411 0
-368 -370 413 0
368 -413 0
370 -413 0
-372 -373 415 0
372 -415 0
373 -415 0
-374 -375 417 0
374 -417 0
375 -417 0
-376 -378 419 0
376 -419 0
378 -419 0
-380 -382 421 0
380 -421 0
382 -421 0
-384 -386 423 0
384 -423 0
386 -423 0
-388 -390 425 0
388 -425 0
390 -425 0
-392 -394 427 0
392 -427 0
394 -427 0
-396 -398 429 0
396 -429 0
398 -429 0
-400 -402 431 0
400 -431 0
402 -431 0
-404 -406 433 0
404 -433 0
406 -433 0
-408 -410 435 0
408 -435 0
410 -435 0
-412 -414 437 0
412 -437 0
414 -437 0
-416 -418 439 0
416 -439 0
418 -439 0
-420 -422 441 0
420 -441 0
422 -441 0
-424 -426 443 0
424 -443 0
426 -443 0
-428 -430 445 0
428 -445 0
430 -445 0
-432 -434 447 0
432 -447 0
434 -447 0
-436 -438 449 0
436 -449 0
438 -449 0
-440 -442 451 0
440 -451 0
442 -451 0
-444 -446 453 0
444 -453 0
446 -453 0
-448 -450 454 0
448 -454 0
450 -454 0
-24 -33 456 0
24 -456 0
33 -456 0
-42 -51 458 0
42 -458 0
51 -458 0
-60 -69 460 0
60 -460 0
69 -460 0
-78 -87 462 0
78 -462 0
87 -462 0
-357 -359 464 0
357 -464 0
359 -464 0
-361 -363 466 0
361 -466 0
363 -466 0
-365 -367 468 0
365 -468 0
367 -468 0
-369 -371 577 0
369 -577 0
371 -577 0
-377 -379 578 0
377 -578 0
379 -578 0
-381 -383 472 0
381 -472 0
383 -472 0
-385 -387 474 0
385 -474 0
387 -474 0
-389 -391 476 0
389 -476 0
391 -476 0
-393 -395 478 0
393 -478 0
395 -478 0
-397 -399 480 0
397 -480 0
399 -480 0
-401 -403 482 0
401 -482 0
403 -482 0
-405 -407 484 0
405 -484 0
407 -484 0
-409 -411 486 0
409 -486 0
411 -486 0
-413 -415 488 0
413 -488 0
415 -488 0
-417 -419 490 0
417 -490 0
419 -490 0
-421 -423 492 0
421 -492 0
423 -492 0
-425 -427 494 0
425 -494 0
427 -494 0
-429 -431 496 0
429 -496 0
431 -496 0
-433 -435 498 0
433 -498 0
435 -498 0
-437 -439 500 0
437 -500 0
439 -500 0
-441 -443 502 0
441 -502 0
443 -502 0
-445 -447 504 0
445 -504 0
447 -504 0
-449 -451 506 0
449 -506 0
451 -506 0
-453 -454 508 0
453 -508 0
454 -508 0
-452 -455 510 0
452 -510 0
455 -510 0
-457 -459 512 0
457 -512 0
459 -512 0
-461 -463 514 0
461 -514 0
463 -514 0
-465 -467 600 0
465 -600 0
467 -600 0
-469 -470 518 0
469 -518 0
470 -518 0
-471 -473 520 0
471 -520 0
473 -520 0
-475 -477 522 0
475 -522 0
477 -522 0
-479 -481 524 0
479 -524 0
481 -524 0
-483 -485 526 0
483 -526 0
485 -526 0
-487 -489 528 0
487 -528 0
489 -528 0
-491 -493 530 0
491 -530 0
493 -530 0
-495 -497 532 0
495 -532 0
497 -532 0
-499 -501 534 0
499 -534 0
501 -534 0
-503 -505 536 0
503 -536 0
505 -536 0
-507 -509 538 0
507 -538 0
509 -538 0
-511 -513 540 0
511 -540 0
513 -540 0
-515 -516 542 0
515 -542 0
516 -542 0
-517 -519 544 0
517 -544 0
519 -544 0
-521 -523 546 0
521 -546 0
523 -546 0
-525 -527 548 0
525 -548 0
527 -548 0
-529 -531 550 0
529 -550 0
531 -550 0
-533 -535 552 0
533 -552 0
535 -552 0
-537 -539 554 0
537 -554 0
539 -554 0
-541 -543 556 0
541 -556 0
543 -556 0
-545 -547 558 0
545 -558 0
547 -558 0
-549 -551 560 0
549 -560 0
551 -560 0
-553 -555 562 0
553 -562 0
555 -562 0
-557 -559 563 0
557 -563 0
559 -563 0
-34 -43 565 0
34 -565 0
43 -565 0
-52 -61 567 0
52 -567 0
61 -567 0
-70 -79 569 0
70 -569 0
79 -569 0
-88 -456 571 0
88 -571 0
456 -571 0
-458 -460 573 0
458 -573 0
460 -573 0
-462 -464 575 0
462 -575 0
464 -575 0
-466 -468 697 0
466 -697 0
468 -697 0
-472 -474 698 0
472 -698 0
474 -698 0
-476 -478 581 0
476 -581 0
478 -581 0
-480 -482 583 0
480 -583 0
482 -583 0
-484 -486 585 0
484 -585 0
486 -585 0
-488 -490 587 0
488 -587 0
490 -587 0
-492 -494 589 0
492 -589 0
494 -589 0
-496 -498 591 0
496 -591 0
498 -591 0
-500 -502 593 0
500 -593 0
502 -593 0
-504 -506 595 0
504 -595 0
506 -595 0
-508 -510 597 0
508 -597 0
510 -597 0
-512 -514 599 0
512 -599 0
514 -599 0
-518 -520 708 0
518 -708 0
520 -708 0
-522 -524 603 0
522 -603 0
524 -603 0
-526 -528 605 0
526 -605 0
528 -605 0
-530 -532 607 0
530 -607 0
532 -607 0
-534 -536 609 0
534 -609 0
536 -609 0
-538 -540 611 0
538 -611 0
540 -611 0
-542 -544 613 0
542 -613 0
544 -613 0
-546 -548 615 0
546 -615 0
548 -615 0
-550 -552 617 0
550 -617 0
552 -617 0
-554 -556 619 0
554 -619 0
556 -619 0
-558 -560 621 0
558 -621 0
560 -621 0
-562 -563 623 0
562 -623 0
563 -623 0
-561 -564 625 0
561 -625 0
564 -625 0
-566 -568 627 0
566 -627 0
568 -627 0
-570 -572 629 0
570 -629 0
572 -629 0
-574 -576 631 0
574 -631 0
576 -631 0
-577 -578 633 0
577 -633 0
578 -633 0
-579 -580 635 0
579 -635 0
580 -635 0
-582 -584 637 0
582 -637 0
584 -637 0
-586 -588 639 0
586 -639 0
588 -639 0
-590 -592 641 0
590 -641 0
592 -641 0
-594 -596 643 0
594 -643 0
596 -643 0
-598 -600 645 0
598 -645 0
600 -645 0
-601 -602 647 0
601 -647 0
602 -647 0
-604 -606 649 0
604 -649 0
606 -649 0
-608 -610 651 0
608 -651 0
610 -651 0
-612 -614 653 0
612 -653 0
614 -653 0
-616 -618 655 0
616 -655 0
618 -655 0
-620 -622 657 0
620 -657 0
622 -657 0
-624 -626 659 0
624 -659 0
626 -659 0
-628 -630 661 0
628 -661 0
630 -661 0
-632 -634 663 0
632 -663 0
634 -663 0
-636 -638 665 0
636 -665 0
638 -665 0
-640 -642 667 0
640 -667 0
642 -667 0
-644 -646 669 0
644 -669 0
646 -669 0
-648 -650 671 0
648 -671 0
650 -671 0
-652 -654 673 0
652 -673 0
654 -673 0
-656 -658 675 0
656 -675 0
658 -675 0
-660 -662 677 0
660 -677 0
662 -677 0
-664 -666 679 0
664 -679 0
666 -679 0
-668 -670 681 0
668 -681 0
670 -681 0
-672 -674 683 0
672 -683 0
674 -683 0
-676 -678 685 0
676 -685 0
678 -685 0
-680 -682 750 0
680 -750 0
682 -750 0
-44 -53 687 0
44 -687 0
53 -687 0
-62 -71 689 0
62 -689 0
71 -689 0
-80 -89 691 0
80 -691 0
89 -691 0
-565 -567 693 0
565 -693 0
567 -693 0
-569 -571 695 0
569 -695 0
571 -695 0
-573 -575 825 0
573 -825 0
575 -825 0
-581 -583 826 0
581 -826 0
583 -826 0
-585 -587 701 0
585 -701 0
587 -701 0
-589 -591 703 0
589 -703 0
591 -703 0
-593 -595 705 0
593 -705 0
595 -705 0
-597 -599 707 0
597 -707 0
599 -707 0
-603 -605 829 0
603 -829 0
605 -829 0
-607 -609 711 0
607 -711 0
609 -711 0
-611 -613 713 0
611 -713 0
613 -713 0
-615 -617 715 0
615 -715 0
617 -715 0
-619 -621 717 0
619 -717 0
621 -717 0
-623 -625 719 0
623 -719 0
625 -719 0
-627 -629 721 0
627 -721 0
629 -721 0
-631 -633 723 0
631 -723 0
633 -723 0
-635 -637 725 0
635 -725 0
637 -725 0
-639 -641 727 0
639 -727 0
641 -727 0
-643 -645 729 0
643 -729 0
645 -729 0
-647 -649 731 0
647 -731 0
649 -731 0
-651 -653 733 0
651 -733 0
653 -733 0
-655 -657 735 0
655 -735 0
657 -735 0
-659 -661 737 0
659 -737 0
661 -737 0
-663 -665 739 0
663 -739 0
665 -739 0
-667 -669 741 0
667 -741 0
669 -741 0
-671 -673 743 0
671 -743 0
673 -743 0
-675 -677 745 0
675 -745 0
677 -745 0
-679 -681 747 0
679 -747 0
681 -747 0
-683 -685 749 0
683 -749 0
685 -749 0
-686 -688 850 0
686 -850 0
688 -850 0
-690 -692 753 0
690 -753 0
692 -753 0
-694 -696 755 0
694 -755 0
696 -755 0
-697 -698 757 0
697 -757 0
698 -757 0
-699 -700 759 0
699 -759 0
700 -759 0
-702 -704 761 0
702 -761 0
704 -761 0
-706 -708 763 0
706 -763 0
708 -763 0
-709 -710 765 0
709 -765 0
710 -765 0
-712 -714 767 0
712 -767 0
714 -767 0
-716 -718 769 0
716 -769 0
718 -769 0
-720 -722 771 0
720 -771 0
722 -771 0
-724 -726 773 0
724 -773 0
726 -773 0
-728 -730 775 0
728 -775 0
730 -775 0
-732 -734 777 0
732 -777 0
734 -777 0
-736 -738 779 0
736 -779 0
738 -779 0
-740 -742 781 0
740 -781 0
742 -781 0
-744 -746 783 0
744 -783 0
746 -783 0
-748 -750 785 0
748 -785 0
750 -785 0
-751 -752 787 0
751 -787 0
752 -787 0
-754 -756 789 0
754 -789 0
756 -789 0
-758 -760 791 0
758 -791 0
760 -791 0
-762 -764 793 0
762 -793 0
764 -793 0
-766 -768 795 0
766 -795 0
768 -795 0
-770 -772 797 0
770 -797 0
772 -797 0
-774 -776 799 0
774 -799 0
776 -799 0
-778 -780 801 0
778 -801 0
780 -801 0
-782 -784 803 0
782 -803 0
784 -803 0
-786 -788 805 0
786 -805 0
788 -805 0
-790 -792 807 0
790 -807 0
792 -807 0
-794 -796 809 0
794 -809 0
796 -809 0
-798 -800 811 0
798 -811 0
800 -811 0
-802 -804 813 0
802 -813 0
804 -813 0
-806 -808 815 0
806 -815 0
808 -815 0
-810 -812 881 0
810 -881 0
812 -881 0
-54 -63 817 0
54 -817 0
63 -817 0
-72 -81 819 0
72 -819 0
81 -819 0
-90 -687 821 0
90 -821 0
687 -821 0
-689 -691 823 0
689 -823 0
691 -823 0
-693 -695 960 0
693 -960 0
695 -960 0
-701 -703 961 0
701 -961 0
703 -961 0
-705 -707 962 0
705 -962 0
707 -962 0
-711 -713 831 0
711 -831 0
713 -831 0
-715 -717 833 0
715 -833 0
717 -833 0
-719 -721 835 0
719 -835 0
721 -835 0
-723 -725 837 0
723 -837 0
725 -837 0
-727 -729 839 0
727 -839 0
729 -839 0
-731 -733 841 0
731 -841 0
733 -841 0
-735 -737 843 0
735 -843 0
737 -843 0
-739 -741 845 0
739 -845 0
741 -845 0
-743 -745 847 0
743 -847 0
745 -847 0
-747 -749 849 0
747 -849 0
749 -849 0
-753 -755 972 0
753 -972 0
755 -972 0
-757 -759 853 0
757 -853 0
759 -853 0
-761 -763 855 0
761 -855 0
763 -855 0
-765 -767 857 0
765 -857 0
767 -857 0
-769 -771 859 0
769 -859 0
771 -859 0
-773 -775 861 0
773 -861 0
775 -861 0
-777 -779 863 0
777 -863 0
779 -863 0
-781 -783 865 0
781 -865 0
783 -865 0
-785 -787 867 0
785 -867 0
787 -867 0
-789 -791 869 0
789 -869 0
791 -869 0
-793 -795 871 0
793 -871 0
795 -871 0
-797 -799 873 0
797 -873 0
799 -873 0
-801 -803 875 0
801 -875 0
803 -875 0
-805 -807 877 0
805 -877 0
807 -877 0
-809 -811 879 0
809 -879 0
811 -879 0
-813 -815 986 0
813 -986 0
815 -986 0
-816 -818 883 0
816 -883 0
818 -883 0
-820 -822 885 0
820 -885 0
822 -885 0
-824 -825 887 0
824 -887 0
825 -887 0
-826 -827 889 0
826 -889 0
827 -889 0
-828 -829 891 0
828 -891 0
829 -891 0
-830 -832 893 0
830 -893 0
832 -893 0
-834 -836 895 0
834 -895 0
836 -895 0
-838 -840 897 0
838 -897 0
840 -897 0
-842 -844 899 0
842 -899 0
844 -899 0
-846 -848 901 0
846 -901 0
848 -901 0
-850 -851 903 0
850 -903 0
851 -903 0
-852 -854 905 0
852 -905 0
854 -905 0
-856 -858 907 0
856 -907 0
858 -907 0
-860 -862 909 0
860 -909 0
862 -909 0
-864 -866 911 0
864 -911 0
866 -911 0
-868 -870 913 0
868 -913 0
870 -913 0
-872 -874 915 0
872 -915 0
874 -915 0
-876 -878 917 0
876 -917 0
878 -917 0
-880 -881 919 0
880 -919 0
881 -919 0
-882 -884 921 0
882 -921 0
884 -921 0
-886 -888 923 0
886 -923 0
888 -923 0
-890 -892 925 0
890 -925 0
892 -925 0
-894 -896 927 0
894 -927 0
896 -927 0
-898 -900 929 0
898 -929 0
900 -929 0
-902 -904 931 0
902 -931 0
904 -931 0
-906 -908 933 0
906 -933 0
908 -933 0
-910 -912 935 0
910 -935 0
912 -935 0
-914 -916 937 0
914 -937 0
916 -937 0
-918 -920 939 0
918 -939 0
920 -939 0
-922 -924 941 0
922 -941 0
924 -941 0
-926 -928 943 0
926 -943 0
928 -943 0
-930 -932 945 0
930 -945 0
932 -945 0
-934 -936 947 0
934 -947 0
936 -947 0
-938 -940 949 0
938 -949 0
940 -949 0
-942 -944 951 0
942 -951 0
944 -951 0
-946 -948 952 0
946 -952 0
948 -952 0
-64 -73 954 0
64 -954 0
73 -954 0
-82 -91 956 0
82 -956 0
91 -956 0
-817 -819 958 0
817 -958 0
819 -958 0
-821 -823 1103 0
821 -1103 0
823 -1103 0
-831 -833 964 0
831 -964 0
833 -964 0
-835 -837 966 0
835 -966 0
837 -966 0
-839 -841 968 0
839 -968 0
841 -968 0
-843 -845 970 0
843 -970 0
845 -970 0
-847 -849 1106 0
847 -1106 0
849 -1106 0
-853 -855 974 0
853 -974 0
855 -974 0
-857 -859 976 0
857 -976 0
859 -976 0
-861 -863 978 0
861 -978 0
863 -978 0
-865 -867 980 0
865 -980 0
867 -980 0
-869 -871 982 0
869 -982 0
871 -982 0
-873 -875 984 0
873 -984 0
875 -984 0
-877 -879 1112 0
877 -1112 0
879 -1112 0
-883 -885 988 0
883 -988 0
885 -988 0
-887 -889 990 0
887 -990 0
889 -990 0
-891 -893 992 0
891 -992 0
893 -992 0
-895 -897 994 0
895 -994 0
897 -994 0
-899 -901 996 0
899 -996 0
901 -996 0
-903 -905 998 0
903 -998 0
905 -998 0
-907 -909 1000 0
907 -1000 0
909 -1000 0
-911 -913 1002 0
911 -1002 0
913 -1002 0
-915 -917 1004 0
915 -1004 0
917 -1004 0
-919 -921 1006 0
919 -1006 0
921 -1006 0
-923 -925 1008 0
923 -1008 0
925 -1008 0
-927 -929 1010 0
927 -1010 0
929 -1010 0
-931 -933 1012 0
931 -1012 0
933 -1012 0
-935 -937 1014 0
935 -1014 0
937 -1014 0
-939 -941 1016 0
939 -1016 0
941 -1016 0
-943 -945 1018 0
943 -1018 0
945 -1018 0
-947 -949 1020 0
947 -1020 0
949 -1020 0
-951 -952 1022 0
951 -1022 0
952 -1022 0
-950 -953 1024 0
950 -1024 0
953 -1024 0
-955 -957 1026 0
955 -1026 0
957 -1026 0
-959 -960 1028 0
959 -1028 0
960 -1028 0
-961 -962 1030 0
961 -1030 0
962 -1030 0
-963 -965 1032 0
963 -1032 0
965 -1032 0
-967 -969 1034 0
967 -1034 0
969 -1034 0
-971 -972 1036 0
971 -1036 0
972 -1036 0
-973 -975 1038 0
973 -1038 0
975 -1038 0
-977 -979 1040 0
977 -1040 0
979 -1040 0
-981 -983 1042 0
981 -1042 0
983 -1042 0
-985 -986 1044 0
985 -1044 0
986 -1044 0
-987 -989 1046 0
987 -1046 0
989 -1046 0
-991 -993 1048 0
991 -1048 0
993 -1048 0
-995 -997 1050 0
995 -1050 0
997 -1050 0
-999 -1001 1052 0
999 -1052 0
1001 -1052 0
-1003 -1005 1054 0
1003 -1054 0
1005 -1054 0
-1007 -1009 1056 0
1007 -1056 0
1009 -1056 0
-1011 -1013 1058 0
1011 -1058 0
1013 -1058 0
-1015 -1017 1060 0
1015 -1060 0
1017 -1060 0
-1019 -1021 1062 0
1019 -1062 0
1021 -1062 0
-1023 -1025 1064 0
1023 -1064 0
1025 -1064 0
-1027 -1029 1066 0
1027 -1066 0
1029 -1066 0
-1031 -1033 1068 0
1031 -1068 0
1033 -1068 0
-1035 -1037 1070 0
1035 -1070 0
1037 -1070 0
-1039 -1041 1072 0
1039 -1072 0
1041 -1072 0
-1043 -1045 1074 0
1043 -1074 0
1045 -1074 0
-1047 -1049 1076 0
1047 -1076 0
1049 -1076 0
-1051 -1053 1078 0
1051 -1078 0
1053 -1078 0
-1055 -1057 1080 0
1055 -1080 0
1057 -1080 0
-1059 -1061 1082 0
1059 -1082 0
1061 -1082 0
-1063 -1065 1084 0
1063 -1084 0
1065 -1084 0
-1067 -1069 1086 0
1067 -1086 0
1069 -1086 0
-1071 -1073 1088 0
1071 -1088 0
1073 -1088 0
-1075 -1077 1090 0
1075 -1090 0
1077 -1090 0
-1079 -1081 1092 0
1079 -1092 0
1081 -1092 0
-1083 -1085 1094 0
1083 -1094 0
1085 -1094 0
-1087 -1089 1096 0
1087 -1096 0
1089 -1096 0
-1091 -1093 1097 0
1091 -1097 0
1093 -1097 0
-74 -83 1099 0
74 -1099 0
83 -1099 0
-92 -954 1101 0
92 -1101 0
954 -1101 0
-956 -958 1246 0
956 -1246 0
958 -1246 0
-964 -966 1247 0
964 -1247 0
966 -1247 0
-968 -970 1248 0
968 -1248 0
970 -1248 0
-974 -976 1108 0
974 -1108 0
976 -1108 0
-978 -980 1110 0
978 -1110 0
980 -1110 0
-982 -984 1250 0
982 -1250 0
984 -1250 0
-988 -990 1114 0
988 -1114 0
990 -1114 0
-992 -994 1116 0
992 -1116 0
994 -1116 0
-996 -998 1118 0
996 -1118 0
998 -1118 0
-1000 -1002 1120 0
1000 -1120 0
1002 -1120 0
-1004 -1006 1122 0
1004 -1122 0
1006 -1122 0
-1008 -1010 1124 0
1008 -1124 0
1010 -1124 0
-1012 -1014 1126 0
1012 -1126 0
1014 -1126 0
-1016 -1018 1128 0
1016 -1128 0
1018 -1128 0
-1020 -1022 1130 0
1020 -1130 0
1022 -1130 0
-1024 -1026 1132 0
1024 -1132 0
1026 -1132 0
-1028 -1030 1134 0
1028 -1134 0
1030 -1134 0
-1032 -1034 1136 0
1032 -1136 0
1034 -1136 0
-1036 -1038 1138 0
1036 -1138 0
1038 -1138 0
-1040 -1042 1140 0
1040 -1140 0
1042 -1140 0
-1044 -1046 1142 0
1044 -1142 0
1046 -1142 0
-1048 -1050 1144 0
1048 -1144 0
1050 -1144 0
-1052 -1054 1146 0
1052 -1146 0
1054 -1146 0
-1056 -1058 1148 0
1056 -1148 0
1058 -1148 0
-1060 -1062 1150 0
1060 -1150 0
1062 -1150 0
-1064 -1066 1152 0
1064 -1152 0
1066 -1152 0
-1068 -1070 1154 0
1068 -1154 0
1070 -1154 0
-1072 -1074 1156 0
1072 -1156 0
1074 -1156 0
-1076 -1078 1158 0
1076 -1158 0
1078 -1158 0
-1080 -1082 1160 0
1080 -1160 0
1082 -1160 0
-1084 -1086 1162 0
1084 -1162 0
1086 -1162 0
-1088 -1090 1164 0
1088 -1164 0
1090 -1164 0
-1092 -1094 1166 0
1092 -1166 0
1094 -1166 0
-1096 -1097 1168 0
1096 -1168 0
1097 -1168 0
-1095 -1098 1170 0
1095 -1170 0
1098 -1170 0
-1100 -1102 1172 0
1100 -1172 0
1102 -1172 0
-1104 -1105 1280 0
1104 -1280 0
1105 -1280 0
-1106 -1107 1175 0
1106 -1175 0
1107 -1175 0
-1109 -1111 1177 0
1109 -1177 0
1111 -1177 0
-1112 -1113 1179 0
1112 -1179 0
1113 -1179 0
-1115 -1117 1181 0
1115 -1181 0
1117 -1181 0
-1119 -1121 1183 0
1119 -1183 0
1121 -1183 0
-1123 -1125 1185 0
1123 -1185 0
1125 -1185 0
-1127 -1129 1187 0
1127 -1187 0
1129 -1187 0
-1131 -1133 1189 0
1131 -1189 0
1133 -1189 0
-1135 -1137 1191 0
1135 -1191 0
1137 -1191 0
-1139 -1141 1193 0
1139 -1193 0
1141 -1193 0
-1143 -1145 1195 0
1143 -1195 0
1145 -1195 0
-1147 -1149 1197 0
1147 -1197 0
1149 -1197 0
-1151 -1153 1199 0
1151 -1199 0
1153 -1199 0
-1155 -1157 1201 0
1155 -1201 0
1157 -1201 0
-1159 -1161 1203 0
1159 -1203 0
1161 -1203 0
-1163 -1165 1205 0
1163 -1205 0
1165 -1205 0
-1167 -1169 1207 0
1167 -1207 0
1169 -1207 0
-1103 -1171 1209 0
1171 -1209 0
1103 -1209 0
-1173 -1174 1211 0
1173 -1211 0
1174 -1211 0
-1176 -1178 1213 0
1176 -1213 0
1178 -1213 0
-1180 -1182 1215 0
1180 -1215 0
1182 -1215 0
-1184 -1186 1217 0
1184 -1217 0
1186 -1217 0
-1188 -1190 1219 0
1188 -1219 0
1190 -1219 0
-1192 -1194 1221 0
1192 -1221 0
1194 -1221 0
-1196 -1198 1223 0
1196 -1223 0
1198 -1223 0
-1200 -1202 1225 0
1200 -1225 0
1202 -1225 0
-1204 -1206 1227 0
1204 -1227 0
1206 -1227 0
-1208 -1210 1229 0
1208 -1229 0
1210 -1229 0
-1212 -1214 1231 0
1212 -1231 0
1214 -1231 0
-1216 -1218 1233 0
1216 -1233 0
1218 -1233 0
-1220 -1222 1235 0
1220 -1235 0
1222 -1235 0
-1224 -1226 1237 0
1224 -1237 0
1226 -1237 0
-1228 -1230 1239 0
1228 -1239 0
1230 -1239 0
-1232 -1234 1241 0
1232 -1241 0
1234 -1241 0
-1236 -1238 1242 0
1236 -1242 0
1238 -1242 0
-84 -93 1244 0
84 -1244 0
93 -1244 0
-1099 -1101 1394 0
1099 -1394 0
1101 -1394 0
-1108 -1110 1395 0
1108 -1395 0
1110 -1395 0
-1114 -1116 1252 0
1114 -1252 0
1116 -1252 0
-1118 -1120 1254 0
1118 -1254 0
1120 -1254 0
-1122 -1124 1256 0
1122 -1256 0
1124 -1256 0
-1126 -1128 1258 0
1126 -1258 0
1128 -1258 0
-1130 -1132 1260 0
1130 -1260 0
1132 -1260 0
-1134 -1136 1262 0
1134 -1262 0
1136 -1262 0
-1138 -1140 1264 0
1138 -1264 0
1140 -1264 0
-1142 -1144 1266 0
1142 -1266 0
1144 -1266 0
-1146 -1148 1268 0
1146 -1268 0
1148 -1268 0
-1150 -1152 1270 0
1150 -1270 0
1152 -1270 0
-1154 -1156 1272 0
1154 -1272 0
1156 -1272 0
-1158 -1160 1274 0
1158 -1274 0
1160 -1274 0
-1162 -1164 1276 0
1162 -1276 0
1164 -1276 0
-1166 -1168 1278 0
1166 -1278 0
1168 -1278 0
-1170 -1172 1409 0
1170 -1409 0
1172 -1409 0
-1175 -1177 1282 0
1175 -1282 0
1177 -1282 0
-1179 -1181 1284 0
1179 -1284 0
1181 -1284 0
-1183 -1185 1286 0
1183 -1286 0
1185 -1286 0
-1187 -1189 1288 0
1187 -1288 0
1189 -1288 0
-1191 -1193 1290 0
1191 -1290 0
1193 -1290 0
-1195 -1197 1292 0
1195 -1292 0
1197 -1292 0
-1199 -1201 1294 0
1199 -1294 0
1201 -1294 0
-1203 -1205 1296 0
1203 -1296 0
1205 -1296 0
-1207 -1209 1298 0
1207 -1298 0
1209 -1298 0
-1211 -1213 1300 0
1211 -1300 0
1213 -1300 0
-1215 -1217 1302 0
1215 -1302 0
1217 -1302 0
-1219 -1221 1304 0
1219 -1304 0
1221 -1304 0
-1223 -1225 1306 0
1223 -1306 0
1225 -1306 0
-1227 -1229 1308 0
1227 -1308 0
1229 -1308 0
-1231 -1233 1310 0
1231 -1310 0
1233 -1310 0
-1235 -1237 1312 0
1235 -1312 0
1237 -1312 0
-1239 -1241 1314 0
1239 -1314 0
1241 -1314 0
-1240 -1242 1316 0
1242 -1316 0
1240 -1316 0
-1243 -1245 1318 0
1243 -1318 0
1245 -1318 0
-1246 -1247 1320 0
1246 -1320 0
1247 -1320 0
-1248 -1249 1322 0
1248 -1322 0
1249 -1322 0
-1250 -1251 1324 0
1250 -1324 0
1251 -1324 0
-1253 -1255 1326 0
1253 -1326 0
1255 -1326 0
-1257 -1259 1328 0
1257 -1328 0
1259 -1328 0
-1261 -1263 1330 0
1261 -1330 0
1263 -1330 0
-1265 -1267 1332 0
1265 -1332 0
1267 -1332 0
-1269 -1271 1334 0
1269 -1334 0
1271 -1334 0
-1273 -1275 1336 0
1273 -1336 0
1275 -1336 0
-1277 -1279 1338 0
1277 -1338 0
1279 -1338 0
-1280 -1281 1340 0
1280 -1340 0
1281 -1340 0
-1283 -1285 1342 0
1283 -1342 0
1285 -1342 0
-1287 -1289 1344 0
1287 -1344 0
1289 -1344 0
-1291 -1293 1346 0
1291 -1346 0
1293 -1346 0
-1295 -1297 1348 0
1295 -1348 0
1297 -1348 0
-1299 -1301 1350 0
1299 -1350 0
1301 -1350 0
-1303 -1305 1352 0
1303 -1352 0
1305 -1352 0
-1307 -1309 1354 0
1307 -1354 0
1309 -1354 0
-1311 -1313 1356 0
1311 -1356 0
1313 -1356 0
-1315 -1317 1358 0
1315 -1358 0
1317 -1358 0
-1319 -1321 1360 0
1319 -1360 0
1321 -1360 0
-1323 -1325 1362 0
1323 -1362 0
1325 -1362 0
-1327 -1329 1364 0
1327 -1364 0
1329 -1364 0
-1331 -1333 1366 0
1331 -1366 0
1333 -1366 0
-1335 -1337 1368 0
1335 -1368 0
1337 -1368 0
-1339 -1341 1370 0
1339 -1370 0
1341 -1370 0
-1343 -1345 1372 0
1343 -1372 0
1345 -1372 0
-1347 -1349 1374 0
1347 -1374 0
1349 -1374 0
-1351 -1353 1376 0
1351 -1376 0
1353 -1376 0
-1355 -1357 1378 0
1355 -1378 0
1357 -1378 0
-1359 -1361 1380 0
1359 -1380 0
1361 -1380 0
-1363 -1365 1382 0
1363 -1382 0
1365 -1382 0
-1367 -1369 1384 0
1367 -1384 0
1369 -1384 0
-1371 -1373 1386 0
1371 -1386 0
1373 -1386 0
-1375 -1377 1388 0
1375 -1388 0
1377 -1388 0
-1379 -1381 1390 0
1379 -1390 0
1381 -1390 0
-1383 -1385 1392 0
1383 -1392 0
1385 -1392 0
-1387 -1389 1466 0
1387 -1466 0
1389 -1466 0
-94 -1244 1540 0
94 -1540 0
1244 -1540 0
-1252 -1254 1397 0
1252 -1397 0
1254 -1397 0
-1256 -1258 1399 0
1256 -1399 0
1258 -1399 0
-1260 -1262 1401 0
1260 -1401 0
1262 -1401 0
-1264 -1266 1403 0
1264 -1403 0
1266 -1403 0
-1268 -1270 1405 0
1268 -1405 0
1270 -1405 0
-1272 -1274 1407 0
1272 -1407 0
1274 -1407 0
-1276 -1278 1545 0
1276 -1545 0
1278 -1545 0
-1282 -1284 1411 0
1282 -1411 0
1284 -1411 0
-1286 -1288 1413 0
1286 -1413 0
1288 -1413 0
-1290 -1292 1415 0
1290 -1415 0
1292 -1415 0
-1294 -1296 1417 0
1294 -1417 0
1296 -1417 0
-1298 -1300 1419 0
1298 -1419 0
1300 -1419 0
-1302 -1304 1421 0
1302 -1421 0
1304 -1421 0
-1306 -1308 1423 0
1306 -1423 0
1308 -1423 0
-1310 -1312 1425 0
1310 -1425 0
1312 -1425 0
-1314 -1316 1427 0
1314 -1427 0
1316 -1427 0
-1318 -1320 1429 0
1318 -1429 0
1320 -1429 0
-1322 -1324 1431 0
1322 -1431 0
1324 -1431 0
-1326 -1328 1433 0
1326 -1433 0
1328 -1433 0
-1330 -1332 1435 0
1330 -1435 0
1332 -1435 0
-1334 -1336 1437 0
1334 -1437 0
1336 -1437 0
-1338 -1340 1439 0
1338 -1439 0
1340 -1439 0
-1342 -1344 1441 0
1342 -1441 0
1344 -1441 0
-1346 -1348 1443 0
1346 -1443 0
1348 -1443 0
-1350 -1352 1445 0
1350 -1445 0
1352 -1445 0
-1354 -1356 1447 0
1354 -1447 0
1356 -1447 0
-1358 -1360 1449 0
1358 -1449 0
1360 -1449 0
-1362 -1364 1451 0
1362 -1451 0
1364 -1451 0
-1366 -1368 1453 0
1366 -1453 0
1368 -1453 0
-1370 -1372 1455 0
1370 -1455 0
1372 -1455 0
-1374 -1376 1457 0
1374 -1457 0
1376 -1457 0
-1378 -1380 1459 0
1378 -1459 0
1380 -1459 0
-1382 -1384 1461 0
1382 -1461 0
1384 -1461 0
-1386 -1388 1463 0
1386 -1463 0
1388 -1463 0
-1390 -1392 1465 0
1390 -1465 0
1392 -1465 0
-1393 -1394 1574 0
1393 -1574 0
1394 -1574 0
-1396 -1398 1575 0
1396 -1575 0
1398 -1575 0
-1400 -1402 1470 0
1400 -1470 0
1402 -1470 0
-1404 -1406 1472 0
1404 -1472 0
1406 -1472 0
-1408 -1409 1474 0
1408 -1474 0
1409 -1474 0
-1410 -1412 1476 0
1410 -1476 0
1412 -1476 0
-1414 -1416 1478 0
1414 -1478 0
1416 -1478 0
-1418 -1420 1480 0
1418 -1480 0
1420 -1480 0
-1422 -1424 1482 0
1422 -1482 0
1424 -1482 0
-1426 -1428 1484 0
1426 -1484 0
1428 -1484 0
-1430 -1432 1486 0
1430 -1486 0
1432 -1486 0
-1434 -1436 1488 0
1434 -1488 0
1436 -1488 0
-1438 -1440 1490 0
1438 -1490 0
1440 -1490 0
-1442 -1444 1492 0
1442 -1492 0
1444 -1492 0
-1446 -1448 1494 0
1446 -1494 0
1448 -1494 0
-1450 -1452 1496 0
1450 -1496 0
1452 -1496 0
-1454 -1456 1498 0
1454 -1498 0
1456 -1498 0
-1458 -1460 1500 0
1458 -1500 0
1460 -1500 0
-1462 -1464 1502 0
1462 -1502 0
1464 -1502 0
-1466 -1467 1504 0
1466 -1504 0
1467 -1504 0
-1395 -1468 1506 0
1395 -1506 0
1468 -1506 0
-1469 -1471 1508 0
1469 -1508 0
1471 -1508 0
-1473 -1475 1510 0
1473 -1510 0
1475 -1510 0
-1477 -1479 1512 0
1477 -1512 0
1479 -1512 0
-1481 -1483 1514 0
1481 -1514 0
1483 -1514 0
-1485 -1487 1516 0
1485 -1516 0
1487 -1516 0
-1489 -1491 1518 0
1489 -1518 0
1491 -1518 0
-1493 -1495 1520 0
1493 -1520 0
1495 -1520 0
-1497 -1499 1522 0
1497 -1522 0
1499 -1522 0
-1501 -1503 1524 0
1501 -1524 0
1503 -1524 0
-1505 -1507 1526 0
1505 -1526 0
1507 -1526 0
-1509 -1511 1528 0
1509 -1528 0
1511 -1528 0
-1513 -1515 1530 0
1513 -1530 0
1515 -1530 0
-1517 -1519 1532 0
1517 -1532 0
1519 -1532 0
-1521 -1523 1534 0
1521 -1534 0
1523 -1534 0
-1525 -1527 1536 0
1525 -1536 0
1527 -1536 0
-1529 -1531 1538 0
1529 -1538 0
1531 -1538 0
-1533 -1535 1539 0
1533 -1539 0
1535 -1539 0
-1397 -1399 1541 0
1397 -1541 0
1399 -1541 0
-1401 -1403 1543 0
1401 -1543 0
1403 -1543 0
-1405 -1407 1686 0
1405 -1686 0
1407 -1686 0
-1411 -1413 1547 0
1411 -1547 0
1413 -1547 0
-1415 -1417 1549 0
1415 -1549 0
1417 -1549 0
-1419 -1421 1551 0
1419 -1551 0
1421 -1551 0
-1423 -1425 1553 0
1423 -1553 0
1425 -1553 0
-1427 -1429 1555 0
1427 -1555 0
1429 -1555 0
-1431 -1433 1557 0
1431 -1557 0
1433 -1557 0
-1435 -1437 1559 0
1435 -1559 0
1437 -1559 0
-1439 -1441 1561 0
1439 -1561 0
1441 -1561 0
-1443 -1445 1563 0
1443 -1563 0
1445 -1563 0
-1447 -1449 1565 0
1447 -1565 0
1449 -1565 0
-1451 -1453 1567 0
1451 -1567 0
1453 -1567 0
-1455 -1457 1569 0
1455 -1569 0
1457 -1569 0
-1459 -1461 1571 0
1459 -1571 0
1461 -1571 0
-1463 -1465 1573 0
1463 -1573 0
1465 -1573 0
-1470 -1472 1577 0
1470 -1577 0
1472 -1577 0
-1474 -1476 1579 0
1474 -1579 0
1476 -1579 0
-1478 -1480 1581 0
1478 -1581 0
1480 -1581 0
-1482 -1484 1583 0
1482 -1583 0
1484 -1583 0
-1486 -1488 1585 0
1486 -1585 0
1488 -1585 0
-1490 -1492 1587 0
1490 -1587 0
1492 -1587 0
-1494 -1496 1589 0
1494 -1589 0
1496 -1589 0
-1498 -1500 1591 0
1498 -1591 0
1500 -1591 0
-1502 -1504 1593 0
1502 -1593 0
1504 -1593 0
-1506 -1508 1595 0
1506 -1595 0
1508 -1595 0
-1510 -1512 1597 0
1510 -1597 0
1512 -1597 0
-1514 -1516 1599 0
1514 -1599 0
1516 -1599 0
-1518 -1520 1601 0
1518 -1601 0
1520 -1601 0
-1522 -1524 1603 0
1522 -1603 0
1524 -1603 0
-1526 -1528 1605 0
1526 -1605 0
1528 -1605 0
-1530 -1532 1607 0
1530 -1607 0
1532 -1607 0
-1534 -1536 1609 0
1534 -1609 0
1536 -1609 0
-1538 -1539 1611 0
1538 -1611 0
1539 -1611 0
-1542 -1544 1614 0
1542 -1614 0
1544 -1614 0
-1545 -1546 1616 0
1545 -1616 0
1546 -1616 0
-1548 -1550 1618 0
1548 -1618 0
1550 -1618 0
-1552 -1554 1620 0
1552 -1620 0
1554 -1620 0
-1556 -1558 1622 0
1556 -1622 0
1558 -1622 0
-1560 -1562 1624 0
1560 -1624 0
1562 -1624 0
-1564 -1566 1626 0
1564 -1626 0
1566 -1626 0
-1568 -1570 1628 0
1568 -1628 0
1570 -1628 0
-1572 -1574 1630 0
1572 -1630 0
1574 -1630 0
-1575 -1576 1632 0
1575 -1632 0
1576 -1632 0
-1578 -1580 1634 0
1578 -1634 0
1580 -1634 0
-1582 -1584 1636 0
1582 -1636 0
1584 -1636 0
-1586 -1588 1638 0
1586 -1638 0
1588 -1638 0
-1590 -1592 1640 0
1590 -1640 0
1592 -1640 0
-1594 -1596 1642 0
1594 -1642 0
1596 -1642 0
-1598 -1600 1644 0
1598 -1644 0
1600 -1644 0
-1602 -1604 1646 0
1602 -1646 0
1604 -1646 0
-1606 -1608 1648 0
1606 -1648 0
1608 -1648 0
-1540 -1610 1650 0
1610 -1650 0
1540 -1650 0
-1612 -1613 1652 0
1612 -1652 0
1613 -1652 0
-1615 -1617 1654 0
1615 -1654 0
1617 -1654 0
-1619 -1621 1656 0
1619 -1656 0
1621 -1656 0
-1623 -1625 1658 0
1623 -1658 0
1625 -1658 0
-1627 -1629 1660 0
1627 -1660 0
1629 -1660 0
-1631 -1633 1662 0
1631 -1662 0
1633 -1662 0
-1635 -1637 1664 0
1635 -1664 0
1637 -1664 0
-1639 -1641 1666 0
1639 -1666 0
1641 -1666 0
-1643 -1645 1668 0
1643 -1668 0
1645 -1668 0
-1647 -1649 1670 0
1647 -1670 0
1649 -1670 0
-1651 -1653 1672 0
1651 -1672 0
1653 -1672 0
-1655 -1657 1674 0
1655 -1674 0
1657 -1674 0
-1659 -1661 1676 0
1659 -1676 0
1661 -1676 0
-1663 -1665 1678 0
1663 -1678 0
1665 -1678 0
-1667 -1669 1680 0
1667 -1680 0
1669 -1680 0
-1671 -1673 1682 0
1671 -1682 0
1673 -1682 0
-1675 -1677 1684 0
1675 -1684 0
1677 -1684 0
-1679 -1681 1685 0
1679 -1685 0
1681 -1685 0
-1541 -1543 1821 0
1541 -1821 0
1543 -1821 0
-1547 -1549 1822 0
1547 -1822 0
1549 -1822 0
-1551 -1553 1689 0
1551 -1689 0
1553 -1689 0
-1555 -1557 1691 0
1555 -1691 0
1557 -1691 0
-1559 -1561 1693 0
1559 -1693 0
1561 -1693 0
-1563 -1565 1695 0
1563 -1695 0
1565 -1695 0
-1567 -1569 1697 0
1567 -1697 0
1569 -1697 0
-1571 -1573 1699 0
1571 -1699 0
1573 -1699 0
-1577 -1579 1828 0
1577 -1828 0
1579 -1828 0
-1581 -1583 1701 0
1581 -1701 0
1583 -1701 0
-1585 -1587 1703 0
1585 -1703 0
1587 -1703 0
-1589 -1591 1705 0
1589 -1705 0
1591 -1705 0
-1593 -1595 1707 0
1593 -1707 0
1595 -1707 0
-1597 -1599 1709 0
1597 -1709 0
1599 -1709 0
-1601 -1603 1711 0
1601 -1711 0
1603 -1711 0
-1605 -1607 1713 0
1605 -1713 0
1607 -1713 0
-1609 -1611 1715 0
1609 -1715 0
1611 -1715 0
-1614 -1616 1837 0
1614 -1837 0
1616 -1837 0
-1618 -1620 1717 0
1618 -1717 0
1620 -1717 0
-1622 -1624 1719 0
1622 -1719 0
1624 -1719 0
-1626 -1628 1721 0
1626 -1721 0
1628 -1721 0
-1630 -1632 1723 0
1630 -1723 0
1632 -1723 0
-1634 -1636 1725 0
1634 -1725 0
1636 -1725 0
-1638 -1640 1727 0
1638 -1727 0
1640 -1727 0
-1642 -1644 1729 0
1642 -1729 0
1644 -1729 0
-1646 -1648 1731 0
1646 -1731 0
1648 -1731 0
-1650 -1652 1733 0
1650 -1733 0
1652 -1733 0
-1654 -1656 1735 0
1654 -1735 0
1656 -1735 0
-1658 -1660 1737 0
1658 -1737 0
1660 -1737 0
-1662 -1664 1739 0
1662 -1739 0
1664 -1739 0
-1666 -1668 1741 0
1666 -1741 0
1668 -1741 0
-1670 -1672 1743 0
1670 -1743 0
1672 -1743 0
-1674 -1676 1745 0
1674 -1745 0
1676 -1745 0
-1678 -1680 1747 0
1678 -1747 0
1680 -1747 0
-1682 -1684 1749 0
1682 -1749 0
1684 -1749 0
-1683 -1685 1751 0
1685 -1751 0
1683 -1751 0
-1686 -1687 1855 0
1686 -1855 0
1687 -1855 0
-1688 -1690 1755 0
1688 -1755 0
1690 -1755 0
-1692 -1694 1757 0
1692 -1757 0
1694 -1757 0
-1696 -1698 1857 0
1696 -1857 0
1698 -1857 0
-1700 -1702 1761 0
1700 -1761 0
1702 -1761 0
-1704 -1706 1763 0
1704 -1763 0
1706 -1763 0
-1708 -1710 1765 0
1708 -1765 0
1710 -1765 0
-1712 -1714 1767 0
1712 -1767 0
1714 -1767 0
-1716 -1718 1860 0
1716 -1860 0
1718 -1860 0
-1720 -1722 1771 0
1720 -1771 0
1722 -1771 0
-1724 -1726 1773 0
1724 -1773 0
1726 -1773 0
-1728 -1730 1775 0
1728 -1775 0
1730 -1775 0
-1732 -1734 1777 0
1732 -1777 0
1734 -1777 0
-1736 -1738 1779 0
1736 -1779 0
1738 -1779 0
-1740 -1742 1781 0
1740 -1781 0
1742 -1781 0
-1744 -1746 1783 0
1744 -1783 0
1746 -1783 0
-1748 -1750 1785 0
1748 -1785 0
1750 -1785 0
-1752 -1753 1787 0
1752 -1787 0
1753 -1787 0
-1754 -1756 1789 0
1754 -1789 0
1756 -1789 0
-1758 -1759 1791 0
1758 -1791 0
1759 -1791 0
-1760 -1762 1793 0
1760 -1793 0
1762 -1793 0
-1764 -1766 1795 0
1764 -1795 0
1766 -1795 0
-1768 -1769 1797 0
1768 -1797 0
1769 -1797 0
-1770 -1772 1799 0
1770 -1799 0
1772 -1799 0
-1774 -1776 1801 0
1774 -1801 0
1776 -1801 0
-1778 -1780 1803 0
1778 -1803 0
1780 -1803 0
-1782 -1784 1805 0
1782 -1805 0
1784 -1805 0
-1786 -1788 1807 0
1786 -1807 0
1788 -1807 0
-1790 -1792 1809 0
1790 -1809 0
1792 -1809 0
-1794 -1796 1811 0
1794 -1811 0
1796 -1811 0
-1798 -1800 1813 0
1798 -1813 0
1800 -1813 0
-1802 -1804 1815 0
1802 -1815 0
1804 -1815 0
-1806 -1808 1817 0
1806 -1817 0
1808 -1817 0
-1810 -1812 1819 0
1810 -1819 0
1812 -1819 0
-1814 -1816 1820 0
1814 -1820 0
1816 -1820 0
-1689 -1691 1824 0
1689 -1824 0
1691 -1824 0
-1693 -1695 1826 0
1693 -1826 0
1695 -1826 0
-1697 -1699 1962 0
1697 -1962 0
1699 -1962 0
-1701 -1703 1830 0
1701 -1830 0
1703 -1830 0
-1705 -1707 1832 0
1705 -1832 0
1707 -1832 0
-1709 -1711 1834 0
1709 -1834 0
1711 -1834 0
-1713 -1715 1836 0
1713 -1836 0
1715 -1836 0
-1717 -1719 1965 0
1717 -1965 0
1719 -1965 0
-1721 -1723 1840 0
1721 -1840 0
1723 -1840 0
-1725 -1727 1842 0
1725 -1842 0
1727 -1842 0
-1729 -1731 1844 0
1729 -1844 0
1731 -1844 0
-1733 -1735 1846 0
1733 -1846 0
1735 -1846 0
-1737 -1739 1848 0
1737 -1848 0
1739 -1848 0
-1741 -1743 1850 0
1741 -1850 0
1743 -1850 0
-1745 -1747 1852 0
1745 -1852 0
1747 -1852 0
-1749 -1751 1854 0
1749 -1854 0
1751 -1854 0
-1755 -1757 1974 0
1755 -1974 0
1757 -1974 0
-1761 -1763 1975 0
1761 -1975 0
1763 -1975 0
-1765 -1767 1976 0
1765 -1976 0
1767 -1976 0
-1771 -1773 1862 0
1771 -1862 0
1773 -1862 0
-1775 -1777 1864 0
1775 -1864 0
1777 -1864 0
-1779 -1781 1866 0
1779 -1866 0
1781 -1866 0
-1783 -1785 1868 0
1783 -1868 0
1785 -1868 0
-1787 -1789 1870 0
1787 -1870 0
1789 -1870 0
-1791 -1793 1872 0
1791 -1872 0
1793 -1872 0
-1795 -1797 1874 0
1795 -1874 0
1797 -1874 0
-1799 -1801 1876 0
1799 -1876 0
1801 -1876 0
-1803 -1805 1878 0
1803 -1878 0
1805 -1878 0
-1807 -1809 1880 0
1807 -1880 0
1809 -1880 0
-1811 -1813 1882 0
1811 -1882 0
1813 -1882 0
-1815 -1817 1884 0
1815 -1884 0
1817 -1884 0
-1819 -1820 1886 0
1819 -1886 0
1820 -1886 0
-1818 -1821 1888 0
1818 -1888 0
1821 -1888 0
-1822 -1823 1890 0
1822 -1890 0
1823 -1890 0
-1825 -1827 1892 0
1825 -1892 0
1827 -1892 0
-1828 -1829 1894 0
1828 -1894 0
1829 -1894 0
-1831 -1833 1896 0
1831 -1896 0
1833 -1896 0
-1835 -1837 1898 0
1835 -1898 0
1837 -1898 0
-1838 -1839 1900 0
1838 -1900 0
1839 -1900 0
-1841 -1843 1902 0
1841 -1902 0
1843 -1902 0
-1845 -1847 1904 0
1845 -1904 0
1847 -1904 0
-1849 -1851 1906 0
1849 -1906 0
1851 -1906 0
-1853 -1855 1908 0
1853 -1908 0
1855 -1908 0
-1856 -1857 1910 0
1856 -1910 0
1857 -1910 0
-1858 -1859 1912 0
1858 -1912 0
1859 -1912 0
-1860 -1861 1914 0
1860 -1914 0
1861 -1914 0
-1863 -1865 1916 0
1863 -1916 0
1865 -1916 0
-1867 -1869 1918 0
1867 -1918 0
1869 -1918 0
-1871 -1873 1920 0
1871 -1920 0
1873 -1920 0
-1875 -1877 1922 0
1875 -1922 0
1877 -1922 0
-1879 -1881 1924 0
1879 -1924 0
1881 -1924 0
-1883 -1885 1926 0
1883 -1926 0
1885 -1926 0
-1887 -1889 1928 0
1887 -1928 0
1889 -1928 0
-1891 -1893 1930 0
1891 -1930 0
1893 -1930 0
-1895 -1897 1932 0
1895 -1932 0
1897 -1932 0
-1899 -1901 1934 0
1899 -1934 0
1901 -1934 0
-1903 -1905 1936 0
1903 -1936 0
1905 -1936 0
-1907 -1909 1938 0
1907 -1938 0
1909 -1938 0
-1911 -1913 1940 0
1911 -1940 0
1913 -1940 0
-1915 -1917 1942 0
1915 -1942 0
1917 -1942 0
-1919 -1921 1944 0
1919 -1944 0
1921 -1944 0
-1923 -1925 1946 0
1923 -1946 0
1925 -1946 0
-1927 -1929 1948 0
1927 -1948 0
1929 -1948 0
-1931 -1933 1950 0
1931 -1950 0
1933 -1950 0
-1935 -1937 1952 0
1935 -1952 0
1937 -1952 0
-1939 -1941 1954 0
1939 -1954 0
1941 -1954 0
-1943 -1945 1956 0
1943 -1956 0
1945 -1956 0
-1947 -1949 1958 0
1947 -1958 0
1949 -1958 0
-1951 -1953 1960 0
1951 -1960 0
1953 -1960 0
-1955 -1957 1961 0
1955 -1961 0
1957 -1961 0
-1824 -1826 2099 0
1824 -2099 0
1826 -2099 0
-1830 -1832 2100 0
1830 -2100 0
1832 -2100 0
-1834 -1836 2101 0
1834 -2101 0
1836 -2101 0
-1840 -1842 1967 0
1840 -1967 0
1842 -1967 0
-1844 -1846 1969 0
1844 -1969 0
1846 -1969 0
-1848 -1850 1971 0
1848 -1971 0
1850 -1971 0
-1852 -1854 1973 0
1852 -1973 0
1854 -1973 0
-1862 -1864 2104 0
1862 -2104 0
1864 -2104 0
-1866 -1868 1979 0
1866 -1979 0
1868 -1979 0
-1870 -1872 1981 0
1870 -1981 0
1872 -1981 0
-1874 -1876 1983 0
1874 -1983 0
1876 -1983 0
-1878 -1880 1985 0
1878 -1985 0
1880 -1985 0
-1882 -1884 1987 0
1882 -1987 0
1884 -1987 0
-1886 -1888 1989 0
1886 -1989 0
1888 -1989 0
-1890 -1892 1991 0
1890 -1991 0
1892 -1991 0
-1894 -1896 1993 0
1894 -1993 0
1896 -1993 0
-1898 -1900 1995 0
1898 -1995 0
1900 -1995 0
-1902 -1904 1997 0
1902 -1997 0
1904 -1997 0
-1906 -1908 1999 0
1906 -1999 0
1908 -1999 0
-1910 -1912 2001 0
1910 -2001 0
1912 -2001 0
-1914 -1916 2003 0
1914 -2003 0
1916 -2003 0
-1918 -1920 2005 0
1918 -2005 0
1920 -2005 0
-1922 -1924 2007 0
1922 -2007 0
1924 -2007 0
-1926 -1928 2009 0
1926 -2009 0
1928 -2009 0
-1930 -1932 2011 0
1930 -2011 0
1932 -2011 0
-1934 -1936 2013 0
1934 -2013 0
1936 -2013 0
-1938 -1940 2015 0
1938 -2015 0
1940 -2015 0
-1942 -1944 2017 0
1942 -2017 0
1944 -2017 0
-1946 -1948 2019 0
1946 -2019 0
1948 -2019 0
-1950 -1952 2021 0
1950 -2021 0
1952 -2021 0
-1954 -1956 2023 0
1954 -2023 0
1956 -2023 0
-1958 -1960 2025 0
1958 -2025 0
1960 -2025 0
-1959 -1961 2127 0
1961 -2127 0
1959 -2127 0
-1962 -1963 2029 0
1962 -2029 0
1963 -2029 0
-1964 -1965 2031 0
1964 -2031 0
1965 -2031 0
-1966 -1968 2033 0
1966 -2033 0
1968 -2033 0
-1970 -1972 2035 0
1970 -2035 0
1972 -2035 0
-1974 -1975 2037 0
1974 -2037 0
1975 -2037 0
-1976 -1977 2039 0
1976 -2039 0
1977 -2039 0
-1978 -1980 2041 0
1978 -2041 0
1980 -2041 0
-1982 -1984 2043 0
1982 -2043 0
1984 -2043 0
-1986 -1988 2045 0
1986 -2045 0
1988 -2045 0
-1990 -1992 2047 0
1990 -2047 0
1992 -2047 0
-1994 -1996 2049 0
1994 -2049 0
1996 -2049 0
-1998 -2000 2051 0
1998 -2051 0
2000 -2051 0
-2002 -2004 2053 0
2002 -2053 0
2004 -2053 0
-2006 -2008 2055 0
2006 -2055 0
2008 -2055 0
-2010 -2012 2057 0
2010 -2057 0
2012 -2057 0
-2014 -2016 2059 0
2014 -2059 0
2016 -2059 0
-2018 -2020 2061 0
2018 -2061 0
2020 -2061 0
-2022 -2024 2063 0
2022 -2063 0
2024 -2063 0
-2026 -2027 2065 0
2026 -2065 0
2027 -2065 0
-2028 -2030 2067 0
2028 -2067 0
2030 -2067 0
-2032 -2034 2069 0
2032 -2069 0
2034 -2069 0
-2036 -2038 2071 0
2036 -2071 0
2038 -2071 0
-2040 -2042 2073 0
2040 -2073 0
2042 -2073 0
-2044 -2046 2075 0
2044 -2075 0
2046 -2075 0
-2048 -2050 2077 0
2048 -2077 0
2050 -2077 0
-2052 -2054 2079 0
2052 -2079 0
2054 -2079 0
-2056 -2058 2081 0
2056 -2081 0
2058 -2081 0
-2060 -2062 2083 0
2060 -2083 0
2062 -2083 0
-2064 -2066 2085 0
2064 -2085 0
2066 -2085 0
-2068 -2070 2087 0
2068 -2087 0
2070 -2087 0
-2072 -2074 2089 0
2072 -2089 0
2074 -2089 0
-2076 -2078 2091 0
2076 -2091 0
2078 -2091 0
-2080 -2082 2093 0
2080 -2093 0
2082 -2093 0
-2084 -2086 2095 0
2084 -2095 0
2086 -2095 0
-2088 -2090 2097 0
2088 -2097 0
2090 -2097 0
-2092 -2094 2098 0
2092 -2098 0
2094 -2098 0
-1967 -1969 2234 0
1967 -2234 0
1969 -2234 0
-1971 -1973 2235 0
1971 -2235 0
1973 -2235 0
-1979 -1981 2236 0
1979 -2236 0
1981 -2236 0
-1983 -1985 2107 0
1983 -2107 0
1985 -2107 0
-1987 -1989 2109 0
1987 -2109 0
1989 -2109 0
-1991 -1993 2111 0
1991 -2111 0
1993 -2111 0
-1995 -1997 2113 0
1995 -2113 0
1997 -2113 0
-1999 -2001 2115 0
1999 -2115 0
2001 -2115 0
-2003 -2005 2117 0
2003 -2117 0
2005 -2117 0
-2007 -2009 2119 0
2007 -2119 0
2009 -2119 0
-2011 -2013 2121 0
2011 -2121 0
2013 -2121 0
-2015 -2017 2123 0
2015 -2123 0
2017 -2123 0
-2019 -2021 2125 0
2019 -2125 0
2021 -2125 0
-2023 -2025 2246 0
2023 -2246 0
2025 -2246 0
-2029 -2031 2129 0
2029 -2129 0
2031 -2129 0
-2033 -2035 2131 0
2033 -2131 0
2035 -2131 0
-2037 -2039 2133 0
2037 -2133 0
2039 -2133 0
-2041 -2043 2135 0
2041 -2135 0
2043 -2135 0
-2045 -2047 2137 0
2045 -2137 0
2047 -2137 0
-2049 -2051 2139 0
2049 -2139 0
2051 -2139 0
-2053 -2055 2141 0
2053 -2141 0
2055 -2141 0
-2057 -2059 2143 0
2057 -2143 0
2059 -2143 0
-2061 -2063 2145 0
2061 -2145 0
2063 -2145 0
-2065 -2067 2147 0
2065 -2147 0
2067 -2147 0
-2069 -2071 2149 0
2069 -2149 0
2071 -2149 0
-2073 -2075 2151 0
2073 -2151 0
2075 -2151 0
-2077 -2079 2153 0
2077 -2153 0
2079 -2153 0
-2081 -2083 2155 0
2081 -2155 0
2083 -2155 0
-2085 -2087 2157 0
2085 -2157 0
2087 -2157 0
-2089 -2091 2159 0
2089 -2159 0
2091 -2159 0
-2093 -2095 2161 0
2093 -2161 0
2095 -2161 0
-2097 -2098 2163 0
2097 -2163 0
2098 -2163 0
-2096 -2099 2165 0
2096 -2165 0
2099 -2165 0
-2100 -2101 2167 0
2100 -2167 0
2101 -2167 0
-2102 -2103 2267 0
2102 -2267 0
2103 -2267 0
-2105 -2106 2170 0
2105 -2170 0
2106 -2170 0
-2108 -2110 2172 0
2108 -2172 0
2110 -2172 0
-2112 -2114 2174 0
2112 -2174 0
2114 -2174 0
-2116 -2118 2176 0
2116 -2176 0
2118 -2176 0
-2120 -2122 2178 0
2120 -2178 0
2122 -2178 0
-2124 -2126 2180 0
2124 -2180 0
2126 -2180 0
-2127 -2128 2182 0
2127 -2182 0
2128 -2182 0
-2130 -2132 2184 0
2130 -2184 0
2132 -2184 0
-2134 -2136 2186 0
2134 -2186 0
2136 -2186 0
-2138 -2140 2188 0
2138 -2188 0
2140 -2188 0
-2142 -2144 2190 0
2142 -2190 0
2144 -2190 0
-2146 -2148 2192 0
2146 -2192 0
2148 -2192 0
-2150 -2152 2194 0
2150 -2194 0
2152 -2194 0
-2154 -2156 2196 0
2154 -2196 0
2156 -2196 0
-2158 -2160 2198 0
2158 -2198 0
2160 -2198 0
-2162 -2164 2200 0
2162 -2200 0
2164 -2200 0
-2166 -2168 2202 0
2166 -2202 0
2168 -2202 0
-2104 -2169 2204 0
2104 -2204 0
2169 -2204 0
-2171 -2173 2206 0
2171 -2206 0
2173 -2206 0
-2175 -2177 2208 0
2175 -2208 0
2177 -2208 0
-2179 -2181 2210 0
2179 -2210 0
2181 -2210 0
-2183 -2185 2212 0
2183 -2212 0
2185 -2212 0
-2187 -2189 2214 0
2187 -2214 0
2189 -2214 0
-2191 -2193 2216 0
2191 -2216 0
2193 -2216 0
-2195 -2197 2218 0
2195 -2218 0
2197 -2218 0
-2199 -2201 2220 0
2199 -2220 0
2201 -2220 0
-2203 -2205 2222 0
2203 -2222 0
2205 -2222 0
-2207 -2209 2224 0
2207 -2224 0
2209 -2224 0
-2211 -2213 2226 0
2211 -2226 0
2213 -2226 0
-2215 -2217 2228 0
2215 -2228 0
2217 -2228 0
-2219 -2221 2230 0
2219 -2230 0
2221 -2230 0
-2223 -2225 2232 0
2223 -2232 0
2225 -2232 0
-2227 -2229 2233 0
2227 -2233 0
2229 -2233 0
-2107 -2109 2238 0
2107 -2238 0
2109 -2238 0
-2111 -2113 2240 0
2111 -2240 0
2113 -2240 0
-2115 -2117 2242 0
2115 -2242 0
2117 -2242 0
-2119 -2121 2244 0
2119 -2244 0
2121 -2244 0
-2123 -2125 2372 0
2123 -2372 0
2125 -2372 0
-2129 -2131 2248 0
2129 -2248 0
2131 -2248 0
-2133 -2135 2250 0
2133 -2250 0
2135 -2250 0
-2137 -2139 2252 0
2137 -2252 0
2139 -2252 0
-2141 -2143 2254 0
2141 -2254 0
2143 -2254 0
-2145 -2147 2256 0
2145 -2256 0
2147 -2256 0
-2149 -2151 2258 0
2149 -2258 0
2151 -2258 0
-2153 -2155 2260 0
2153 -2260 0
2155 -2260 0
-2157 -2159 2262 0
2157 -2262 0
2159 -2262 0
-2161 -2163 2264 0
2161 -2264 0
2163 -2264 0
-2165 -2167 2266 0
2165 -2266 0
2167 -2266 0
-2170 -2172 2382 0
2170 -2382 0
2172 -2382 0
-2174 -2176 2270 0
2174 -2270 0
2176 -2270 0
-2178 -2180 2272 0
2178 -2272 0
2180 -2272 0
-2182 -2184 2274 0
2182 -2274 0
2184 -2274 0
-2186 -2188 2276 0
2186 -2276 0
2188 -2276 0
-2190 -2192 2278 0
2190 -2278 0
2192 -2278 0
-2194 -2196 2280 0
2194 -2280 0
2196 -2280 0
-2198 -2200 2282 0
2198 -2282 0
2200 -2282 0
-2202 -2204 2284 0
2202 -2284 0
2204 -2284 0
-2206 -2208 2286 0
2206 -2286 0
2208 -2286 0
-2210 -2212 2288 0
2210 -2288 0
2212 -2288 0
-2214 -2216 2290 0
2214 -2290 0
2216 -2290 0
-2218 -2220 2292 0
2218 -2292 0
2220 -2292 0
-2222 -2224 2294 0
2222 -2294 0
2224 -2294 0
-2226 -2228 2296 0
2226 -2296 0
2228 -2296 0
-2230 -2232 2298 0
2230 -2298 0
2232 -2298 0
-2231 -2233 2300 0
2233 -2300 0
2231 -2300 0
-2235 -2236 2397 0
2235 -2397 0
2236 -2397 0
-2237 -2239 2303 0
2237 -2303 0
2239 -2303 0
-2241 -2243 2305 0
2241 -2305 0
2243 -2305 0
-2245 -2246 2307 0
2245 -2307 0
2246 -2307 0
-2247 -2249 2309 0
2247 -2309 0
2249 -2309 0
-2251 -2253 2311 0
2251 -2311 0
2253 -2311 0
-2255 -2257 2313 0
2255 -2313 0
2257 -2313 0
-2259 -2261 2315 0
2259 -2315 0
2261 -2315 0
-2263 -2265 2317 0
2263 -2317 0
2265 -2317 0
-2267 -2268 2319 0
2267 -2319 0
2268 -2319 0
-2269 -2271 2321 0
2269 -2321 0
2271 -2321 0
-2273 -2275 2323 0
2273 -2323 0
2275 -2323 0
-2277 -2279 2325 0
2277 -2325 0
2279 -2325 0
-2281 -2283 2327 0
2281 -2327 0
2283 -2327 0
-2285 -2287 2329 0
2285 -2329 0
2287 -2329 0
-2289 -2291 2331 0
2289 -2331 0
2291 -2331 0
-2293 -2295 2333 0
2293 -2333 0
2295 -2333 0
-2297 -2299 2335 0
2297 -2335 0
2299 -2335 0
-2234 -2301 2337 0
2234 -2337 0
2301 -2337 0
-2302 -2304 2339 0
2302 -2339 0
2304 -2339 0
-2306 -2308 2341 0
2306 -2341 0
2308 -2341 0
-2310 -2312 2343 0
2310 -2343 0
2312 -2343 0
-2314 -2316 2345 0
2314 -2345 0
2316 -2345 0
-2318 -2320 2347 0
2318 -2347 0
2320 -2347 0
-2322 -2324 2349 0
2322 -2349 0
2324 -2349 0
-2326 -2328 2351 0
2326 -2351 0
2328 -2351 0
-2330 -2332 2353 0
2330 -2353 0
2332 -2353 0
-2334 -2336 2355 0
2334 -2355 0
2336 -2355 0
-2338 -2340 2357 0
2338 -2357 0
2340 -2357 0
-2342 -2344 2359 0
2342 -2359 0
2344 -2359 0
-2346 -2348 2361 0
2346 -2361 0
2348 -2361 0
-2350 -2352 2363 0
2350 -2363 0
2352 -2363 0
-2354 -2356 2365 0
2354 -2365 0
2356 -2365 0
-2358 -2360 2367 0
2358 -2367 0
2360 -2367 0
-2362 -2364 2368 0
2362 -2368 0
2364 -2368 0
-2238 -2240 2369 0
2238 -2369 0
2240 -2369 0
-2242 -2244 2371 0
2242 -2371 0
2244 -2371 0
-2248 -2250 2498 0
2248 -2498 0
2250 -2498 0
-2252 -2254 2375 0
2252 -2375 0
2254 -2375 0
-2256 -2258 2377 0
2256 -2377 0
2258 -2377 0
-2260 -2262 2379 0
2260 -2379 0
2262 -2379 0
-2264 -2266 2381 0
2264 -2381 0
2266 -2381 0
-2270 -2272 2501 0
2270 -2501 0
2272 -2501 0
-2274 -2276 2385 0
2274 -2385 0
2276 -2385 0
-2278 -2280 2387 0
2278 -2387 0
2280 -2387 0
-2282 -2284 2389 0
2282 -2389 0
2284 -2389 0
-2286 -2288 2391 0
2286 -2391 0
2288 -2391 0
-2290 -2292 2393 0
2290 -2393 0
2292 -2393 0
-2294 -2296 2395 0
2294 -2395 0
2296 -2395 0
-2298 -2300 2507 0
2298 -2507 0
2300 -2507 0
-2303 -2305 2399 0
2303 -2399 0
2305 -2399 0
-2307 -2309 2401 0
2307 -2401 0
2309 -2401 0
-2311 -2313 2403 0
2311 -2403 0
2313 -2403 0
-2315 -2317 2405 0
2315 -2405 0
2317 -2405 0
-2319 -2321 2407 0
2319 -2407 0
2321 -2407 0
-2323 -2325 2409 0
2323 -2409 0
2325 -2409 0
-2327 -2329 2411 0
2327 -2411 0
2329 -2411 0
-2331 -2333 2413 0
2331 -2413 0
2333 -2413 0
-2335 -2337 2415 0
2335 -2415 0
2337 -2415 0
-2339 -2341 2417 0
2339 -2417 0
2341 -2417 0
-2343 -2345 2419 0
2343 -2419 0
2345 -2419 0
-2347 -2349 2421 0
2347 -2421 0
2349 -2421 0
-2351 -2353 2423 0
2351 -2423 0
2353 -2423 0
-2355 -2357 2425 0
2355 -2425 0
2357 -2425 0
-2359 -2361 2427 0
2359 -2427 0
2361 -2427 0
-2363 -2365 2429 0
2363 -2429 0
2365 -2429 0
-2367 -2368 2524 0
2367 -2524 0
2368 -2524 0
-2370 -2372 2525 0
2370 -2525 0
2372 -2525 0
-2373 -2374 2434 0
2373 -2434 0
2374 -2434 0
-2376 -2378 2436 0
2376 -2436 0
2378 -2436 0
-2380 -2382 2438 0
2380 -2438 0
2382 -2438 0
-2383 -2384 2440 0
2383 -2440 0
2384 -2440 0
-2386 -2388 2442 0
2386 -2442 0
2388 -2442 0
-2390 -2392 2444 0
2390 -2444 0
2392 -2444 0
-2394 -2396 2446 0
2394 -2446 0
2396 -2446 0
-2397 -2398 2448 0
2397 -2448 0
2398 -2448 0
-2400 -2402 2450 0
2400 -2450 0
2402 -2450 0
-2404 -2406 2452 0
2404 -2452 0
2406 -2452 0
-2408 -2410 2454 0
2408 -2454 0
2410 -2454 0
-2412 -2414 2456 0
2412 -2456 0
2414 -2456 0
-2416 -2418 2458 0
2416 -2458 0
2418 -2458 0
-2420 -2422 2460 0
2420 -2460 0
2422 -2460 0
-2424 -2426 2462 0
2424 -2462 0
2426 -2462 0
-2428 -2430 2464 0
2428 -2464 0
2430 -2464 0
-2366 -2431 2466 0
2366 -2466 0
2431 -2466 0
-2432 -2433 2468 0
2432 -2468 0
2433 -2468 0
-2435 -2437 2470 0
2435 -2470 0
2437 -2470 0
-2439 -2441 2472 0
2439 -2472 0
2441 -2472 0
-2443 -2445 2474 0
2443 -2474 0
2445 -2474 0
-2447 -2449 2476 0
2447 -2476 0
2449 -2476 0
-2451 -2453 2478 0
2451 -2478 0
2453 -2478 0
-2455 -2457 2480 0
2455 -2480 0
2457 -2480 0
-2459 -2461 2482 0
2459 -2482 0
2461 -2482 0
-2463 -2465 2484 0
2463 -2484 0
2465 -2484 0
-2467 -2469 2486 0
2467 -2486 0
2469 -2486 0
-2471 -2473 2488 0
2471 -2488 0
2473 -2488 0
-2475 -2477 2490 0
2475 -2490 0
2477 -2490 0
-2479 -2481 2492 0
2479 -2492 0
2481 -2492 0
-2483 -2485 2494 0
2483 -2494 0
2485 -2494 0
-2487 -2489 2496 0
2487 -2496 0
2489 -2496 0
-2491 -2493 2497 0
2491 -2497 0
2493 -2497 0
-2369 -2371 2627 0
2369 -2627 0
2371 -2627 0
-2375 -2377 2628 0
2375 -2628 0
2377 -2628 0
-2379 -2381 2629 0
2379 -2629 0
2381 -2629 0
-2385 -2387 2503 0
2385 -2503 0
2387 -2503 0
-2389 -2391 2505 0
2389 -2505 0
2391 -2505 0
-2393 -2395 2631 0
2393 -2631 0
2395 -2631 0
-2399 -2401 2509 0
2399 -2509 0
2401 -2509 0
-2403 -2405 2511 0
2403 -2511 0
2405 -2511 0
-2407 -2409 2513 0
2407 -2513 0
2409 -2513 0
-2411 -2413 2515 0
2411 -2515 0
2413 -2515 0
-2415 -2417 2517 0
2415 -2517 0
2417 -2517 0
-2419 -2421 2519 0
2419 -2519 0
2421 -2519 0
-2423 -2425 2521 0
2423 -2521 0
2425 -2521 0
-2427 -2429 2523 0
2427 -2523 0
2429 -2523 0
-2434 -2436 2527 0
2434 -2527 0
2436 -2527 0
-2438 -2440 2529 0
2438 -2529 0
2440 -2529 0
-2442 -2444 2531 0
2442 -2531 0
2444 -2531 0
-2446 -2448 2533 0
2446 -2533 0
2448 -2533 0
-2450 -2452 2535 0
2450 -2535 0
2452 -2535 0
-2454 -2456 2537 0
2454 -2537 0
2456 -2537 0
-2458 -2460 2539 0
2458 -2539 0
2460 -2539 0
-2462 -2464 2541 0
2462 -2541 0
2464 -2541 0
-2466 -2468 2543 0
2466 -2543 0
2468 -2543 0
-2470 -2472 2545 0
2470 -2545 0
2472 -2545 0
-2474 -2476 2547 0
2474 -2547 0
2476 -2547 0
-2478 -2480 2549 0
2478 -2549 0
2480 -2549 0
-2482 -2484 2551 0
2482 -2551 0
2484 -2551 0
-2486 -2488 2553 0
2486 -2553 0
2488 -2553 0
-2490 -2492 2555 0
2490 -2555 0
2492 -2555 0
-2494 -2496 2557 0
2494 -2557 0
2496 -2557 0
-2495 -2497 2653 0
2497 -2653 0
2495 -2653 0
-2498 -2499 2561 0
2498 -2561 0
2499 -2561 0
-2500 -2501 2563 0
2500 -2563 0
2501 -2563 0
-2502 -2504 2565 0
2502 -2565 0
2504 -2565 0
-2506 -2507 2567 0
2506 -2567 0
2507 -2567 0
-2508 -2510 2569 0
2508 -2569 0
2510 -2569 0
-2512 -2514 2571 0
2512 -2571 0
2514 -2571 0
-2516 -2518 2573 0
2516 -2573 0
2518 -2573 0
-2520 -2522 2575 0
2520 -2575 0
2522 -2575 0
-2524 -2525 2577 0
2524 -2577 0
2525 -2577 0
-2526 -2528 2579 0
2526 -2579 0
2528 -2579 0
-2530 -2532 2581 0
2530 -2581 0
2532 -2581 0
-2534 -2536 2583 0
2534 -2583 0
2536 -2583 0
-2538 -2540 2585 0
2538 -2585 0
2540 -2585 0
-2542 -2544 2587 0
2542 -2587 0
2544 -2587 0
-2546 -2548 2589 0
2546 -2589 0
2548 -2589 0
-2550 -2552 2591 0
2550 -2591 0
2552 -2591 0
-2554 -2556 2593 0
2554 -2593 0
2556 -2593 0
-2558 -2559 2595 0
2558 -2595 0
2559 -2595 0
-2560 -2562 2597 0
2560 -2597 0
2562 -2597 0
-2564 -2566 2599 0
2564 -2599 0
2566 -2599 0
-2568 -2570 2601 0
2568 -2601 0
2570 -2601 0
-2572 -2574 2603 0
2572 -2603 0
2574 -2603 0
-2576 -2578 2605 0
2576 -2605 0
2578 -2605 0
-2580 -2582 2607 0
2580 -2607 0
2582 -2607 0
-2584 -2586 2609 0
2584 -2609 0
2586 -2609 0
-2588 -2590 2611 0
2588 -2611 0
2590 -2611 0
-2592 -2594 2613 0
2592 -2613 0
2594 -2613 0
-2596 -2598 2615 0
2596 -2615 0
2598 -2615 0
-2600 -2602 2617 0
2600 -2617 0
2602 -2617 0
-2604 -2606 2619 0
2604 -2619 0
2606 -2619 0
-2608 -2610 2621 0
2608 -2621 0
2610 -2621 0
-2612 -2614 2623 0
2612 -2623 0
2614 -2623 0
-2616 -2618 2625 0
2616 -2625 0
2618 -2625 0
-2620 -2622 2626 0
2620 -2626 0
2622 -2626 0
-2503 -2505 2754 0
2503 -2754 0
2505 -2754 0
-2509 -2511 2755 0
2509 -2755 0
2511 -2755 0
-2513 -2515 2634 0
2513 -2634 0
2515 -2634 0
-2517 -2519 2636 0
2517 -2636 0
2519 -2636 0
-2521 -2523 2757 0
2521 -2757 0
2523 -2757 0
-2527 -2529 2638 0
2527 -2638 0
2529 -2638 0
-2531 -2533 2640 0
2531 -2640 0
2533 -2640 0
-2535 -2537 2642 0
2535 -2642 0
2537 -2642 0
-2539 -2541 2644 0
2539 -2644 0
2541 -2644 0
-2543 -2545 2646 0
2543 -2646 0
2545 -2646 0
-2547 -2549 2648 0
2547 -2648 0
2549 -2648 0
-2551 -2553 2650 0
2551 -2650 0
2553 -2650 0
-2555 -2557 2652 0
2555 -2652 0
2557 -2652 0
-2561 -2563 2764 0
2561 -2764 0
2563 -2764 0
-2565 -2567 2656 0
2565 -2656 0
2567 -2656 0
-2569 -2571 2658 0
2569 -2658 0
2571 -2658 0
-2573 -2575 2660 0
2573 -2660 0
2575 -2660 0
-2577 -2579 2662 0
2577 -2662 0
2579 -2662 0
-2581 -2583 2664 0
2581 -2664 0
2583 -2664 0
-2585 -2587 2666 0
2585 -2666 0
2587 -2666 0
-2589 -2591 2668 0
2589 -2668 0
2591 -2668 0
-2593 -2595 2670 0
2593 -2670 0
2595 -2670 0
-2597 -2599 2672 0
2597 -2672 0
2599 -2672 0
-2601 -2603 2674 0
2601 -2674 0
2603 -2674 0
-2605 -2607 2676 0
2605 -2676 0
2607 -2676 0
-2609 -2611 2678 0
2609 -2678 0
2611 -2678 0
-2613 -2615 2680 0
2613 -2680 0
2615 -2680 0
-2617 -2619 2682 0
2617 -2682 0
2619 -2682 0
-2621 -2623 2684 0
2621 -2684 0
2623 -2684 0
-2625 -2626 2686 0
2625 -2686 0
2626 -2686 0
-2624 -2627 2688 0
2624 -2688 0
2627 -2688 0
-2628 -2629 2690 0
2628 -2690 0
2629 -2690 0
-2630 -2631 2692 0
2630 -2692 0
2631 -2692 0
-2632 -2633 2694 0
2632 -2694 0
2633 -2694 0
-2635 -2637 2785 0
2635 -2785 0
2637 -2785 0
-2639 -2641 2698 0
2639 -2698 0
2641 -2698 0
-2643 -2645 2700 0
2643 -2700 0
2645 -2700 0
-2647 -2649 2702 0
2647 -2702 0
2649 -2702 0
-2651 -2653 2704 0
2651 -2704 0
2653 -2704 0
-2654 -2655 2706 0
2654 -2706 0
2655 -2706 0
-2657 -2659 2708 0
2657 -2708 0
2659 -2708 0
-2661 -2663 2710 0
2661 -2710 0
2663 -2710 0
-2665 -2667 2712 0
2665 -2712 0
2667 -2712 0
-2669 -2671 2714 0
2669 -2714 0
2671 -2714 0
-2673 -2675 2716 0
2673 -2716 0
2675 -2716 0
-2677 -2679 2718 0
2677 -2718 0
2679 -2718 0
-2681 -2683 2720 0
2681 -2720 0
2683 -2720 0
-2685 -2687 2722 0
2685 -2722 0
2687 -2722 0
-2689 -2691 2724 0
2689 -2724 0
2691 -2724 0
-2693 -2695 2726 0
2693 -2726 0
2695 -2726 0
-2696 -2697 2728 0
2696 -2728 0
2697 -2728 0
-2699 -2701 2730 0
2699 -2730 0
2701 -2730 0
-2703 -2705 2732 0
2703 -2732 0
2705 -2732 0
-2707 -2709 2734 0
2707 -2734 0
2709 -2734 0
-2711 -2713 2736 0
2711 -2736 0
2713 -2736 0
-2715 -2717 2738 0
2715 -2738 0
2717 -2738 0
-2719 -2721 2740 0
2719 -2740 0
2721 -2740 0
-2723 -2725 2742 0
2723 -2742 0
2725 -2742 0
-2727 -2729 2744 0
2727 -2744 0
2729 -2744 0
-2731 -2733 2746 0
2731 -2746 0
2733 -2746 0
-2735 -2737 2748 0
2735 -2748 0
2737 -2748 0
-2739 -2741 2750 0
2739 -2750 0
2741 -2750 0
-2743 -2745 2752 0
2743 -2752 0
2745 -2752 0
-2747 -2749 2753 0
2747 -2753 0
2749 -2753 0
-2634 -2636 2879 0
2634 -2879 0
2636 -2879 0
-2638 -2640 2880 0
2638 -2880 0
2640 -2880 0
-2642 -2644 2760 0
2642 -2760 0
2644 -2760 0
-2646 -2648 2762 0
2646 -2762 0
2648 -2762 0
-2650 -2652 2882 0
2650 -2882 0
2652 -2882 0
-2656 -2658 2766 0
2656 -2766 0
2658 -2766 0
-2660 -2662 2768 0
2660 -2768 0
2662 -2768 0
-2664 -2666 2770 0
2664 -2770 0
2666 -2770 0
-2668 -2670 2772 0
2668 -2772 0
2670 -2772 0
-2672 -2674 2774 0
2672 -2774 0
2674 -2774 0
-2676 -2678 2776 0
2676 -2776 0
2678 -2776 0
-2680 -2682 2778 0
2680 -2778 0
2682 -2778 0
-2684 -2686 2780 0
2684 -2780 0
2686 -2780 0
-2688 -2690 2782 0
2688 -2782 0
2690 -2782 0
-2692 -2694 2784 0
2692 -2784 0
2694 -2784 0
-2698 -2700 2892 0
2698 -2892 0
2700 -2892 0
-2702 -2704 2788 0
2702 -2788 0
2704 -2788 0
-2706 -2708 2790 0
2706 -2790 0
2708 -2790 0
-2710 -2712 2792 0
2710 -2792 0
2712 -2792 0
-2714 -2716 2794 0
2714 -2794 0
2716 -2794 0
-2718 -2720 2796 0
2718 -2796 0
2720 -2796 0
-2722 -2724 2798 0
2722 -2798 0
2724 -2798 0
-2726 -2728 2800 0
2726 -2800 0
2728 -2800 0
-2730 -2732 2802 0
2730 -2802 0
2732 -2802 0
-2734 -2736 2804 0
2734 -2804 0
2736 -2804 0
-2738 -2740 2806 0
2738 -2806 0
2740 -2806 0
-2742 -2744 2808 0
2742 -2808 0
2744 -2808 0
-2746 -2748 2810 0
2746 -2810 0
2748 -2810 0
-2750 -2752 2812 0
2750 -2812 0
2752 -2812 0
-2751 -2753 2814 0
2753 -2814 0
2751 -2814 0
-2755 -2756 2906 0
2755 -2906 0
2756 -2906 0
-2757 -2758 2817 0
2757 -2817 0
2758 -2817 0
-2759 -2761 2819 0
2759 -2819 0
2761 -2819 0
-2763 -2764 2821 0
2763 -2821 0
2764 -2821 0
-2765 -2767 2823 0
2765 -2823 0
2767 -2823 0
-2769 -2771 2825 0
2769 -2825 0
2771 -2825 0
-2773 -2775 2827 0
2773 -2827 0
2775 -2827 0
-2777 -2779 2829 0
2777 -2829 0
2779 -2829 0
-2781 -2783 2831 0
2781 -2831 0
2783 -2831 0
-2785 -2786 2833 0
2785 -2833 0
2786 -2833 0
-2787 -2789 2835 0
2787 -2835 0
2789 -2835 0
-2791 -2793 2837 0
2791 -2837 0
2793 -2837 0
-2795 -2797 2839 0
2795 -2839 0
2797 -2839 0
-2799 -2801 2841 0
2799 -2841 0
2801 -2841 0
-2803 -2805 2843 0
2803 -2843 0
2805 -2843 0
-2807 -2809 2845 0
2807 -2845 0
2809 -2845 0
-2811 -2813 2847 0
2811 -2847 0
2813 -2847 0
-2754 -2815 2849 0
2754 -2849 0
2815 -2849 0
-2816 -2818 2851 0
2816 -2851 0
2818 -2851 0
-2820 -2822 2853 0
2820 -2853 0
2822 -2853 0
-2824 -2826 2855 0
2824 -2855 0
2826 -2855 0
-2828 -2830 2857 0
2828 -2857 0
2830 -2857 0
-2832 -2834 2859 0
2832 -2859 0
2834 -2859 0
-2836 -2838 2861 0
2836 -2861 0
2838 -2861 0
-2840 -2842 2863 0
2840 -2863 0
2842 -2863 0
-2844 -2846 2865 0
2844 -2865 0
2846 -2865 0
-2848 -2850 2867 0
2848 -2867 0
2850 -2867 0
-2852 -2854 2869 0
2852 -2869 0
2854 -2869 0
-2856 -2858 2871 0
2856 -2871 0
2858 -2871 0
-2860 -2862 2873 0
2860 -2873 0
2862 -2873 0
-2864 -2866 2875 0
2864 -2875 0
2866 -2875 0
-2868 -2870 2877 0
2868 -2877 0
2870 -2877 0
-2872 -2874 2878 0
2872 -2878 0
2874 -2878 0
-2760 -2762 3002 0
2760 -3002 0
2762 -3002 0
-2766 -2768 3003 0
2766 -3003 0
2768 -3003 0
-2770 -2772 2885 0
2770 -2885 0
2772 -2885 0
-2774 -2776 2887 0
2774 -2887 0
2776 -2887 0
-2778 -2780 2889 0
2778 -2889 0
2780 -2889 0
-2782 -2784 2891 0
2782 -2891 0
2784 -2891 0
-2788 -2790 3006 0
2788 -3006 0
2790 -3006 0
-2792 -2794 2895 0
2792 -2895 0
2794 -2895 0
-2796 -2798 2897 0
2796 -2897 0
2798 -2897 0
-2800 -2802 2899 0
2800 -2899 0
2802 -2899 0
-2804 -2806 2901 0
2804 -2901 0
2806 -2901 0
-2808 -2810 2903 0
2808 -2903 0
2810 -2903 0
-2812 -2814 2905 0
2812 -2905 0
2814 -2905 0
-2817 -2819 3012 0
2817 -3012 0
2819 -3012 0
-2821 -2823 2909 0
2821 -2909 0
2823 -2909 0
-2825 -2827 2911 0
2825 -2911 0
2827 -2911 0
-2829 -2831 2913 0
2829 -2913 0
2831 -2913 0
-2833 -2835 2915 0
2833 -2915 0
2835 -2915 0
-2837 -2839 2917 0
2837 -2917 0
2839 -2917 0
-2841 -2843 2919 0
2841 -2919 0
2843 -2919 0
-2845 -2847 2921 0
2845 -2921 0
2847 -2921 0
-2849 -2851 2923 0
2849 -2923 0
2851 -2923 0
-2853 -2855 2925 0
2853 -2925 0
2855 -2925 0
-2857 -2859 2927 0
2857 -2927 0
2859 -2927 0
-2861 -2863 2929 0
2861 -2929 0
2863 -2929 0
-2865 -2867 2931 0
2865 -2931 0
2867 -2931 0
-2869 -2871 2933 0
2869 -2933 0
2871 -2933 0
-2873 -2875 2935 0
2873 -2935 0
2875 -2935 0
-2877 -2878 3026 0
2877 -3026 0
2878 -3026 0
-2879 -2880 2938 0
2879 -2938 0
2880 -2938 0
-2881 -2882 2940 0
2881 -2940 0
2882 -2940 0
-2883 -2884 2942 0
2883 -2942 0
2884 -2942 0
-2886 -2888 2944 0
2886 -2944 0
2888 -2944 0
-2890 -2892 2946 0
2890 -2946 0
2892 -2946 0
-2893 -2894 2948 0
2893 -2948 0
2894 -2948 0
-2896 -2898 2950 0
2896 -2950 0
2898 -2950 0
-2900 -2902 2952 0
2900 -2952 0
2902 -2952 0
-2904 -2906 2954 0
2904 -2954 0
2906 -2954 0
-2907 -2908 2956 0
2907 -2956 0
2908 -2956 0
-2910 -2912 2958 0
2910 -2958 0
2912 -2958 0
-2914 -2916 2960 0
2914 -2960 0
2916 -2960 0
-2918 -2920 2962 0
2918 -2962 0
2920 -2962 0
-2922 -2924 2964 0
2922 -2964 0
2924 -2964 0
-2926 -2928 2966 0
2926 -2966 0
2928 -2966 0
-2930 -2932 2968 0
2930 -2968 0
2932 -2968 0
-2934 -2936 2970 0
2934 -2970 0
2936 -2970 0
-2876 -2937 2972 0
2876 -2972 0
2937 -2972 0
-2939 -2941 2974 0
2939 -2974 0
2941 -2974 0
-2943 -2945 2976 0
2943 -2976 0
2945 -2976 0
-2947 -2949 2978 0
2947 -2978 0
2949 -2978 0
-2951 -2953 2980 0
2951 -2980 0
2953 -2980 0
-2955 -2957 2982 0
2955 -2982 0
2957 -2982 0
-2959 -2961 2984 0
2959 -2984 0
2961 -2984 0
-2963 -2965 2986 0
2963 -2986 0
2965 -2986 0
-2967 -2969 2988 0
2967 -2988 0
2969 -2988 0
-2971 -2973 2990 0
2971 -2990 0
2973 -2990 0
-2975 -2977 2992 0
2975 -2992 0
2977 -2992 0
-2979 -2981 2994 0
2979 -2994 0
2981 -2994 0
-2983 -2985 2996 0
2983 -2996 0
2985 -2996 0
-2987 -2989 2998 0
2987 -2998 0
2989 -2998 0
-2991 -2993 3000 0
2991 -3000 0
2993 -3000 0
-2995 -2997 3001 0
2995 -3001 0
2997 -3001 0
-2885 -2887 3123 0
2885 -3123 0
2887 -3123 0
-2889 -2891 3124 0
2889 -3124 0
2891 -3124 0
-2895 -2897 3008 0
2895 -3008 0
2897 -3008 0
-2899 -2901 3010 0
2899 -3010 0
2901 -3010 0
-2903 -2905 3126 0
2903 -3126 0
2905 -3126 0
-2909 -2911 3014 0
2909 -3014 0
2911 -3014 0
-2913 -2915 3016 0
2913 -3016 0
2915 -3016 0
-2917 -2919 3018 0
2917 -3018 0
2919 -3018 0
-2921 -2923 3020 0
2921 -3020 0
2923 -3020 0
-2925 -2927 3022 0
2925 -3022 0
2927 -3022 0
-2929 -2931 3024 0
2929 -3024 0
2931 -3024 0
-2933 -2935 3132 0
2933 -3132 0
2935 -3132 0
-2938 -2940 3028 0
2938 -3028 0
2940 -3028 0
-2942 -2944 3030 0
2942 -3030 0
2944 -3030 0
-2946 -2948 3032 0
2946 -3032 0
2948 -3032 0
-2950 -2952 3034 0
2950 -3034 0
2952 -3034 0
-2954 -2956 3036 0
2954 -3036 0
2956 -3036 0
-2958 -2960 3038 0
2958 -3038 0
2960 -3038 0
-2962 -2964 3040 0
2962 -3040 0
2964 -3040 0
-2966 -2968 3042 0
2966 -3042 0
2968 -3042 0
-2970 -2972 3044 0
2970 -3044 0
2972 -3044 0
-2974 -2976 3046 0
2974 -3046 0
2976 -3046 0
-2978 -2980 3048 0
2978 -3048 0
2980 -3048 0
-2982 -2984 3050 0
2982 -3050 0
2984 -3050 0
-2986 -2988 3052 0
2986 -3052 0
2988 -3052 0
-2990 -2992 3054 0
2990 -3054 0
2992 -3054 0
-2994 -2996 3056 0
2994 -3056 0
2996 -3056 0
-2998 -3000 3058 0
2998 -3058 0
3000 -3058 0
-2999 -3001 3147 0
3001 -3147 0
2999 -3147 0
-3003 -3004 3061 0
3003 -3061 0
3004 -3061 0
-3005 -3006 3063 0
3005 -3063 0
3006 -3063 0
-3007 -3009 3065 0
3007 -3065 0
3009 -3065 0
-3011 -3012 3067 0
3011 -3067 0
3012 -3067 0
-3013 -3015 3069 0
3013 -3069 0
3015 -3069 0
-3017 -3019 3071 0
3017 -3071 0
3019 -3071 0
-3021 -3023 3073 0
3021 -3073 0
3023 -3073 0
-3025 -3026 3075 0
3025 -3075 0
3026 -3075 0
-3027 -3029 3077 0
3027 -3077 0
3029 -3077 0
-3031 -3033 3079 0
3031 -3079 0
3033 -3079 0
-3035 -3037 3081 0
3035 -3081 0
3037 -3081 0
-3039 -3041 3083 0
3039 -3083 0
3041 -3083 0
-3043 -3045 3085 0
3043 -3085 0
3045 -3085 0
-3047 -3049 3087 0
3047 -3087 0
3049 -3087 0
-3051 -3053 3089 0
3051 -3089 0
3053 -3089 0
-3055 -3057 3091 0
3055 -3091 0
3057 -3091 0
-3002 -3059 3093 0
3059 -3093 0
3002 -3093 0
-3060 -3062 3095 0
3060 -3095 0
3062 -3095 0
-3064 -3066 3097 0
3064 -3097 0
3066 -3097 0
-3068 -3070 3099 0
3068 -3099 0
3070 -3099 0
-3072 -3074 3101 0
3072 -3101 0
3074 -3101 0
-3076 -3078 3103 0
3076 -3103 0
3078 -3103 0
-3080 -3082 3105 0
3080 -3105 0
3082 -3105 0
-3084 -3086 3107 0
3084 -3107 0
3086 -3107 0
-3088 -3090 3109 0
3088 -3109 0
3090 -3109 0
-3092 -3094 3111 0
3092 -3111 0
3094 -3111 0
-3096 -3098 3113 0
3096 -3113 0
3098 -3113 0
-3100 -3102 3115 0
3100 -3115 0
3102 -3115 0
-3104 -3106 3117 0
3104 -3117 0
3106 -3117 0
-3108 -3110 3119 0
3108 -3119 0
3110 -3119 0
-3112 -3114 3121 0
3112 -3121 0
3114 -3121 0
-3116 -3118 3122 0
3116 -3122 0
3118 -3122 0
-3008 -3010 3298 0
3008 -3298 0
3010 -3298 0
-3014 -3016 3242 0
3014 -3242 0
3016 -3242 0
-3018 -3020 3129 0
3018 -3129 0
3020 -3129 0
-3022 -3024 3131 0
3022 -3131 0
3024 -3131 0
-3028 -3030 3244 0
3028 -3244 0
3030 -3244 0
-3032 -3034 3135 0
3032 -3135 0
3034 -3135 0
-3036 -3038 3137 0
3036 -3137 0
3038 -3137 0
-3040 -3042 3139 0
3040 -3139 0
3042 -3139 0
-3044 -3046 3141 0
3044 -3141 0
3046 -3141 0
-3048 -3050 3143 0
3048 -3143 0
3050 -3143 0
-3052 -3054 3145 0
3052 -3145 0
3054 -3145 0
-3056 -3058 3250 0
3056 -3250 0
3058 -3250 0
-3061 -3063 3149 0
3061 -3149 0
3063 -3149 0
-3065 -3067 3151 0
3065 -3151 0
3067 -3151 0
-3069 -3071 3153 0
3069 -3153 0
3071 -3153 0
-3073 -3075 3155 0
3073 -3155 0
3075 -3155 0
-3077 -3079 3157 0
3077 -3157 0
3079 -3157 0
-3081 -3083 3159 0
3081 -3159 0
3083 -3159 0
-3085 -3087 3161 0
3085 -3161 0
3087 -3161 0
-3089 -3091 3163 0
3089 -3163 0
3091 -3163 0
-3093 -3095 3165 0
3093 -3165 0
3095 -3165 0
-3097 -3099 3167 0
3097 -3167 0
3099 -3167 0
-3101 -3103 3169 0
3101 -3169 0
3103 -3169 0
-3105 -3107 3171 0
3105 -3171 0
3107 -3171 0
-3109 -3111 3173 0
3109 -3173 0
3111 -3173 0
-3113 -3115 3175 0
3113 -3175 0
3115 -3175 0
-3117 -3119 3177 0
3117 -3177 0
3119 -3177 0
-3121 -3122 3179 0
3121 -3179 0
3122 -3179 0
-3123 -3124 3265 0
3123 -3265 0
3124 -3265 0
-3125 -3126 3182 0
3125 -3182 0
3126 -3182 0
-3127 -3128 3184 0
3127 -3184 0
3128 -3184 0
-3130 -3132 3186 0
3130 -3186 0
3132 -3186 0
-3133 -3134 3188 0
3133 -3188 0
3134 -3188 0
-3136 -3138 3190 0
3136 -3190 0
3138 -3190 0
-3140 -3142 3192 0
3140 -3192 0
3142 -3192 0
-3144 -3146 3194 0
3144 -3194 0
3146 -3194 0
-3147 -3148 3196 0
3147 -3196 0
3148 -3196 0
-3150 -3152 3198 0
3150 -3198 0
3152 -3198 0
-3154 -3156 3200 0
3154 -3200 0
3156 -3200 0
-3158 -3160 3202 0
3158 -3202 0
3160 -3202 0
-3162 -3164 3204 0
3162 -3204 0
3164 -3204 0
-3166 -3168 3206 0
3166 -3206 0
3168 -3206 0
-3170 -3172 3208 0
3170 -3208 0
3172 -3208 0
-3174 -3176 3210 0
3174 -3210 0
3176 -3210 0
-3120 -3178 3212 0
3178 -3212 0
3120 -3212 0
-3180 -3181 3214 0
3180 -3214 0
3181 -3214 0
-3183 -3185 3216 0
3183 -3216 0
3185 -3216 0
-3187 -3189 3218 0
3187 -3218 0
3189 -3218 0
-3191 -3193 3220 0
3191 -3220 0
3193 -3220 0
-3195 -3197 3222 0
3195 -3222 0
3197 -3222 0
-3199 -3201 3224 0
3199 -3224 0
3201 -3224 0
-3203 -3205 3226 0
3203 -3226 0
3205 -3226 0
-3207 -3209 3228 0
3207 -3228 0
3209 -3228 0
-3211 -3213 3230 0
3211 -3230 0
3213 -3230 0
-3215 -3217 3232 0
3215 -3232 0
3217 -3232 0
-3219 -3221 3234 0
3219 -3234 0
3221 -3234 0
-3223 -3225 3236 0
3223 -3236 0
3225 -3236 0
-3227 -3229 3238 0
3227 -3238 0
3229 -3238 0
-3231 -3233 3240 0
3231 -3240 0
3233 -3240 0
-3235 -3237 3241 0
3235 -3241 0
3237 -3241 0
-3129 -3131 3359 0
3129 -3359 0
3131 -3359 0
-3135 -3137 3360 0
3135 -3360 0
3137 -3360 0
-3139 -3141 3247 0
3139 -3247 0
3141 -3247 0
-3143 -3145 3249 0
3143 -3249 0
3145 -3249 0
-3149 -3151 3362 0
3149 -3362 0
3151 -3362 0
-3153 -3155 3253 0
3153 -3253 0
3155 -3253 0
-3157 -3159 3255 0
3157 -3255 0
3159 -3255 0
-3161 -3163 3257 0
3161 -3257 0
3163 -3257 0
-3165 -3167 3259 0
3165 -3259 0
3167 -3259 0
-3169 -3171 3261 0
3169 -3261 0
3171 -3261 0
-3173 -3175 3263 0
3173 -3263 0
3175 -3263 0
-3177 -3179 3368 0
3177 -3368 0
3179 -3368 0
-3182 -3184 3267 0
3182 -3267 0
3184 -3267 0
-3186 -3188 3269 0
3186 -3269 0
3188 -3269 0
-3190 -3192 3271 0
3190 -3271 0
3192 -3271 0
-3194 -3196 3273 0
3194 -3273 0
3196 -3273 0
-3198 -3200 3275 0
3198 -3275 0
3200 -3275 0
-3202 -3204 3277 0
3202 -3277 0
3204 -3277 0
-3206 -3208 3279 0
3206 -3279 0
3208 -3279 0
-3210 -3212 3281 0
3210 -3281 0
3212 -3281 0
-3214 -3216 3283 0
3214 -3283 0
3216 -3283 0
-3218 -3220 3285 0
3218 -3285 0
3220 -3285 0
-3222 -3224 3287 0
3222 -3287 0
3224 -3287 0
-3226 -3228 3289 0
3226 -3289 0
3228 -3289 0
-3230 -3232 3291 0
3230 -3291 0
3232 -3291 0
-3234 -3236 3293 0
3234 -3293 0
3236 -3293 0
-3238 -3240 3295 0
3238 -3295 0
3240 -3295 0
-3239 -3241 3297 0
3241 -3297 0
3239 -3297 0
-3242 -3243 3383 0
3242 -3383 0
3243 -3383 0
-3244 -3245 3301 0
3244 -3301 0
3245 -3301 0
-3246 -3248 3303 0
3246 -3303 0
3248 -3303 0
-3250 -3251 3305 0
3250 -3305 0
3251 -3305 0
-3252 -3254 3307 0
3252 -3307 0
3254 -3307 0
-3256 -3258 3309 0
3256 -3309 0
3258 -3309 0
-3260 -3262 3311 0
3260 -3311 0
3262 -3311 0
-3264 -3265 3313 0
3264 -3313 0
3265 -3313 0
-3266 -3268 3315 0
3266 -3315 0
3268 -3315 0
-3270 -3272 3317 0
3270 -3317 0
3272 -3317 0
-3274 -3276 3319 0
3274 -3319 0
3276 -3319 0
-3278 -3280 3321 0
3278 -3321 0
3280 -3321 0
-3282 -3284 3323 0
3282 -3323 0
3284 -3323 0
-3286 -3288 3325 0
3286 -3325 0
3288 -3325 0
-3290 -3292 3327 0
3290 -3327 0
3292 -3327 0
-3294 -3296 3329 0
3294 -3329 0
3296 -3329 0
-3298 -3299 3331 0
3298 -3331 0
3299 -3331 0
-3300 -3302 3333 0
3300 -3333 0
3302 -3333 0
-3304 -3306 3335 0
3304 -3335 0
3306 -3335 0
-3308 -3310 3337 0
3308 -3337 0
3310 -3337 0
-3312 -3314 3339 0
3312 -3339 0
3314 -3339 0
-3316 -3318 3341 0
3316 -3341 0
3318 -3341 0
-3320 -3322 3343 0
3320 -3343 0
3322 -3343 0
-3324 -3326 3345 0
3324 -3345 0
3326 -3345 0
-3328 -3330 3347 0
3328 -3347 0
3330 -3347 0
-3332 -3334 3349 0
3332 -3349 0
3334 -3349 0
-3336 -3338 3351 0
3336 -3351 0
3338 -3351 0
-3340 -3342 3353 0
3340 -3353 0
3342 -3353 0
-3344 -3346 3355 0
3344 -3355 0
3346 -3355 0
-3348 -3350 3357 0
3348 -3357 0
3350 -3357 0
-3352 -3354 3358 0
3352 -3358 0
3354 -3358 0
-3247 -3249 3474 0
3247 -3474 0
3249 -3474 0
-3253 -3255 3475 0
3253 -3475 0
3255 -3475 0
-3257 -3259 3365 0
3257 -3365 0
3259 -3365 0
-3261 -3263 3367 0
3261 -3367 0
3263 -3367 0
-3267 -3269 3477 0
3267 -3477 0
3269 -3477 0
-3271 -3273 3371 0
3271 -3371 0
3273 -3371 0
-3275 -3277 3373 0
3275 -3373 0
3277 -3373 0
-3279 -3281 3375 0
3279 -3375 0
3281 -3375 0
-3283 -3285 3377 0
3283 -3377 0
3285 -3377 0
-3287 -3289 3379 0
3287 -3379 0
3289 -3379 0
-3291 -3293 3381 0
3291 -3381 0
3293 -3381 0
-3295 -3297 3483 0
3295 -3483 0
3297 -3483 0
-3301 -3303 3385 0
3301 -3385 0
3303 -3385 0
-3305 -3307 3387 0
3305 -3387 0
3307 -3387 0
-3309 -3311 3389 0
3309 -3389 0
3311 -3389 0
-3313 -3315 3391 0
3313 -3391 0
3315 -3391 0
-3317 -3319 3393 0
3317 -3393 0
3319 -3393 0
-3321 -3323 3395 0
3321 -3395 0
3323 -3395 0
-3325 -3327 3397 0
3325 -3397 0
3327 -3397 0
-3329 -3331 3399 0
3329 -3399 0
3331 -3399 0
-3333 -3335 3401 0
3333 -3401 0
3335 -3401 0
-3337 -3339 3403 0
3337 -3403 0
3339 -3403 0
-3341 -3343 3405 0
3341 -3405 0
3343 -3405 0
-3345 -3347 3407 0
3345 -3407 0
3347 -3407 0
-3349 -3351 3409 0
3349 -3409 0
3351 -3409 0
-3353 -3355 3411 0
3353 -3411 0
3355 -3411 0
-3357 -3358 3497 0
3357 -3497 0
3358 -3497 0
-3359 -3360 3414 0
3359 -3414 0
3360 -3414 0
-3361 -3362 3416 0
3361 -3416 0
3362 -3416 0
-3363 -3364 3418 0
3363 -3418 0
3364 -3418 0
-3366 -3368 3420 0
3366 -3420 0
3368 -3420 0
-3369 -3370 3422 0
3369 -3422 0
3370 -3422 0
-3372 -3374 3424 0
3372 -3424 0
3374 -3424 0
-3376 -3378 3426 0
3376 -3426 0
3378 -3426 0
-3380 -3382 3428 0
3380 -3428 0
3382 -3428 0
-3383 -3384 3430 0
3383 -3430 0
3384 -3430 0
-3386 -3388 3432 0
3386 -3432 0
3388 -3432 0
-3390 -3392 3434 0
3390 -3434 0
3392 -3434 0
-3394 -3396 3436 0
3394 -3436 0
3396 -3436 0
-3398 -3400 3438 0
3398 -3438 0
3400 -3438 0
-3402 -3404 3440 0
3402 -3440 0
3404 -3440 0
-3406 -3408 3442 0
3406 -3442 0
3408 -3442 0
-3410 -3412 3444 0
3410 -3444 0
3412 -3444 0
-3356 -3413 3446 0
3356 -3446 0
3413 -3446 0
-3415 -3417 3448 0
3415 -3448 0
3417 -3448 0
-3419 -3421 3450 0
3419 -3450 0
3421 -3450 0
-3423 -3425 3452 0
3423 -3452 0
3425 -3452 0
-3427 -3429 3454 0
3427 -3454 0
3429 -3454 0
-3431 -3433 3456 0
3431 -3456 0
3433 -3456 0
-3435 -3437 3458 0
3435 -3458 0
3437 -3458 0
-3439 -3441 3460 0
3439 -3460 0
3441 -3460 0
-3443 -3445 3462 0
3443 -3462 0
3445 -3462 0
-3447 -3449 3464 0
3447 -3464 0
3449 -3464 0
-3451 -3453 3466 0
3451 -3466 0
3453 -3466 0
-3455 -3457 3468 0
3455 -3468 0
3457 -3468 0
-3459 -3461 3470 0
3459 -3470 0
3461 -3470 0
-3463 -3465 3472 0
3463 -3472 0
3465 -3472 0
-3467 -3469 3473 0
3467 -3473 0
3469 -3473 0
-3365 -3367 3587 0
3365 -3587 0
3367 -3587 0
-3371 -3373 3588 0
3371 -3588 0
3373 -3588 0
-3375 -3377 3480 0
3375 -3480 0
3377 -3480 0
-3379 -3381 3482 0
3379 -3482 0
3381 -3482 0
-3385 -3387 3590 0
3385 -3590 0
3387 -3590 0
-3389 -3391 3486 0
3389 -3486 0
3391 -3486 0
-3393 -3395 3488 0
3393 -3488 0
3395 -3488 0
-3397 -3399 3490 0
3397 -3490 0
3399 -3490 0
-3401 -3403 3492 0
3401 -3492 0
3403 -3492 0
-3405 -3407 3494 0
3405 -3494 0
3407 -3494 0
-3409 -3411 3496 0
3409 -3496 0
3411 -3496 0
-3414 -3416 3596 0
3414 -3596 0
3416 -3596 0
-3418 -3420 3500 0
3418 -3500 0
3420 -3500 0
-3422 -3424 3502 0
3422 -3502 0
3424 -3502 0
-3426 -3428 3504 0
3426 -3504 0
3428 -3504 0
-3430 -3432 3506 0
3430 -3506 0
3432 -3506 0
-3434 -3436 3508 0
3434 -3508 0
3436 -3508 0
-3438 -3440 3510 0
3438 -3510 0
3440 -3510 0
-3442 -3444 3512 0
3442 -3512 0
3444 -3512 0
-3446 -3448 3514 0
3446 -3514 0
3448 -3514 0
-3450 -3452 3516 0
3450 -3516 0
3452 -3516 0
-3454 -3456 3518 0
3454 -3518 0
3456 -3518 0
-3458 -3460 3520 0
3458 -3520 0
3460 -3520 0
-3462 -3464 3522 0
3462 -3522 0
3464 -3522 0
-3466 -3468 3524 0
3466 -3524 0
3468 -3524 0
-3470 -3472 3526 0
3470 -3526 0
3472 -3526 0
-3471 -3473 3610 0
3473 -3610 0
3471 -3610 0
-3475 -3476 3529 0
3475 -3529 0
3476 -3529 0
-3477 -3478 3531 0
3477 -3531 0
3478 -3531 0
-3479 -3481 3533 0
3479 -3533 0
3481 -3533 0
-3483 -3484 3535 0
3483 -3535 0
3484 -3535 0
-3485 -3487 3537 0
3485 -3537 0
3487 -3537 0
-3489 -3491 3539 0
3489 -3539 0
3491 -3539 0
-3493 -3495 3541 0
3493 -3541 0
3495 -3541 0
-3497 -3498 3543 0
3497 -3543 0
3498 -3543 0
-3499 -3501 3545 0
3499 -3545 0
3501 -3545 0
-3503 -3505 3547 0
3503 -3547 0
3505 -3547 0
-3507 -3509 3549 0
3507 -3549 0
3509 -3549 0
-3511 -3513 3551 0
3511 -3551 0
3513 -3551 0
-3515 -3517 3553 0
3515 -3553 0
3517 -3553 0
-3519 -3521 3555 0
3519 -3555 0
3521 -3555 0
-3523 -3525 3557 0
3523 -3557 0
3525 -3557 0
-3474 -3527 3559 0
3527 -3559 0
3474 -3559 0
-3528 -3530 3561 0
3528 -3561 0
3530 -3561 0
-3532 -3534 3563 0
3532 -3563 0
3534 -3563 0
-3536 -3538 3565 0
3536 -3565 0
3538 -3565 0
-3540 -3542 3567 0
3540 -3567 0
3542 -3567 0
-3544 -3546 3569 0
3544 -3569 0
3546 -3569 0
-3548 -3550 3571 0
3548 -3571 0
3550 -3571 0
-3552 -3554 3573 0
3552 -3573 0
3554 -3573 0
-3556 -3558 3575 0
3556 -3575 0
3558 -3575 0
-3560 -3562 3577 0
3560 -3577 0
3562 -3577 0
-3564 -3566 3579 0
3564 -3579 0
3566 -3579 0
-3568 -3570 3581 0
3568 -3581 0
3570 -3581 0
-3572 -3574 3583 0
3572 -3583 0
3574 -3583 0
-3576 -3578 3585 0
3576 -3585 0
3578 -3585 0
-3580 -3582 3586 0
3580 -3586 0
3582 -3586 0
-3480 -3482 3698 0
3480 -3698 0
3482 -3698 0
-3486 -3488 3699 0
3486 -3699 0
3488 -3699 0
-3490 -3492 3593 0
3490 -3593 0
3492 -3593 0
-3494 -3496 3595 0
3494 -3595 0
3496 -3595 0
-3500 -3502 3701 0
3500 -3701 0
3502 -3701 0
-3504 -3506 3599 0
3504 -3599 0
3506 -3599 0
-3508 -3510 3601 0
3508 -3601 0
3510 -3601 0
-3512 -3514 3603 0
3512 -3603 0
3514 -3603 0
-3516 -3518 3605 0
3516 -3605 0
3518 -3605 0
-3520 -3522 3607 0
3520 -3607 0
3522 -3607 0
-3524 -3526 3609 0
3524 -3609 0
3526 -3609 0
-3529 -3531 3707 0
3529 -3707 0
3531 -3707 0
-3533 -3535 3613 0
3533 -3613 0
3535 -3613 0
-3537 -3539 3615 0
3537 -3615 0
3539 -3615 0
-3541 -3543 3617 0
3541 -3617 0
3543 -3617 0
-3545 -3547 3619 0
3545 -3619 0
3547 -3619 0
-3549 -3551 3621 0
3549 -3621 0
3551 -3621 0
-3553 -3555 3623 0
3553 -3623 0
3555 -3623 0
-3557 -3559 3625 0
3557 -3625 0
3559 -3625 0
-3561 -3563 3627 0
3561 -3627 0
3563 -3627 0
-3565 -3567 3629 0
3565 -3629 0
3567 -3629 0
-3569 -3571 3631 0
3569 -3631 0
3571 -3631 0
-3573 -3575 3633 0
3573 -3633 0
3575 -3633 0
-3577 -3579 3635 0
3577 -3635 0
3579 -3635 0
-3581 -3583 3637 0
3581 -3637 0
3583 -3637 0
-3585 -3586 3639 0
3585 -3639 0
3586 -3639 0
-3587 -3588 3721 0
3587 -3721 0
3588 -3721 0
-3589 -3590 3642 0
3589 -3642 0
3590 -3642 0
-3591 -3592 3644 0
3591 -3644 0
3592 -3644 0
-3594 -3596 3646 0
3594 -3646 0
3596 -3646 0
-3597 -3598 3648 0
3597 -3648 0
3598 -3648 0
-3600 -3602 3650 0
3600 -3650 0
3602 -3650 0
-3604 -3606 3652 0
3604 -3652 0
3606 -3652 0
-3608 -3610 3654 0
3608 -3654 0
3610 -3654 0
-3611 -3612 3656 0
3611 -3656 0
3612 -3656 0
-3614 -3616 3658 0
3614 -3658 0
3616 -3658 0
-3618 -3620 3660 0
3618 -3660 0
3620 -3660 0
-3622 -3624 3662 0
3622 -3662 0
3624 -3662 0
-3626 -3628 3664 0
3626 -3664 0
3628 -3664 0
-3630 -3632 3666 0
3630 -3666 0
3632 -3666 0
-3634 -3636 3668 0
3634 -3668 0
3636 -3668 0
-3584 -3638 3670 0
3638 -3670 0
3584 -3670 0
-3640 -3641 3672 0
3640 -3672 0
3641 -3672 0
-3643 -3645 3674 0
3643 -3674 0
3645 -3674 0
-3647 -3649 3676 0
3647 -3676 0
3649 -3676 0
-3651 -3653 3678 0
3651 -3678 0
3653 -3678 0
-3655 -3657 3680 0
3655 -3680 0
3657 -3680 0
-3659 -3661 3682 0
3659 -3682 0
3661 -3682 0
-3663 -3665 3684 0
3663 -3684 0
3665 -3684 0
-3667 -3669 3686 0
3667 -3686 0
3669 -3686 0
-3671 -3673 3688 0
3671 -3688 0
3673 -3688 0
-3675 -3677 3690 0
3675 -3690 0
3677 -3690 0
-3679 -3681 3692 0
3679 -3692 0
3681 -3692 0
-3683 -3685 3694 0
3683 -3694 0
3685 -3694 0
-3687 -3689 3696 0
3687 -3696 0
3689 -3696 0
-3691 -3693 3697 0
3691 -3697 0
3693 -3697 0
-3593 -3595 3807 0
3593 -3807 0
3595 -3807 0
-3599 -3601 3808 0
3599 -3808 0
3601 -3808 0
-3603 -3605 3704 0
3603 -3704 0
3605 -3704 0
-3607 -3609 3706 0
3607 -3706 0
3609 -3706 0
-3613 -3615 3810 0
3613 -3810 0
3615 -3810 0
-3617 -3619 3710 0
3617 -3710 0
3619 -3710 0
-3621 -3623 3712 0
3621 -3712 0
3623 -3712 0
-3625 -3627 3714 0
3625 -3714 0
3627 -3714 0
-3629 -3631 3716 0
3629 -3716 0
3631 -3716 0
-3633 -3635 3718 0
3633 -3718 0
3635 -3718 0
-3637 -3639 3720 0
3637 -3720 0
3639 -3720 0
-3642 -3644 3816 0
3642 -3816 0
3644 -3816 0
-3646 -3648 3724 0
3646 -3724 0
3648 -3724 0
-3650 -3652 3726 0
3650 -3726 0
3652 -3726 0
-3654 -3656 3728 0
3654 -3728 0
3656 -3728 0
-3658 -3660 3730 0
3658 -3730 0
3660 -3730 0
-3662 -3664 3732 0
3662 -3732 0
3664 -3732 0
-3666 -3668 3734 0
3666 -3734 0
3668 -3734 0
-3670 -3672 3736 0
3670 -3736 0
3672 -3736 0
-3674 -3676 3738 0
3674 -3738 0
3676 -3738 0
-3678 -3680 3740 0
3678 -3740 0
3680 -3740 0
-3682 -3684 3742 0
3682 -3742 0
3684 -3742 0
-3686 -3688 3744 0
3686 -3744 0
3688 -3744 0
-3690 -3692 3746 0
3690 -3746 0
3692 -3746 0
-3694 -3696 3748 0
3694 -3748 0
3696 -3748 0
-3695 -3697 3750 0
3697 -3750 0
3695 -3750 0
-3699 -3700 3830 0
3699 -3830 0
3700 -3830 0
-3701 -3702 3753 0
3701 -3753 0
3702 -3753 0
-3703 -3705 3755 0
3703 -3755 0
3705 -3755 0
-3707 -3708 3757 0
3707 -3757 0
3708 -3757 0
-3709 -3711 3759 0
3709 -3759 0
3711 -3759 0
-3713 -3715 3761 0
3713 -3761 0
3715 -3761 0
-3717 -3719 3763 0
3717 -3763 0
3719 -3763 0
-3721 -3722 3765 0
3721 -3765 0
3722 -3765 0
-3723 -3725 3767 0
3723 -3767 0
3725 -3767 0
-3727 -3729 3769 0
3727 -3769 0
3729 -3769 0
-3731 -3733 3771 0
3731 -3771 0
3733 -3771 0
-3735 -3737 3773 0
3735 -3773 0
3737 -3773 0
-3739 -3741 3775 0
3739 -3775 0
3741 -3775 0
-3743 -3745 3777 0
3743 -3777 0
3745 -3777 0
-3747 -3749 3779 0
3747 -3779 0
3749 -3779 0
-3698 -3751 3781 0
3698 -3781 0
3751 -3781 0
-3752 -3754 3783 0
3752 -3783 0
3754 -3783 0
-3756 -3758 3785 0
3756 -3785 0
3758 -3785 0
-3760 -3762 3787 0
3760 -3787 0
3762 -3787 0
-3764 -3766 3789 0
3764 -3789 0
3766 -3789 0
-3768 -3770 3791 0
3768 -3791 0
3770 -3791 0
-3772 -3774 3793 0
3772 -3793 0
3774 -3793 0
-3776 -3778 3795 0
3776 -3795 0
3778 -3795 0
-3780 -3782 3797 0
3780 -3797 0
3782 -3797 0
-3784 -3786 3799 0
3784 -3799 0
3786 -3799 0
-3788 -3790 3801 0
3788 -3801 0
3790 -3801 0
-3792 -3794 3803 0
3792 -3803 0
3794 -3803 0
-3796 -3798 3805 0
3796 -3805 0
3798 -3805 0
-3800 -3802 3806 0
3800 -3806 0
3802 -3806 0
-3704 -3706 3963 0
3704 -3963 0
3706 -3963 0
-3710 -3712 3914 0
3710 -3914 0
3712 -3914 0
-3714 -3716 3813 0
3714 -3813 0
3716 -3813 0
-3718 -3720 3815 0
3718 -3815 0
3720 -3815 0
-3724 -3726 3916 0
3724 -3916 0
3726 -3916 0
-3728 -3730 3819 0
3728 -3819 0
3730 -3819 0
-3732 -3734 3821 0
3732 -3821 0
3734 -3821 0
-3736 -3738 3823 0
3736 -3823 0
3738 -3823 0
-3740 -3742 3825 0
3740 -3825 0
3742 -3825 0
-3744 -3746 3827 0
3744 -3827 0
3746 -3827 0
-3748 -3750 3829 0
3748 -3829 0
3750 -3829 0
-3753 -3755 3922 0
3753 -3922 0
3755 -3922 0
-3757 -3759 3833 0
3757 -3833 0
3759 -3833 0
-3761 -3763 3835 0
3761 -3835 0
3763 -3835 0
-3765 -3767 3837 0
3765 -3837 0
3767 -3837 0
-3769 -3771 3839 0
3769 -3839 0
3771 -3839 0
-3773 -3775 3841 0
3773 -3841 0
3775 -3841 0
-3777 -3779 3843 0
3777 -3843 0
3779 -3843 0
-3781 -3783 3845 0
3781 -3845 0
3783 -3845 0
-3785 -3787 3847 0
3785 -3847 0
3787 -3847 0
-3789 -3791 3849 0
3789 -3849 0
3791 -3849 0
-3793 -3795 3851 0
3793 -3851 0
3795 -3851 0
-3797 -3799 3853 0
3797 -3853 0
3799 -3853 0
-3801 -3803 3855 0
3801 -3855 0
3803 -3855 0
-3805 -3806 3933 0
3805 -3933 0
3806 -3933 0
-3807 -3808 3858 0
3807 -3858 0
3808 -3858 0
-3809 -3810 3860 0
3809 -3860 0
3810 -3860 0
-3811 -3812 3862 0
3811 -3862 0
3812 -3862 0
-3814 -3816 3864 0
3814 -3864 0
3816 -3864 0
-3817 -3818 3866 0
3817 -3866 0
3818 -3866 0
-3820 -3822 3868 0
3820 -3868 0
3822 -3868 0
-3824 -3826 3870 0
3824 -3870 0
3826 -3870 0
-3828 -3830 3872 0
3828 -3872 0
3830 -3872 0
-3831 -3832 3874 0
3831 -3874 0
3832 -3874 0
-3834 -3836 3876 0
3834 -3876 0
3836 -3876 0
-3838 -3840 3878 0
3838 -3878 0
3840 -3878 0
-3842 -3844 3880 0
3842 -3880 0
3844 -3880 0
-3846 -3848 3882 0
3846 -3882 0
3848 -3882 0
-3850 -3852 3884 0
3850 -3884 0
3852 -3884 0
-3854 -3856 3886 0
3854 -3886 0
3856 -3886 0
-3804 -3857 3888 0
3804 -3888 0
3857 -3888 0
-3859 -3861 3890 0
3859 -3890 0
3861 -3890 0
-3863 -3865 3892 0
3863 -3892 0
3865 -3892 0
-3867 -3869 3894 0
3867 -3894 0
3869 -3894 0
-3871 -3873 3896 0
3871 -3896 0
3873 -3896 0
-3875 -3877 3898 0
3875 -3898 0
3877 -3898 0
-3879 -3881 3900 0
3879 -3900 0
3881 -3900 0
-3883 -3885 3902 0
3883 -3902 0
3885 -3902 0
-3887 -3889 3904 0
3887 -3904 0
3889 -3904 0
-3891 -3893 3906 0
3891 -3906 0
3893 -3906 0
-3895 -3897 3908 0
3895 -3908 0
3897 -3908 0
-3899 -3901 3910 0
3899 -3910 0
3901 -3910 0
-3903 -3905 3912 0
3903 -3912 0
3905 -3912 0
-3907 -3909 3913 0
3907 -3913 0
3909 -3913 0
-3813 -3815 4019 0
3813 -4019 0
3815 -4019 0
-3819 -3821 4020 0
3819 -4020 0
3821 -4020 0
-3823 -3825 3919 0
3823 -3919 0
3825 -3919 0
-3827 -3829 3921 0
3827 -3921 0
3829 -3921 0
-3833 -3835 4022 0
3833 -4022 0
3835 -4022 0
-3837 -3839 3925 0
3837 -3925 0
3839 -3925 0
-3841 -3843 3927 0
3841 -3927 0
3843 -3927 0
-3845 -3847 3929 0
3845 -3929 0
3847 -3929 0
-3849 -3851 3931 0
3849 -3931 0
3851 -3931 0
-3853 -3855 4025 0
3853 -4025 0
3855 -4025 0
-3858 -3860 3935 0
3858 -3935 0
3860 -3935 0
-3862 -3864 3937 0
3862 -3937 0
3864 -3937 0
-3866 -3868 3939 0
3866 -3939 0
3868 -3939 0
-3870 -3872 3941 0
3870 -3941 0
3872 -3941 0
-3874 -3876 3943 0
3874 -3943 0
3876 -3943 0
-3878 -3880 3945 0
3878 -3945 0
3880 -3945 0
-3882 -3884 3947 0
3882 -3947 0
3884 -3947 0
-3886 -3888 3949 0
3886 -3949 0
3888 -3949 0
-3890 -3892 3951 0
3890 -3951 0
3892 -3951 0
-3894 -3896 3953 0
3894 -3953 0
3896 -3953 0
-3898 -3900 3955 0
3898 -3955 0
3900 -3955 0
-3902 -3904 3957 0
3902 -3957 0
3904 -3957 0
-3906 -3908 3959 0
3906 -3959 0
3908 -3959 0
-3910 -3912 3961 0
3910 -3961 0
3912 -3961 0
-3911 -3913 4039 0
3913 -4039 0
3911 -4039 0
-3914 -3915 3965 0
3914 -3965 0
3915 -3965 0
-3916 -3917 3967 0
3916 -3967 0
3917 -3967 0
-3918 -3920 3969 0
3918 -3969 0
3920 -3969 0
-3922 -3923 3971 0
3922 -3971 0
3923 -3971 0
-3924 -3926 3973 0
3924 -3973 0
3926 -3973 0
-3928 -3930 3975 0
3928 -3975 0
3930 -3975 0
-3932 -3933 3977 0
3932 -3977 0
3933 -3977 0
-3934 -3936 3979 0
3934 -3979 0
3936 -3979 0
-3938 -3940 3981 0
3938 -3981 0
3940 -3981 0
-3942 -3944 3983 0
3942 -3983 0
3944 -3983 0
-3946 -3948 3985 0
3946 -3985 0
3948 -3985 0
-3950 -3952 3987 0
3950 -3987 0
3952 -3987 0
-3954 -3956 3989 0
3954 -3989 0
3956 -3989 0
-3958 -3960 3991 0
3958 -3991 0
3960 -3991 0
-3962 -3963 3993 0
3962 -3993 0
3963 -3993 0
-3964 -3966 3995 0
3964 -3995 0
3966 -3995 0
-3968 -3970 3997 0
3968 -3997 0
3970 -3997 0
-3972 -3974 3999 0
3972 -3999 0
3974 -3999 0
-3976 -3978 4001 0
3976 -4001 0
3978 -4001 0
-3980 -3982 4003 0
3980 -4003 0
3982 -4003 0
-3984 -3986 4005 0
3984 -4005 0
3986 -4005 0
-3988 -3990 4007 0
3988 -4007 0
3990 -4007 0
-3992 -3994 4009 0
3992 -4009 0
3994 -4009 0
-3996 -3998 4011 0
3996 -4011 0
3998 -4011 0
-4000 -4002 4013 0
4000 -4013 0
4002 -4013 0
-4004 -4006 4015 0
4004 -4015 0
4006 -4015 0
-4008 -4010 4017 0
4008 -4017 0
4010 -4017 0
-4012 -4014 4018 0
4012 -4018 0
4014 -4018 0
-3919 -3921 4122 0
3919 -4122 0
3921 -4122 0
-3925 -3927 4123 0
3925 -4123 0
3927 -4123 0
-3929 -3931 4124 0
3929 -4124 0
3931 -4124 0
-3935 -3937 4027 0
3935 -4027 0
3937 -4027 0
-3939 -3941 4029 0
3939 -4029 0
3941 -4029 0
-3943 -3945 4031 0
3943 -4031 0
3945 -4031 0
-3947 -3949 4033 0
3947 -4033 0
3949 -4033 0
-3951 -3953 4035 0
3951 -4035 0
3953 -4035 0
-3955 -3957 4037 0
3955 -4037 0
3957 -4037 0
-3959 -3961 4130 0
3959 -4130 0
3961 -4130 0
-3965 -3967 4041 0
3965 -4041 0
3967 -4041 0
-3969 -3971 4043 0
3969 -4043 0
3971 -4043 0
-3973 -3975 4045 0
3973 -4045 0
3975 -4045 0
-3977 -3979 4047 0
3977 -4047 0
3979 -4047 0
-3981 -3983 4049 0
3981 -4049 0
3983 -4049 0
-3985 -3987 4051 0
3985 -4051 0
3987 -4051 0
-3989 -3991 4053 0
3989 -4053 0
3991 -4053 0
-3993 -3995 4055 0
3993 -4055 0
3995 -4055 0
-3997 -3999 4057 0
3997 -4057 0
3999 -4057 0
-4001 -4003 4059 0
4001 -4059 0
4003 -4059 0
-4005 -4007 4061 0
4005 -4061 0
4007 -4061 0
-4009 -4011 4063 0
4009 -4063 0
4011 -4063 0
-4013 -4015 4065 0
4013 -4065 0
4015 -4065 0
-4017 -4018 4067 0
4017 -4067 0
4018 -4067 0
-4019 -4020 4144 0
4019 -4144 0
4020 -4144 0
-4021 -4022 4070 0
4021 -4070 0
4022 -4070 0
-4023 -4024 4072 0
4023 -4072 0
4024 -4072 0
-4025 -4026 4074 0
4025 -4074 0
4026 -4074 0
-4028 -4030 4076 0
4028 -4076 0
4030 -4076 0
-4032 -4034 4078 0
4032 -4078 0
4034 -4078 0
-4036 -4038 4080 0
4036 -4080 0
4038 -4080 0
-4039 -4040 4082 0
4039 -4082 0
4040 -4082 0
-4042 -4044 4084 0
4042 -4084 0
4044 -4084 0
-4046 -4048 4086 0
4046 -4086 0
4048 -4086 0
-4050 -4052 4088 0
4050 -4088 0
4052 -4088 0
-4054 -4056 4090 0
4054 -4090 0
4056 -4090 0
-4058 -4060 4092 0
4058 -4092 0
4060 -4092 0
-4062 -4064 4094 0
4062 -4094 0
4064 -4094 0
-4016 -4066 4096 0
4066 -4096 0
4016 -4096 0
-4068 -4069 4098 0
4068 -4098 0
4069 -4098 0
-4071 -4073 4100 0
4071 -4100 0
4073 -4100 0
-4075 -4077 4102 0
4075 -4102 0
4077 -4102 0
-4079 -4081 4104 0
4079 -4104 0
4081 -4104 0
-4083 -4085 4106 0
4083 -4106 0
4085 -4106 0
-4087 -4089 4108 0
4087 -4108 0
4089 -4108 0
-4091 -4093 4110 0
4091 -4110 0
4093 -4110 0
-4095 -4097 4112 0
4095 -4112 0
4097 -4112 0
-4099 -4101 4114 0
4099 -4114 0
4101 -4114 0
-4103 -4105 4116 0
4103 -4116 0
4105 -4116 0
-4107 -4109 4118 0
4107 -4118 0
4109 -4118 0
-4111 -4113 4120 0
4111 -4120 0
4113 -4120 0
-4115 -4117 4121 0
4115 -4121 0
4117 -4121 0
-4027 -4029 4126 0
4027 -4126 0
4029 -4126 0
-4031 -4033 4128 0
4031 -4128 0
4033 -4128 0
-4035 -4037 4225 0
4035 -4225 0
4037 -4225 0
-4041 -4043 4132 0
4041 -4132 0
4043 -4132 0
-4045 -4047 4134 0
4045 -4134 0
4047 -4134 0
-4049 -4051 4136 0
4049 -4136 0
4051 -4136 0
-4053 -4055 4138 0
4053 -4138 0
4055 -4138 0
-4057 -4059 4140 0
4057 -4140 0
4059 -4140 0
-4061 -4063 4142 0
4061 -4142 0
4063 -4142 0
-4065 -4067 4231 0
4065 -4231 0
4067 -4231 0
-4070 -4072 4146 0
4070 -4146 0
4072 -4146 0
-4074 -4076 4148 0
4074 -4148 0
4076 -4148 0
-4078 -4080 4150 0
4078 -4150 0
4080 -4150 0
-4082 -4084 4152 0
4082 -4152 0
4084 -4152 0
-4086 -4088 4154 0
4086 -4154 0
4088 -4154 0
-4090 -4092 4156 0
4090 -4156 0
4092 -4156 0
-4094 -4096 4158 0
4094 -4158 0
4096 -4158 0
-4098 -4100 4160 0
4098 -4160 0
4100 -4160 0
-4102 -4104 4162 0
4102 -4162 0
4104 -4162 0
-4106 -4108 4164 0
4106 -4164 0
4108 -4164 0
-4110 -4112 4166 0
4110 -4166 0
4112 -4166 0
-4114 -4116 4168 0
4114 -4168 0
4116 -4168 0
-4118 -4120 4170 0
4118 -4170 0
4120 -4170 0
-4119 -4121 4172 0
4121 -4172 0
4119 -4172 0
-4123 -4124 4245 0
4123 -4245 0
4124 -4245 0
-4125 -4127 4175 0
4125 -4175 0
4127 -4175 0
-4129 -4130 4177 0
4129 -4177 0
4130 -4177 0
-4131 -4133 4179 0
4131 -4179 0
4133 -4179 0
-4135 -4137 4181 0
4135 -4181 0
4137 -4181 0
-4139 -4141 4183 0
4139 -4183 0
4141 -4183 0
-4143 -4144 4185 0
4143 -4185 0
4144 -4185 0
-4145 -4147 4187 0
4145 -4187 0
4147 -4187 0
-4149 -4151 4189 0
4149 -4189 0
4151 -4189 0
-4153 -4155 4191 0
4153 -4191 0
4155 -4191 0
-4157 -4159 4193 0
4157 -4193 0
4159 -4193 0
-4161 -4163 4195 0
4161 -4195 0
4163 -4195 0
-4165 -4167 4197 0
4165 -4197 0
4167 -4197 0
-4169 -4171 4199 0
4169 -4199 0
4171 -4199 0
-4122 -4173 4201 0
4122 -4201 0
4173 -4201 0
-4174 -4176 4203 0
4174 -4203 0
4176 -4203 0
-4178 -4180 4205 0
4178 -4205 0
4180 -4205 0
-4182 -4184 4207 0
4182 -4207 0
4184 -4207 0
-4186 -4188 4209 0
4186 -4209 0
4188 -4209 0
-4190 -4192 4211 0
4190 -4211 0
4192 -4211 0
-4194 -4196 4213 0
4194 -4213 0
4196 -4213 0
-4198 -4200 4215 0
4198 -4215 0
4200 -4215 0
-4202 -4204 4217 0
4202 -4217 0
4204 -4217 0
-4206 -4208 4219 0
4206 -4219 0
4208 -4219 0
-4210 -4212 4221 0
4210 -4221 0
4212 -4221 0
-4214 -4216 4223 0
4214 -4223 0
4216 -4223 0
-4218 -4220 4224 0
4218 -4224 0
4220 -4224 0
-4126 -4128 4322 0
4126 -4322 0
4128 -4322 0
-4132 -4134 4227 0
4132 -4227 0
4134 -4227 0
-4136 -4138 4229 0
4136 -4229 0
4138 -4229 0
-4140 -4142 4324 0
4140 -4324 0
4142 -4324 0
-4146 -4148 4233 0
4146 -4233 0
4148 -4233 0
-4150 -4152 4235 0
4150 -4235 0
4152 -4235 0
-4154 -4156 4237 0
4154 -4237 0
4156 -4237 0
-4158 -4160 4239 0
4158 -4239 0
4160 -4239 0
-4162 -4164 4241 0
4162 -4241 0
4164 -4241 0
-4166 -4168 4243 0
4166 -4243 0
4168 -4243 0
-4170 -4172 4330 0
4170 -4330 0
4172 -4330 0
-4175 -4177 4247 0
4175 -4247 0
4177 -4247 0
-4179 -4181 4249 0
4179 -4249 0
4181 -4249 0
-4183 -4185 4251 0
4183 -4251 0
4185 -4251 0
-4187 -4189 4253 0
4187 -4253 0
4189 -4253 0
-4191 -4193 4255 0
4191 -4255 0
4193 -4255 0
-4195 -4197 4257 0
4195 -4257 0
4197 -4257 0
-4199 -4201 4259 0
4199 -4259 0
4201 -4259 0
-4203 -4205 4261 0
4203 -4261 0
4205 -4261 0
-4207 -4209 4263 0
4207 -4263 0
4209 -4263 0
-4211 -4213 4265 0
4211 -4265 0
4213 -4265 0
-4215 -4217 4267 0
4215 -4267 0
4217 -4267 0
-4219 -4221 4269 0
4219 -4269 0
4221 -4269 0
-4223 -4224 4343 0
4223 -4343 0
4224 -4343 0
-4225 -4226 4344 0
4225 -4344 0
4226 -4344 0
-4228 -4230 4274 0
4228 -4274 0
4230 -4274 0
-4231 -4232 4276 0
4231 -4276 0
4232 -4276 0
-4234 -4236 4278 0
4234 -4278 0
4236 -4278 0
-4238 -4240 4280 0
4238 -4280 0
4240 -4280 0
-4242 -4244 4282 0
4242 -4282 0
4244 -4282 0
-4245 -4246 4284 0
4245 -4284 0
4246 -4284 0
-4248 -4250 4286 0
4248 -4286 0
4250 -4286 0
-4252 -4254 4288 0
4252 -4288 0
4254 -4288 0
-4256 -4258 4290 0
4256 -4290 0
4258 -4290 0
-4260 -4262 4292 0
4260 -4292 0
4262 -4292 0
-4264 -4266 4294 0
4264 -4294 0
4266 -4294 0
-4268 -4270 4296 0
4268 -4296 0
4270 -4296 0
-4222 -4271 4298 0
4222 -4298 0
4271 -4298 0
-4272 -4273 4300 0
4272 -4300 0
4273 -4300 0
-4275 -4277 4302 0
4275 -4302 0
4277 -4302 0
-4279 -4281 4304 0
4279 -4304 0
4281 -4304 0
-4283 -4285 4306 0
4283 -4306 0
4285 -4306 0
-4287 -4289 4308 0
4287 -4308 0
4289 -4308 0
-4291 -4293 4310 0
4291 -4310 0
4293 -4310 0
-4295 -4297 4312 0
4295 -4312 0
4297 -4312 0
-4299 -4301 4314 0
4299 -4314 0
4301 -4314 0
-4303 -4305 4316 0
4303 -4316 0
4305 -4316 0
-4307 -4309 4318 0
4307 -4318 0
4309 -4318 0
-4311 -4313 4320 0
4311 -4320 0
4313 -4320 0
-4315 -4317 4321 0
4315 -4321 0
4317 -4321 0
-4227 -4229 4421 0
4227 -4421 0
4229 -4421 0
-4233 -4235 4326 0
4233 -4326 0
4235 -4326 0
-4237 -4239 4328 0
4237 -4328 0
4239 -4328 0
-4241 -4243 4423 0
4241 -4423 0
4243 -4423 0
-4247 -4249 4332 0
4247 -4332 0
4249 -4332 0
-4251 -4253 4334 0
4251 -4334 0
4253 -4334 0
-4255 -4257 4336 0
4255 -4336 0
4257 -4336 0
-4259 -4261 4338 0
4259 -4338 0
4261 -4338 0
-4263 -4265 4340 0
4263 -4340 0
4265 -4340 0
-4267 -4269 4342 0
4267 -4342 0
4269 -4342 0
-4274 -4276 4346 0
4274 -4346 0
4276 -4346 0
-4278 -4280 4348 0
4278 -4348 0
4280 -4348 0
-4282 -4284 4350 0
4282 -4350 0
4284 -4350 0
-4286 -4288 4352 0
4286 -4352 0
4288 -4352 0
-4290 -4292 4354 0
4290 -4354 0
4292 -4354 0
-4294 -4296 4356 0
4294 -4356 0
4296 -4356 0
-4298 -4300 4358 0
4298 -4358 0
4300 -4358 0
-4302 -4304 4360 0
4302 -4360 0
4304 -4360 0
-4306 -4308 4362 0
4306 -4362 0
4308 -4362 0
-4310 -4312 4364 0
4310 -4364 0
4312 -4364 0
-4314 -4316 4366 0
4314 -4366 0
4316 -4366 0
-4318 -4320 4368 0
4318 -4368 0
4320 -4368 0
-4319 -4321 4440 0
4321 -4440 0
4319 -4440 0
-4323 -4324 4371 0
4323 -4371 0
4324 -4371 0
-4325 -4327 4373 0
4325 -4373 0
4327 -4373 0
-4329 -4330 4375 0
4329 -4375 0
4330 -4375 0
-4331 -4333 4377 0
4331 -4377 0
4333 -4377 0
-4335 -4337 4379 0
4335 -4379 0
4337 -4379 0
-4339 -4341 4381 0
4339 -4381 0
4341 -4381 0
-4343 -4344 4383 0
4343 -4383 0
4344 -4383 0
-4345 -4347 4385 0
4345 -4385 0
4347 -4385 0
-4349 -4351 4387 0
4349 -4387 0
4351 -4387 0
-4353 -4355 4389 0
4353 -4389 0
4355 -4389 0
-4357 -4359 4391 0
4357 -4391 0
4359 -4391 0
-4361 -4363 4393 0
4361 -4393 0
4363 -4393 0
-4365 -4367 4395 0
4365 -4395 0
4367 -4395 0
-4322 -4369 4397 0
4369 -4397 0
4322 -4397 0
-4370 -4372 4399 0
4370 -4399 0
4372 -4399 0
-4374 -4376 4401 0
4374 -4401 0
4376 -4401 0
-4378 -4380 4403 0
4378 -4403 0
4380 -4403 0
-4382 -4384 4405 0
4382 -4405 0
4384 -4405 0
-4386 -4388 4407 0
4386 -4407 0
4388 -4407 0
-4390 -4392 4409 0
4390 -4409 0
4392 -4409 0
-4394 -4396 4411 0
4394 -4411 0
4396 -4411 0
-4398 -4400 4413 0
4398 -4413 0
4400 -4413 0
-4402 -4404 4415 0
4402 -4415 0
4404 -4415 0
-4406 -4408 4417 0
4406 -4417 0
4408 -4417 0
-4410 -4412 4419 0
4410 -4419 0
4412 -4419 0
-4414 -4416 4420 0
4414 -4420 0
4416 -4420 0
-4326 -4328 4514 0
4326 -4514 0
4328 -4514 0
-4332 -4334 4425 0
4332 -4425 0
4334 -4425 0
-4336 -4338 4427 0
4336 -4427 0
4338 -4427 0
-4340 -4342 4516 0
4340 -4516 0
4342 -4516 0
-4346 -4348 4429 0
4346 -4429 0
4348 -4429 0
-4350 -4352 4431 0
4350 -4431 0
4352 -4431 0
-4354 -4356 4433 0
4354 -4433 0
4356 -4433 0
-4358 -4360 4435 0
4358 -4435 0
4360 -4435 0
-4362 -4364 4437 0
4362 -4437 0
4364 -4437 0
-4366 -4368 4439 0
4366 -4439 0
4368 -4439 0
-4371 -4373 4522 0
4371 -4522 0
4373 -4522 0
-4375 -4377 4443 0
4375 -4443 0
4377 -4443 0
-4379 -4381 4445 0
4379 -4445 0
4381 -4445 0
-4383 -4385 4447 0
4383 -4447 0
4385 -4447 0
-4387 -4389 4449 0
4387 -4449 0
4389 -4449 0
-4391 -4393 4451 0
4391 -4451 0
4393 -4451 0
-4395 -4397 4453 0
4395 -4453 0
4397 -4453 0
-4399 -4401 4455 0
4399 -4455 0
4401 -4455 0
-4403 -4405 4457 0
4403 -4457 0
4405 -4457 0
-4407 -4409 4459 0
4407 -4459 0
4409 -4459 0
-4411 -4413 4461 0
4411 -4461 0
4413 -4461 0
-4415 -4417 4463 0
4415 -4463 0
4417 -4463 0
-4419 -4420 4465 0
4419 -4465 0
4420 -4465 0
-4421 -4422 4535 0
4421 -4535 0
4422 -4535 0
-4423 -4424 4468 0
4423 -4468 0
4424 -4468 0
-4426 -4428 4470 0
4426 -4470 0
4428 -4470 0
-4430 -4432 4537 0
4430 -4537 0
4432 -4537 0
-4434 -4436 4474 0
4434 -4474 0
4436 -4474 0
-4438 -4440 4476 0
4438 -4476 0
4440 -4476 0
-4441 -4442 4478 0
4441 -4478 0
4442 -4478 0
-4444 -4446 4480 0
4444 -4480 0
4446 -4480 0
-4448 -4450 4482 0
4448 -4482 0
4450 -4482 0
-4452 -4454 4484 0
4452 -4484 0
4454 -4484 0
-4456 -4458 4486 0
4456 -4486 0
4458 -4486 0
-4460 -4462 4488 0
4460 -4488 0
4462 -4488 0
-4418 -4464 4490 0
4464 -4490 0
4418 -4490 0
-4466 -4467 4492 0
4466 -4492 0
4467 -4492 0
-4469 -4471 4494 0
4469 -4494 0
4471 -4494 0
-4472 -4473 4496 0
4472 -4496 0
4473 -4496 0
-4475 -4477 4498 0
4475 -4498 0
4477 -4498 0
-4479 -4481 4500 0
4479 -4500 0
4481 -4500 0
-4483 -4485 4502 0
4483 -4502 0
4485 -4502 0
-4487 -4489 4504 0
4487 -4504 0
4489 -4504 0
-4491 -4493 4506 0
4491 -4506 0
4493 -4506 0
-4495 -4497 4508 0
4495 -4508 0
4497 -4508 0
-4499 -4501 4510 0
4499 -4510 0
4501 -4510 0
-4503 -4505 4512 0
4503 -4512 0
4505 -4512 0
-4507 -4509 4513 0
4507 -4513 0
4509 -4513 0
-4425 -4427 4607 0
4425 -4607 0
4427 -4607 0
-4429 -4431 4518 0
4429 -4518 0
4431 -4518 0
-4433 -4435 4520 0
4433 -4520 0
4435 -4520 0
-4437 -4439 4609 0
4437 -4609 0
4439 -4609 0
-4443 -4445 4524 0
4443 -4524 0
4445 -4524 0
-4447 -4449 4526 0
4447 -4526 0
4449 -4526 0
-4451 -4453 4528 0
4451 -4528 0
4453 -4528 0
-4455 -4457 4530 0
4455 -4530 0
4457 -4530 0
-4459 -4461 4532 0
4459 -4532 0
4461 -4532 0
-4463 -4465 4534 0
4463 -4534 0
4465 -4534 0
-4468 -4470 4615 0
4468 -4615 0
4470 -4615 0
-4474 -4476 4616 0
4474 -4616 0
4476 -4616 0
-4478 -4480 4540 0
4478 -4540 0
4480 -4540 0
-4482 -4484 4542 0
4482 -4542 0
4484 -4542 0
-4486 -4488 4544 0
4486 -4544 0
4488 -4544 0
-4490 -4492 4546 0
4490 -4546 0
4492 -4546 0
-4494 -4496 4548 0
4494 -4548 0
4496 -4548 0
-4498 -4500 4550 0
4498 -4550 0
4500 -4550 0
-4502 -4504 4552 0
4502 -4552 0
4504 -4552 0
-4506 -4508 4554 0
4506 -4554 0
4508 -4554 0
-4510 -4512 4556 0
4510 -4556 0
4512 -4556 0
-4511 -4513 4558 0
4513 -4558 0
4511 -4558 0
-4515 -4516 4626 0
4515 -4626 0
4516 -4626 0
-4517 -4519 4561 0
4517 -4561 0
4519 -4561 0
-4521 -4522 4563 0
4521 -4563 0
4522 -4563 0
-4523 -4525 4565 0
4523 -4565 0
4525 -4565 0
-4527 -4529 4567 0
4527 -4567 0
4529 -4567 0
-4531 -4533 4569 0
4531 -4569 0
4533 -4569 0
-4535 -4536 4571 0
4535 -4571 0
4536 -4571 0
-4537 -4538 4573 0
4537 -4573 0
4538 -4573 0
-4539 -4541 4575 0
4539 -4575 0
4541 -4575 0
-4543 -4545 4577 0
4543 -4577 0
4545 -4577 0
-4547 -4549 4579 0
4547 -4579 0
4549 -4579 0
-4551 -4553 4581 0
4551 -4581 0
4553 -4581 0
-4555 -4557 4583 0
4555 -4583 0
4557 -4583 0
-4514 -4559 4585 0
4514 -4585 0
4559 -4585 0
-4560 -4562 4587 0
4560 -4587 0
4562 -4587 0
-4564 -4566 4589 0
4564 -4589 0
4566 -4589 0
-4568 -4570 4591 0
4568 -4591 0
4570 -4591 0
-4572 -4574 4593 0
4572 -4593 0
4574 -4593 0
-4576 -4578 4595 0
4576 -4595 0
4578 -4595 0
-4580 -4582 4597 0
4580 -4597 0
4582 -4597 0
-4584 -4586 4599 0
4584 -4599 0
4586 -4599 0
-4588 -4590 4601 0
4588 -4601 0
4590 -4601 0
-4592 -4594 4603 0
4592 -4603 0
4594 -4603 0
-4596 -4598 4605 0
4596 -4605 0
4598 -4605 0
-4600 -4602 4606 0
4600 -4606 0
4602 -4606 0
-4518 -4520 4698 0
4518 -4698 0
4520 -4698 0
-4524 -4526 4611 0
4524 -4611 0
4526 -4611 0
-4528 -4530 4613 0
4528 -4613 0
4530 -4613 0
-4532 -4534 4700 0
4532 -4700 0
4534 -4700 0
-4540 -4542 4701 0
4540 -4701 0
4542 -4701 0
-4544 -4546 4619 0
4544 -4619 0
4546 -4619 0
-4548 -4550 4621 0
4548 -4621 0
4550 -4621 0
-4552 -4554 4623 0
4552 -4623 0
4554 -4623 0
-4556 -4558 4625 0
4556 -4625 0
4558 -4625 0
-4561 -4563 4704 0
4561 -4704 0
4563 -4704 0
-4565 -4567 4629 0
4565 -4629 0
4567 -4629 0
-4569 -4571 4631 0
4569 -4631 0
4571 -4631 0
-4573 -4575 4633 0
4573 -4633 0
4575 -4633 0
-4577 -4579 4635 0
4577 -4635 0
4579 -4635 0
-4581 -4583 4637 0
4581 -4637 0
4583 -4637 0
-4585 -4587 4639 0
4585 -4639 0
4587 -4639 0
-4589 -4591 4641 0
4589 -4641 0
4591 -4641 0
-4593 -4595 4643 0
4593 -4643 0
4595 -4643 0
-4597 -4599 4645 0
4597 -4645 0
4599 -4645 0
-4601 -4603 4647 0
4601 -4647 0
4603 -4647 0
-4605 -4606 4714 0
4605 -4714 0
4606 -4714 0
-4607 -4608 4650 0
4607 -4650 0
4608 -4650 0
-4609 -4610 4652 0
4609 -4652 0
4610 -4652 0
-4612 -4614 4654 0
4612 -4654 0
4614 -4654 0
-4615 -4616 4656 0
4615 -4656 0
4616 -4656 0
-4617 -4618 4658 0
4617 -4658 0
4618 -4658 0
-4620 -4622 4660 0
4620 -4660 0
4622 -4660 0
-4624 -4626 4662 0
4624 -4662 0
4626 -4662 0
-4627 -4628 4664 0
4627 -4664 0
4628 -4664 0
-4630 -4632 4666 0
4630 -4666 0
4632 -4666 0
-4634 -4636 4668 0
4634 -4668 0
4636 -4668 0
-4638 -4640 4670 0
4638 -4670 0
4640 -4670 0
-4642 -4644 4672 0
4642 -4672 0
4644 -4672 0
-4646 -4648 4674 0
4646 -4674 0
4648 -4674 0
-4604 -4649 4676 0
4604 -4676 0
4649 -4676 0
-4651 -4653 4678 0
4651 -4678 0
4653 -4678 0
-4655 -4657 4680 0
4655 -4680 0
4657 -4680 0
-4659 -4661 4682 0
4659 -4682 0
4661 -4682 0
-4663 -4665 4684 0
4663 -4684 0
4665 -4684 0
-4667 -4669 4686 0
4667 -4686 0
4669 -4686 0
-4671 -4673 4688 0
4671 -4688 0
4673 -4688 0
-4675 -4677 4690 0
4675 -4690 0
4677 -4690 0
-4679 -4681 4692 0
4679 -4692 0
4681 -4692 0
-4683 -4685 4694 0
4683 -4694 0
4685 -4694 0
-4687 -4689 4696 0
4687 -4696 0
4689 -4696 0
-4691 -4693 4697 0
4691 -4697 0
4693 -4697 0
-4611 -4613 4787 0
4611 -4787 0
4613 -4787 0
-4619 -4621 4788 0
4619 -4788 0
4621 -4788 0
-4623 -4625 4789 0
4623 -4789 0
4625 -4789 0
-4629 -4631 4706 0
4629 -4706 0
4631 -4706 0
-4633 -4635 4708 0
4633 -4708 0
4635 -4708 0
-4637 -4639 4710 0
4637 -4710 0
4639 -4710 0
-4641 -4643 4712 0
4641 -4712 0
4643 -4712 0
-4645 -4647 4794 0
4645 -4794 0
4647 -4794 0
-4650 -4652 4716 0
4650 -4716 0
4652 -4716 0
-4654 -4656 4718 0
4654 -4718 0
4656 -4718 0
-4658 -4660 4720 0
4658 -4720 0
4660 -4720 0
-4662 -4664 4722 0
4662 -4722 0
4664 -4722 0
-4666 -4668 4724 0
4666 -4724 0
4668 -4724 0
-4670 -4672 4726 0
4670 -4726 0
4672 -4726 0
-4674 -4676 4728 0
4674 -4728 0
4676 -4728 0
-4678 -4680 4730 0
4678 -4730 0
4680 -4730 0
-4682 -4684 4732 0
4682 -4732 0
4684 -4732 0
-4686 -4688 4734 0
4686 -4734 0
4688 -4734 0
-4690 -4692 4736 0
4690 -4736 0
4692 -4736 0
-4694 -4696 4738 0
4694 -4738 0
4696 -4738 0
-4695 -4697 4805 0
4697 -4805 0
4695 -4805 0
-4699 -4700 4741 0
4699 -4741 0
4700 -4741 0
-4701 -4702 4743 0
4701 -4743 0
4702 -4743 0
-4703 -4704 4745 0
4703 -4745 0
4704 -4745 0
-4705 -4707 4747 0
4705 -4747 0
4707 -4747 0
-4709 -4711 4749 0
4709 -4749 0
4711 -4749 0
-4713 -4714 4751 0
4713 -4751 0
4714 -4751 0
-4715 -4717 4753 0
4715 -4753 0
4717 -4753 0
-4719 -4721 4755 0
4719 -4755 0
4721 -4755 0
-4723 -4725 4757 0
4723 -4757 0
4725 -4757 0
-4727 -4729 4759 0
4727 -4759 0
4729 -4759 0
-4731 -4733 4761 0
4731 -4761 0
4733 -4761 0
-4735 -4737 4763 0
4735 -4763 0
4737 -4763 0
-4698 -4739 4765 0
4739 -4765 0
4698 -4765 0
-4740 -4742 4767 0
4740 -4767 0
4742 -4767 0
-4744 -4746 4769 0
4744 -4769 0
4746 -4769 0
-4748 -4750 4771 0
4748 -4771 0
4750 -4771 0
-4752 -4754 4773 0
4752 -4773 0
4754 -4773 0
-4756 -4758 4775 0
4756 -4775 0
4758 -4775 0
-4760 -4762 4777 0
4760 -4777 0
4762 -4777 0
-4764 -4766 4779 0
4764 -4779 0
4766 -4779 0
-4768 -4770 4781 0
4768 -4781 0
4770 -4781 0
-4772 -4774 4783 0
4772 -4783 0
4774 -4783 0
-4776 -4778 4785 0
4776 -4785 0
4778 -4785 0
-4780 -4782 4786 0
4780 -4786 0
4782 -4786 0
-4706 -4708 4791 0
4706 -4791 0
4708 -4791 0
-4710 -4712 4793 0
4710 -4793 0
4712 -4793 0
-4716 -4718 4877 0
4716 -4877 0
4718 -4877 0
-4720 -4722 4797 0
4720 -4797 0
4722 -4797 0
-4724 -4726 4799 0
4724 -4799 0
4726 -4799 0
-4728 -4730 4801 0
4728 -4801 0
4730 -4801 0
-4732 -4734 4803 0
4732 -4803 0
4734 -4803 0
-4736 -4738 4882 0
4736 -4882 0
4738 -4882 0
-4741 -4743 4807 0
4741 -4807 0
4743 -4807 0
-4745 -4747 4809 0
4745 -4809 0
4747 -4809 0
-4749 -4751 4811 0
4749 -4811 0
4751 -4811 0
-4753 -4755 4813 0
4753 -4813 0
4755 -4813 0
-4757 -4759 4815 0
4757 -4815 0
4759 -4815 0
-4761 -4763 4817 0
4761 -4817 0
4763 -4817 0
-4765 -4767 4819 0
4765 -4819 0
4767 -4819 0
-4769 -4771 4821 0
4769 -4821 0
4771 -4821 0
-4773 -4775 4823 0
4773 -4823 0
4775 -4823 0
-4777 -4779 4825 0
4777 -4825 0
4779 -4825 0
-4781 -4783 4827 0
4781 -4827 0
4783 -4827 0
-4785 -4786 4829 0
4785 -4829 0
4786 -4829 0
-4787 -4788 4893 0
4787 -4893 0
4788 -4893 0
-4789 -4790 4832 0
4789 -4832 0
4790 -4832 0
-4792 -4794 4834 0
4792 -4834 0
4794 -4834 0
-4795 -4796 4836 0
4795 -4836 0
4796 -4836 0
-4798 -4800 4838 0
4798 -4838 0
4800 -4838 0
-4802 -4804 4840 0
4802 -4840 0
4804 -4840 0
-4805 -4806 4842 0
4805 -4842 0
4806 -4842 0
-4808 -4810 4844 0
4808 -4844 0
4810 -4844 0
-4812 -4814 4846 0
4812 -4846 0
4814 -4846 0
-4816 -4818 4848 0
4816 -4848 0
4818 -4848 0
-4820 -4822 4850 0
4820 -4850 0
4822 -4850 0
-4824 -4826 4852 0
4824 -4852 0
4826 -4852 0
-4784 -4828 4854 0
4828 -4854 0
4784 -4854 0
-4830 -4831 4856 0
4830 -4856 0
4831 -4856 0
-4833 -4835 4858 0
4833 -4858 0
4835 -4858 0
-4837 -4839 4860 0
4837 -4860 0
4839 -4860 0
-4841 -4843 4862 0
4841 -4862 0
4843 -4862 0
-4845 -4847 4864 0
4845 -4864 0
4847 -4864 0
-4849 -4851 4866 0
4849 -4866 0
4851 -4866 0
-4853 -4855 4868 0
4853 -4868 0
4855 -4868 0
-4857 -4859 4870 0
4857 -4870 0
4859 -4870 0
-4861 -4863 4872 0
4861 -4872 0
4863 -4872 0
-4865 -4867 4874 0
4865 -4874 0
4867 -4874 0
-4869 -4871 4875 0
4869 -4875 0
4871 -4875 0
-4791 -4793 4959 0
4791 -4959 0
4793 -4959 0
-4797 -4799 4879 0
4797 -4879 0
4799 -4879 0
-4801 -4803 4881 0
4801 -4881 0
4803 -4881 0
-4807 -4809 4961 0
4807 -4961 0
4809 -4961 0
-4811 -4813 4885 0
4811 -4885 0
4813 -4885 0
-4815 -4817 4887 0
4815 -4887 0
4817 -4887 0
-4819 -4821 4889 0
4819 -4889 0
4821 -4889 0
-4823 -4825 4891 0
4823 -4891 0
4825 -4891 0
-4827 -4829 4966 0
4827 -4966 0
4829 -4966 0
-4832 -4834 4895 0
4832 -4895 0
4834 -4895 0
-4836 -4838 4897 0
4836 -4897 0
4838 -4897 0
-4840 -4842 4899 0
4840 -4899 0
4842 -4899 0
-4844 -4846 4901 0
4844 -4901 0
4846 -4901 0
-4848 -4850 4903 0
4848 -4903 0
4850 -4903 0
-4852 -4854 4905 0
4852 -4905 0
4854 -4905 0
-4856 -4858 4907 0
4856 -4907 0
4858 -4907 0
-4860 -4862 4909 0
4860 -4909 0
4862 -4909 0
-4864 -4866 4911 0
4864 -4911 0
4866 -4911 0
-4868 -4870 4913 0
4868 -4913 0
4870 -4913 0
-4872 -4874 4915 0
4872 -4915 0
4874 -4915 0
-4873 -4875 4917 0
4875 -4917 0
4873 -4917 0
-4876 -4877 4977 0
4876 -4977 0
4877 -4977 0
-4878 -4880 4919 0
4878 -4919 0
4880 -4919 0
-4882 -4883 4921 0
4882 -4921 0
4883 -4921 0
-4884 -4886 4923 0
4884 -4923 0
4886 -4923 0
-4888 -4890 4925 0
4888 -4925 0
4890 -4925 0
-4892 -4893 4927 0
4892 -4927 0
4893 -4927 0
-4894 -4896 4929 0
4894 -4929 0
4896 -4929 0
-4898 -4900 4931 0
4898 -4931 0
4900 -4931 0
-4902 -4904 4933 0
4902 -4933 0
4904 -4933 0
-4906 -4908 4935 0
4906 -4935 0
4908 -4935 0
-4910 -4912 4937 0
4910 -4937 0
4912 -4937 0
-4914 -4916 4987 0
4914 -4987 0
4916 -4987 0
-4918 -4920 4941 0
4918 -4941 0
4920 -4941 0
-4922 -4924 4943 0
4922 -4943 0
4924 -4943 0
-4926 -4928 4945 0
4926 -4945 0
4928 -4945 0
-4930 -4932 4947 0
4930 -4947 0
4932 -4947 0
-4934 -4936 4949 0
4934 -4949 0
4936 -4949 0
-4938 -4939 4951 0
4938 -4951 0
4939 -4951 0
-4940 -4942 4953 0
4940 -4953 0
4942 -4953 0
-4944 -4946 4955 0
4944 -4955 0
4946 -4955 0
-4948 -4950 4957 0
4948 -4957 0
4950 -4957 0
-4952 -4954 4958 0
4952 -4958 0
4954 -4958 0
-4879 -4881 5042 0
4879 -5042 0
4881 -5042 0
-4885 -4887 4963 0
4885 -4963 0
4887 -4963 0
-4889 -4891 4965 0
4889 -4965 0
4891 -4965 0
-4895 -4897 5044 0
4895 -5044 0
4897 -5044 0
-4899 -4901 4969 0
4899 -4969 0
4901 -4969 0
-4903 -4905 4971 0
4903 -4971 0
4905 -4971 0
-4907 -4909 4973 0
4907 -4973 0
4909 -4973 0
-4911 -4913 4975 0
4911 -4975 0
4913 -4975 0
-4915 -4917 5049 0
4915 -5049 0
4917 -5049 0
-4919 -4921 4979 0
4919 -4979 0
4921 -4979 0
-4923 -4925 4981 0
4923 -4981 0
4925 -4981 0
-4927 -4929 4983 0
4927 -4983 0
4929 -4983 0
-4931 -4933 4985 0
4931 -4985 0
4933 -4985 0
-4935 -4937 5052 0
4935 -5052 0
4937 -5052 0
-4941 -4943 4989 0
4941 -4989 0
4943 -4989 0
-4945 -4947 4991 0
4945 -4991 0
4947 -4991 0
-4949 -4951 4993 0
4949 -4993 0
4951 -4993 0
-4953 -4955 4995 0
4953 -4995 0
4955 -4995 0
-4957 -4958 5057 0
4957 -5057 0
4958 -5057 0
-4959 -4960 4998 0
4959 -4998 0
4960 -4998 0
-4961 -4962 5000 0
4961 -5000 0
4962 -5000 0
-4964 -4966 5002 0
4964 -5002 0
4966 -5002 0
-4967 -4968 5004 0
4967 -5004 0
4968 -5004 0
-4970 -4972 5006 0
4970 -5006 0
4972 -5006 0
-4974 -4976 5008 0
4974 -5008 0
4976 -5008 0
-4977 -4978 5010 0
4977 -5010 0
4978 -5010 0
-4980 -4982 5012 0
4980 -5012 0
4982 -5012 0
-4984 -4986 5014 0
4984 -5014 0
4986 -5014 0
-4987 -4988 5016 0
4987 -5016 0
4988 -5016 0
-4990 -4992 5018 0
4990 -5018 0
4992 -5018 0
-4994 -4996 5020 0
4994 -5020 0
4996 -5020 0
-4956 -4997 5022 0
4956 -5022 0
4997 -5022 0
-4999 -5001 5024 0
4999 -5024 0
5001 -5024 0
-5003 -5005 5026 0
5003 -5026 0
5005 -5026 0
-5007 -5009 5028 0
5007 -5028 0
5009 -5028 0
-5011 -5013 5030 0
5011 -5030 0
5013 -5030 0
-5015 -5017 5032 0
5015 -5032 0
5017 -5032 0
-5019 -5021 5034 0
5019 -5034 0
5021 -5034 0
-5023 -5025 5036 0
5023 -5036 0
5025 -5036 0
-5027 -5029 5038 0
5027 -5038 0
5029 -5038 0
-5031 -5033 5040 0
5031 -5040 0
5033 -5040 0
-5035 -5037 5041 0
5035 -5041 0
5037 -5041 0
-4963 -4965 5123 0
4963 -5123 0
4965 -5123 0
-4969 -4971 5046 0
4969 -5046 0
4971 -5046 0
-4973 -4975 5048 0
4973 -5048 0
4975 -5048 0
-4979 -4981 5125 0
4979 -5125 0
4981 -5125 0
-4983 -4985 5126 0
4983 -5126 0
4985 -5126 0
-4989 -4991 5054 0
4989 -5054 0
4991 -5054 0
-4993 -4995 5056 0
4993 -5056 0
4995 -5056 0
-4998 -5000 5128 0
4998 -5128 0
5000 -5128 0
-5002 -5004 5060 0
5002 -5060 0
5004 -5060 0
-5006 -5008 5062 0
5006 -5062 0
5008 -5062 0
-5010 -5012 5064 0
5010 -5064 0
5012 -5064 0
-5014 -5016 5066 0
5014 -5066 0
5016 -5066 0
-5018 -5020 5068 0
5018 -5068 0
5020 -5068 0
-5022 -5024 5070 0
5022 -5070 0
5024 -5070 0
-5026 -5028 5072 0
5026 -5072 0
5028 -5072 0
-5030 -5032 5074 0
5030 -5074 0
5032 -5074 0
-5034 -5036 5076 0
5034 -5076 0
5036 -5076 0
-5038 -5040 5078 0
5038 -5078 0
5040 -5078 0
-5039 -5041 5138 0
5041 -5138 0
5039 -5138 0
-5043 -5044 5081 0
5043 -5081 0
5044 -5081 0
-5045 -5047 5083 0
5045 -5083 0
5047 -5083 0
-5049 -5050 5085 0
5049 -5085 0
5050 -5085 0
-5051 -5052 5087 0
5051 -5087 0
5052 -5087 0
-5053 -5055 5089 0
5053 -5089 0
5055 -5089 0
-5057 -5058 5091 0
5057 -5091 0
5058 -5091 0
-5059 -5061 5093 0
5059 -5093 0
5061 -5093 0
-5063 -5065 5095 0
5063 -5095 0
5065 -5095 0
-5067 -5069 5097 0
5067 -5097 0
5069 -5097 0
-5071 -5073 5099 0
5071 -5099 0
5073 -5099 0
-5075 -5077 5101 0
5075 -5101 0
5077 -5101 0
-5042 -5079 5103 0
5079 -5103 0
5042 -5103 0
-5080 -5082 5105 0
5080 -5105 0
5082 -5105 0
-5084 -5086 5107 0
5084 -5107 0
5086 -5107 0
-5088 -5090 5109 0
5088 -5109 0
5090 -5109 0
-5092 -5094 5111 0
5092 -5111 0
5094 -5111 0
-5096 -5098 5113 0
5096 -5113 0
5098 -5113 0
-5100 -5102 5115 0
5100 -5115 0
5102 -5115 0
-5104 -5106 5117 0
5104 -5117 0
5106 -5117 0
-5108 -5110 5119 0
5108 -5119 0
5110 -5119 0
-5112 -5114 5121 0
5112 -5121 0
5114 -5121 0
-5116 -5118 5122 0
5116 -5122 0
5118 -5122 0
-5046 -5048 5202 0
5046 -5202 0
5048 -5202 0
-5054 -5056 5203 0
5054 -5203 0
5056 -5203 0
-5060 -5062 5204 0
5060 -5204 0
5062 -5204 0
-5064 -5066 5131 0
5064 -5131 0
5066 -5131 0
-5068 -5070 5133 0
5068 -5133 0
5070 -5133 0
-5072 -5074 5135 0
5072 -5135 0
5074 -5135 0
-5076 -5078 5137 0
5076 -5137 0
5078 -5137 0
-5081 -5083 5209 0
5081 -5209 0
5083 -5209 0
-5085 -5087 5141 0
5085 -5141 0
5087 -5141 0
-5089 -5091 5143 0
5089 -5143 0
5091 -5143 0
-5093 -5095 5145 0
5093 -5145 0
5095 -5145 0
-5097 -5099 5147 0
5097 -5147 0
5099 -5147 0
-5101 -5103 5149 0
5101 -5149 0
5103 -5149 0
-5105 -5107 5151 0
5105 -5151 0
5107 -5151 0
-5109 -5111 5153 0
5109 -5153 0
5111 -5153 0
-5113 -5115 5155 0
5113 -5155 0
5115 -5155 0
-5117 -5119 5157 0
5117 -5157 0
5119 -5157 0
-5121 -5122 5159 0
5121 -5159 0
5122 -5159 0
-5123 -5124 5219 0
5123 -5219 0
5124 -5219 0
-5125 -5126 5162 0
5125 -5162 0
5126 -5162 0
-5127 -5128 5164 0
5127 -5164 0
5128 -5164 0
-5129 -5130 5166 0
5129 -5166 0
5130 -5166 0
-5132 -5134 5168 0
5132 -5168 0
5134 -5168 0
-5136 -5138 5170 0
5136 -5170 0
5138 -5170 0
-5139 -5140 5172 0
5139 -5172 0
5140 -5172 0
-5142 -5144 5174 0
5142 -5174 0
5144 -5174 0
-5146 -5148 5176 0
5146 -5176 0
5148 -5176 0
-5150 -5152 5178 0
5150 -5178 0
5152 -5178 0
-5154 -5156 5180 0
5154 -5180 0
5156 -5180 0
-5120 -5158 5182 0
5158 -5182 0
5120 -5182 0
-5160 -5161 5184 0
5160 -5184 0
5161 -5184 0
-5163 -5165 5186 0
5163 -5186 0
5165 -5186 0
-5167 -5169 5188 0
5167 -5188 0
5169 -5188 0
-5171 -5173 5190 0
5171 -5190 0
5173 -5190 0
-5175 -5177 5192 0
5175 -5192 0
5177 -5192 0
-5179 -5181 5194 0
5179 -5194 0
5181 -5194 0
-5183 -5185 5196 0
5183 -5196 0
5185 -5196 0
-5187 -5189 5198 0
5187 -5198 0
5189 -5198 0
-5191 -5193 5200 0
5191 -5200 0
5193 -5200 0
-5195 -5197 5201 0
5195 -5201 0
5197 -5201 0
-5131 -5133 5206 0
5131 -5206 0
5133 -5206 0
-5135 -5137 5208 0
5135 -5208 0
5137 -5208 0
-5141 -5143 5281 0
5141 -5281 0
5143 -5281 0
-5145 -5147 5212 0
5145 -5212 0
5147 -5212 0
-5149 -5151 5214 0
5149 -5214 0
5151 -5214 0
-5153 -5155 5216 0
5153 -5216 0
5155 -5216 0
-5157 -5159 5218 0
5157 -5218 0
5159 -5218 0
-5162 -5164 5286 0
5162 -5286 0
5164 -5286 0
-5166 -5168 5222 0
5166 -5222 0
5168 -5222 0
-5170 -5172 5224 0
5170 -5224 0
5172 -5224 0
-5174 -5176 5226 0
5174 -5226 0
5176 -5226 0
-5178 -5180 5228 0
5178 -5228 0
5180 -5228 0
-5182 -5184 5230 0
5182 -5230 0
5184 -5230 0
-5186 -5188 5232 0
5186 -5232 0
5188 -5232 0
-5190 -5192 5234 0
5190 -5234 0
5192 -5234 0
-5194 -5196 5236 0
5194 -5236 0
5196 -5236 0
-5198 -5200 5238 0
5198 -5238 0
5200 -5238 0
-5199 -5201 5240 0
5201 -5240 0
5199 -5240 0
-5203 -5204 5296 0
5203 -5296 0
5204 -5296 0
-5205 -5207 5243 0
5205 -5243 0
5207 -5243 0
-5209 -5210 5245 0
5209 -5245 0
5210 -5245 0
-5211 -5213 5247 0
5211 -5247 0
5213 -5247 0
-5215 -5217 5249 0
5215 -5249 0
5217 -5249 0
-5219 -5220 5251 0
5219 -5251 0
5220 -5251 0
-5221 -5223 5253 0
5221 -5253 0
5223 -5253 0
-5225 -5227 5255 0
5225 -5255 0
5227 -5255 0
-5229 -5231 5257 0
5229 -5257 0
5231 -5257 0
-5233 -5235 5259 0
5233 -5259 0
5235 -5259 0
-5237 -5239 5261 0
5237 -5261 0
5239 -5261 0
-5202 -5241 5263 0
5202 -5263 0
5241 -5263 0
-5242 -5244 5265 0
5242 -5265 0
5244 -5265 0
-5246 -5248 5267 0
5246 -5267 0
5248 -5267 0
-5250 -5252 5269 0
5250 -5269 0
5252 -5269 0
-5254 -5256 5271 0
5254 -5271 0
5256 -5271 0
-5258 -5260 5273 0
5258 -5273 0
5260 -5273 0
-5262 -5264 5275 0
5262 -5275 0
5264 -5275 0
-5266 -5268 5277 0
5266 -5277 0
5268 -5277 0
-5270 -5272 5279 0
5270 -5279 0
5272 -5279 0
-5274 -5276 5280 0
5274 -5280 0
5276 -5280 0
-5206 -5208 5354 0
5206 -5354 0
5208 -5354 0
-5212 -5214 5283 0
5212 -5283 0
5214 -5283 0
-5216 -5218 5285 0
5216 -5285 0
5218 -5285 0
-5222 -5224 5356 0
5222 -5356 0
5224 -5356 0
-5226 -5228 5289 0
5226 -5289 0
5228 -5289 0
-5230 -5232 5291 0
5230 -5291 0
5232 -5291 0
-5234 -5236 5293 0
5234 -5293 0
5236 -5293 0
-5238 -5240 5295 0
5238 -5295 0
5240 -5295 0
-5243 -5245 5361 0
5243 -5361 0
5245 -5361 0
-5247 -5249 5299 0
5247 -5299 0
5249 -5299 0
-5251 -5253 5301 0
5251 -5301 0
5253 -5301 0
-5255 -5257 5303 0
5255 -5303 0
5257 -5303 0
-5259 -5261 5305 0
5259 -5305 0
5261 -5305 0
-5263 -5265 5307 0
5263 -5307 0
5265 -5307 0
-5267 -5269 5309 0
5267 -5309 0
5269 -5309 0
-5271 -5273 5311 0
5271 -5311 0
5273 -5311 0
-5275 -5277 5313 0
5275 -5313 0
5277 -5313 0
-5279 -5280 5368 0
5279 -5368 0
5280 -5368 0
-5281 -5282 5369 0
5281 -5369 0
5282 -5369 0
-5284 -5286 5318 0
5284 -5318 0
5286 -5318 0
-5287 -5288 5320 0
5287 -5320 0
5288 -5320 0
-5290 -5292 5322 0
5290 -5322 0
5292 -5322 0
-5294 -5296 5324 0
5294 -5324 0
5296 -5324 0
-5297 -5298 5326 0
5297 -5326 0
5298 -5326 0
-5300 -5302 5328 0
5300 -5328 0
5302 -5328 0
-5304 -5306 5330 0
5304 -5330 0
5306 -5330 0
-5308 -5310 5332 0
5308 -5332 0
5310 -5332 0
-5312 -5314 5334 0
5312 -5334 0
5314 -5334 0
-5278 -5315 5336 0
5278 -5336 0
5315 -5336 0
-5316 -5317 5338 0
5316 -5338 0
5317 -5338 0
-5319 -5321 5340 0
5319 -5340 0
5321 -5340 0
-5323 -5325 5342 0
5323 -5342 0
5325 -5342 0
-5327 -5329 5344 0
5327 -5344 0
5329 -5344 0
-5331 -5333 5346 0
5331 -5346 0
5333 -5346 0
-5335 -5337 5348 0
5335 -5348 0
5337 -5348 0
-5339 -5341 5350 0
5339 -5350 0
5341 -5350 0
-5343 -5345 5352 0
5343 -5352 0
5345 -5352 0
-5347 -5349 5353 0
5347 -5353 0
5349 -5353 0
-5283 -5285 5427 0
5283 -5427 0
5285 -5427 0
-5289 -5291 5358 0
5289 -5358 0
5291 -5358 0
-5293 -5295 5360 0
5293 -5360 0
5295 -5360 0
-5299 -5301 5429 0
5299 -5429 0
5301 -5429 0
-5303 -5305 5364 0
5303 -5364 0
5305 -5364 0
-5307 -5309 5366 0
5307 -5366 0
5309 -5366 0
-5311 -5313 5431 0
5311 -5431 0
5313 -5431 0
-5318 -5320 5432 0
5318 -5432 0
5320 -5432 0
-5322 -5324 5372 0
5322 -5372 0
5324 -5372 0
-5326 -5328 5374 0
5326 -5374 0
5328 -5374 0
-5330 -5332 5376 0
5330 -5376 0
5332 -5376 0
-5334 -5336 5378 0
5334 -5378 0
5336 -5378 0
-5338 -5340 5380 0
5338 -5380 0
5340 -5380 0
-5342 -5344 5382 0
5342 -5382 0
5344 -5382 0
-5346 -5348 5384 0
5346 -5384 0
5348 -5384 0
-5350 -5352 5386 0
5350 -5386 0
5352 -5386 0
-5351 -5353 5439 0
5353 -5439 0
5351 -5439 0
-5355 -5356 5389 0
5355 -5389 0
5356 -5389 0
-5357 -5359 5391 0
5357 -5391 0
5359 -5391 0
-5361 -5362 5393 0
5361 -5393 0
5362 -5393 0
-5363 -5365 5395 0
5363 -5395 0
5365 -5395 0
-5367 -5368 5397 0
5367 -5397 0
5368 -5397 0
-5369 -5370 5399 0
5369 -5399 0
5370 -5399 0
-5371 -5373 5401 0
5371 -5401 0
5373 -5401 0
-5375 -5377 5403 0
5375 -5403 0
5377 -5403 0
-5379 -5381 5405 0
5379 -5405 0
5381 -5405 0
-5383 -5385 5407 0
5383 -5407 0
5385 -5407 0
-5354 -5387 5409 0
5387 -5409 0
5354 -5409 0
-5388 -5390 5411 0
5388 -5411 0
5390 -5411 0
-5392 -5394 5413 0
5392 -5413 0
5394 -5413 0
-5396 -5398 5415 0
5396 -5415 0
5398 -5415 0
-5400 -5402 5417 0
5400 -5417 0
5402 -5417 0
-5404 -5406 5419 0
5404 -5419 0
5406 -5419 0
-5408 -5410 5421 0
5408 -5421 0
5410 -5421 0
-5412 -5414 5423 0
5412 -5423 0
5414 -5423 0
-5416 -5418 5425 0
5416 -5425 0
5418 -5425 0
-5420 -5422 5426 0
5420 -5426 0
5422 -5426 0
-5358 -5360 5498 0
5358 -5498 0
5360 -5498 0
-5364 -5366 5499 0
5364 -5499 0
5366 -5499 0
-5372 -5374 5500 0
5372 -5500 0
5374 -5500 0
-5376 -5378 5435 0
5376 -5435 0
5378 -5435 0
-5380 -5382 5437 0
5380 -5437 0
5382 -5437 0
-5384 -5386 5502 0
5384 -5502 0
5386 -5502 0
-5389 -5391 5441 0
5389 -5441 0
5391 -5441 0
-5393 -5395 5443 0
5393 -5443 0
5395 -5443 0
-5397 -5399 5445 0
5397 -5445 0
5399 -5445 0
-5401 -5403 5447 0
5401 -5447 0
5403 -5447 0
-5405 -5407 5449 0
5405 -5449 0
5407 -5449 0
-5409 -5411 5451 0
5409 -5451 0
5411 -5451 0
-5413 -5415 5453 0
5413 -5453 0
5415 -5453 0
-5417 -5419 5455 0
5417 -5455 0
5419 -5455 0
-5421 -5423 5457 0
5421 -5457 0
5423 -5457 0
-5425 -5426 5459 0
5425 -5459 0
5426 -5459 0
-5427 -5428 5512 0
5427 -5512 0
5428 -5512 0
-5429 -5430 5462 0
5429 -5462 0
5430 -5462 0
-5431 -5432 5464 0
5431 -5464 0
5432 -5464 0
-5433 -5434 5466 0
5433 -5466 0
5434 -5466 0
-5436 -5438 5468 0
5436 -5468 0
5438 -5468 0
-5439 -5440 5470 0
5439 -5470 0
5440 -5470 0
-5442 -5444 5472 0
5442 -5472 0
5444 -5472 0
-5446 -5448 5474 0
5446 -5474 0
5448 -5474 0
-5450 -5452 5476 0
5450 -5476 0
5452 -5476 0
-5454 -5456 5478 0
5454 -5478 0
5456 -5478 0
-5424 -5458 5480 0
5458 -5480 0
5424 -5480 0
-5460 -5461 5482 0
5460 -5482 0
5461 -5482 0
-5463 -5465 5484 0
5463 -5484 0
5465 -5484 0
-5467 -5469 5486 0
5467 -5486 0
5469 -5486 0
-5471 -5473 5488 0
5471 -5488 0
5473 -5488 0
-5475 -5477 5490 0
5475 -5490 0
5477 -5490 0
-5479 -5481 5492 0
5479 -5492 0
5481 -5492 0
-5483 -5485 5494 0
5483 -5494 0
5485 -5494 0
-5487 -5489 5496 0
5487 -5496 0
5489 -5496 0
-5491 -5493 5497 0
5491 -5497 0
5493 -5497 0
-5435 -5437 5569 0
5435 -5569 0
5437 -5569 0
-5441 -5443 5504 0
5441 -5504 0
5443 -5504 0
-5445 -5447 5506 0
5445 -5506 0
5447 -5506 0
-5449 -5451 5508 0
5449 -5508 0
5451 -5508 0
-5453 -5455 5510 0
5453 -5510 0
5455 -5510 0
-5457 -5459 5572 0
5457 -5572 0
5459 -5572 0
-5462 -5464 5514 0
5462 -5514 0
5464 -5514 0
-5466 -5468 5516 0
5466 -5516 0
5468 -5516 0
-5470 -5472 5518 0
5470 -5518 0
5472 -5518 0
-5474 -5476 5520 0
5474 -5520 0
5476 -5520 0
-5478 -5480 5522 0
5478 -5522 0
5480 -5522 0
-5482 -5484 5524 0
5482 -5524 0
5484 -5524 0
-5486 -5488 5526 0
5486 -5526 0
5488 -5526 0
-5490 -5492 5528 0
5490 -5528 0
5492 -5528 0
-5494 -5496 5530 0
5494 -5530 0
5496 -5530 0
-5495 -5497 5532 0
5497 -5532 0
5495 -5532 0
-5499 -5500 5582 0
5499 -5582 0
5500 -5582 0
-5501 -5502 5535 0
5501 -5535 0
5502 -5535 0
-5503 -5505 5537 0
5503 -5537 0
5505 -5537 0
-5507 -5509 5539 0
5507 -5539 0
5509 -5539 0
-5511 -5512 5541 0
5511 -5541 0
5512 -5541 0
-5513 -5515 5543 0
5513 -5543 0
5515 -5543 0
-5517 -5519 5545 0
5517 -5545 0
5519 -5545 0
-5521 -5523 5547 0
5521 -5547 0
5523 -5547 0
-5525 -5527 5549 0
5525 -5549 0
5527 -5549 0
-5529 -5531 5551 0
5529 -5551 0
5531 -5551 0
-5498 -5533 5553 0
5498 -5553 0
5533 -5553 0
-5534 -5536 5555 0
5534 -5555 0
5536 -5555 0
-5538 -5540 5557 0
5538 -5557 0
5540 -5557 0
-5542 -5544 5559 0
5542 -5559 0
5544 -5559 0
-5546 -5548 5561 0
5546 -5561 0
5548 -5561 0
-5550 -5552 5563 0
5550 -5563 0
5552 -5563 0
-5554 -5556 5565 0
5554 -5565 0
5556 -5565 0
-5558 -5560 5567 0
5558 -5567 0
5560 -5567 0
-5562 -5564 5568 0
5562 -5568 0
5564 -5568 0
-5504 -5506 5665 0
5504 -5665 0
5506 -5665 0
-5508 -5510 5634 0
5508 -5634 0
5510 -5634 0
-5514 -5516 5574 0
5514 -5574 0
5516 -5574 0
-5518 -5520 5576 0
5518 -5576 0
5520 -5576 0
-5522 -5524 5578 0
5522 -5578 0
5524 -5578 0
-5526 -5528 5580 0
5526 -5580 0
5528 -5580 0
-5530 -5532 5637 0
5530 -5637 0
5532 -5637 0
-5535 -5537 5584 0
5535 -5584 0
5537 -5584 0
-5539 -5541 5586 0
5539 -5586 0
5541 -5586 0
-5543 -5545 5588 0
5543 -5588 0
5545 -5588 0
-5547 -5549 5590 0
5547 -5590 0
5549 -5590 0
-5551 -5553 5592 0
5551 -5592 0
5553 -5592 0
-5555 -5557 5594 0
5555 -5594 0
5557 -5594 0
-5559 -5561 5596 0
5559 -5596 0
5561 -5596 0
-5563 -5565 5598 0
5563 -5598 0
5565 -5598 0
-5567 -5568 5646 0
5567 -5646 0
5568 -5646 0
-5570 -5571 5647 0
5570 -5647 0
5571 -5647 0
-5572 -5573 5602 0
5572 -5602 0
5573 -5602 0
-5575 -5577 5604 0
5575 -5604 0
5577 -5604 0
-5579 -5581 5606 0
5579 -5606 0
5581 -5606 0
-5582 -5583 5608 0
5582 -5608 0
5583 -5608 0
-5585 -5587 5610 0
5585 -5610 0
5587 -5610 0
-5589 -5591 5612 0
5589 -5612 0
5591 -5612 0
-5593 -5595 5614 0
5593 -5614 0
5595 -5614 0
-5597 -5599 5616 0
5597 -5616 0
5599 -5616 0
-5566 -5569 5618 0
5566 -5618 0
5569 -5618 0
-5600 -5601 5620 0
5600 -5620 0
5601 -5620 0
-5603 -5605 5622 0
5603 -5622 0
5605 -5622 0
-5607 -5609 5624 0
5607 -5624 0
5609 -5624 0
-5611 -5613 5626 0
5611 -5626 0
5613 -5626 0
-5615 -5617 5628 0
5615 -5628 0
5617 -5628 0
-5619 -5621 5630 0
5619 -5630 0
5621 -5630 0
-5623 -5625 5632 0
5623 -5632 0
5625 -5632 0
-5627 -5629 5633 0
5627 -5633 0
5629 -5633 0
-5574 -5576 5701 0
5574 -5701 0
5576 -5701 0
-5578 -5580 5702 0
5578 -5702 0
5580 -5702 0
-5584 -5586 5639 0
5584 -5639 0
5586 -5639 0
-5588 -5590 5641 0
5588 -5641 0
5590 -5641 0
-5592 -5594 5643 0
5592 -5643 0
5594 -5643 0
-5596 -5598 5645 0
5596 -5645 0
5598 -5645 0
-5602 -5604 5649 0
5602 -5649 0
5604 -5649 0
-5606 -5608 5651 0
5606 -5651 0
5608 -5651 0
-5610 -5612 5653 0
5610 -5653 0
5612 -5653 0
-5614 -5616 5655 0
5614 -5655 0
5616 -5655 0
-5618 -5620 5657 0
5618 -5657 0
5620 -5657 0
-5622 -5624 5659 0
5622 -5659 0
5624 -5659 0
-5626 -5628 5661 0
5626 -5661 0
5628 -5661 0
-5630 -5632 5663 0
5630 -5663 0
5632 -5663 0
-5631 -5633 5712 0
5633 -5712 0
5631 -5712 0
-5634 -5635 5667 0
5634 -5667 0
5635 -5667 0
-5636 -5637 5669 0
5636 -5669 0
5637 -5669 0
-5638 -5640 5671 0
5638 -5671 0
5640 -5671 0
-5642 -5644 5673 0
5642 -5673 0
5644 -5673 0
-5646 -5647 5675 0
5646 -5675 0
5647 -5675 0
-5648 -5650 5677 0
5648 -5677 0
5650 -5677 0
-5652 -5654 5679 0
5652 -5679 0
5654 -5679 0
-5656 -5658 5681 0
5656 -5681 0
5658 -5681 0
-5660 -5662 5683 0
5660 -5683 0
5662 -5683 0
-5664 -5665 5685 0
5664 -5685 0
5665 -5685 0
-5666 -5668 5687 0
5666 -5687 0
5668 -5687 0
-5670 -5672 5689 0
5670 -5689 0
5672 -5689 0
-5674 -5676 5691 0
5674 -5691 0
5676 -5691 0
-5678 -5680 5693 0
5678 -5693 0
5680 -5693 0
-5682 -5684 5695 0
5682 -5695 0
5684 -5695 0
-5686 -5688 5697 0
5686 -5697 0
5688 -5697 0
-5690 -5692 5699 0
5690 -5699 0
5692 -5699 0
-5694 -5696 5700 0
5694 -5700 0
5696 -5700 0
-5639 -5641 5762 0
5639 -5762 0
5641 -5762 0
-5643 -5645 5763 0
5643 -5763 0
5645 -5763 0
-5649 -5651 5705 0
5649 -5705 0
5651 -5705 0
-5653 -5655 5707 0
5653 -5707 0
5655 -5707 0
-5657 -5659 5709 0
5657 -5709 0
5659 -5709 0
-5661 -5663 5711 0
5661 -5711 0
5663 -5711 0
-5667 -5669 5766 0
5667 -5766 0
5669 -5766 0
-5671 -5673 5715 0
5671 -5715 0
5673 -5715 0
-5675 -5677 5717 0
5675 -5717 0
5677 -5717 0
-5679 -5681 5719 0
5679 -5719 0
5681 -5719 0
-5683 -5685 5721 0
5683 -5721 0
5685 -5721 0
-5687 -5689 5723 0
5687 -5723 0
5689 -5723 0
-5691 -5693 5725 0
5691 -5725 0
5693 -5725 0
-5695 -5697 5727 0
5695 -5727 0
5697 -5727 0
-5699 -5700 5729 0
5699 -5729 0
5700 -5729 0
-5701 -5702 5775 0
5701 -5775 0
5702 -5775 0
-5703 -5704 5776 0
5703 -5776 0
5704 -5776 0
-5706 -5708 5734 0
5706 -5734 0
5708 -5734 0
-5710 -5712 5736 0
5710 -5736 0
5712 -5736 0
-5713 -5714 5738 0
5713 -5738 0
5714 -5738 0
-5716 -5718 5740 0
5716 -5740 0
5718 -5740 0
-5720 -5722 5742 0
5720 -5742 0
5722 -5742 0
-5724 -5726 5744 0
5724 -5744 0
5726 -5744 0
-5698 -5728 5746 0
5728 -5746 0
5698 -5746 0
-5730 -5731 5748 0
5730 -5748 0
5731 -5748 0
-5732 -5733 5750 0
5732 -5750 0
5733 -5750 0
-5735 -5737 5752 0
5735 -5752 0
5737 -5752 0
-5739 -5741 5754 0
5739 -5754 0
5741 -5754 0
-5743 -5745 5756 0
5743 -5756 0
5745 -5756 0
-5747 -5749 5758 0
5747 -5758 0
5749 -5758 0
-5751 -5753 5760 0
5751 -5760 0
5753 -5760 0
-5755 -5757 5761 0
5755 -5761 0
5757 -5761 0
-5705 -5707 5825 0
5705 -5825 0
5707 -5825 0
-5709 -5711 5826 0
5709 -5826 0
5711 -5826 0
-5715 -5717 5768 0
5715 -5768 0
5717 -5768 0
-5719 -5721 5770 0
5719 -5770 0
5721 -5770 0
-5723 -5725 5772 0
5723 -5772 0
5725 -5772 0
-5727 -5729 5774 0
5727 -5774 0
5729 -5774 0
-5734 -5736 5778 0
5734 -5778 0
5736 -5778 0
-5738 -5740 5780 0
5738 -5780 0
5740 -5780 0
-5742 -5744 5782 0
5742 -5782 0
5744 -5782 0
-5746 -5748 5784 0
5746 -5784 0
5748 -5784 0
-5750 -5752 5786 0
5750 -5786 0
5752 -5786 0
-5754 -5756 5788 0
5754 -5788 0
5756 -5788 0
-5758 -5760 5790 0
5758 -5790 0
5760 -5790 0
-5759 -5761 5792 0
5761 -5792 0
5759 -5792 0
-5763 -5764 5836 0
5763 -5836 0
5764 -5836 0
-5765 -5766 5795 0
5765 -5795 0
5766 -5795 0
-5767 -5769 5797 0
5767 -5797 0
5769 -5797 0
-5771 -5773 5799 0
5771 -5799 0
5773 -5799 0
-5775 -5776 5801 0
5775 -5801 0
5776 -5801 0
-5777 -5779 5803 0
5777 -5803 0
5779 -5803 0
-5781 -5783 5805 0
5781 -5805 0
5783 -5805 0
-5785 -5787 5807 0
5785 -5807 0
5787 -5807 0
-5789 -5791 5809 0
5789 -5809 0
5791 -5809 0
-5762 -5793 5811 0
5762 -5811 0
5793 -5811 0
-5794 -5796 5813 0
5794 -5813 0
5796 -5813 0
-5798 -5800 5815 0
5798 -5815 0
5800 -5815 0
-5802 -5804 5817 0
5802 -5817 0
5804 -5817 0
-5806 -5808 5819 0
5806 -5819 0
5808 -5819 0
-5810 -5812 5821 0
5810 -5821 0
5812 -5821 0
-5814 -5816 5823 0
5814 -5823 0
5816 -5823 0
-5818 -5820 5824 0
5818 -5824 0
5820 -5824 0
-5768 -5770 5882 0
5768 -5882 0
5770 -5882 0
-5772 -5774 5883 0
5772 -5883 0
5774 -5883 0
-5778 -5780 5829 0
5778 -5829 0
5780 -5829 0
-5782 -5784 5831 0
5782 -5831 0
5784 -5831 0
-5786 -5788 5833 0
5786 -5833 0
5788 -5833 0
-5790 -5792 5835 0
5790 -5835 0
5792 -5835 0
-5795 -5797 5886 0
5795 -5886 0
5797 -5886 0
-5799 -5801 5839 0
5799 -5839 0
5801 -5839 0
-5803 -5805 5841 0
5803 -5841 0
5805 -5841 0
-5807 -5809 5843 0
5807 -5843 0
5809 -5843 0
-5811 -5813 5845 0
5811 -5845 0
5813 -5845 0
-5815 -5817 5847 0
5815 -5847 0
5817 -5847 0
-5819 -5821 5849 0
5819 -5849 0
5821 -5849 0
-5823 -5824 5892 0
5823 -5892 0
5824 -5892 0
-5825 -5826 5852 0
5825 -5852 0
5826 -5852 0
-5827 -5828 5854 0
5827 -5854 0
5828 -5854 0
-5830 -5832 5894 0
5830 -5894 0
5832 -5894 0
-5834 -5836 5858 0
5834 -5858 0
5836 -5858 0
-5837 -5838 5860 0
5837 -5860 0
5838 -5860 0
-5840 -5842 5862 0
5840 -5862 0
5842 -5862 0
-5844 -5846 5864 0
5844 -5864 0
5846 -5864 0
-5848 -5850 5866 0
5848 -5866 0
5850 -5866 0
-5822 -5851 5868 0
5822 -5868 0
5851 -5868 0
-5853 -5855 5870 0
5853 -5870 0
5855 -5870 0
-5856 -5857 5872 0
5856 -5872 0
5857 -5872 0
-5859 -5861 5874 0
5859 -5874 0
5861 -5874 0
-5863 -5865 5876 0
5863 -5876 0
5865 -5876 0
-5867 -5869 5878 0
5867 -5878 0
5869 -5878 0
-5871 -5873 5880 0
5871 -5880 0
5873 -5880 0
-5875 -5877 5881 0
5875 -5881 0
5877 -5881 0
-5829 -5831 5939 0
5829 -5939 0
5831 -5939 0
-5833 -5835 5940 0
5833 -5940 0
5835 -5940 0
-5839 -5841 5888 0
5839 -5888 0
5841 -5888 0
-5843 -5845 5890 0
5843 -5890 0
5845 -5890 0
-5847 -5849 5942 0
5847 -5942 0
5849 -5942 0
-5852 -5854 5943 0
5852 -5943 0
5854 -5943 0
-5858 -5860 5896 0
5858 -5896 0
5860 -5896 0
-5862 -5864 5898 0
5862 -5898 0
5864 -5898 0
-5866 -5868 5900 0
5866 -5900 0
5868 -5900 0
-5870 -5872 5902 0
5870 -5902 0
5872 -5902 0
-5874 -5876 5904 0
5874 -5904 0
5876 -5904 0
-5878 -5880 5906 0
5878 -5906 0
5880 -5906 0
-5879 -5881 5949 0
5881 -5949 0
5879 -5949 0
-5883 -5884 5909 0
5883 -5909 0
5884 -5909 0
-5885 -5886 5911 0
5885 -5911 0
5886 -5911 0
-5887 -5889 5913 0
5887 -5913 0
5889 -5913 0
-5891 -5892 5915 0
5891 -5915 0
5892 -5915 0
-5893 -5894 5917 0
5893 -5917 0
5894 -5917 0
-5895 -5897 5919 0
5895 -5919 0
5897 -5919 0
-5899 -5901 5921 0
5899 -5921 0
5901 -5921 0
-5903 -5905 5923 0
5903 -5923 0
5905 -5923 0
-5882 -5907 5925 0
5907 -5925 0
5882 -5925 0
-5908 -5910 5927 0
5908 -5927 0
5910 -5927 0
-5912 -5914 5929 0
5912 -5929 0
5914 -5929 0
-5916 -5918 5931 0
5916 -5931 0
5918 -5931 0
-5920 -5922 5933 0
5920 -5933 0
5922 -5933 0
-5924 -5926 5935 0
5924 -5935 0
5926 -5935 0
-5928 -5930 5937 0
5928 -5937 0
5930 -5937 0
-5932 -5934 5938 0
5932 -5938 0
5934 -5938 0
-5888 -5890 5996 0
5888 -5996 0
5890 -5996 0
-5896 -5898 5945 0
5896 -5945 0
5898 -5945 0
-5900 -5902 5947 0
5900 -5947 0
5902 -5947 0
-5904 -5906 5997 0
5904 -5997 0
5906 -5997 0
-5909 -5911 5951 0
5909 -5951 0
5911 -5951 0
-5913 -5915 5953 0
5913 -5953 0
5915 -5953 0
-5917 -5919 5955 0
5917 -5955 0
5919 -5955 0
-5921 -5923 5957 0
5921 -5957 0
5923 -5957 0
-5925 -5927 5959 0
5925 -5959 0
5927 -5959 0
-5929 -5931 5961 0
5929 -5961 0
5931 -5961 0
-5933 -5935 5963 0
5933 -5963 0
5935 -5963 0
-5937 -5938 5965 0
5937 -5965 0
5938 -5965 0
-5939 -5940 6004 0
5939 -6004 0
5940 -6004 0
-5941 -5942 5968 0
5941 -5968 0
5942 -5968 0
-5943 -5944 5970 0
5943 -5970 0
5944 -5970 0
-5946 -5948 5972 0
5946 -5972 0
5948 -5972 0
-5949 -5950 5974 0
5949 -5974 0
5950 -5974 0
-5952 -5954 5976 0
5952 -5976 0
5954 -5976 0
-5956 -5958 5978 0
5956 -5978 0
5958 -5978 0
-5960 -5962 5980 0
5960 -5980 0
5962 -5980 0
-5936 -5964 5982 0
5964 -5982 0
5936 -5982 0
-5966 -5967 5984 0
5966 -5984 0
5967 -5984 0
-5969 -5971 5986 0
5969 -5986 0
5971 -5986 0
-5973 -5975 5988 0
5973 -5988 0
5975 -5988 0
-5977 -5979 5990 0
5977 -5990 0
5979 -5990 0
-5981 -5983 5992 0
5981 -5992 0
5983 -5992 0
-5985 -5987 5994 0
5985 -5994 0
5987 -5994 0
-5989 -5991 5995 0
5989 -5995 0
5991 -5995 0
-5945 -5947 6049 0
5945 -6049 0
5947 -6049 0
-5951 -5953 6050 0
5951 -6050 0
5953 -6050 0
-5955 -5957 6000 0
5955 -6000 0
5957 -6000 0
-5959 -5961 6002 0
5959 -6002 0
5961 -6002 0
-5963 -5965 6052 0
5963 -6052 0
5965 -6052 0
-5968 -5970 6006 0
5968 -6006 0
5970 -6006 0
-5972 -5974 6008 0
5972 -6008 0
5974 -6008 0
-5976 -5978 6010 0
5976 -6010 0
5978 -6010 0
-5980 -5982 6012 0
5980 -6012 0
5982 -6012 0
-5984 -5986 6014 0
5984 -6014 0
5986 -6014 0
-5988 -5990 6016 0
5988 -6016 0
5990 -6016 0
-5992 -5994 6018 0
5992 -6018 0
5994 -6018 0
-5993 -5995 6020 0
5995 -6020 0
5993 -6020 0
-5997 -5998 6023 0
5997 -6023 0
5998 -6023 0
-5999 -6001 6025 0
5999 -6025 0
6001 -6025 0
-6003 -6004 6027 0
6003 -6027 0
6004 -6027 0
-6005 -6007 6029 0
6005 -6029 0
6007 -6029 0
-6009 -6011 6031 0
6009 -6031 0
6011 -6031 0
-6013 -6015 6033 0
6013 -6033 0
6015 -6033 0
-6017 -6019 6035 0
6017 -6035 0
6019 -6035 0
-5996 -6021 6037 0
5996 -6037 0
6021 -6037 0
-6022 -6024 6039 0
6022 -6039 0
6024 -6039 0
-6026 -6028 6041 0
6026 -6041 0
6028 -6041 0
-6030 -6032 6043 0
6030 -6043 0
6032 -6043 0
-6034 -6036 6045 0
6034 -6045 0
6036 -6045 0
-6038 -6040 6047 0
6038 -6047 0
6040 -6047 0
-6042 -6044 6048 0
6042 -6048 0
6044 -6048 0
-6000 -6002 6098 0
6000 -6098 0
6002 -6098 0
-6006 -6008 6099 0
6006 -6099 0
6008 -6099 0
-6010 -6012 6055 0
6010 -6055 0
6012 -6055 0
-6014 -6016 6057 0
6014 -6057 0
6016 -6057 0
-6018 -6020 6101 0
6018 -6101 0
6020 -6101 0
-6023 -6025 6059 0
6023 -6059 0
6025 -6059 0
-6027 -6029 6061 0
6027 -6061 0
6029 -6061 0
-6031 -6033 6063 0
6031 -6063 0
6033 -6063 0
-6035 -6037 6065 0
6035 -6065 0
6037 -6065 0
-6039 -6041 6067 0
6039 -6067 0
6041 -6067 0
-6043 -6045 6069 0
6043 -6069 0
6045 -6069 0
-6047 -6048 6107 0
6047 -6107 0
6048 -6107 0
-6049 -6050 6072 0
6049 -6072 0
6050 -6072 0
-6051 -6052 6074 0
6051 -6074 0
6052 -6074 0
-6053 -6054 6076 0
6053 -6076 0
6054 -6076 0
-6056 -6058 6078 0
6056 -6078 0
6058 -6078 0
-6060 -6062 6110 0
6060 -6110 0
6062 -6110 0
-6064 -6066 6082 0
6064 -6082 0
6066 -6082 0
-6068 -6070 6084 0
6068 -6084 0
6070 -6084 0
-6046 -6071 6086 0
6046 -6086 0
6071 -6086 0
-6073 -6075 6088 0
6073 -6088 0
6075 -6088 0
-6077 -6079 6090 0
6077 -6090 0
6079 -6090 0
-6080 -6081 6092 0
6080 -6092 0
6081 -6092 0
-6083 -6085 6094 0
6083 -6094 0
6085 -6094 0
-6087 -6089 6096 0
6087 -6096 0
6089 -6096 0
-6091 -6093 6097 0
6091 -6097 0
6093 -6097 0
-6055 -6057 6147 0
6055 -6147 0
6057 -6147 0
-6059 -6061 6148 0
6059 -6148 0
6061 -6148 0
-6063 -6065 6104 0
6063 -6104 0
6065 -6104 0
-6067 -6069 6106 0
6067 -6106 0
6069 -6106 0
-6072 -6074 6150 0
6072 -6150 0
6074 -6150 0
-6076 -6078 6151 0
6076 -6151 0
6078 -6151 0
-6082 -6084 6112 0
6082 -6112 0
6084 -6112 0
-6086 -6088 6114 0
6086 -6114 0
6088 -6114 0
-6090 -6092 6116 0
6090 -6116 0
6092 -6116 0
-6094 -6096 6118 0
6094 -6118 0
6096 -6118 0
-6095 -6097 6156 0
6097 -6156 0
6095 -6156 0
-6099 -6100 6121 0
6099 -6121 0
6100 -6121 0
-6101 -6102 6123 0
6101 -6123 0
6102 -6123 0
-6103 -6105 6125 0
6103 -6125 0
6105 -6125 0
-6107 -6108 6127 0
6107 -6127 0
6108 -6127 0
-6109 -6110 6129 0
6109 -6129 0
6110 -6129 0
-6111 -6113 6131 0
6111 -6131 0
6113 -6131 0
-6115 -6117 6133 0
6115 -6133 0
6117 -6133 0
-6098 -6119 6135 0
6119 -6135 0
6098 -6135 0
-6120 -6122 6137 0
6120 -6137 0
6122 -6137 0
-6124 -6126 6139 0
6124 -6139 0
6126 -6139 0
-6128 -6130 6141 0
6128 -6141 0
6130 -6141 0
-6132 -6134 6143 0
6132 -6143 0
6134 -6143 0
-6136 -6138 6145 0
6136 -6145 0
6138 -6145 0
-6140 -6142 6146 0
6140 -6146 0
6142 -6146 0
-6104 -6106 6216 0
6104 -6216 0
6106 -6216 0
-6112 -6114 6153 0
6112 -6153 0
6114 -6153 0
-6116 -6118 6155 0
6116 -6155 0
6118 -6155 0
-6121 -6123 6196 0
6121 -6196 0
6123 -6196 0
-6125 -6127 6159 0
6125 -6159 0
6127 -6159 0
-6129 -6131 6161 0
6129 -6161 0
6131 -6161 0
-6133 -6135 6163 0
6133 -6163 0
6135 -6163 0
-6137 -6139 6165 0
6137 -6165 0
6139 -6165 0
-6141 -6143 6167 0
6141 -6167 0
6143 -6167 0
-6145 -6146 6169 0
6145 -6169 0
6146 -6169 0
-6147 -6148 6202 0
6147 -6202 0
6148 -6202 0
-6149 -6150 6172 0
6149 -6172 0
6150 -6172 0
-6151 -6152 6174 0
6151 -6174 0
6152 -6174 0
-6154 -6156 6176 0
6154 -6176 0
6156 -6176 0
-6157 -6158 6178 0
6157 -6178 0
6158 -6178 0
-6160 -6162 6180 0
6160 -6180 0
6162 -6180 0
-6164 -6166 6182 0
6164 -6182 0
6166 -6182 0
-6144 -6168 6184 0
6168 -6184 0
6144 -6184 0
-6170 -6171 6186 0
6170 -6186 0
6171 -6186 0
-6173 -6175 6188 0
6173 -6188 0
6175 -6188 0
-6177 -6179 6190 0
6177 -6190 0
6179 -6190 0
-6181 -6183 6192 0
6181 -6192 0
6183 -6192 0
-6185 -6187 6194 0
6185 -6194 0
6187 -6194 0
-6189 -6191 6195 0
6189 -6195 0
6191 -6195 0
-6153 -6155 6241 0
6153 -6241 0
6155 -6241 0
-6159 -6161 6242 0
6159 -6242 0
6161 -6242 0
-6163 -6165 6199 0
6163 -6199 0
6165 -6199 0
-6167 -6169 6201 0
6167 -6201 0
6169 -6201 0
-6172 -6174 6244 0
6172 -6244 0
6174 -6244 0
-6176 -6178 6205 0
6176 -6205 0
6178 -6205 0
-6180 -6182 6207 0
6180 -6207 0
6182 -6207 0
-6184 -6186 6209 0
6184 -6209 0
6186 -6209 0
-6188 -6190 6211 0
6188 -6211 0
6190 -6211 0
-6192 -6194 6213 0
6192 -6213 0
6194 -6213 0
-6193 -6195 6215 0
6195 -6215 0
6193 -6215 0
-6196 -6197 6219 0
6196 -6219 0
6197 -6219 0
-6198 -6200 6221 0
6198 -6221 0
6200 -6221 0
-6202 -6203 6223 0
6202 -6223 0
6203 -6223 0
-6204 -6206 6225 0
6204 -6225 0
6206 -6225 0
-6208 -6210 6227 0
6208 -6227 0
6210 -6227 0
-6212 -6214 6229 0
6212 -6229 0
6214 -6229 0
-6216 -6217 6231 0
6216 -6231 0
6217 -6231 0
-6218 -6220 6233 0
6218 -6233 0
6220 -6233 0
-6222 -6224 6235 0
6222 -6235 0
6224 -6235 0
-6226 -6228 6237 0
6226 -6237 0
6228 -6237 0
-6230 -6232 6239 0
6230 -6239 0
6232 -6239 0
-6234 -6236 6240 0
6234 -6240 0
6236 -6240 0
-6199 -6201 6282 0
6199 -6282 0
6201 -6282 0
-6205 -6207 6283 0
6205 -6283 0
6207 -6283 0
-6209 -6211 6247 0
6209 -6247 0
6211 -6247 0
-6213 -6215 6248 0
6213 -6248 0
6215 -6248 0
-6219 -6221 6285 0
6219 -6285 0
6221 -6285 0
-6223 -6225 6251 0
6223 -6251 0
6225 -6251 0
-6227 -6229 6253 0
6227 -6253 0
6229 -6253 0
-6231 -6233 6255 0
6231 -6255 0
6233 -6255 0
-6235 -6237 6257 0
6235 -6257 0
6237 -6257 0
-6239 -6240 6288 0
6239 -6288 0
6240 -6288 0
-6241 -6242 6260 0
6241 -6260 0
6242 -6260 0
-6243 -6244 6262 0
6243 -6262 0
6244 -6262 0
-6245 -6246 6290 0
6245 -6290 0
6246 -6290 0
-6249 -6250 6266 0
6249 -6266 0
6250 -6266 0
-6252 -6254 6268 0
6252 -6268 0
6254 -6268 0
-6256 -6258 6270 0
6256 -6270 0
6258 -6270 0
-6238 -6259 6272 0
6238 -6272 0
6259 -6272 0
-6261 -6263 6274 0
6261 -6274 0
6263 -6274 0
-6264 -6265 6276 0
6264 -6276 0
6265 -6276 0
-6267 -6269 6278 0
6267 -6278 0
6269 -6278 0
-6271 -6273 6280 0
6271 -6280 0
6273 -6280 0
-6275 -6277 6281 0
6275 -6281 0
6277 -6281 0
-6247 -6248 6323 0
6247 -6323 0
6248 -6323 0
-6251 -6253 6324 0
6251 -6324 0
6253 -6324 0
-6255 -6257 6325 0
6255 -6325 0
6257 -6325 0
-6260 -6262 6326 0
6260 -6326 0
6262 -6326 0
-6266 -6268 6292 0
6266 -6292 0
6268 -6292 0
-6270 -6272 6294 0
6270 -6294 0
6272 -6294 0
-6274 -6276 6296 0
6274 -6296 0
6276 -6296 0
-6278 -6280 6298 0
6278 -6298 0
6280 -6298 0
-6279 -6281 6329 0
6281 -6329 0
6279 -6329 0
-6283 -6284 6301 0
6283 -6301 0
6284 -6301 0
-6285 -6286 6303 0
6285 -6303 0
6286 -6303 0
-6287 -6288 6305 0
6287 -6305 0
6288 -6305 0
-6289 -6290 6307 0
6289 -6307 0
6290 -6307 0
-6291 -6293 6309 0
6291 -6309 0
6293 -6309 0
-6295 -6297 6311 0
6295 -6311 0
6297 -6311 0
-6282 -6299 6313 0
6299 -6313 0
6282 -6313 0
-6300 -6302 6315 0
6300 -6315 0
6302 -6315 0
-6304 -6306 6317 0
6304 -6317 0
6306 -6317 0
-6308 -6310 6319 0
6308 -6319 0
6310 -6319 0
-6312 -6314 6321 0
6312 -6321 0
6314 -6321 0
-6316 -6318 6322 0
6316 -6322 0
6318 -6322 0
-6292 -6294 6364 0
6292 -6364 0
6294 -6364 0
-6296 -6298 6365 0
6296 -6365 0
6298 -6365 0
-6301 -6303 6331 0
6301 -6331 0
6303 -6331 0
-6305 -6307 6333 0
6305 -6333 0
6307 -6333 0
-6309 -6311 6335 0
6309 -6335 0
6311 -6335 0
-6313 -6315 6337 0
6313 -6337 0
6315 -6337 0
-6317 -6319 6339 0
6317 -6339 0
6319 -6339 0
-6321 -6322 6341 0
6321 -6341 0
6322 -6341 0
-6323 -6324 6371 0
6323 -6371 0
6324 -6371 0
-6325 -6326 6344 0
6325 -6344 0
6326 -6344 0
-6327 -6328 6346 0
6327 -6346 0
6328 -6346 0
-6329 -6330 6348 0
6329 -6348 0
6330 -6348 0
-6332 -6334 6350 0
6332 -6350 0
6334 -6350 0
-6336 -6338 6352 0
6336 -6352 0
6338 -6352 0
-6320 -6340 6354 0
6340 -6354 0
6320 -6354 0
-6342 -6343 6356 0
6342 -6356 0
6343 -6356 0
-6345 -6347 6358 0
6345 -6358 0
6347 -6358 0
-6349 -6351 6360 0
6349 -6360 0
6351 -6360 0
-6353 -6355 6362 0
6353 -6362 0
6355 -6362 0
-6357 -6359 6363 0
6357 -6363 0
6359 -6363 0
-6331 -6333 6367 0
6331 -6367 0
6333 -6367 0
-6335 -6337 6369 0
6335 -6369 0
6337 -6369 0
-6339 -6341 6401 0
6339 -6401 0
6341 -6401 0
-6344 -6346 6373 0
6344 -6373 0
6346 -6373 0
-6348 -6350 6375 0
6348 -6375 0
6350 -6375 0
-6352 -6354 6377 0
6352 -6377 0
6354 -6377 0
-6356 -6358 6379 0
6356 -6379 0
6358 -6379 0
-6360 -6362 6381 0
6360 -6381 0
6362 -6381 0
-6361 -6363 6383 0
6363 -6383 0
6361 -6383 0
-6364 -6365 6407 0
6364 -6407 0
6365 -6407 0
-6366 -6368 6385 0
6366 -6385 0
6368 -6385 0
-6370 -6371 6387 0
6370 -6387 0
6371 -6387 0
-6372 -6374 6389 0
6372 -6389 0
6374 -6389 0
-6376 -6378 6391 0
6376 -6391 0
6378 -6391 0
-6380 -6382 6412 0
6380 -6412 0
6382 -6412 0
-6384 -6386 6395 0
6384 -6395 0
6386 -6395 0
-6388 -6390 6397 0
6388 -6397 0
6390 -6397 0
-6392 -6393 6399 0
6392 -6399 0
6393 -6399 0
-6394 -6396 6400 0
6394 -6400 0
6396 -6400 0
-6367 -6369 6434 0
6367 -6434 0
6369 -6434 0
-6373 -6375 6403 0
6373 -6403 0
6375 -6403 0
-6377 -6379 6405 0
6377 -6405 0
6379 -6405 0
-6381 -6383 6436 0
6381 -6436 0
6383 -6436 0
-6385 -6387 6409 0
6385 -6409 0
6387 -6409 0
-6389 -6391 6411 0
6389 -6411 0
6391 -6411 0
-6395 -6397 6438 0
6395 -6438 0
6397 -6438 0
-6399 -6400 6439 0
6399 -6439 0
6400 -6439 0
-6401 -6402 6440 0
6401 -6440 0
6402 -6440 0
-6404 -6406 6418 0
6404 -6418 0
6406 -6418 0
-6407 -6408 6420 0
6407 -6420 0
6408 -6420 0
-6410 -6412 6422 0
6410 -6422 0
6412 -6422 0
-6413 -6414 6424 0
6413 -6424 0
6414 -6424 0
-6398 -6415 6426 0
6398 -6426 0
6415 -6426 0
-6416 -6417 6428 0
6416 -6428 0
6417 -6428 0
-6419 -6421 6430 0
6419 -6430 0
6421 -6430 0
-6423 -6425 6432 0
6423 -6432 0
6425 -6432 0
-6427 -6429 6433 0
6427 -6433 0
6429 -6433 0
-6403 -6405 6469 0
6403 -6469 0
6405 -6469 0
-6409 -6411 6470 0
6409 -6470 0
6411 -6470 0
-6418 -6420 6442 0
6418 -6442 0
6420 -6442 0
-6422 -6424 6444 0
6422 -6444 0
6424 -6444 0
-6426 -6428 6446 0
6426 -6446 0
6428 -6446 0
-6430 -6432 6448 0
6430 -6448 0
6432 -6448 0
-6431 -6433 6474 0
6433 -6474 0
6431 -6474 0
-6435 -6436 6451 0
6435 -6451 0
6436 -6451 0
-6437 -6438 6453 0
6437 -6453 0
6438 -6453 0
-6439 -6440 6455 0
6439 -6455 0
6440 -6455 0
-6441 -6443 6457 0
6441 -6457 0
6443 -6457 0
-6445 -6447 6459 0
6445 -6459 0
6447 -6459 0
-6434 -6449 6461 0
6449 -6461 0
6434 -6461 0
-6450 -6452 6463 0
6450 -6463 0
6452 -6463 0
-6454 -6456 6465 0
6454 -6465 0
6456 -6465 0
-6458 -6460 6467 0
6458 -6467 0
6460 -6467 0
-6462 -6464 6468 0
6462 -6468 0
6464 -6468 0
-6442 -6444 6471 0
6442 -6471 0
6444 -6471 0
-6446 -6448 6473 0
6446 -6473 0
6448 -6473 0
-6451 -6453 6501 0
6451 -6501 0
6453 -6501 0
-6455 -6457 6477 0
6455 -6477 0
6457 -6477 0
-6459 -6461 6479 0
6459 -6479 0
6461 -6479 0
-6463 -6465 6481 0
6463 -6481 0
6465 -6481 0
-6467 -6468 6483 0
6467 -6483 0
6468 -6483 0
-6469 -6470 6506 0
6469 -6506 0
6470 -6506 0
-6472 -6474 6507 0
6472 -6507 0
6474 -6507 0
-6475 -6476 6488 0
6475 -6488 0
6476 -6488 0
-6478 -6480 6490 0
6478 -6490 0
6480 -6490 0
-6466 -6482 6492 0
6482 -6492 0
6466 -6492 0
-6484 -6485 6494 0
6484 -6494 0
6485 -6494 0
-6486 -6487 6496 0
6486 -6496 0
6487 -6496 0
-6489 -6491 6498 0
6489 -6498 0
6491 -6498 0
-6493 -6495 6499 0
6493 -6499 0
6495 -6499 0
-6471 -6473 6529 0
6471 -6529 0
6473 -6529 0
-6477 -6479 6503 0
6477 -6503 0
6479 -6503 0
-6481 -6483 6505 0
6481 -6505 0
6483 -6505 0
-6488 -6490 6509 0
6488 -6509 0
6490 -6509 0
-6492 -6494 6511 0
6492 -6511 0
6494 -6511 0
-6496 -6498 6513 0
6496 -6513 0
6498 -6513 0
-6497 -6499 6515 0
6499 -6515 0
6497 -6515 0
-6500 -6501 6534 0
6500 -6534 0
6501 -6534 0
-6502 -6504 6517 0
6502 -6517 0
6504 -6517 0
-6506 -6507 6519 0
6506 -6519 0
6507 -6519 0
-6508 -6510 6521 0
6508 -6521 0
6510 -6521 0
-6512 -6514 6523 0
6512 -6523 0
6514 -6523 0
-6516 -6518 6537 0
6516 -6537 0
6518 -6537 0
-6520 -6522 6527 0
6520 -6527 0
6522 -6527 0
-6524 -6525 6528 0
6524 -6528 0
6525 -6528 0
-6503 -6505 6554 0
6503 -6554 0
6505 -6554 0
-6509 -6511 6531 0
6509 -6531 0
6511 -6531 0
-6513 -6515 6533 0
6513 -6533 0
6515 -6533 0
-6517 -6519 6556 0
6517 -6556 0
6519 -6556 0
-6521 -6523 6557 0
6521 -6557 0
6523 -6557 0
-6527 -6528 6558 0
6527 -6558 0
6528 -6558 0
-6529 -6530 6559 0
6529 -6559 0
6530 -6559 0
-6532 -6534 6542 0
6532 -6542 0
6534 -6542 0
-6535 -6536 6544 0
6535 -6544 0
6536 -6544 0
-6537 -6538 6546 0
6537 -6546 0
6538 -6546 0
-6526 -6539 6548 0
6526 -6548 0
6539 -6548 0
-6540 -6541 6550 0
6540 -6550 0
6541 -6550 0
-6543 -6545 6552 0
6543 -6552 0
6545 -6552 0
-6547 -6549 6553 0
6547 -6553 0
6549 -6553 0
-6531 -6533 6581 0
6531 -6581 0
6533 -6581 0
-6542 -6544 6582 0
6542 -6582 0
6544 -6582 0
-6546 -6548 6562 0
6546 -6562 0
6548 -6562 0
-6550 -6552 6564 0
6550 -6564 0
6552 -6564 0
-6551 -6553 6584 0
6553 -6584 0
6551 -6584 0
-6555 -6556 6567 0
6555 -6567 0
6556 -6567 0
-6557 -6558 6569 0
6557 -6569 0
6558 -6569 0
-6559 -6560 6571 0
6559 -6571 0
6560 -6571 0
-6561 -6563 6573 0
6561 -6573 0
6563 -6573 0
-6554 -6565 6575 0
6565 -6575 0
6554 -6575 0
-6566 -6568 6577 0
6566 -6577 0
6568 -6577 0
-6570 -6572 6579 0
6570 -6579 0
6572 -6579 0
-6574 -6576 6580 0
6574 -6580 0
6576 -6580 0
-6562 -6564 6606 0
6562 -6606 0
6564 -6606 0
-6567 -6569 6586 0
6567 -6586 0
6569 -6586 0
-6571 -6573 6588 0
6571 -6588 0
6573 -6588 0
-6575 -6577 6590 0
6575 -6590 0
6577 -6590 0
-6579 -6580 6592 0
6579 -6592 0
6580 -6592 0
-6582 -6583 6594 0
6582 -6594 0
6583 -6594 0
-6584 -6585 6596 0
6584 -6596 0
6585 -6596 0
-6587 -6589 6598 0
6587 -6598 0
6589 -6598 0
-6578 -6591 6600 0
6591 -6600 0
6578 -6600 0
-6581 -6593 6602 0
6581 -6602 0
6593 -6602 0
-6595 -6597 6604 0
6595 -6604 0
6597 -6604 0
-6599 -6601 6605 0
6599 -6605 0
6601 -6605 0
-6586 -6588 6623 0
6586 -6623 0
6588 -6623 0
-6590 -6592 6624 0
6590 -6624 0
6592 -6624 0
-6594 -6596 6609 0
6594 -6609 0
6596 -6609 0
-6598 -6600 6611 0
6598 -6611 0
6600 -6611 0
-6602 -6604 6613 0
6602 -6613 0
6604 -6613 0
-6603 -6605 6615 0
6605 -6615 0
6603 -6615 0
-6606 -6607 6627 0
6606 -6627 0
6607 -6627 0
-6608 -6610 6628 0
6608 -6628 0
6610 -6628 0
-6612 -6614 6629 0
6612 -6629 0
6614 -6629 0
-6616 -6617 6621 0
6616 -6621 0
6617 -6621 0
-6618 -6619 6622 0
6618 -6622 0
6619 -6622 0
-6609 -6611 6644 0
6609 -6644 0
6611 -6644 0
-6613 -6615 6645 0
6613 -6645 0
6615 -6645 0
-6621 -6622 6646 0
6621 -6646 0
6622 -6646 0
-6623 -6624 6632 0
6623 -6632 0
6624 -6632 0
-6625 -6626 6634 0
6625 -6634 0
6626 -6634 0
-6627 -6628 6636 0
6627 -6636 0
6628 -6636 0
-6629 -6630 6638 0
6629 -6638 0
6630 -6638 0
-6620 -6631 6640 0
6620 -6640 0
6631 -6640 0
-6633 -6635 6642 0
6633 -6642 0
6635 -6642 0
-6637 -6639 6643 0
6637 -6643 0
6639 -6643 0
-6632 -6634 6661 0
6632 -6661 0
6634 -6661 0
-6636 -6638 6649 0
6636 -6649 0
6638 -6649 0
-6640 -6642 6651 0
6640 -6651 0
6642 -6651 0
-6641 -6643 6663 0
6643 -6663 0
6641 -6663 0
-6646 -6647 6664 0
6646 -6664 0
6647 -6664 0
-6648 -6650 6655 0
6648 -6655 0
6650 -6655 0
-6644 -6652 6657 0
6652 -6657 0
6644 -6657 0
-6645 -6653 6659 0
6645 -6659 0
6653 -6659 0
-6654 -6656 6660 0
6654 -6660 0
6656 -6660 0
-6649 -6651 6678 0
6649 -6678 0
6651 -6678 0
-6655 -6657 6666 0
6655 -6666 0
6657 -6666 0
-6659 -6660 6668 0
6659 -6668 0
6660 -6668 0
-6662 -6663 6670 0
6662 -6670 0
6663 -6670 0
-6664 -6665 6672 0
6664 -6672 0
6665 -6672 0
-6658 -6667 6674 0
6667 -6674 0
6658 -6674 0
-6661 -6669 6676 0
6661 -6676 0
6669 -6676 0
-6671 -6673 6677 0
6671 -6677 0
6673 -6677 0
-6666 -6668 6689 0
6666 -6689 0
6668 -6689 0
-6670 -6672 6690 0
6670 -6690 0
6672 -6690 0
-6674 -6676 6680 0
6674 -6680 0
6676 -6680 0
-6675 -6677 6682 0
6677 -6682 0
6675 -6682 0
-6679 -6681 6691 0
6679 -6691 0
6681 -6691 0
-6678 -6683 6687 0
6678 -6687 0
6683 -6687 0
-6684 -6685 6688 0
6684 -6688 0
6685 -6688 0
-6680 -6682 6700 0
6680 -6700 0
6682 -6700 0
-6687 -6688 6701 0
6687 -6701 0
6688 -6701 0
-6689 -6690 6702 0
6689 -6702 0
6690 -6702 0
-6691 -6692 6696 0
6691 -6696 0
6692 -6696 0
-6686 -6693 6698 0
6686 -6698 0
6693 -6698 0
-6694 -6695 6699 0
6694 -6699 0
6695 -6699 0
-6696 -6698 6712 0
6696 -6712 0
6698 -6712 0
-6697 -6699 6709 0
6699 -6709 0
6697 -6709 0
-6702 -6703 6710 0
6702 -6710 0
6703 -6710 0
-6700 -6704 6707 0
6704 -6707 0
6700 -6707 0
-6701 -6705 6708 0
6701 -6708 0
6705 -6708 0
-6707 -6708 6722 0
6707 -6722 0
6708 -6722 0
-6709 -6710 6714 0
6709 -6714 0
6710 -6714 0
-6706 -6711 6716 0
6711 -6716 0
6706 -6716 0
-6712 -6713 6717 0
6712 -6717 0
6713 -6717 0
-6714 -6716 6719 0
6714 -6719 0
6716 -6719 0
-6715 -6717 6721 0
6717 -6721 0
6715 -6721 0
-6718 -6720 6724 0
6718 -6724 0
6720 -6724 0
-6719 -6721 6726 0
-6722 -6723 6725 0
6722 -6725 0
6723 -6725 0
-6724 -6725 0
-6726 0
-2 -9 -96 0
2 9 -96 0
-2 9 96 0
2 -9 96 0
-17 -25 -98 0
17 25 -98 0
-17 25 98 0
17 -25 98 0
-95 -96 -98 0
95 96 -98 0
-95 96 98 0
95 -96 98 0
-3 -10 -99 0
3 10 -99 0
-3 10 99 0
3 -10 99 0
-26 -95 -101 0
26 95 -101 0
26 -95 101 0
-26 95 101 0
-35 -97 -103 0
35 97 -103 0
-35 97 103 0
35 -97 103 0
-98 -99 -106 0
98 99 -106 0
-98 99 106 0
98 -99 106 0
-101 -103 -107 0
101 103 -107 0
-101 103 107 0
101 -103 107 0
-104 -105 -109 0
104 105 -109 0
-104 105 109 0
104 -105 109 0
-106 -107 109 0
106 107 109 0
-106 107 -109 0
106 -107 -109 0
-4 -11 -111 0
4 11 -111 0
-4 11 111 0
4 -11 111 0
-18 -27 -113 0
18 27 -113 0
-18 27 113 0
18 -27 113 0
-36 -45 -115 0
36 45 -115 0
-36 45 115 0
36 -45 115 0
-100 -102 -117 0
100 102 -117 0
-100 102 117 0
100 -102 117 0
-108 -110 -120 0
108 110 -120 0
-108 110 120 0
108 -110 120 0
-111 -113 -122 0
111 113 -122 0
-111 113 122 0
111 -113 122 0
-115 -117 -123 0
115 117 -123 0
-115 117 123 0
115 -117 123 0
-118 -119 -125 0
118 119 -125 0
-118 119 125 0
118 -119 125 0
-120 -121 -127 0
120 121 -127 0
-120 121 127 0
120 -121 127 0
-122 -123 -129 0
122 123 -129 0
-122 123 129 0
122 -123 129 0
-125 -127 -129 0
125 127 -129 0
-125 127 129 0
125 -127 129 0
-5 -12 -132 0
5 12 -132 0
-5 12 132 0
5 -12 132 0
-19 -28 -134 0
19 28 -134 0
-19 28 134 0
19 -28 134 0
-37 -46 -136 0
37 46 -136 0
-37 46 136 0
37 -46 136 0
-55 -112 -138 0
55 112 -138 0
-55 112 138 0
55 -112 138 0
-114 -116 -140 0
114 116 -140 0
-114 116 140 0
114 -116 140 0
-124 -126 -144 0
124 126 -144 0
-124 126 144 0
124 -126 144 0
-128 -130 -146 0
128 130 -146 0
-128 130 146 0
128 -130 146 0
-129 -131 -148 0
129 131 -148 0
129 -131 148 0
-129 131 148 0
-132 -134 -150 0
132 134 -150 0
-132 134 150 0
132 -134 150 0
-136 -138 -152 0
136 138 -152 0
-136 138 152 0
136 -138 152 0
-140 -141 -154 0
140 141 -154 0
-140 141 154 0
140 -141 154 0
-142 -143 -156 0
142 143 -156 0
-142 143 156 0
142 -143 156 0
-144 -146 -158 0
144 146 -158 0
-144 146 158 0
144 -146 158 0
-148 -150 -160 0
148 150 -160 0
-148 150 160 0
148 -150 160 0
-152 -154 -162 0
152 154 -162 0
-152 154 162 0
152 -154 162 0
-156 -158 -164 0
156 158 -164 0
-156 158 164 0
156 -158 164 0
-160 -162 -164 0
160 162 -164 0
-160 162 164 0
160 -162 164 0
-6 -13 -167 0
6 13 -167 0
-6 13 167 0
6 -13 167 0
-20 -29 -169 0
20 29 -169 0
-20 29 169 0
20 -29 169 0
-38 -47 -171 0
38 47 -171 0
-38 47 171 0
38 -47 171 0
-56 -65 -173 0
56 65 -173 0
-56 65 173 0
56 -65 173 0
-133 -135 -175 0
133 135 -175 0
-133 135 175 0
133 -135 175 0
-137 -139 -177 0
137 139 -177 0
-137 139 177 0
137 -139 177 0
-145 -147 -196 0
145 147 -196 0
-145 147 196 0
145 -147 196 0
-149 -151 -179 0
149 151 -179 0
-149 151 179 0
149 -151 179 0
-153 -155 -181 0
153 155 -181 0
-153 155 181 0
153 -155 181 0
-157 -159 -183 0
157 159 -183 0
-157 159 183 0
157 -159 183 0
-161 -163 -185 0
161 163 -185 0
-161 163 185 0
161 -163 185 0
-165 -166 -187 0
165 166 -187 0
-165 166 187 0
165 -166 187 0
-164 -167 -189 0
164 167 -189 0
-164 167 189 0
164 -167 189 0
-169 -171 -191 0
169 171 -191 0
-169 171 191 0
169 -171 191 0
-173 -175 -193 0
173 175 -193 0
-173 175 193 0
173 -175 193 0
-177 -178 -195 0
177 178 -195 0
-177 178 195 0
177 -178 195 0
-179 -181 -197 0
179 181 -197 0
-179 181 197 0
179 -181 197 0
-183 -185 -199 0
183 185 -199 0
-183 185 199 0
183 -185 199 0
-187 -189 -201 0
187 189 -201 0
-187 189 201 0
187 -189 201 0
-191 -193 -203 0
191 193 -203 0
-191 193 203 0
191 -193 203 0
-195 -196 -205 0
195 196 -205 0
-195 196 205 0
195 -196 205 0
-197 -199 -207 0
197 199 -207 0
-197 199 207 0
197 -199 207 0
-201 -203 -209 0
201 203 -209 0
-201 203 209 0
201 -203 209 0
-205 -207 -209 0
205 207 -209 0
-205 207 209 0
205 -207 209 0
-7 -14 -212 0
7 14 -212 0
-7 14 212 0
7 -14 212 0
-21 -30 -214 0
21 30 -214 0
-21 30 214 0
21 -30 214 0
-39 -48 -216 0
39 48 -216 0
-39 48 216 0
39 -48 216 0
-57 -66 -218 0
57 66 -218 0
-57 66 218 0
57 -66 218 0
-75 -168 -220 0
75 168 -220 0
-75 168 220 0
75 -168 220 0
-170 -172 -222 0
170 172 -222 0
-170 172 222 0
170 -172 222 0
-174 -176 -224 0
174 176 -224 0
-174 176 224 0
174 -176 224 0
-180 -182 -227 0
180 182 -227 0
-180 182 227 0
180 -182 227 0
-184 -186 -228 0
184 186 -228 0
-184 186 228 0
184 -186 228 0
-188 -190 -230 0
188 190 -230 0
-188 190 230 0
188 -190 230 0
-192 -194 -232 0
192 194 -232 0
-192 194 232 0
192 -194 232 0
-198 -200 -234 0
198 200 -234 0
-198 200 234 0
198 -200 234 0
-202 -204 -236 0
202 204 -236 0
-202 204 236 0
202 -204 236 0
-206 -208 -238 0
206 208 -238 0
-206 208 238 0
206 -208 238 0
-210 -211 -240 0
210 211 -240 0
-210 211 240 0
210 -211 240 0
-209 -212 -242 0
209 212 -242 0
-209 212 242 0
209 -212 242 0
-214 -216 -244 0
214 216 -244 0
-214 216 244 0
214 -216 244 0
-218 -220 -246 0
218 220 -246 0
-218 220 246 0
218 -220 246 0
-222 -224 -248 0
222 224 -248 0
-222 224 248 0
222 -224 248 0
-225 -226 -250 0
225 226 -250 0
-225 226 250 0
225 -226 250 0
-227 -228 -252 0
227 228 -252 0
-227 228 252 0
227 -228 252 0
-230 -232 -254 0
230 232 -254 0
-230 232 254 0
230 -232 254 0
-233 -234 -256 0
233 234 -256 0
-233 234 256 0
233 -234 256 0
-236 -238 -258 0
236 238 -258 0
-236 238 258 0
236 -238 258 0
-240 -242 -260 0
240 242 -260 0
-240 242 260 0
240 -242 260 0
-244 -246 -262 0
244 246 -262 0
-244 246 262 0
244 -246 262 0
-248 -250 -264 0
248 250 -264 0
-248 250 264 0
248 -250 264 0
-252 -254 -266 0
252 254 -266 0
-252 254 266 0
252 -254 266 0
-256 -258 -268 0
256 258 -268 0
-256 258 268 0
256 -258 268 0
-260 -262 -270 0
260 262 -270 0
-260 262 270 0
260 -262 270 0
-264 -266 -272 0
264 266 -272 0
-264 266 272 0
264 -266 272 0
-268 -270 -272 0
268 270 -272 0
-268 270 272 0
268 -270 272 0
-8 -15 -275 0
8 15 -275 0
-8 15 275 0
8 -15 275 0
-22 -31 -277 0
22 31 -277 0
-22 31 277 0
22 -31 277 0
-40 -49 -279 0
40 49 -279 0
-40 49 279 0
40 -49 279 0
-58 -67 -281 0
58 67 -281 0
-58 67 281 0
58 -67 281 0
-76 -85 -283 0
76 85 -283 0
-76 85 283 0
76 -85 283 0
-213 -215 -285 0
213 215 -285 0
-213 215 285 0
213 -215 285 0
-217 -219 -287 0
217 219 -287 0
-217 219 287 0
217 -219 287 0
-221 -223 -289 0
221 223 -289 0
-221 223 289 0
221 -223 289 0
-229 -231 -292 0
229 231 -292 0
-229 231 292 0
229 -231 292 0
-235 -237 -294 0
235 237 -294 0
-235 237 294 0
235 -237 294 0
-239 -241 -295 0
239 241 -295 0
-239 241 295 0
239 -241 295 0
-243 -245 -297 0
243 245 -297 0
-243 245 297 0
243 -245 297 0
-247 -249 -299 0
247 249 -299 0
-247 249 299 0
247 -249 299 0
-251 -253 -301 0
251 253 -301 0
-251 253 301 0
251 -253 301 0
-255 -257 -303 0
255 257 -303 0
-255 257 303 0
255 -257 303 0
-259 -261 -305 0
259 261 -305 0
-259 261 305 0
259 -261 305 0
-263 -265 -307 0
263 265 -307 0
-263 265 307 0
263 -265 307 0
-267 -269 -309 0
267 269 -309 0
-267 269 309 0
267 -269 309 0
-271 -273 -311 0
271 273 -311 0
-271 273 311 0
271 -273 311 0
-272 -274 -313 0
272 274 -313 0
272 -274 313 0
-272 274 313 0
-275 -277 -315 0
275 277 -315 0
-275 277 315 0
275 -277 315 0
-279 -281 -317 0
279 281 -317 0
-279 281 317 0
279 -281 317 0
-283 -285 -319 0
283 285 -319 0
-283 285 319 0
283 -285 319 0
-287 -289 -321 0
287 289 -321 0
-287 289 321 0
287 -289 321 0
-290 -291 -323 0
290 291 -323 0
-290 291 323 0
290 -291 323 0
-292 -293 -325 0
292 293 -325 0
-292 293 325 0
292 -293 325 0
-294 -295 -327 0
294 295 -327 0
-294 295 327 0
294 -295 327 0
-297 -299 -329 0
297 299 -329 0
-297 299 329 0
297 -299 329 0
-301 -303 -331 0
301 303 -331 0
-301 303 331 0
301 -303 331 0
-305 -307 -333 0
305 307 -333 0
-305 307 333 0
305 -307 333 0
-309 -311 -335 0
309 311 -335 0
-309 311 335 0
309 -311 335 0
-313 -315 -337 0
313 315 -337 0
-313 315 337 0
313 -315 337 0
-317 -319 -339 0
317 319 -339 0
-317 319 339 0
317 -319 339 0
-321 -323 -341 0
321 323 -341 0
-321 323 341 0
321 -323 341 0
-325 -327 -343 0
325 327 -343 0
-325 327 343 0
325 -327 343 0
-329 -331 -345 0
329 331 -345 0
-329 331 345 0
329 -331 345 0
-333 -335 -347 0
333 335 -347 0
-333 335 347 0
333 -335 347 0
-337 -339 -349 0
337 339 -349 0
-337 339 349 0
337 -339 349 0
-341 -343 -351 0
341 343 -351 0
-341 343 351 0
341 -343 351 0
-345 -347 -353 0
345 347 -353 0
-345 347 353 0
345 -347 353 0
-349 -351 -353 0
349 351 -353 0
-349 351 353 0
349 -351 353 0
-16 -23 -356 0
16 23 -356 0
-16 23 356 0
16 -23 356 0
-32 -41 -358 0
32 41 -358 0
-32 41 358 0
32 -41 358 0
-50 -59 -360 0
50 59 -360 0
-50 59 360 0
50 -59 360 0
-68 -77 -362 0
68 77 -362 0
-68 77 362 0
68 -77 362 0
-86 -276 -364 0
86 276 -364 0
-86 276 364 0
86 -276 364 0
-278 -280 -366 0
278 280 -366 0
-278 280 366 0
278 -280 366 0
-282 -284 -368 0
282 284 -368 0
-282 284 368 0
282 -284 368 0
-286 -288 -370 0
286 288 -370 0
-286 288 370 0
286 -288 370 0
-296 -298 -375 0
296 298 -375 0
-296 298 375 0
296 -298 375 0
-300 -302 -376 0
300 302 -376 0
-300 302 376 0
300 -302 376 0
-304 -306 -378 0
304 306 -378 0
-304 306 378 0
304 -306 378 0
-308 -310 -380 0
308 310 -380 0
-308 310 380 0
308 -310 380 0
-312 -314 -382 0
312 314 -382 0
-312 314 382 0
312 -314 382 0
-316 -318 -384 0
316 318 -384 0
-316 318 384 0
316 -318 384 0
-320 -322 -386 0
320 322 -386 0
-320 322 386 0
320 -322 386 0
-324 -326 -388 0
324 326 -388 0
-324 326 388 0
324 -326 388 0
-328 -330 -390 0
328 330 -390 0
-328 330 390 0
328 -330 390 0
-332 -334 -392 0
332 334 -392 0
-332 334 392 0
332 -334 392 0
-336 -338 -394 0
336 338 -394 0
-336 338 394 0
336 -338 394 0
-340 -342 -396 0
340 342 -396 0
-340 342 396 0
340 -342 396 0
-344 -346 -398 0
344 346 -398 0
-344 346 398 0
344 -346 398 0
-348 -350 -400 0
348 350 -400 0
-348 350 400 0
348 -350 400 0
-352 -354 -402 0
352 354 -402 0
-352 354 402 0
352 -354 402 0
-353 -355 -404 0
353 355 -404 0
353 -355 404 0
-353 355 404 0
-356 -358 -406 0
356 358 -406 0
-356 358 406 0
356 -358 406 0
-360 -362 -408 0
360 362 -408 0
-360 362 408 0
360 -362 408 0
-364 -366 -410 0
364 366 -410 0
-364 366 410 0
364 -366 410 0
-368 -370 -412 0
368 370 -412 0
-368 370 412 0
368 -370 412 0
-372 -373 -414 0
372 373 -414 0
-372 373 414 0
372 -373 414 0
-374 -375 -416 0
374 375 -416 0
-374 375 416 0
374 -375 416 0
-376 -378 -418 0
376 378 -418 0
-376 378 418 0
376 -378 418 0
-380 -382 -420 0
380 382 -420 0
-380 382 420 0
380 -382 420 0
-384 -386 -422 0
384 386 -422 0
-384 386 422 0
384 -386 422 0
-388 -390 -424 0
388 390 -424 0
-388 390 424 0
388 -390 424 0
-392 -394 -426 0
392 394 -426 0
-392 394 426 0
392 -394 426 0
-396 -398 -428 0
396 398 -428 0
-396 398 428 0
396 -398 428 0
-400 -402 -430 0
400 402 -430 0
-400 402 430 0
400 -402 430 0
-404 -406 -432 0
404 406 -432 0
-404 406 432 0
404 -406 432 0
-408 -410 -434 0
408 410 -434 0
-408 410 434 0
408 -410 434 0
-412 -414 -436 0
412 414 -436 0
-412 414 436 0
412 -414 436 0
-416 -418 -438 0
416 418 -438 0
-416 418 438 0
416 -418 438 0
-420 -422 -440 0
420 422 -440 0
-420 422 440 0
420 -422 440 0
-424 -426 -442 0
424 426 -442 0
-424 426 442 0
424 -426 442 0
-428 -430 -444 0
428 430 -444 0
-428 430 444 0
428 -430 444 0
-432 -434 -446 0
432 434 -446 0
-432 434 446 0
432 -434 446 0
-436 -438 -448 0
436 438 -448 0
-436 438 448 0
436 -438 448 0
-440 -442 -450 0
440 442 -450 0
-440 442 450 0
440 -442 450 0
-444 -446 -452 0
444 446 -452 0
-444 446 452 0
444 -446 452 0
-448 -450 -452 0
448 450 -452 0
-448 450 452 0
448 -450 452 0
-24 -33 -455 0
24 33 -455 0
-24 33 455 0
24 -33 455 0
-42 -51 -457 0
42 51 -457 0
-42 51 457 0
42 -51 457 0
-60 -69 -459 0
60 69 -459 0
-60 69 459 0
60 -69 459 0
-78 -87 -461 0
78 87 -461 0
-78 87 461 0
78 -87 461 0
-357 -359 -463 0
357 359 -463 0
-357 359 463 0
357 -359 463 0
-361 -363 -465 0
361 363 -465 0
-361 363 465 0
361 -363 465 0
-365 -367 -467 0
365 367 -467 0
-365 367 467 0
365 -367 467 0
-369 -371 -516 0
369 371 -516 0
-369 371 516 0
369 -371 516 0
-377 -379 -470 0
377 379 -470 0
-377 379 470 0
377 -379 470 0
-381 -383 -471 0
381 383 -471 0
-381 383 471 0
381 -383 471 0
-385 -387 -473 0
385 387 -473 0
-385 387 473 0
385 -387 473 0
-389 -391 -475 0
389 391 -475 0
-389 391 475 0
389 -391 475 0
-393 -395 -477 0
393 395 -477 0
-393 395 477 0
393 -395 477 0
-397 -399 -479 0
397 399 -479 0
-397 399 479 0
397 -399 479 0
-401 -403 -481 0
401 403 -481 0
-401 403 481 0
401 -403 481 0
-405 -407 -483 0
405 407 -483 0
-405 407 483 0
405 -407 483 0
-409 -411 -485 0
409 411 -485 0
-409 411 485 0
409 -411 485 0
-413 -415 -487 0
413 415 -487 0
-413 415 487 0
413 -415 487 0
-417 -419 -489 0
417 419 -489 0
-417 419 489 0
417 -419 489 0
-421 -423 -491 0
421 423 -491 0
-421 423 491 0
421 -423 491 0
-425 -427 -493 0
425 427 -493 0
-425 427 493 0
425 -427 493 0
-429 -431 -495 0
429 431 -495 0
-429 431 495 0
429 -431 495 0
-433 -435 -497 0
433 435 -497 0
-433 435 497 0
433 -435 497 0
-437 -439 -499 0
437 439 -499 0
-437 439 499 0
437 -439 499 0
-441 -443 -501 0
441 443 -501 0
-441 443 501 0
441 -443 501 0
-445 -447 -503 0
445 447 -503 0
-445 447 503 0
445 -447 503 0
-449 -451 -505 0
449 451 -505 0
-449 451 505 0
449 -451 505 0
-453 -454 -507 0
453 454 -507 0
-453 454 507 0
453 -454 507 0
-452 -455 -509 0
452 455 -509 0
-452 455 509 0
452 -455 509 0
-457 -459 -511 0
457 459 -511 0
-457 459 511 0
457 -459 511 0
-461 -463 -513 0
461 463 -513 0
-461 463 513 0
461 -463 513 0
-465 -467 -515 0
465 467 -515 0
-465 467 515 0
465 -467 515 0
-469 -470 -517 0
469 470 -517 0
-469 470 517 0
469 -470 517 0
-471 -473 -519 0
471 473 -519 0
-471 473 519 0
471 -473 519 0
-475 -477 -521 0
475 477 -521 0
-475 477 521 0
475 -477 521 0
-479 -481 -523 0
479 481 -523 0
-479 481 523 0
479 -481 523 0
-483 -485 -525 0
483 485 -525 0
-483 485 525 0
483 -485 525 0
-487 -489 -527 0
487 489 -527 0
-487 489 527 0
487 -489 527 0
-491 -493 -529 0
491 493 -529 0
-491 493 529 0
491 -493 529 0
-495 -497 -531 0
495 497 -531 0
-495 497 531 0
495 -497 531 0
-499 -501 -533 0
499 501 -533 0
-499 501 533 0
499 -501 533 0
-503 -505 -535 0
503 505 -535 0
-503 505 535 0
503 -505 535 0
-507 -509 -537 0
507 509 -537 0
-507 509 537 0
507 -509 537 0
-511 -513 -539 0
511 513 -539 0
-511 513 539 0
511 -513 539 0
-515 -516 -541 0
515 516 -541 0
-515 516 541 0
515 -516 541 0
-517 -519 -543 0
517 519 -543 0
-517 519 543 0
517 -519 543 0
-521 -523 -545 0
521 523 -545 0
-521 523 545 0
521 -523 545 0
-525 -527 -547 0
525 527 -547 0
-525 527 547 0
525 -527 547 0
-529 -531 -549 0
529 531 -549 0
-529 531 549 0
529 -531 549 0
-533 -535 -551 0
533 535 -551 0
-533 535 551 0
533 -535 551 0
-537 -539 -553 0
537 539 -553 0
-537 539 553 0
537 -539 553 0
-541 -543 -555 0
541 543 -555 0
-541 543 555 0
541 -543 555 0
-545 -547 -557 0
545 547 -557 0
-545 547 557 0
545 -547 557 0
-549 -551 -559 0
549 551 -559 0
-549 551 559 0
549 -551 559 0
-553 -555 -561 0
553 555 -561 0
-553 555 561 0
553 -555 561 0
-557 -559 -561 0
557 559 -561 0
-557 559 561 0
557 -559 561 0
-34 -43 -564 0
34 43 -564 0
-34 43 564 0
34 -43 564 0
-52 -61 -566 0
52 61 -566 0
-52 61 566 0
52 -61 566 0
-70 -79 -568 0
70 79 -568 0
-70 79 568 0
70 -79 568 0
-88 -456 -570 0
88 456 -570 0
-88 456 570 0
88 -456 570 0
-458 -460 -572 0
458 460 -572 0
-458 460 572 0
458 -460 572 0
-462 -464 -574 0
462 464 -574 0
-462 464 574 0
462 -464 574 0
-466 -468 -576 0
466 468 -576 0
-466 468 576 0
466 -468 576 0
-472 -474 -579 0
472 474 -579 0
-472 474 579 0
472 -474 579 0
-476 -478 -580 0
476 478 -580 0
-476 478 580 0
476 -478 580 0
-480 -482 -582 0
480 482 -582 0
-480 482 582 0
480 -482 582 0
-484 -486 -584 0
484 486 -584 0
-484 486 584 0
484 -486 584 0
-488 -490 -586 0
488 490 -586 0
-488 490 586 0
488 -490 586 0
-492 -494 -588 0
492 494 -588 0
-492 494 588 0
492 -494 588 0
-496 -498 -590 0
496 498 -590 0
-496 498 590 0
496 -498 590 0
-500 -502 -592 0
500 502 -592 0
-500 502 592 0
500 -502 592 0
-504 -506 -594 0
504 506 -594 0
-504 506 594 0
504 -506 594 0
-508 -510 -596 0
508 510 -596 0
-508 510 596 0
508 -510 596 0
-512 -514 -598 0
512 514 -598 0
-512 514 598 0
512 -514 598 0
-518 -520 -601 0
518 520 -601 0
-518 520 601 0
518 -520 601 0
-522 -524 -602 0
522 524 -602 0
-522 524 602 0
522 -524 602 0
-526 -528 -604 0
526 528 -604 0
-526 528 604 0
526 -528 604 0
-530 -532 -606 0
530 532 -606 0
-530 532 606 0
530 -532 606 0
-534 -536 -608 0
534 536 -608 0
-534 536 608 0
534 -536 608 0
-538 -540 -610 0
538 540 -610 0
-538 540 610 0
538 -540 610 0
-542 -544 -612 0
542 544 -612 0
-542 544 612 0
542 -544 612 0
-546 -548 -614 0
546 548 -614 0
-546 548 614 0
546 -548 614 0
-550 -552 -616 0
550 552 -616 0
-550 552 616 0
550 -552 616 0
-554 -556 -618 0
554 556 -618 0
-554 556 618 0
554 -556 618 0
-558 -560 -620 0
558 560 -620 0
-558 560 620 0
558 -560 620 0
-562 -563 -622 0
562 563 -622 0
-562 563 622 0
562 -563 622 0
-561 -564 -624 0
561 564 -624 0
-561 564 624 0
561 -564 624 0
-566 -568 -626 0
566 568 -626 0
-566 568 626 0
566 -568 626 0
-570 -572 -628 0
570 572 -628 0
-570 572 628 0
570 -572 628 0
-574 -576 -630 0
574 576 -630 0
-574 576 630 0
574 -576 630 0
-577 -578 -632 0
577 578 -632 0
-577 578 632 0
577 -578 632 0
-579 -580 -634 0
579 580 -634 0
-579 580 634 0
579 -580 634 0
-582 -584 -636 0
582 584 -636 0
-582 584 636 0
582 -584 636 0
-586 -588 -638 0
586 588 -638 0
-586 588 638 0
586 -588 638 0
-590 -592 -640 0
590 592 -640 0
-590 592 640 0
590 -592 640 0
-594 -596 -642 0
594 596 -642 0
-594 596 642 0
594 -596 642 0
-598 -600 -644 0
598 600 -644 0
-598 600 644 0
598 -600 644 0
-601 -602 -646 0
601 602 -646 0
-601 602 646 0
601 -602 646 0
-604 -606 -648 0
604 606 -648 0
-604 606 648 0
604 -606 648 0
-608 -610 -650 0
608 610 -650 0
-608 610 650 0
608 -610 650 0
-612 -614 -652 0
612 614 -652 0
-612 614 652 0
612 -614 652 0
-616 -618 -654 0
616 618 -654 0
-616 618 654 0
616 -618 654 0
-620 -622 -656 0
620 622 -656 0
-620 622 656 0
620 -622 656 0
-624 -626 -658 0
624 626 -658 0
-624 626 658 0
624 -626 658 0
-628 -630 -660 0
628 630 -660 0
-628 630 660 0
628 -630 660 0
-632 -634 -662 0
632 634 -662 0
-632 634 662 0
632 -634 662 0
-636 -638 -664 0
636 638 -664 0
-636 638 664 0
636 -638 664 0
-640 -642 -666 0
640 642 -666 0
-640 642 666 0
640 -642 666 0
-644 -646 -668 0
644 646 -668 0
-644 646 668 0
644 -646 668 0
-648 -650 -670 0
648 650 -670 0
-648 650 670 0
648 -650 670 0
-652 -654 -672 0
652 654 -672 0
-652 654 672 0
652 -654 672 0
-656 -658 -674 0
656 658 -674 0
-656 658 674 0
656 -658 674 0
-660 -662 -676 0
660 662 -676 0
-660 662 676 0
660 -662 676 0
-664 -666 -678 0
664 666 -678 0
-664 666 678 0
664 -666 678 0
-668 -670 -680 0
668 670 -680 0
-668 670 680 0
668 -670 680 0
-672 -674 -682 0
672 674 -682 0
-672 674 682 0
672 -674 682 0
-676 -678 -684 0
676 678 -684 0
-676 678 684 0
676 -678 684 0
-680 -682 684 0
680 682 684 0
-680 682 -684 0
680 -682 -684 0
-44 -53 -686 0
44 53 -686 0
-44 53 686 0
44 -53 686 0
-62 -71 -688 0
62 71 -688 0
-62 71 688 0
62 -71 688 0
-80 -89 -690 0
80 89 -690 0
-80 89 690 0
80 -89 690 0
-565 -567 -692 0
565 567 -692 0
-565 567 692 0
565 -567 692 0
-569 -571 -694 0
569 571 -694 0
-569 571 694 0
569 -571 694 0
-573 -575 -696 0
573 575 -696 0
-573 575 696 0
573 -575 696 0
-581 -583 -699 0
581 583 -699 0
-581 583 699 0
581 -583 699 0
-585 -587 -700 0
585 587 -700 0
-585 587 700 0
585 -587 700 0
-589 -591 -702 0
589 591 -702 0
-589 591 702 0
589 -591 702 0
-593 -595 -704 0
593 595 -704 0
-593 595 704 0
593 -595 704 0
-597 -599 -706 0
597 599 -706 0
-597 599 706 0
597 -599 706 0
-603 -605 -709 0
603 605 -709 0
-603 605 709 0
603 -605 709 0
-607 -609 -710 0
607 609 -710 0
-607 609 710 0
607 -609 710 0
-611 -613 -712 0
611 613 -712 0
-611 613 712 0
611 -613 712 0
-615 -617 -714 0
615 617 -714 0
-615 617 714 0
615 -617 714 0
-619 -621 -716 0
619 621 -716 0
-619 621 716 0
619 -621 716 0
-623 -625 -718 0
623 625 -718 0
-623 625 718 0
623 -625 718 0
-627 -629 -720 0
627 629 -720 0
-627 629 720 0
627 -629 720 0
-631 -633 -722 0
631 633 -722 0
-631 633 722 0
631 -633 722 0
-635 -637 -724 0
635 637 -724 0
-635 637 724 0
635 -637 724 0
-639 -641 -726 0
639 641 -726 0
-639 641 726 0
639 -641 726 0
-643 -645 -728 0
643 645 -728 0
-643 645 728 0
643 -645 728 0
-647 -649 -730 0
647 649 -730 0
-647 649 730 0
647 -649 730 0
-651 -653 -732 0
651 653 -732 0
-651 653 732 0
651 -653 732 0
-655 -657 -734 0
655 657 -734 0
-655 657 734 0
655 -657 734 0
-659 -661 -736 0
659 661 -736 0
-659 661 736 0
659 -661 736 0
-663 -665 -738 0
663 665 -738 0
-663 665 738 0
663 -665 738 0
-667 -669 -740 0
667 669 -740 0
-667 669 740 0
667 -669 740 0
-671 -673 -742 0
671 673 -742 0
-671 673 742 0
671 -673 742 0
-675 -677 -744 0
675 677 -744 0
-675 677 744 0
675 -677 744 0
-679 -681 -746 0
679 681 -746 0
-679 681 746 0
679 -681 746 0
-683 -685 -748 0
683 685 -748 0
-683 685 748 0
683 -685 748 0
-686 -688 -751 0
686 688 -751 0
-686 688 751 0
686 -688 751 0
-690 -692 -752 0
690 692 -752 0
-690 692 752 0
690 -692 752 0
-694 -696 -754 0
694 696 -754 0
-694 696 754 0
694 -696 754 0
-697 -698 -756 0
697 698 -756 0
-697 698 756 0
697 -698 756 0
-699 -700 -758 0
699 700 -758 0
-699 700 758 0
699 -700 758 0
-702 -704 -760 0
702 704 -760 0
-702 704 760 0
702 -704 760 0
-706 -708 -762 0
706 708 -762 0
-706 708 762 0
706 -708 762 0
-709 -710 -764 0
709 710 -764 0
-709 710 764 0
709 -710 764 0
-712 -714 -766 0
712 714 -766 0
-712 714 766 0
712 -714 766 0
-716 -718 -768 0
716 718 -768 0
-716 718 768 0
716 -718 768 0
-720 -722 -770 0
720 722 -770 0
-720 722 770 0
720 -722 770 0
-724 -726 -772 0
724 726 -772 0
-724 726 772 0
724 -726 772 0
-728 -730 -774 0
728 730 -774 0
-728 730 774 0
728 -730 774 0
-732 -734 -776 0
732 734 -776 0
-732 734 776 0
732 -734 776 0
-736 -738 -778 0
736 738 -778 0
-736 738 778 0
736 -738 778 0
-740 -742 -780 0
740 742 -780 0
-740 742 780 0
740 -742 780 0
-744 -746 -782 0
744 746 -782 0
-744 746 782 0
744 -746 782 0
-748 -750 -784 0
748 750 -784 0
-748 750 784 0
748 -750 784 0
-751 -752 -786 0
751 752 -786 0
-751 752 786 0
751 -752 786 0
-754 -756 -788 0
754 756 -788 0
-754 756 788 0
754 -756 788 0
-758 -760 -790 0
758 760 -790 0
-758 760 790 0
758 -760 790 0
-762 -764 -792 0
762 764 -792 0
-762 764 792 0
762 -764 792 0
-766 -768 -794 0
766 768 -794 0
-766 768 794 0
766 -768 794 0
-770 -772 -796 0
770 772 -796 0
-770 772 796 0
770 -772 796 0
-774 -776 -798 0
774 776 -798 0
-774 776 798 0
774 -776 798 0
-778 -780 -800 0
778 780 -800 0
-778 780 800 0
778 -780 800 0
-782 -784 -802 0
782 784 -802 0
-782 784 802 0
782 -784 802 0
-786 -788 -804 0
786 788 -804 0
-786 788 804 0
786 -788 804 0
-790 -792 -806 0
790 792 -806 0
-790 792 806 0
790 -792 806 0
-794 -796 -808 0
794 796 -808 0
-794 796 808 0
794 -796 808 0
-798 -800 -810 0
798 800 -810 0
-798 800 810 0
798 -800 810 0
-802 -804 -812 0
802 804 -812 0
-802 804 812 0
802 -804 812 0
-806 -808 -814 0
806 808 -814 0
-806 808 814 0
806 -808 814 0
-810 -812 814 0
810 812 814 0
-810 812 -814 0
810 -812 -814 0
-54 -63 -816 0
54 63 -816 0
-54 63 816 0
54 -63 816 0
-72 -81 -818 0
72 81 -818 0
-72 81 818 0
72 -81 818 0
-90 -687 -820 0
90 687 -820 0
-90 687 820 0
90 -687 820 0
-689 -691 -822 0
689 691 -822 0
-689 691 822 0
689 -691 822 0
-693 -695 -824 0
693 695 -824 0
-693 695 824 0
693 -695 824 0
-701 -703 -827 0
701 703 -827 0
-701 703 827 0
701 -703 827 0
-705 -707 -828 0
705 707 -828 0
-705 707 828 0
705 -707 828 0
-711 -713 -830 0
711 713 -830 0
-711 713 830 0
711 -713 830 0
-715 -717 -832 0
715 717 -832 0
-715 717 832 0
715 -717 832 0
-719 -721 -834 0
719 721 -834 0
-719 721 834 0
719 -721 834 0
-723 -725 -836 0
723 725 -836 0
-723 725 836 0
723 -725 836 0
-727 -729 -838 0
727 729 -838 0
-727 729 838 0
727 -729 838 0
-731 -733 -840 0
731 733 -840 0
-731 733 840 0
731 -733 840 0
-735 -737 -842 0
735 737 -842 0
-735 737 842 0
735 -737 842 0
-739 -741 -844 0
739 741 -844 0
-739 741 844 0
739 -741 844 0
-743 -745 -846 0
743 745 -846 0
-743 745 846 0
743 -745 846 0
-747 -749 -848 0
747 749 -848 0
-747 749 848 0
747 -749 848 0
-753 -755 -851 0
753 755 -851 0
-753 755 851 0
753 -755 851 0
-757 -759 -852 0
757 759 -852 0
-757 759 852 0
757 -759 852 0
-761 -763 -854 0
761 763 -854 0
-761 763 854 0
761 -763 854 0
-765 -767 -856 0
765 767 -856 0
-765 767 856 0
765 -767 856 0
-769 -771 -858 0
769 771 -858 0
-769 771 858 0
769 -771 858 0
-773 -775 -860 0
773 775 -860 0
-773 775 860 0
773 -775 860 0
-777 -779 -862 0
777 779 -862 0
-777 779 862 0
777 -779 862 0
-781 -783 -864 0
781 783 -864 0
-781 783 864 0
781 -783 864 0
-785 -787 -866 0
785 787 -866 0
-785 787 866 0
785 -787 866 0
-789 -791 -868 0
789 791 -868 0
-789 791 868 0
789 -791 868 0
-793 -795 -870 0
793 795 -870 0
-793 795 870 0
793 -795 870 0
-797 -799 -872 0
797 799 -872 0
-797 799 872 0
797 -799 872 0
-801 -803 -874 0
801 803 -874 0
-801 803 874 0
801 -803 874 0
-805 -807 -876 0
805 807 -876 0
-805 807 876 0
805 -807 876 0
-809 -811 -878 0
809 811 -878 0
-809 811 878 0
809 -811 878 0
-813 -815 -880 0
813 815 -880 0
-813 815 880 0
813 -815 880 0
-816 -818 -882 0
816 818 -882 0
-816 818 882 0
816 -818 882 0
-820 -822 -884 0
820 822 -884 0
-820 822 884 0
820 -822 884 0
-824 -825 -886 0
824 825 -886 0
-824 825 886 0
824 -825 886 0
-826 -827 -888 0
826 827 -888 0
-826 827 888 0
826 -827 888 0
-828 -829 -890 0
828 829 -890 0
-828 829 890 0
828 -829 890 0
-830 -832 -892 0
830 832 -892 0
-830 832 892 0
830 -832 892 0
-834 -836 -894 0
834 836 -894 0
-834 836 894 0
834 -836 894 0
-838 -840 -896 0
838 840 -896 0
-838 840 896 0
838 -840 896 0
-842 -844 -898 0
842 844 -898 0
-842 844 898 0
842 -844 898 0
-846 -848 -900 0
846 848 -900 0
-846 848 900 0
846 -848 900 0
-850 -851 -902 0
850 851 -902 0
-850 851 902 0
850 -851 902 0
-852 -854 -904 0
852 854 -904 0
-852 854 904 0
852 -854 904 0
-856 -858 -906 0
856 858 -906 0
-856 858 906 0
856 -858 906 0
-860 -862 -908 0
860 862 -908 0
-860 862 908 0
860 -862 908 0
-864 -866 -910 0
864 866 -910 0
-864 866 910 0
864 -866 910 0
-868 -870 -912 0
868 870 -912 0
-868 870 912 0
868 -870 912 0
-872 -874 -914 0
872 874 -914 0
-872 874 914 0
872 -874 914 0
-876 -878 -916 0
876 878 -916 0
-876 878 916 0
876 -878 916 0
-880 -881 -918 0
880 881 -918 0
-880 881 918 0
880 -881 918 0
-882 -884 -920 0
882 884 -920 0
-882 884 920 0
882 -884 920 0
-886 -888 -922 0
886 888 -922 0
-886 888 922 0
886 -888 922 0
-890 -892 -924 0
890 892 -924 0
-890 892 924 0
890 -892 924 0
-894 -896 -926 0
894 896 -926 0
-894 896 926 0
894 -896 926 0
-898 -900 -928 0
898 900 -928 0
-898 900 928 0
898 -900 928 0
-902 -904 -930 0
902 904 -930 0
-902 904 930 0
902 -904 930 0
-906 -908 -932 0
906 908 -932 0
-906 908 932 0
906 -908 932 0
-910 -912 -934 0
910 912 -934 0
-910 912 934 0
910 -912 934 0
-914 -916 -936 0
914 916 -936 0
-914 916 936 0
914 -916 936 0
-918 -920 -938 0
918 920 -938 0
-918 920 938 0
918 -920 938 0
-922 -924 -940 0
922 924 -940 0
-922 924 940 0
922 -924 940 0
-926 -928 -942 0
926 928 -942 0
-926 928 942 0
926 -928 942 0
-930 -932 -944 0
930 932 -944 0
-930 932 944 0
930 -932 944 0
-934 -936 -946 0
934 936 -946 0
-934 936 946 0
934 -936 946 0
-938 -940 -948 0
938 940 -948 0
-938 940 948 0
938 -940 948 0
-942 -944 -950 0
942 944 -950 0
-942 944 950 0
942 -944 950 0
-946 -948 -950 0
946 948 -950 0
-946 948 950 0
946 -948 950 0
-64 -73 -953 0
64 73 -953 0
-64 73 953 0
64 -73 953 0
-82 -91 -955 0
82 91 -955 0
-82 91 955 0
82 -91 955 0
-817 -819 -957 0
817 819 -957 0
-817 819 957 0
817 -819 957 0
-821 -823 -959 0
821 823 -959 0
-821 823 959 0
821 -823 959 0
-831 -833 -963 0
831 833 -963 0
-831 833 963 0
831 -833 963 0
-835 -837 -965 0
835 837 -965 0
-835 837 965 0
835 -837 965 0
-839 -841 -967 0
839 841 -967 0
-839 841 967 0
839 -841 967 0
-843 -845 -969 0
843 845 -969 0
-843 845 969 0
843 -845 969 0
-847 -849 -971 0
847 849 -971 0
-847 849 971 0
847 -849 971 0
-853 -855 -973 0
853 855 -973 0
-853 855 973 0
853 -855 973 0
-857 -859 -975 0
857 859 -975 0
-857 859 975 0
857 -859 975 0
-861 -863 -977 0
861 863 -977 0
-861 863 977 0
861 -863 977 0
-865 -867 -979 0
865 867 -979 0
-865 867 979 0
865 -867 979 0
-869 -871 -981 0
869 871 -981 0
-869 871 981 0
869 -871 981 0
-873 -875 -983 0
873 875 -983 0
-873 875 983 0
873 -875 983 0
-877 -879 -985 0
877 879 -985 0
-877 879 985 0
877 -879 985 0
-883 -885 -987 0
883 885 -987 0
-883 885 987 0
883 -885 987 0
-887 -889 -989 0
887 889 -989 0
-887 889 989 0
887 -889 989 0
-891 -893 -991 0
891 893 -991 0
-891 893 991 0
891 -893 991 0
-895 -897 -993 0
895 897 -993 0
-895 897 993 0
895 -897 993 0
-899 -901 -995 0
899 901 -995 0
-899 901 995 0
899 -901 995 0
-903 -905 -997 0
903 905 -997 0
-903 905 997 0
903 -905 997 0
-907 -909 -999 0
907 909 -999 0
-907 909 999 0
907 -909 999 0
-911 -913 -1001 0
911 913 -1001 0
-911 913 1001 0
911 -913 1001 0
-915 -917 -1003 0
915 917 -1003 0
-915 917 1003 0
915 -917 1003 0
-919 -921 -1005 0
919 921 -1005 0
-919 921 1005 0
919 -921 1005 0
-923 -925 -1007 0
923 925 -1007 0
-923 925 1007 0
923 -925 1007 0
-927 -929 -1009 0
927 929 -1009 0
-927 929 1009 0
927 -929 1009 0
-931 -933 -1011 0
931 933 -1011 0
-931 933 1011 0
931 -933 1011 0
-935 -937 -1013 0
935 937 -1013 0
-935 937 1013 0
935 -937 1013 0
-939 -941 -1015 0
939 941 -1015 0
-939 941 1015 0
939 -941 1015 0
-943 -945 -1017 0
943 945 -1017 0
-943 945 1017 0
943 -945 1017 0
-947 -949 -1019 0
947 949 -1019 0
-947 949 1019 0
947 -949 1019 0
-951 -952 -1021 0
951 952 -1021 0
-951 952 1021 0
951 -952 1021 0
-950 -953 -1023 0
950 953 -1023 0
-950 953 1023 0
950 -953 1023 0
-955 -957 -1025 0
955 957 -1025 0
-955 957 1025 0
955 -957 1025 0
-959 -960 -1027 0
959 960 -1027 0
-959 960 1027 0
959 -960 1027 0
-961 -962 -1029 0
961 962 -1029 0
-961 962 1029 0
961 -962 1029 0
-963 -965 -1031 0
963 965 -1031 0
-963 965 1031 0
963 -965 1031 0
-967 -969 -1033 0
967 969 -1033 0
-967 969 1033 0
967 -969 1033 0
-971 -972 -1035 0
971 972 -1035 0
-971 972 1035 0
971 -972 1035 0
-973 -975 -1037 0
973 975 -1037 0
-973 975 1037 0
973 -975 1037 0
-977 -979 -1039 0
977 979 -1039 0
-977 979 1039 0
977 -979 1039 0
-981 -983 -1041 0
981 983 -1041 0
-981 983 1041 0
981 -983 1041 0
-985 -986 -1043 0
985 986 -1043 0
-985 986 1043 0
985 -986 1043 0
-987 -989 -1045 0
987 989 -1045 0
-987 989 1045 0
987 -989 1045 0
-991 -993 -1047 0
991 993 -1047 0
-991 993 1047 0
991 -993 1047 0
-995 -997 -1049 0
995 997 -1049 0
-995 997 1049 0
995 -997 1049 0
-999 -1001 -1051 0
999 1001 -1051 0
-999 1001 1051 0
999 -1001 1051 0
-1003 -1005 -1053 0
1003 1005 -1053 0
-1003 1005 1053 0
1003 -1005 1053 0
-1007 -1009 -1055 0
1007 1009 -1055 0
-1007 1009 1055 0
1007 -1009 1055 0
-1011 -1013 -1057 0
1011 1013 -1057 0
-1011 1013 1057 0
1011 -1013 1057 0
-1015 -1017 -1059 0
1015 1017 -1059 0
-1015 1017 1059 0
1015 -1017 1059 0
-1019 -1021 -1061 0
1019 1021 -1061 0
-1019 1021 1061 0
1019 -1021 1061 0
-1023 -1025 -1063 0
1023 1025 -1063 0
-1023 1025 1063 0
1023 -1025 1063 0
-1027 -1029 -1065 0
1027 1029 -1065 0
-1027 1029 1065 0
1027 -1029 1065 0
-1031 -1033 -1067 0
1031 1033 -1067 0
-1031 1033 1067 0
1031 -1033 1067 0
-1035 -1037 -1069 0
1035 1037 -1069 0
-1035 1037 1069 0
1035 -1037 1069 0
-1039 -1041 -1071 0
1039 1041 -1071 0
-1039 1041 1071 0
1039 -1041 1071 0
-1043 -1045 -1073 0
1043 1045 -1073 0
-1043 1045 1073 0
1043 -1045 1073 0
-1047 -1049 -1075 0
1047 1049 -1075 0
-1047 1049 1075 0
1047 -1049 1075 0
-1051 -1053 -1077 0
1051 1053 -1077 0
-1051 1053 1077 0
1051 -1053 1077 0
-1055 -1057 -1079 0
1055 1057 -1079 0
-1055 1057 1079 0
1055 -1057 1079 0
-1059 -1061 -1081 0
1059 1061 -1081 0
-1059 1061 1081 0
1059 -1061 1081 0
-1063 -1065 -1083 0
1063 1065 -1083 0
-1063 1065 1083 0
1063 -1065 1083 0
-1067 -1069 -1085 0
1067 1069 -1085 0
-1067 1069 1085 0
1067 -1069 1085 0
-1071 -1073 -1087 0
1071 1073 -1087 0
-1071 1073 1087 0
1071 -1073 1087 0
-1075 -1077 -1089 0
1075 1077 -1089 0
-1075 1077 1089 0
1075 -1077 1089 0
-1079 -1081 -1091 0
1079 1081 -1091 0
-1079 1081 1091 0
1079 -1081 1091 0
-1083 -1085 -1093 0
1083 1085 -1093 0
-1083 1085 1093 0
1083 -1085 1093 0
-1087 -1089 -1095 0
1087 1089 -1095 0
-1087 1089 1095 0
1087 -1089 1095 0
-1091 -1093 -1095 0
1091 1093 -1095 0
-1091 1093 1095 0
1091 -1093 1095 0
-74 -83 -1098 0
74 83 -1098 0
-74 83 1098 0
74 -83 1098 0
-92 -954 -1100 0
92 954 -1100 0
-92 954 1100 0
92 -954 1100 0
-956 -958 -1102 0
956 958 -1102 0
-956 958 1102 0
956 -958 1102 0
-964 -966 -1104 0
964 966 -1104 0
-964 966 1104 0
964 -966 1104 0
-968 -970 -1105 0
968 970 -1105 0
-968 970 1105 0
968 -970 1105 0
-974 -976 -1107 0
974 976 -1107 0
-974 976 1107 0
974 -976 1107 0
-978 -980 -1109 0
978 980 -1109 0
-978 980 1109 0
978 -980 1109 0
-982 -984 -1111 0
982 984 -1111 0
-982 984 1111 0
982 -984 1111 0
-988 -990 -1113 0
988 990 -1113 0
-988 990 1113 0
988 -990 1113 0
-992 -994 -1115 0
992 994 -1115 0
-992 994 1115 0
992 -994 1115 0
-996 -998 -1117 0
996 998 -1117 0
-996 998 1117 0
996 -998 1117 0
-1000 -1002 -1119 0
1000 1002 -1119 0
-1000 1002 1119 0
1000 -1002 1119 0
-1004 -1006 -1121 0
1004 1006 -1121 0
-1004 1006 1121 0
1004 -1006 1121 0
-1008 -1010 -1123 0
1008 1010 -1123 0
-1008 1010 1123 0
1008 -1010 1123 0
-1012 -1014 -1125 0
1012 1014 -1125 0
-1012 1014 1125 0
1012 -1014 1125 0
-1016 -1018 -1127 0
1016 1018 -1127 0
-1016 1018 1127 0
1016 -1018 1127 0
-1020 -1022 -1129 0
1020 1022 -1129 0
-1020 1022 1129 0
1020 -1022 1129 0
-1024 -1026 -1131 0
1024 1026 -1131 0
-1024 1026 1131 0
1024 -1026 1131 0
-1028 -1030 -1133 0
1028 1030 -1133 0
-1028 1030 1133 0
1028 -1030 1133 0
-1032 -1034 -1135 0
1032 1034 -1135 0
-1032 1034 1135 0
1032 -1034 1135 0
-1036 -1038 -1137 0
1036 1038 -1137 0
-1036 1038 1137 0
1036 -1038 1137 0
-1040 -1042 -1139 0
1040 1042 -1139 0
-1040 1042 1139 0
1040 -1042 1139 0
-1044 -1046 -1141 0
1044 1046 -1141 0
-1044 1046 1141 0
1044 -1046 1141 0
-1048 -1050 -1143 0
1048 1050 -1143 0
-1048 1050 1143 0
1048 -1050 1143 0
-1052 -1054 -1145 0
1052 1054 -1145 0
-1052 1054 1145 0
1052 -1054 1145 0
-1056 -1058 -1147 0
1056 1058 -1147 0
-1056 1058 1147 0
1056 -1058 1147 0
-1060 -1062 -1149 0
1060 1062 -1149 0
-1060 1062 1149 0
1060 -1062 1149 0
-1064 -1066 -1151 0
1064 1066 -1151 0
-1064 1066 1151 0
1064 -1066 1151 0
-1068 -1070 -1153 0
1068 1070 -1153 0
-1068 1070 1153 0
1068 -1070 1153 0
-1072 -1074 -1155 0
1072 1074 -1155 0
-1072 1074 1155 0
1072 -1074 1155 0
-1076 -1078 -1157 0
1076 1078 -1157 0
-1076 1078 1157 0
1076 -1078 1157 0
-1080 -1082 -1159 0
1080 1082 -1159 0
-1080 1082 1159 0
1080 -1082 1159 0
-1084 -1086 -1161 0
1084 1086 -1161 0
-1084 1086 1161 0
1084 -1086 1161 0
-1088 -1090 -1163 0
1088 1090 -1163 0
-1088 1090 1163 0
1088 -1090 1163 0
-1092 -1094 -1165 0
1092 1094 -1165 0
-1092 1094 1165 0
1092 -1094 1165 0
-1096 -1097 -1167 0
1096 1097 -1167 0
-1096 1097 1167 0
1096 -1097 1167 0
-1095 -1098 -1169 0
1095 1098 -1169 0
-1095 1098 1169 0
1095 -1098 1169 0
-1100 -1102 -1171 0
1100 1102 -1171 0
-1100 1102 1171 0
1100 -1102 1171 0
-1104 -1105 -1173 0
1104 1105 -1173 0
-1104 1105 1173 0
1104 -1105 1173 0
-1106 -1107 -1174 0
1106 1107 -1174 0
-1106 1107 1174 0
1106 -1107 1174 0
-1109 -1111 -1176 0
1109 1111 -1176 0
-1109 1111 1176 0
1109 -1111 1176 0
-1112 -1113 -1178 0
1112 1113 -1178 0
-1112 1113 1178 0
1112 -1113 1178 0
-1115 -1117 -1180 0
1115 1117 -1180 0
-1115 1117 1180 0
1115 -1117 1180 0
-1119 -1121 -1182 0
1119 1121 -1182 0
-1119 1121 1182 0
1119 -1121 1182 0
-1123 -1125 -1184 0
1123 1125 -1184 0
-1123 1125 1184 0
1123 -1125 1184 0
-1127 -1129 -1186 0
1127 1129 -1186 0
-1127 1129 1186 0
1127 -1129 1186 0
-1131 -1133 -1188 0
1131 1133 -1188 0
-1131 1133 1188 0
1131 -1133 1188 0
-1135 -1137 -1190 0
1135 1137 -1190 0
-1135 1137 1190 0
1135 -1137 1190 0
-1139 -1141 -1192 0
1139 1141 -1192 0
-1139 1141 1192 0
1139 -1141 1192 0
-1143 -1145 -1194 0
1143 1145 -1194 0
-1143 1145 1194 0
1143 -1145 1194 0
-1147 -1149 -1196 0
1147 1149 -1196 0
-1147 1149 1196 0
1147 -1149 1196 0
-1151 -1153 -1198 0
1151 1153 -1198 0
-1151 1153 1198 0
1151 -1153 1198 0
-1155 -1157 -1200 0
1155 1157 -1200 0
-1155 1157 1200 0
1155 -1157 1200 0
-1159 -1161 -1202 0
1159 1161 -1202 0
-1159 1161 1202 0
1159 -1161 1202 0
-1163 -1165 -1204 0
1163 1165 -1204 0
-1163 1165 1204 0
1163 -1165 1204 0
-1167 -1169 -1206 0
1167 1169 -1206 0
-1167 1169 1206 0
1167 -1169 1206 0
-1103 -1171 -1208 0
1103 1171 -1208 0
1103 -1171 1208 0
-1103 1171 1208 0
-1173 -1174 -1210 0
1173 1174 -1210 0
-1173 1174 1210 0
1173 -1174 1210 0
-1176 -1178 -1212 0
1176 1178 -1212 0
-1176 1178 1212 0
1176 -1178 1212 0
-1180 -1182 -1214 0
1180 1182 -1214 0
-1180 1182 1214 0
1180 -1182 1214 0
-1184 -1186 -1216 0
1184 1186 -1216 0
-1184 1186 1216 0
1184 -1186 1216 0
-1188 -1190 -1218 0
1188 1190 -1218 0
-1188 1190 1218 0
1188 -1190 1218 0
-1192 -1194 -1220 0
1192 1194 -1220 0
-1192 1194 1220 0
1192 -1194 1220 0
-1196 -1198 -1222 0
1196 1198 -1222 0
-1196 1198 1222 0
1196 -1198 1222 0
-1200 -1202 -1224 0
1200 1202 -1224 0
-1200 1202 1224 0
1200 -1202 1224 0
-1204 -1206 -1226 0
1204 1206 -1226 0
-1204 1206 1226 0
1204 -1206 1226 0
-1208 -1210 -1228 0
1208 1210 -1228 0
-1208 1210 1228 0
1208 -1210 1228 0
-1212 -1214 -1230 0
1212 1214 -1230 0
-1212 1214 1230 0
1212 -1214 1230 0
-1216 -1218 -1232 0
1216 1218 -1232 0
-1216 1218 1232 0
1216 -1218 1232 0
-1220 -1222 -1234 0
1220 1222 -1234 0
-1220 1222 1234 0
1220 -1222 1234 0
-1224 -1226 -1236 0
1224 1226 -1236 0
-1224 1226 1236 0
1224 -1226 1236 0
-1228 -1230 -1238 0
1228 1230 -1238 0
-1228 1230 1238 0
1228 -1230 1238 0
-1232 -1234 -1240 0
1232 1234 -1240 0
-1232 1234 1240 0
1232 -1234 1240 0
-1236 -1238 -1240 0
1236 1238 -1240 0
-1236 1238 1240 0
1236 -1238 1240 0
-84 -93 -1243 0
84 93 -1243 0
-84 93 1243 0
84 -93 1243 0
-1099 -1101 -1245 0
1099 1101 -1245 0
-1099 1101 1245 0
1099 -1101 1245 0
-1108 -1110 -1249 0
1108 1110 -1249 0
-1108 1110 1249 0
1108 -1110 1249 0
-1114 -1116 -1251 0
1114 1116 -1251 0
-1114 1116 1251 0
1114 -1116 1251 0
-1118 -1120 -1253 0
1118 1120 -1253 0
-1118 1120 1253 0
1118 -1120 1253 0
-1122 -1124 -1255 0
1122 1124 -1255 0
-1122 1124 1255 0
1122 -1124 1255 0
-1126 -1128 -1257 0
1126 1128 -1257 0
-1126 1128 1257 0
1126 -1128 1257 0
-1130 -1132 -1259 0
1130 1132 -1259 0
-1130 1132 1259 0
1130 -1132 1259 0
-1134 -1136 -1261 0
1134 1136 -1261 0
-1134 1136 1261 0
1134 -1136 1261 0
-1138 -1140 -1263 0
1138 1140 -1263 0
-1138 1140 1263 0
1138 -1140 1263 0
-1142 -1144 -1265 0
1142 1144 -1265 0
-1142 1144 1265 0
1142 -1144 1265 0
-1146 -1148 -1267 0
1146 1148 -1267 0
-1146 1148 1267 0
1146 -1148 1267 0
-1150 -1152 -1269 0
1150 1152 -1269 0
-1150 1152 1269 0
1150 -1152 1269 0
-1154 -1156 -1271 0
1154 1156 -1271 0
-1154 1156 1271 0
1154 -1156 1271 0
-1158 -1160 -1273 0
1158 1160 -1273 0
-1158 1160 1273 0
1158 -1160 1273 0
-1162 -1164 -1275 0
1162 1164 -1275 0
-1162 1164 1275 0
1162 -1164 1275 0
-1166 -1168 -1277 0
1166 1168 -1277 0
-1166 1168 1277 0
1166 -1168 1277 0
-1170 -1172 -1279 0
1170 1172 -1279 0
-1170 1172 1279 0
1170 -1172 1279 0
-1175 -1177 -1281 0
1175 1177 -1281 0
-1175 1177 1281 0
1175 -1177 1281 0
-1179 -1181 -1283 0
1179 1181 -1283 0
-1179 1181 1283 0
1179 -1181 1283 0
-1183 -1185 -1285 0
1183 1185 -1285 0
-1183 1185 1285 0
1183 -1185 1285 0
-1187 -1189 -1287 0
1187 1189 -1287 0
-1187 1189 1287 0
1187 -1189 1287 0
-1191 -1193 -1289 0
1191 1193 -1289 0
-1191 1193 1289 0
1191 -1193 1289 0
-1195 -1197 -1291 0
1195 1197 -1291 0
-1195 1197 1291 0
1195 -1197 1291 0
-1199 -1201 -1293 0
1199 1201 -1293 0
-1199 1201 1293 0
1199 -1201 1293 0
-1203 -1205 -1295 0
1203 1205 -1295 0
-1203 1205 1295 0
1203 -1205 1295 0
-1207 -1209 -1297 0
1207 1209 -1297 0
-1207 1209 1297 0
1207 -1209 1297 0
-1211 -1213 -1299 0
1211 1213 -1299 0
-1211 1213 1299 0
1211 -1213 1299 0
-1215 -1217 -1301 0
1215 1217 -1301 0
-1215 1217 1301 0
1215 -1217 1301 0
-1219 -1221 -1303 0
1219 1221 -1303 0
-1219 1221 1303 0
1219 -1221 1303 0
-1223 -1225 -1305 0
1223 1225 -1305 0
-1223 1225 1305 0
1223 -1225 1305 0
-1227 -1229 -1307 0
1227 1229 -1307 0
-1227 1229 1307 0
1227 -1229 1307 0
-1231 -1233 -1309 0
1231 1233 -1309 0
-1231 1233 1309 0
1231 -1233 1309 0
-1235 -1237 -1311 0
1235 1237 -1311 0
-1235 1237 1311 0
1235 -1237 1311 0
-1239 -1241 -1313 0
1239 1241 -1313 0
-1239 1241 1313 0
1239 -1241 1313 0
-1240 -1242 -1315 0
1240 1242 -1315 0
1240 -1242 1315 0
-1240 1242 1315 0
-1243 -1245 -1317 0
1243 1245 -1317 0
-1243 1245 1317 0
1243 -1245 1317 0
-1246 -1247 -1319 0
1246 1247 -1319 0
-1246 1247 1319 0
1246 -1247 1319 0
-1248 -1249 -1321 0
1248 1249 -1321 0
-1248 1249 1321 0
1248 -1249 1321 0
-1250 -1251 -1323 0
1250 1251 -1323 0
-1250 1251 1323 0
1250 -1251 1323 0
-1253 -1255 -1325 0
1253 1255 -1325 0
-1253 1255 1325 0
1253 -1255 1325 0
-1257 -1259 -1327 0
1257 1259 -1327 0
-1257 1259 1327 0
1257 -1259 1327 0
-1261 -1263 -1329 0
1261 1263 -1329 0
-1261 1263 1329 0
1261 -1263 1329 0
-1265 -1267 -1331 0
1265 1267 -1331 0
-1265 1267 1331 0
1265 -1267 1331 0
-1269 -1271 -1333 0
1269 1271 -1333 0
-1269 1271 1333 0
1269 -1271 1333 0
-1273 -1275 -1335 0
1273 1275 -1335 0
-1273 1275 1335 0
1273 -1275 1335 0
-1277 -1279 -1337 0
1277 1279 -1337 0
-1277 1279 1337 0
1277 -1279 1337 0
-1280 -1281 -1339 0
1280 1281 -1339 0
-1280 1281 1339 0
1280 -1281 1339 0
-1283 -1285 -1341 0
1283 1285 -1341 0
-1283 1285 1341 0
1283 -1285 1341 0
-1287 -1289 -1343 0
1287 1289 -1343 0
-1287 1289 1343 0
1287 -1289 1343 0
-1291 -1293 -1345 0
1291 1293 -1345 0
-1291 1293 1345 0
1291 -1293 1345 0
-1295 -1297 -1347 0
1295 1297 -1347 0
-1295 1297 1347 0
1295 -1297 1347 0
-1299 -1301 -1349 0
1299 1301 -1349 0
-1299 1301 1349 0
1299 -1301 1349 0
-1303 -1305 -1351 0
1303 1305 -1351 0
-1303 1305 1351 0
1303 -1305 1351 0
-1307 -1309 -1353 0
1307 1309 -1353 0
-1307 1309 1353 0
1307 -1309 1353 0
-1311 -1313 -1355 0
1311 1313 -1355 0
-1311 1313 1355 0
1311 -1313 1355 0
-1315 -1317 -1357 0
1315 1317 -1357 0
-1315 1317 1357 0
1315 -1317 1357 0
-1319 -1321 -1359 0
1319 1321 -1359 0
-1319 1321 1359 0
1319 -1321 1359 0
-1323 -1325 -1361 0
1323 1325 -1361 0
-1323 1325 1361 0
1323 -1325 1361 0
-1327 -1329 -1363 0
1327 1329 -1363 0
-1327 1329 1363 0
1327 -1329 1363 0
-1331 -1333 -1365 0
1331 1333 -1365 0
-1331 1333 1365 0
1331 -1333 1365 0
-1335 -1337 -1367 0
1335 1337 -1367 0
-1335 1337 1367 0
1335 -1337 1367 0
-1339 -1341 -1369 0
1339 1341 -1369 0
-1339 1341 1369 0
1339 -1341 1369 0
-1343 -1345 -1371 0
1343 1345 -1371 0
-1343 1345 1371 0
1343 -1345 1371 0
-1347 -1349 -1373 0
1347 1349 -1373 0
-1347 1349 1373 0
1347 -1349 1373 0
-1351 -1353 -1375 0
1351 1353 -1375 0
-1351 1353 1375 0
1351 -1353 1375 0
-1355 -1357 -1377 0
1355 1357 -1377 0
-1355 1357 1377 0
1355 -1357 1377 0
-1359 -1361 -1379 0
1359 1361 -1379 0
-1359 1361 1379 0
1359 -1361 1379 0
-1363 -1365 -1381 0
1363 1365 -1381 0
-1363 1365 1381 0
1363 -1365 1381 0
-1367 -1369 -1383 0
1367 1369 -1383 0
-1367 1369 1383 0
1367 -1369 1383 0
-1371 -1373 -1385 0
1371 1373 -1385 0
-1371 1373 1385 0
1371 -1373 1385 0
-1375 -1377 -1387 0
1375 1377 -1387 0
-1375 1377 1387 0
1375 -1377 1387 0
-1379 -1381 -1389 0
1379 1381 -1389 0
-1379 1381 1389 0
1379 -1381 1389 0
-1383 -1385 -1391 0
1383 1385 -1391 0
-1383 1385 1391 0
1383 -1385 1391 0
-1387 -1389 1391 0
1387 1389 1391 0
-1387 1389 -1391 0
1387 -1389 -1391 0
-94 -1244 -1393 0
94 1244 -1393 0
-94 1244 1393 0
94 -1244 1393 0
-1252 -1254 -1396 0
1252 1254 -1396 0
-1252 1254 1396 0
1252 -1254 1396 0
-1256 -1258 -1398 0
1256 1258 -1398 0
-1256 1258 1398 0
1256 -1258 1398 0
-1260 -1262 -1400 0
1260 1262 -1400 0
-1260 1262 1400 0
1260 -1262 1400 0
-1264 -1266 -1402 0
1264 1266 -1402 0
-1264 1266 1402 0
1264 -1266 1402 0
-1268 -1270 -1404 0
1268 1270 -1404 0
-1268 1270 1404 0
1268 -1270 1404 0
-1272 -1274 -1406 0
1272 1274 -1406 0
-1272 1274 1406 0
1272 -1274 1406 0
-1276 -1278 -1408 0
1276 1278 -1408 0
-1276 1278 1408 0
1276 -1278 1408 0
-1282 -1284 -1410 0
1282 1284 -1410 0
-1282 1284 1410 0
1282 -1284 1410 0
-1286 -1288 -1412 0
1286 1288 -1412 0
-1286 1288 1412 0
1286 -1288 1412 0
-1290 -1292 -1414 0
1290 1292 -1414 0
-1290 1292 1414 0
1290 -1292 1414 0
-1294 -1296 -1416 0
1294 1296 -1416 0
-1294 1296 1416 0
1294 -1296 1416 0
-1298 -1300 -1418 0
1298 1300 -1418 0
-1298 1300 1418 0
1298 -1300 1418 0
-1302 -1304 -1420 0
1302 1304 -1420 0
-1302 1304 1420 0
1302 -1304 1420 0
-1306 -1308 -1422 0
1306 1308 -1422 0
-1306 1308 1422 0
1306 -1308 1422 0
-1310 -1312 -1424 0
1310 1312 -1424 0
-1310 1312 1424 0
1310 -1312 1424 0
-1314 -1316 -1426 0
1314 1316 -1426 0
-1314 1316 1426 0
1314 -1316 1426 0
-1318 -1320 -1428 0
1318 1320 -1428 0
-1318 1320 1428 0
1318 -1320 1428 0
-1322 -1324 -1430 0
1322 1324 -1430 0
-1322 1324 1430 0
1322 -1324 1430 0
-1326 -1328 -1432 0
1326 1328 -1432 0
-1326 1328 1432 0
1326 -1328 1432 0
-1330 -1332 -1434 0
1330 1332 -1434 0
-1330 1332 1434 0
1330 -1332 1434 0
-1334 -1336 -1436 0
1334 1336 -1436 0
-1334 1336 1436 0
1334 -1336 1436 0
-1338 -1340 -1438 0
1338 1340 -1438 0
-1338 1340 1438 0
1338 -1340 1438 0
-1342 -1344 -1440 0
1342 1344 -1440 0
-1342 1344 1440 0
1342 -1344 1440 0
-1346 -1348 -1442 0
1346 1348 -1442 0
-1346 1348 1442 0
1346 -1348 1442 0
-1350 -1352 -1444 0
1350 1352 -1444 0
-1350 1352 1444 0
1350 -1352 1444 0
-1354 -1356 -1446 0
1354 1356 -1446 0
-1354 1356 1446 0
1354 -1356 1446 0
-1358 -1360 -1448 0
1358 1360 -1448 0
-1358 1360 1448 0
1358 -1360 1448 0
-1362 -1364 -1450 0
1362 1364 -1450 0
-1362 1364 1450 0
1362 -1364 1450 0
-1366 -1368 -1452 0
1366 1368 -1452 0
-1366 1368 1452 0
1366 -1368 1452 0
-1370 -1372 -1454 0
1370 1372 -1454 0
-1370 1372 1454 0
1370 -1372 1454 0
-1374 -1376 -1456 0
1374 1376 -1456 0
-1374 1376 1456 0
1374 -1376 1456 0
-1378 -1380 -1458 0
1378 1380 -1458 0
-1378 1380 1458 0
1378 -1380 1458 0
-1382 -1384 -1460 0
1382 1384 -1460 0
-1382 1384 1460 0
1382 -1384 1460 0
-1386 -1388 -1462 0
1386 1388 -1462 0
-1386 1388 1462 0
1386 -1388 1462 0
-1390 -1392 -1464 0
1390 1392 -1464 0
-1390 1392 1464 0
1390 -1392 1464 0
-1393 -1394 -1467 0
1393 1394 -1467 0
-1393 1394 1467 0
1393 -1394 1467 0
-1396 -1398 -1468 0
1396 1398 -1468 0
-1396 1398 1468 0
1396 -1398 1468 0
-1400 -1402 -1469 0
1400 1402 -1469 0
-1400 1402 1469 0
1400 -1402 1469 0
-1404 -1406 -1471 0
1404 1406 -1471 0
-1404 1406 1471 0
1404 -1406 1471 0
-1408 -1409 -1473 0
1408 1409 -1473 0
-1408 1409 1473 0
1408 -1409 1473 0
-1410 -1412 -1475 0
1410 1412 -1475 0
-1410 1412 1475 0
1410 -1412 1475 0
-1414 -1416 -1477 0
1414 1416 -1477 0
-1414 1416 1477 0
1414 -1416 1477 0
-1418 -1420 -1479 0
1418 1420 -1479 0
-1418 1420 1479 0
1418 -1420 1479 0
-1422 -1424 -1481 0
1422 1424 -1481 0
-1422 1424 1481 0
1422 -1424 1481 0
-1426 -1428 -1483 0
1426 1428 -1483 0
-1426 1428 1483 0
1426 -1428 1483 0
-1430 -1432 -1485 0
1430 1432 -1485 0
-1430 1432 1485 0
1430 -1432 1485 0
-1434 -1436 -1487 0
1434 1436 -1487 0
-1434 1436 1487 0
1434 -1436 1487 0
-1438 -1440 -1489 0
1438 1440 -1489 0
-1438 1440 1489 0
1438 -1440 1489 0
-1442 -1444 -1491 0
1442 1444 -1491 0
-1442 1444 1491 0
1442 -1444 1491 0
-1446 -1448 -1493 0
1446 1448 -1493 0
-1446 1448 1493 0
1446 -1448 1493 0
-1450 -1452 -1495 0
1450 1452 -1495 0
-1450 1452 1495 0
1450 -1452 1495 0
-1454 -1456 -1497 0
1454 1456 -1497 0
-1454 1456 1497 0
1454 -1456 1497 0
-1458 -1460 -1499 0
1458 1460 -1499 0
-1458 1460 1499 0
1458 -1460 1499 0
-1462 -1464 -1501 0
1462 1464 -1501 0
-1462 1464 1501 0
1462 -1464 1501 0
-1466 -1467 -1503 0
1466 1467 -1503 0
-1466 1467 1503 0
1466 -1467 1503 0
-1395 -1468 -1505 0
1395 1468 -1505 0
-1395 1468 1505 0
1395 -1468 1505 0
-1469 -1471 -1507 0
1469 1471 -1507 0
-1469 1471 1507 0
1469 -1471 1507 0
-1473 -1475 -1509 0
1473 1475 -1509 0
-1473 1475 1509 0
1473 -1475 1509 0
-1477 -1479 -1511 0
1477 1479 -1511 0
-1477 1479 1511 0
1477 -1479 1511 0
-1481 -1483 -1513 0
1481 1483 -1513 0
-1481 1483 1513 0
1481 -1483 1513 0
-1485 -1487 -1515 0
1485 1487 -1515 0
-1485 1487 1515 0
1485 -1487 1515 0
-1489 -1491 -1517 0
1489 1491 -1517 0
-1489 1491 1517 0
1489 -1491 1517 0
-1493 -1495 -1519 0
1493 1495 -1519 0
-1493 1495 1519 0
1493 -1495 1519 0
-1497 -1499 -1521 0
1497 1499 -1521 0
-1497 1499 1521 0
1497 -1499 1521 0
-1501 -1503 -1523 0
1501 1503 -1523 0
-1501 1503 1523 0
1501 -1503 1523 0
-1505 -1507 -1525 0
1505 1507 -1525 0
-1505 1507 1525 0
1505 -1507 1525 0
-1509 -1511 -1527 0
1509 1511 -1527 0
-1509 1511 1527 0
1509 -1511 1527 0
-1513 -1515 -1529 0
1513 1515 -1529 0
-1513 1515 1529 0
1513 -1515 1529 0
-1517 -1519 -1531 0
1517 1519 -1531 0
-1517 1519 1531 0
1517 -1519 1531 0
-1521 -1523 -1533 0
1521 1523 -1533 0
-1521 1523 1533 0
1521 -1523 1533 0
-1525 -1527 -1535 0
1525 1527 -1535 0
-1525 1527 1535 0
1525 -1527 1535 0
-1529 -1531 -1537 0
1529 1531 -1537 0
-1529 1531 1537 0
1529 -1531 1537 0
-1533 -1535 1537 0
1533 1535 1537 0
-1533 1535 -1537 0
1533 -1535 -1537 0
-1397 -1399 -1612 0
1397 1399 -1612 0
-1397 1399 1612 0
1397 -1399 1612 0
-1401 -1403 -1542 0
1401 1403 -1542 0
-1401 1403 1542 0
1401 -1403 1542 0
-1405 -1407 -1544 0
1405 1407 -1544 0
-1405 1407 1544 0
1405 -1407 1544 0
-1411 -1413 -1546 0
1411 1413 -1546 0
-1411 1413 1546 0
1411 -1413 1546 0
-1415 -1417 -1548 0
1415 1417 -1548 0
-1415 1417 1548 0
1415 -1417 1548 0
-1419 -1421 -1550 0
1419 1421 -1550 0
-1419 1421 1550 0
1419 -1421 1550 0
-1423 -1425 -1552 0
1423 1425 -1552 0
-1423 1425 1552 0
1423 -1425 1552 0
-1427 -1429 -1554 0
1427 1429 -1554 0
-1427 1429 1554 0
1427 -1429 1554 0
-1431 -1433 -1556 0
1431 1433 -1556 0
-1431 1433 1556 0
1431 -1433 1556 0
-1435 -1437 -1558 0
1435 1437 -1558 0
-1435 1437 1558 0
1435 -1437 1558 0
-1439 -1441 -1560 0
1439 1441 -1560 0
-1439 1441 1560 0
1439 -1441 1560 0
-1443 -1445 -1562 0
1443 1445 -1562 0
-1443 1445 1562 0
1443 -1445 1562 0
-1447 -1449 -1564 0
1447 1449 -1564 0
-1447 1449 1564 0
1447 -1449 1564 0
-1451 -1453 -1566 0
1451 1453 -1566 0
-1451 1453 1566 0
1451 -1453 1566 0
-1455 -1457 -1568 0
1455 1457 -1568 0
-1455 1457 1568 0
1455 -1457 1568 0
-1459 -1461 -1570 0
1459 1461 -1570 0
-1459 1461 1570 0
1459 -1461 1570 0
-1463 -1465 -1572 0
1463 1465 -1572 0
-1463 1465 1572 0
1463 -1465 1572 0
-1470 -1472 -1576 0
1470 1472 -1576 0
-1470 1472 1576 0
1470 -1472 1576 0
-1474 -1476 -1578 0
1474 1476 -1578 0
-1474 1476 1578 0
1474 -1476 1578 0
-1478 -1480 -1580 0
1478 1480 -1580 0
-1478 1480 1580 0
1478 -1480 1580 0
-1482 -1484 -1582 0
1482 1484 -1582 0
-1482 1484 1582 0
1482 -1484 1582 0
-1486 -1488 -1584 0
1486 1488 -1584 0
-1486 1488 1584 0
1486 -1488 1584 0
-1490 -1492 -1586 0
1490 1492 -1586 0
-1490 1492 1586 0
1490 -1492 1586 0
-1494 -1496 -1588 0
1494 1496 -1588 0
-1494 1496 1588 0
1494 -1496 1588 0
-1498 -1500 -1590 0
1498 1500 -1590 0
-1498 1500 1590 0
1498 -1500 1590 0
-1502 -1504 -1592 0
1502 1504 -1592 0
-1502 1504 1592 0
1502 -1504 1592 0
-1506 -1508 -1594 0
1506 1508 -1594 0
-1506 1508 1594 0
1506 -1508 1594 0
-1510 -1512 -1596 0
1510 1512 -1596 0
-1510 1512 1596 0
1510 -1512 1596 0
-1514 -1516 -1598 0
1514 1516 -1598 0
-1514 1516 1598 0
1514 -1516 1598 0
-1518 -1520 -1600 0
1518 1520 -1600 0
-1518 1520 1600 0
1518 -1520 1600 0
-1522 -1524 -1602 0
1522 1524 -1602 0
-1522 1524 1602 0
1522 -1524 1602 0
-1526 -1528 -1604 0
1526 1528 -1604 0
-1526 1528 1604 0
1526 -1528 1604 0
-1530 -1532 -1606 0
1530 1532 -1606 0
-1530 1532 1606 0
1530 -1532 1606 0
-1534 -1536 -1608 0
1534 1536 -1608 0
-1534 1536 1608 0
1534 -1536 1608 0
-1538 -1539 -1610 0
1538 1539 -1610 0
-1538 1539 1610 0
1538 -1539 1610 0
-1542 -1544 -1613 0
1542 1544 -1613 0
-1542 1544 1613 0
1542 -1544 1613 0
-1545 -1546 -1615 0
1545 1546 -1615 0
-1545 1546 1615 0
1545 -1546 1615 0
-1548 -1550 -1617 0
1548 1550 -1617 0
-1548 1550 1617 0
1548 -1550 1617 0
-1552 -1554 -1619 0
1552 1554 -1619 0
-1552 1554 1619 0
1552 -1554 1619 0
-1556 -1558 -1621 0
1556 1558 -1621 0
-1556 1558 1621 0
1556 -1558 1621 0
-1560 -1562 -1623 0
1560 1562 -1623 0
-1560 1562 1623 0
1560 -1562 1623 0
-1564 -1566 -1625 0
1564 1566 -1625 0
-1564 1566 1625 0
1564 -1566 1625 0
-1568 -1570 -1627 0
1568 1570 -1627 0
-1568 1570 1627 0
1568 -1570 1627 0
-1572 -1574 -1629 0
1572 1574 -1629 0
-1572 1574 1629 0
1572 -1574 1629 0
-1575 -1576 -1631 0
1575 1576 -1631 0
-1575 1576 1631 0
1575 -1576 1631 0
-1578 -1580 -1633 0
1578 1580 -1633 0
-1578 1580 1633 0
1578 -1580 1633 0
-1582 -1584 -1635 0
1582 1584 -1635 0
-1582 1584 1635 0
1582 -1584 1635 0
-1586 -1588 -1637 0
1586 1588 -1637 0
-1586 1588 1637 0
1586 -1588 1637 0
-1590 -1592 -1639 0
1590 1592 -1639 0
-1590 1592 1639 0
1590 -1592 1639 0
-1594 -1596 -1641 0
1594 1596 -1641 0
-1594 1596 1641 0
1594 -1596 1641 0
-1598 -1600 -1643 0
1598 1600 -1643 0
-1598 1600 1643 0
1598 -1600 1643 0
-1602 -1604 -1645 0
1602 1604 -1645 0
-1602 1604 1645 0
1602 -1604 1645 0
-1606 -1608 -1647 0
1606 1608 -1647 0
-1606 1608 1647 0
1606 -1608 1647 0
-1540 -1610 -1649 0
1540 1610 -1649 0
1540 -1610 1649 0
-1540 1610 1649 0
-1612 -1613 -1651 0
1612 1613 -1651 0
-1612 1613 1651 0
1612 -1613 1651 0
-1615 -1617 -1653 0
1615 1617 -1653 0
-1615 1617 1653 0
1615 -1617 1653 0
-1619 -1621 -1655 0
1619 1621 -1655 0
-1619 1621 1655 0
1619 -1621 1655 0
-1623 -1625 -1657 0
1623 1625 -1657 0
-1623 1625 1657 0
1623 -1625 1657 0
-1627 -1629 -1659 0
1627 1629 -1659 0
-1627 1629 1659 0
1627 -1629 1659 0
-1631 -1633 -1661 0
1631 1633 -1661 0
-1631 1633 1661 0
1631 -1633 1661 0
-1635 -1637 -1663 0
1635 1637 -1663 0
-1635 1637 1663 0
1635 -1637 1663 0
-1639 -1641 -1665 0
1639 1641 -1665 0
-1639 1641 1665 0
1639 -1641 1665 0
-1643 -1645 -1667 0
1643 1645 -1667 0
-1643 1645 1667 0
1643 -1645 1667 0
-1647 -1649 -1669 0
1647 1649 -1669 0
-1647 1649 1669 0
1647 -1649 1669 0
-1651 -1653 -1671 0
1651 1653 -1671 0
-1651 1653 1671 0
1651 -1653 1671 0
-1655 -1657 -1673 0
1655 1657 -1673 0
-1655 1657 1673 0
1655 -1657 1673 0
-1659 -1661 -1675 0
1659 1661 -1675 0
-1659 1661 1675 0
1659 -1661 1675 0
-1663 -1665 -1677 0
1663 1665 -1677 0
-1663 1665 1677 0
1663 -1665 1677 0
-1667 -1669 -1679 0
1667 1669 -1679 0
-1667 1669 1679 0
1667 -1669 1679 0
-1671 -1673 -1681 0
1671 1673 -1681 0
-1671 1673 1681 0
1671 -1673 1681 0
-1675 -1677 -1683 0
1675 1677 -1683 0
-1675 1677 1683 0
1675 -1677 1683 0
-1679 -1681 -1683 0
1679 1681 -1683 0
-1679 1681 1683 0
1679 -1681 1683 0
-1541 -1543 -1752 0
1541 1543 -1752 0
-1541 1543 1752 0
1541 -1543 1752 0
-1547 -1549 -1687 0
1547 1549 -1687 0
-1547 1549 1687 0
1547 -1549 1687 0
-1551 -1553 -1688 0
1551 1553 -1688 0
-1551 1553 1688 0
1551 -1553 1688 0
-1555 -1557 -1690 0
1555 1557 -1690 0
-1555 1557 1690 0
1555 -1557 1690 0
-1559 -1561 -1692 0
1559 1561 -1692 0
-1559 1561 1692 0
1559 -1561 1692 0
-1563 -1565 -1694 0
1563 1565 -1694 0
-1563 1565 1694 0
1563 -1565 1694 0
-1567 -1569 -1696 0
1567 1569 -1696 0
-1567 1569 1696 0
1567 -1569 1696 0
-1571 -1573 -1698 0
1571 1573 -1698 0
-1571 1573 1698 0
1571 -1573 1698 0
-1577 -1579 -1759 0
1577 1579 -1759 0
-1577 1579 1759 0
1577 -1579 1759 0
-1581 -1583 -1700 0
1581 1583 -1700 0
-1581 1583 1700 0
1581 -1583 1700 0
-1585 -1587 -1702 0
1585 1587 -1702 0
-1585 1587 1702 0
1585 -1587 1702 0
-1589 -1591 -1704 0
1589 1591 -1704 0
-1589 1591 1704 0
1589 -1591 1704 0
-1593 -1595 -1706 0
1593 1595 -1706 0
-1593 1595 1706 0
1593 -1595 1706 0
-1597 -1599 -1708 0
1597 1599 -1708 0
-1597 1599 1708 0
1597 -1599 1708 0
-1601 -1603 -1710 0
1601 1603 -1710 0
-1601 1603 1710 0
1601 -1603 1710 0
-1605 -1607 -1712 0
1605 1607 -1712 0
-1605 1607 1712 0
1605 -1607 1712 0
-1609 -1611 -1714 0
1609 1611 -1714 0
-1609 1611 1714 0
1609 -1611 1714 0
-1614 -1616 -1768 0
1614 1616 -1768 0
-1614 1616 1768 0
1614 -1616 1768 0
-1618 -1620 -1716 0
1618 1620 -1716 0
-1618 1620 1716 0
1618 -1620 1716 0
-1622 -1624 -1718 0
1622 1624 -1718 0
-1622 1624 1718 0
1622 -1624 1718 0
-1626 -1628 -1720 0
1626 1628 -1720 0
-1626 1628 1720 0
1626 -1628 1720 0
-1630 -1632 -1722 0
1630 1632 -1722 0
-1630 1632 1722 0
1630 -1632 1722 0
-1634 -1636 -1724 0
1634 1636 -1724 0
-1634 1636 1724 0
1634 -1636 1724 0
-1638 -1640 -1726 0
1638 1640 -1726 0
-1638 1640 1726 0
1638 -1640 1726 0
-1642 -1644 -1728 0
1642 1644 -1728 0
-1642 1644 1728 0
1642 -1644 1728 0
-1646 -1648 -1730 0
1646 1648 -1730 0
-1646 1648 1730 0
1646 -1648 1730 0
-1650 -1652 -1732 0
1650 1652 -1732 0
-1650 1652 1732 0
1650 -1652 1732 0
-1654 -1656 -1734 0
1654 1656 -1734 0
-1654 1656 1734 0
1654 -1656 1734 0
-1658 -1660 -1736 0
1658 1660 -1736 0
-1658 1660 1736 0
1658 -1660 1736 0
-1662 -1664 -1738 0
1662 1664 -1738 0
-1662 1664 1738 0
1662 -1664 1738 0
-1666 -1668 -1740 0
1666 1668 -1740 0
-1666 1668 1740 0
1666 -1668 1740 0
-1670 -1672 -1742 0
1670 1672 -1742 0
-1670 1672 1742 0
1670 -1672 1742 0
-1674 -1676 -1744 0
1674 1676 -1744 0
-1674 1676 1744 0
1674 -1676 1744 0
-1678 -1680 -1746 0
1678 1680 -1746 0
-1678 1680 1746 0
1678 -1680 1746 0
-1682 -1684 -1748 0
1682 1684 -1748 0
-1682 1684 1748 0
1682 -1684 1748 0
-1683 -1685 -1750 0
1683 1685 -1750 0
1683 -1685 1750 0
-1683 1685 1750 0
-1686 -1687 -1753 0
1686 1687 -1753 0
-1686 1687 1753 0
1686 -1687 1753 0
-1688 -1690 -1754 0
1688 1690 -1754 0
-1688 1690 1754 0
1688 -1690 1754 0
-1692 -1694 -1756 0
1692 1694 -1756 0
-1692 1694 1756 0
1692 -1694 1756 0
-1696 -1698 -1758 0
1696 1698 -1758 0
-1696 1698 1758 0
1696 -1698 1758 0
-1700 -1702 -1760 0
1700 1702 -1760 0
-1700 1702 1760 0
1700 -1702 1760 0
-1704 -1706 -1762 0
1704 1706 -1762 0
-1704 1706 1762 0
1704 -1706 1762 0
-1708 -1710 -1764 0
1708 1710 -1764 0
-1708 1710 1764 0
1708 -1710 1764 0
-1712 -1714 -1766 0
1712 1714 -1766 0
-1712 1714 1766 0
1712 -1714 1766 0
-1716 -1718 -1769 0
1716 1718 -1769 0
-1716 1718 1769 0
1716 -1718 1769 0
-1720 -1722 -1770 0
1720 1722 -1770 0
-1720 1722 1770 0
1720 -1722 1770 0
-1724 -1726 -1772 0
1724 1726 -1772 0
-1724 1726 1772 0
1724 -1726 1772 0
-1728 -1730 -1774 0
1728 1730 -1774 0
-1728 1730 1774 0
1728 -1730 1774 0
-1732 -1734 -1776 0
1732 1734 -1776 0
-1732 1734 1776 0
1732 -1734 1776 0
-1736 -1738 -1778 0
1736 1738 -1778 0
-1736 1738 1778 0
1736 -1738 1778 0
-1740 -1742 -1780 0
1740 1742 -1780 0
-1740 1742 1780 0
1740 -1742 1780 0
-1744 -1746 -1782 0
1744 1746 -1782 0
-1744 1746 1782 0
1744 -1746 1782 0
-1748 -1750 -1784 0
1748 1750 -1784 0
-1748 1750 1784 0
1748 -1750 1784 0
-1752 -1753 -1786 0
1752 1753 -1786 0
-1752 1753 1786 0
1752 -1753 1786 0
-1754 -1756 -1788 0
1754 1756 -1788 0
-1754 1756 1788 0
1754 -1756 1788 0
-1758 -1759 -1790 0
1758 1759 -1790 0
-1758 1759 1790 0
1758 -1759 1790 0
-1760 -1762 -1792 0
1760 1762 -1792 0
-1760 1762 1792 0
1760 -1762 1792 0
-1764 -1766 -1794 0
1764 1766 -1794 0
-1764 1766 1794 0
1764 -1766 1794 0
-1768 -1769 -1796 0
1768 1769 -1796 0
-1768 1769 1796 0
1768 -1769 1796 0
-1770 -1772 -1798 0
1770 1772 -1798 0
-1770 1772 1798 0
1770 -1772 1798 0
-1774 -1776 -1800 0
1774 1776 -1800 0
-1774 1776 1800 0
1774 -1776 1800 0
-1778 -1780 -1802 0
1778 1780 -1802 0
-1778 1780 1802 0
1778 -1780 1802 0
-1782 -1784 -1804 0
1782 1784 -1804 0
-1782 1784 1804 0
1782 -1784 1804 0
-1786 -1788 -1806 0
1786 1788 -1806 0
-1786 1788 1806 0
1786 -1788 1806 0
-1790 -1792 -1808 0
1790 1792 -1808 0
-1790 1792 1808 0
1790 -1792 1808 0
-1794 -1796 -1810 0
1794 1796 -1810 0
-1794 1796 1810 0
1794 -1796 1810 0
-1798 -1800 -1812 0
1798 1800 -1812 0
-1798 1800 1812 0
1798 -1800 1812 0
-1802 -1804 -1814 0
1802 1804 -1814 0
-1802 1804 1814 0
1802 -1804 1814 0
-1806 -1808 -1816 0
1806 1808 -1816 0
-1806 1808 1816 0
1806 -1808 1816 0
-1810 -1812 -1818 0
1810 1812 -1818 0
-1810 1812 1818 0
1810 -1812 1818 0
-1814 -1816 -1818 0
1814 1816 -1818 0
-1814 1816 1818 0
1814 -1816 1818 0
-1689 -1691 -1823 0
1689 1691 -1823 0
-1689 1691 1823 0
1689 -1691 1823 0
-1693 -1695 -1825 0
1693 1695 -1825 0
-1693 1695 1825 0
1693 -1695 1825 0
-1697 -1699 -1827 0
1697 1699 -1827 0
-1697 1699 1827 0
1697 -1699 1827 0
-1701 -1703 -1829 0
1701 1703 -1829 0
-1701 1703 1829 0
1701 -1703 1829 0
-1705 -1707 -1831 0
1705 1707 -1831 0
-1705 1707 1831 0
1705 -1707 1831 0
-1709 -1711 -1833 0
1709 1711 -1833 0
-1709 1711 1833 0
1709 -1711 1833 0
-1713 -1715 -1835 0
1713 1715 -1835 0
-1713 1715 1835 0
1713 -1715 1835 0
-1717 -1719 -1838 0
1717 1719 -1838 0
-1717 1719 1838 0
1717 -1719 1838 0
-1721 -1723 -1839 0
1721 1723 -1839 0
-1721 1723 1839 0
1721 -1723 1839 0
-1725 -1727 -1841 0
1725 1727 -1841 0
-1725 1727 1841 0
1725 -1727 1841 0
-1729 -1731 -1843 0
1729 1731 -1843 0
-1729 1731 1843 0
1729 -1731 1843 0
-1733 -1735 -1845 0
1733 1735 -1845 0
-1733 1735 1845 0
1733 -1735 1845 0
-1737 -1739 -1847 0
1737 1739 -1847 0
-1737 1739 1847 0
1737 -1739 1847 0
-1741 -1743 -1849 0
1741 1743 -1849 0
-1741 1743 1849 0
1741 -1743 1849 0
-1745 -1747 -1851 0
1745 1747 -1851 0
-1745 1747 1851 0
1745 -1747 1851 0
-1749 -1751 -1853 0
1749 1751 -1853 0
-1749 1751 1853 0
1749 -1751 1853 0
-1755 -1757 -1856 0
1755 1757 -1856 0
-1755 1757 1856 0
1755 -1757 1856 0
-1761 -1763 -1858 0
1761 1763 -1858 0
-1761 1763 1858 0
1761 -1763 1858 0
-1765 -1767 -1859 0
1765 1767 -1859 0
-1765 1767 1859 0
1765 -1767 1859 0
-1771 -1773 -1861 0
1771 1773 -1861 0
-1771 1773 1861 0
1771 -1773 1861 0
-1775 -1777 -1863 0
1775 1777 -1863 0
-1775 1777 1863 0
1775 -1777 1863 0
-1779 -1781 -1865 0
1779 1781 -1865 0
-1779 1781 1865 0
1779 -1781 1865 0
-1783 -1785 -1867 0
1783 1785 -1867 0
-1783 1785 1867 0
1783 -1785 1867 0
-1787 -1789 -1869 0
1787 1789 -1869 0
-1787 1789 1869 0
1787 -1789 1869 0
-1791 -1793 -1871 0
1791 1793 -1871 0
-1791 1793 1871 0
1791 -1793 1871 0
-1795 -1797 -1873 0
1795 1797 -1873 0
-1795 1797 1873 0
1795 -1797 1873 0
-1799 -1801 -1875 0
1799 1801 -1875 0
-1799 1801 1875 0
1799 -1801 1875 0
-1803 -1805 -1877 0
1803 1805 -1877 0
-1803 1805 1877 0
1803 -1805 1877 0
-1807 -1809 -1879 0
1807 1809 -1879 0
-1807 1809 1879 0
1807 -1809 1879 0
-1811 -1813 -1881 0
1811 1813 -1881 0
-1811 1813 1881 0
1811 -1813 1881 0
-1815 -1817 -1883 0
1815 1817 -1883 0
-1815 1817 1883 0
1815 -1817 1883 0
-1819 -1820 -1885 0
1819 1820 -1885 0
-1819 1820 1885 0
1819 -1820 1885 0
-1818 -1821 -1887 0
1818 1821 -1887 0
-1818 1821 1887 0
1818 -1821 1887 0
-1822 -1823 -1889 0
1822 1823 -1889 0
-1822 1823 1889 0
1822 -1823 1889 0
-1825 -1827 -1891 0
1825 1827 -1891 0
-1825 1827 1891 0
1825 -1827 1891 0
-1828 -1829 -1893 0
1828 1829 -1893 0
-1828 1829 1893 0
1828 -1829 1893 0
-1831 -1833 -1895 0
1831 1833 -1895 0
-1831 1833 1895 0
1831 -1833 1895 0
-1835 -1837 -1897 0
1835 1837 -1897 0
-1835 1837 1897 0
1835 -1837 1897 0
-1838 -1839 -1899 0
1838 1839 -1899 0
-1838 1839 1899 0
1838 -1839 1899 0
-1841 -1843 -1901 0
1841 1843 -1901 0
-1841 1843 1901 0
1841 -1843 1901 0
-1845 -1847 -1903 0
1845 1847 -1903 0
-1845 1847 1903 0
1845 -1847 1903 0
-1849 -1851 -1905 0
1849 1851 -1905 0
-1849 1851 1905 0
1849 -1851 1905 0
-1853 -1855 -1907 0
1853 1855 -1907 0
-1853 1855 1907 0
1853 -1855 1907 0
-1856 -1857 -1909 0
1856 1857 -1909 0
-1856 1857 1909 0
1856 -1857 1909 0
-1858 -1859 -1911 0
1858 1859 -1911 0
-1858 1859 1911 0
1858 -1859 1911 0
-1860 -1861 -1913 0
1860 1861 -1913 0
-1860 1861 1913 0
1860 -1861 1913 0
-1863 -1865 -1915 0
1863 1865 -1915 0
-1863 1865 1915 0
1863 -1865 1915 0
-1867 -1869 -1917 0
1867 1869 -1917 0
-1867 1869 1917 0
1867 -1869 1917 0
-1871 -1873 -1919 0
1871 1873 -1919 0
-1871 1873 1919 0
1871 -1873 1919 0
-1875 -1877 -1921 0
1875 1877 -1921 0
-1875 1877 1921 0
1875 -1877 1921 0
-1879 -1881 -1923 0
1879 1881 -1923 0
-1879 1881 1923 0
1879 -1881 1923 0
-1883 -1885 -1925 0
1883 1885 -1925 0
-1883 1885 1925 0
1883 -1885 1925 0
-1887 -1889 -1927 0
1887 1889 -1927 0
-1887 1889 1927 0
1887 -1889 1927 0
-1891 -1893 -1929 0
1891 1893 -1929 0
-1891 1893 1929 0
1891 -1893 1929 0
-1895 -1897 -1931 0
1895 1897 -1931 0
-1895 1897 1931 0
1895 -1897 1931 0
-1899 -1901 -1933 0
1899 1901 -1933 0
-1899 1901 1933 0
1899 -1901 1933 0
-1903 -1905 -1935 0
1903 1905 -1935 0
-1903 1905 1935 0
1903 -1905 1935 0
-1907 -1909 -1937 0
1907 1909 -1937 0
-1907 1909 1937 0
1907 -1909 1937 0
-1911 -1913 -1939 0
1911 1913 -1939 0
-1911 1913 1939 0
1911 -1913 1939 0
-1915 -1917 -1941 0
1915 1917 -1941 0
-1915 1917 1941 0
1915 -1917 1941 0
-1919 -1921 -1943 0
1919 1921 -1943 0
-1919 1921 1943 0
1919 -1921 1943 0
-1923 -1925 -1945 0
1923 1925 -1945 0
-1923 1925 1945 0
1923 -1925 1945 0
-1927 -1929 -1947 0
1927 1929 -1947 0
-1927 1929 1947 0
1927 -1929 1947 0
-1931 -1933 -1949 0
1931 1933 -1949 0
-1931 1933 1949 0
1931 -1933 1949 0
-1935 -1937 -1951 0
1935 1937 -1951 0
-1935 1937 1951 0
1935 -1937 1951 0
-1939 -1941 -1953 0
1939 1941 -1953 0
-1939 1941 1953 0
1939 -1941 1953 0
-1943 -1945 -1955 0
1943 1945 -1955 0
-1943 1945 1955 0
1943 -1945 1955 0
-1947 -1949 -1957 0
1947 1949 -1957 0
-1947 1949 1957 0
1947 -1949 1957 0
-1951 -1953 -1959 0
1951 1953 -1959 0
-1951 1953 1959 0
1951 -1953 1959 0
-1955 -1957 -1959 0
1955 1957 -1959 0
-1955 1957 1959 0
1955 -1957 1959 0
-1824 -1826 -2027 0
1824 1826 -2027 0
-1824 1826 2027 0
1824 -1826 2027 0
-1830 -1832 -1963 0
1830 1832 -1963 0
-1830 1832 1963 0
1830 -1832 1963 0
-1834 -1836 -1964 0
1834 1836 -1964 0
-1834 1836 1964 0
1834 -1836 1964 0
-1840 -1842 -1966 0
1840 1842 -1966 0
-1840 1842 1966 0
1840 -1842 1966 0
-1844 -1846 -1968 0
1844 1846 -1968 0
-1844 1846 1968 0
1844 -1846 1968 0
-1848 -1850 -1970 0
1848 1850 -1970 0
-1848 1850 1970 0
1848 -1850 1970 0
-1852 -1854 -1972 0
1852 1854 -1972 0
-1852 1854 1972 0
1852 -1854 1972 0
-1862 -1864 -1977 0
1862 1864 -1977 0
-1862 1864 1977 0
1862 -1864 1977 0
-1866 -1868 -1978 0
1866 1868 -1978 0
-1866 1868 1978 0
1866 -1868 1978 0
-1870 -1872 -1980 0
1870 1872 -1980 0
-1870 1872 1980 0
1870 -1872 1980 0
-1874 -1876 -1982 0
1874 1876 -1982 0
-1874 1876 1982 0
1874 -1876 1982 0
-1878 -1880 -1984 0
1878 1880 -1984 0
-1878 1880 1984 0
1878 -1880 1984 0
-1882 -1884 -1986 0
1882 1884 -1986 0
-1882 1884 1986 0
1882 -1884 1986 0
-1886 -1888 -1988 0
1886 1888 -1988 0
-1886 1888 1988 0
1886 -1888 1988 0
-1890 -1892 -1990 0
1890 1892 -1990 0
-1890 1892 1990 0
1890 -1892 1990 0
-1894 -1896 -1992 0
1894 1896 -1992 0
-1894 1896 1992 0
1894 -1896 1992 0
-1898 -1900 -1994 0
1898 1900 -1994 0
-1898 1900 1994 0
1898 -1900 1994 0
-1902 -1904 -1996 0
1902 1904 -1996 0
-1902 1904 1996 0
1902 -1904 1996 0
-1906 -1908 -1998 0
1906 1908 -1998 0
-1906 1908 1998 0
1906 -1908 1998 0
-1910 -1912 -2000 0
1910 1912 -2000 0
-1910 1912 2000 0
1910 -1912 2000 0
-1914 -1916 -2002 0
1914 1916 -2002 0
-1914 1916 2002 0
1914 -1916 2002 0
-1918 -1920 -2004 0
1918 1920 -2004 0
-1918 1920 2004 0
1918 -1920 2004 0
-1922 -1924 -2006 0
1922 1924 -2006 0
-1922 1924 2006 0
1922 -1924 2006 0
-1926 -1928 -2008 0
1926 1928 -2008 0
-1926 1928 2008 0
1926 -1928 2008 0
-1930 -1932 -2010 0
1930 1932 -2010 0
-1930 1932 2010 0
1930 -1932 2010 0
-1934 -1936 -2012 0
1934 1936 -2012 0
-1934 1936 2012 0
1934 -1936 2012 0
-1938 -1940 -2014 0
1938 1940 -2014 0
-1938 1940 2014 0
1938 -1940 2014 0
-1942 -1944 -2016 0
1942 1944 -2016 0
-1942 1944 2016 0
1942 -1944 2016 0
-1946 -1948 -2018 0
1946 1948 -2018 0
-1946 1948 2018 0
1946 -1948 2018 0
-1950 -1952 -2020 0
1950 1952 -2020 0
-1950 1952 2020 0
1950 -1952 2020 0
-1954 -1956 -2022 0
1954 1956 -2022 0
-1954 1956 2022 0
1954 -1956 2022 0
-1958 -1960 -2024 0
1958 1960 -2024 0
-1958 1960 2024 0
1958 -1960 2024 0
-1959 -1961 -2026 0
1959 1961 -2026 0
1959 -1961 2026 0
-1959 1961 2026 0
-1962 -1963 -2028 0
1962 1963 -2028 0
-1962 1963 2028 0
1962 -1963 2028 0
-1964 -1965 -2030 0
1964 1965 -2030 0
-1964 1965 2030 0
1964 -1965 2030 0
-1966 -1968 -2032 0
1966 1968 -2032 0
-1966 1968 2032 0
1966 -1968 2032 0
-1970 -1972 -2034 0
1970 1972 -2034 0
-1970 1972 2034 0
1970 -1972 2034 0
-1974 -1975 -2036 0
1974 1975 -2036 0
-1974 1975 2036 0
1974 -1975 2036 0
-1976 -1977 -2038 0
1976 1977 -2038 0
-1976 1977 2038 0
1976 -1977 2038 0
-1978 -1980 -2040 0
1978 1980 -2040 0
-1978 1980 2040 0
1978 -1980 2040 0
-1982 -1984 -2042 0
1982 1984 -2042 0
-1982 1984 2042 0
1982 -1984 2042 0
-1986 -1988 -2044 0
1986 1988 -2044 0
-1986 1988 2044 0
1986 -1988 2044 0
-1990 -1992 -2046 0
1990 1992 -2046 0
-1990 1992 2046 0
1990 -1992 2046 0
-1994 -1996 -2048 0
1994 1996 -2048 0
-1994 1996 2048 0
1994 -1996 2048 0
-1998 -2000 -2050 0
1998 2000 -2050 0
-1998 2000 2050 0
1998 -2000 2050 0
-2002 -2004 -2052 0
2002 2004 -2052 0
-2002 2004 2052 0
2002 -2004 2052 0
-2006 -2008 -2054 0
2006 2008 -2054 0
-2006 2008 2054 0
2006 -2008 2054 0
-2010 -2012 -2056 0
2010 2012 -2056 0
-2010 2012 2056 0
2010 -2012 2056 0
-2014 -2016 -2058 0
2014 2016 -2058 0
-2014 2016 2058 0
2014 -2016 2058 0
-2018 -2020 -2060 0
2018 2020 -2060 0
-2018 2020 2060 0
2018 -2020 2060 0
-2022 -2024 -2062 0
2022 2024 -2062 0
-2022 2024 2062 0
2022 -2024 2062 0
-2026 -2027 -2064 0
2026 2027 -2064 0
-2026 2027 2064 0
2026 -2027 2064 0
-2028 -2030 -2066 0
2028 2030 -2066 0
-2028 2030 2066 0
2028 -2030 2066 0
-2032 -2034 -2068 0
2032 2034 -2068 0
-2032 2034 2068 0
2032 -2034 2068 0
-2036 -2038 -2070 0
2036 2038 -2070 0
-2036 2038 2070 0
2036 -2038 2070 0
-2040 -2042 -2072 0
2040 2042 -2072 0
-2040 2042 2072 0
2040 -2042 2072 0
-2044 -2046 -2074 0
2044 2046 -2074 0
-2044 2046 2074 0
2044 -2046 2074 0
-2048 -2050 -2076 0
2048 2050 -2076 0
-2048 2050 2076 0
2048 -2050 2076 0
-2052 -2054 -2078 0
2052 2054 -2078 0
-2052 2054 2078 0
2052 -2054 2078 0
-2056 -2058 -2080 0
2056 2058 -2080 0
-2056 2058 2080 0
2056 -2058 2080 0
-2060 -2062 -2082 0
2060 2062 -2082 0
-2060 2062 2082 0
2060 -2062 2082 0
-2064 -2066 -2084 0
2064 2066 -2084 0
-2064 2066 2084 0
2064 -2066 2084 0
-2068 -2070 -2086 0
2068 2070 -2086 0
-2068 2070 2086 0
2068 -2070 2086 0
-2072 -2074 -2088 0
2072 2074 -2088 0
-2072 2074 2088 0
2072 -2074 2088 0
-2076 -2078 -2090 0
2076 2078 -2090 0
-2076 2078 2090 0
2076 -2078 2090 0
-2080 -2082 -2092 0
2080 2082 -2092 0
-2080 2082 2092 0
2080 -2082 2092 0
-2084 -2086 -2094 0
2084 2086 -2094 0
-2084 2086 2094 0
2084 -2086 2094 0
-2088 -2090 -2096 0
2088 2090 -2096 0
-2088 2090 2096 0
2088 -2090 2096 0
-2092 -2094 -2096 0
2092 2094 -2096 0
-2092 2094 2096 0
2092 -2094 2096 0
-1967 -1969 -2102 0
1967 1969 -2102 0
-1967 1969 2102 0
1967 -1969 2102 0
-1971 -1973 -2103 0
1971 1973 -2103 0
-1971 1973 2103 0
1971 -1973 2103 0
-1979 -1981 -2105 0
1979 1981 -2105 0
-1979 1981 2105 0
1979 -1981 2105 0
-1983 -1985 -2106 0
1983 1985 -2106 0
-1983 1985 2106 0
1983 -1985 2106 0
-1987 -1989 -2108 0
1987 1989 -2108 0
-1987 1989 2108 0
1987 -1989 2108 0
-1991 -1993 -2110 0
1991 1993 -2110 0
-1991 1993 2110 0
1991 -1993 2110 0
-1995 -1997 -2112 0
1995 1997 -2112 0
-1995 1997 2112 0
1995 -1997 2112 0
-1999 -2001 -2114 0
1999 2001 -2114 0
-1999 2001 2114 0
1999 -2001 2114 0
-2003 -2005 -2116 0
2003 2005 -2116 0
-2003 2005 2116 0
2003 -2005 2116 0
-2007 -2009 -2118 0
2007 2009 -2118 0
-2007 2009 2118 0
2007 -2009 2118 0
-2011 -2013 -2120 0
2011 2013 -2120 0
-2011 2013 2120 0
2011 -2013 2120 0
-2015 -2017 -2122 0
2015 2017 -2122 0
-2015 2017 2122 0
2015 -2017 2122 0
-2019 -2021 -2124 0
2019 2021 -2124 0
-2019 2021 2124 0
2019 -2021 2124 0
-2023 -2025 -2126 0
2023 2025 -2126 0
-2023 2025 2126 0
2023 -2025 2126 0
-2029 -2031 -2128 0
2029 2031 -2128 0
-2029 2031 2128 0
2029 -2031 2128 0
-2033 -2035 -2130 0
2033 2035 -2130 0
-2033 2035 2130 0
2033 -2035 2130 0
-2037 -2039 -2132 0
2037 2039 -2132 0
-2037 2039 2132 0
2037 -2039 2132 0
-2041 -2043 -2134 0
2041 2043 -2134 0
-2041 2043 2134 0
2041 -2043 2134 0
-2045 -2047 -2136 0
2045 2047 -2136 0
-2045 2047 2136 0
2045 -2047 2136 0
-2049 -2051 -2138 0
2049 2051 -2138 0
-2049 2051 2138 0
2049 -2051 2138 0
-2053 -2055 -2140 0
2053 2055 -2140 0
-2053 2055 2140 0
2053 -2055 2140 0
-2057 -2059 -2142 0
2057 2059 -2142 0
-2057 2059 2142 0
2057 -2059 2142 0
-2061 -2063 -2144 0
2061 2063 -2144 0
-2061 2063 2144 0
2061 -2063 2144 0
-2065 -2067 -2146 0
2065 2067 -2146 0
-2065 2067 2146 0
2065 -2067 2146 0
-2069 -2071 -2148 0
2069 2071 -2148 0
-2069 2071 2148 0
2069 -2071 2148 0
-2073 -2075 -2150 0
2073 2075 -2150 0
-2073 2075 2150 0
2073 -2075 2150 0
-2077 -2079 -2152 0
2077 2079 -2152 0
-2077 2079 2152 0
2077 -2079 2152 0
-2081 -2083 -2154 0
2081 2083 -2154 0
-2081 2083 2154 0
2081 -2083 2154 0
-2085 -2087 -2156 0
2085 2087 -2156 0
-2085 2087 2156 0
2085 -2087 2156 0
-2089 -2091 -2158 0
2089 2091 -2158 0
-2089 2091 2158 0
2089 -2091 2158 0
-2093 -2095 -2160 0
2093 2095 -2160 0
-2093 2095 2160 0
2093 -2095 2160 0
-2097 -2098 -2162 0
2097 2098 -2162 0
-2097 2098 2162 0
2097 -2098 2162 0
-2096 -2099 -2164 0
2096 2099 -2164 0
-2096 2099 2164 0
2096 -2099 2164 0
-2100 -2101 -2166 0
2100 2101 -2166 0
-2100 2101 2166 0
2100 -2101 2166 0
-2102 -2103 -2168 0
2102 2103 -2168 0
-2102 2103 2168 0
2102 -2103 2168 0
-2105 -2106 -2169 0
2105 2106 -2169 0
-2105 2106 2169 0
2105 -2106 2169 0
-2108 -2110 -2171 0
2108 2110 -2171 0
-2108 2110 2171 0
2108 -2110 2171 0
-2112 -2114 -2173 0
2112 2114 -2173 0
-2112 2114 2173 0
2112 -2114 2173 0
-2116 -2118 -2175 0
2116 2118 -2175 0
-2116 2118 2175 0
2116 -2118 2175 0
-2120 -2122 -2177 0
2120 2122 -2177 0
-2120 2122 2177 0
2120 -2122 2177 0
-2124 -2126 -2179 0
2124 2126 -2179 0
-2124 2126 2179 0
2124 -2126 2179 0
-2127 -2128 -2181 0
2127 2128 -2181 0
-2127 2128 2181 0
2127 -2128 2181 0
-2130 -2132 -2183 0
2130 2132 -2183 0
-2130 2132 2183 0
2130 -2132 2183 0
-2134 -2136 -2185 0
2134 2136 -2185 0
-2134 2136 2185 0
2134 -2136 2185 0
-2138 -2140 -2187 0
2138 2140 -2187 0
-2138 2140 2187 0
2138 -2140 2187 0
-2142 -2144 -2189 0
2142 2144 -2189 0
-2142 2144 2189 0
2142 -2144 2189 0
-2146 -2148 -2191 0
2146 2148 -2191 0
-2146 2148 2191 0
2146 -2148 2191 0
-2150 -2152 -2193 0
2150 2152 -2193 0
-2150 2152 2193 0
2150 -2152 2193 0
-2154 -2156 -2195 0
2154 2156 -2195 0
-2154 2156 2195 0
2154 -2156 2195 0
-2158 -2160 -2197 0
2158 2160 -2197 0
-2158 2160 2197 0
2158 -2160 2197 0
-2162 -2164 -2199 0
2162 2164 -2199 0
-2162 2164 2199 0
2162 -2164 2199 0
-2166 -2168 -2201 0
2166 2168 -2201 0
-2166 2168 2201 0
2166 -2168 2201 0
-2104 -2169 -2203 0
2104 2169 -2203 0
-2104 2169 2203 0
2104 -2169 2203 0
-2171 -2173 -2205 0
2171 2173 -2205 0
-2171 2173 2205 0
2171 -2173 2205 0
-2175 -2177 -2207 0
2175 2177 -2207 0
-2175 2177 2207 0
2175 -2177 2207 0
-2179 -2181 -2209 0
2179 2181 -2209 0
-2179 2181 2209 0
2179 -2181 2209 0
-2183 -2185 -2211 0
2183 2185 -2211 0
-2183 2185 2211 0
2183 -2185 2211 0
-2187 -2189 -2213 0
2187 2189 -2213 0
-2187 2189 2213 0
2187 -2189 2213 0
-2191 -2193 -2215 0
2191 2193 -2215 0
-2191 2193 2215 0
2191 -2193 2215 0
-2195 -2197 -2217 0
2195 2197 -2217 0
-2195 2197 2217 0
2195 -2197 2217 0
-2199 -2201 -2219 0
2199 2201 -2219 0
-2199 2201 2219 0
2199 -2201 2219 0
-2203 -2205 -2221 0
2203 2205 -2221 0
-2203 2205 2221 0
2203 -2205 2221 0
-2207 -2209 -2223 0
2207 2209 -2223 0
-2207 2209 2223 0
2207 -2209 2223 0
-2211 -2213 -2225 0
2211 2213 -2225 0
-2211 2213 2225 0
2211 -2213 2225 0
-2215 -2217 -2227 0
2215 2217 -2227 0
-2215 2217 2227 0
2215 -2217 2227 0
-2219 -2221 -2229 0
2219 2221 -2229 0
-2219 2221 2229 0
2219 -2221 2229 0
-2223 -2225 -2231 0
2223 2225 -2231 0
-2223 2225 2231 0
2223 -2225 2231 0
-2227 -2229 -2231 0
2227 2229 -2231 0
-2227 2229 2231 0
2227 -2229 2231 0
-2107 -2109 -2237 0
2107 2109 -2237 0
-2107 2109 2237 0
2107 -2109 2237 0
-2111 -2113 -2239 0
2111 2113 -2239 0
-2111 2113 2239 0
2111 -2113 2239 0
-2115 -2117 -2241 0
2115 2117 -2241 0
-2115 2117 2241 0
2115 -2117 2241 0
-2119 -2121 -2243 0
2119 2121 -2243 0
-2119 2121 2243 0
2119 -2121 2243 0
-2123 -2125 -2245 0
2123 2125 -2245 0
-2123 2125 2245 0
2123 -2125 2245 0
-2129 -2131 -2247 0
2129 2131 -2247 0
-2129 2131 2247 0
2129 -2131 2247 0
-2133 -2135 -2249 0
2133 2135 -2249 0
-2133 2135 2249 0
2133 -2135 2249 0
-2137 -2139 -2251 0
2137 2139 -2251 0
-2137 2139 2251 0
2137 -2139 2251 0
-2141 -2143 -2253 0
2141 2143 -2253 0
-2141 2143 2253 0
2141 -2143 2253 0
-2145 -2147 -2255 0
2145 2147 -2255 0
-2145 2147 2255 0
2145 -2147 2255 0
-2149 -2151 -2257 0
2149 2151 -2257 0
-2149 2151 2257 0
2149 -2151 2257 0
-2153 -2155 -2259 0
2153 2155 -2259 0
-2153 2155 2259 0
2153 -2155 2259 0
-2157 -2159 -2261 0
2157 2159 -2261 0
-2157 2159 2261 0
2157 -2159 2261 0
-2161 -2163 -2263 0
2161 2163 -2263 0
-2161 2163 2263 0
2161 -2163 2263 0
-2165 -2167 -2265 0
2165 2167 -2265 0
-2165 2167 2265 0
2165 -2167 2265 0
-2170 -2172 -2268 0
2170 2172 -2268 0
-2170 2172 2268 0
2170 -2172 2268 0
-2174 -2176 -2269 0
2174 2176 -2269 0
-2174 2176 2269 0
2174 -2176 2269 0
-2178 -2180 -2271 0
2178 2180 -2271 0
-2178 2180 2271 0
2178 -2180 2271 0
-2182 -2184 -2273 0
2182 2184 -2273 0
-2182 2184 2273 0
2182 -2184 2273 0
-2186 -2188 -2275 0
2186 2188 -2275 0
-2186 2188 2275 0
2186 -2188 2275 0
-2190 -2192 -2277 0
2190 2192 -2277 0
-2190 2192 2277 0
2190 -2192 2277 0
-2194 -2196 -2279 0
2194 2196 -2279 0
-2194 2196 2279 0
2194 -2196 2279 0
-2198 -2200 -2281 0
2198 2200 -2281 0
-2198 2200 2281 0
2198 -2200 2281 0
-2202 -2204 -2283 0
2202 2204 -2283 0
-2202 2204 2283 0
2202 -2204 2283 0
-2206 -2208 -2285 0
2206 2208 -2285 0
-2206 2208 2285 0
2206 -2208 2285 0
-2210 -2212 -2287 0
2210 2212 -2287 0
-2210 2212 2287 0
2210 -2212 2287 0
-2214 -2216 -2289 0
2214 2216 -2289 0
-2214 2216 2289 0
2214 -2216 2289 0
-2218 -2220 -2291 0
2218 2220 -2291 0
-2218 2220 2291 0
2218 -2220 2291 0
-2222 -2224 -2293 0
2222 2224 -2293 0
-2222 2224 2293 0
2222 -2224 2293 0
-2226 -2228 -2295 0
2226 2228 -2295 0
-2226 2228 2295 0
2226 -2228 2295 0
-2230 -2232 -2297 0
2230 2232 -2297 0
-2230 2232 2297 0
2230 -2232 2297 0
-2231 -2233 -2299 0
2231 2233 -2299 0
2231 -2233 2299 0
-2231 2233 2299 0
-2235 -2236 -2301 0
2235 2236 -2301 0
-2235 2236 2301 0
2235 -2236 2301 0
-2237 -2239 -2302 0
2237 2239 -2302 0
-2237 2239 2302 0
2237 -2239 2302 0
-2241 -2243 -2304 0
2241 2243 -2304 0
-2241 2243 2304 0
2241 -2243 2304 0
-2245 -2246 -2306 0
2245 2246 -2306 0
-2245 2246 2306 0
2245 -2246 2306 0
-2247 -2249 -2308 0
2247 2249 -2308 0
-2247 2249 2308 0
2247 -2249 2308 0
-2251 -2253 -2310 0
2251 2253 -2310 0
-2251 2253 2310 0
2251 -2253 2310 0
-2255 -2257 -2312 0
2255 2257 -2312 0
-2255 2257 2312 0
2255 -2257 2312 0
-2259 -2261 -2314 0
2259 2261 -2314 0
-2259 2261 2314 0
2259 -2261 2314 0
-2263 -2265 -2316 0
2263 2265 -2316 0
-2263 2265 2316 0
2263 -2265 2316 0
-2267 -2268 -2318 0
2267 2268 -2318 0
-2267 2268 2318 0
2267 -2268 2318 0
-2269 -2271 -2320 0
2269 2271 -2320 0
-2269 2271 2320 0
2269 -2271 2320 0
-2273 -2275 -2322 0
2273 2275 -2322 0
-2273 2275 2322 0
2273 -2275 2322 0
-2277 -2279 -2324 0
2277 2279 -2324 0
-2277 2279 2324 0
2277 -2279 2324 0
-2281 -2283 -2326 0
2281 2283 -2326 0
-2281 2283 2326 0
2281 -2283 2326 0
-2285 -2287 -2328 0
2285 2287 -2328 0
-2285 2287 2328 0
2285 -2287 2328 0
-2289 -2291 -2330 0
2289 2291 -2330 0
-2289 2291 2330 0
2289 -2291 2330 0
-2293 -2295 -2332 0
2293 2295 -2332 0
-2293 2295 2332 0
2293 -2295 2332 0
-2297 -2299 -2334 0
2297 2299 -2334 0
-2297 2299 2334 0
2297 -2299 2334 0
-2234 -2301 -2336 0
2234 2301 -2336 0
-2234 2301 2336 0
2234 -2301 2336 0
-2302 -2304 -2338 0
2302 2304 -2338 0
-2302 2304 2338 0
2302 -2304 2338 0
-2306 -2308 -2340 0
2306 2308 -2340 0
-2306 2308 2340 0
2306 -2308 2340 0
-2310 -2312 -2342 0
2310 2312 -2342 0
-2310 2312 2342 0
2310 -2312 2342 0
-2314 -2316 -2344 0
2314 2316 -2344 0
-2314 2316 2344 0
2314 -2316 2344 0
-2318 -2320 -2346 0
2318 2320 -2346 0
-2318 2320 2346 0
2318 -2320 2346 0
-2322 -2324 -2348 0
2322 2324 -2348 0
-2322 2324 2348 0
2322 -2324 2348 0
-2326 -2328 -2350 0
2326 2328 -2350 0
-2326 2328 2350 0
2326 -2328 2350 0
-2330 -2332 -2352 0
2330 2332 -2352 0
-2330 2332 2352 0
2330 -2332 2352 0
-2334 -2336 -2354 0
2334 2336 -2354 0
-2334 2336 2354 0
2334 -2336 2354 0
-2338 -2340 -2356 0
2338 2340 -2356 0
-2338 2340 2356 0
2338 -2340 2356 0
-2342 -2344 -2358 0
2342 2344 -2358 0
-2342 2344 2358 0
2342 -2344 2358 0
-2346 -2348 -2360 0
2346 2348 -2360 0
-2346 2348 2360 0
2346 -2348 2360 0
-2350 -2352 -2362 0
2350 2352 -2362 0
-2350 2352 2362 0
2350 -2352 2362 0
-2354 -2356 -2364 0
2354 2356 -2364 0
-2354 2356 2364 0
2354 -2356 2364 0
-2358 -2360 -2366 0
2358 2360 -2366 0
-2358 2360 2366 0
2358 -2360 2366 0
-2362 -2364 -2366 0
2362 2364 -2366 0
-2362 2364 2366 0
2362 -2364 2366 0
-2238 -2240 -2431 0
2238 2240 -2431 0
-2238 2240 2431 0
2238 -2240 2431 0
-2242 -2244 -2370 0
2242 2244 -2370 0
-2242 2244 2370 0
2242 -2244 2370 0
-2248 -2250 -2373 0
2248 2250 -2373 0
-2248 2250 2373 0
2248 -2250 2373 0
-2252 -2254 -2374 0
2252 2254 -2374 0
-2252 2254 2374 0
2252 -2254 2374 0
-2256 -2258 -2376 0
2256 2258 -2376 0
-2256 2258 2376 0
2256 -2258 2376 0
-2260 -2262 -2378 0
2260 2262 -2378 0
-2260 2262 2378 0
2260 -2262 2378 0
-2264 -2266 -2380 0
2264 2266 -2380 0
-2264 2266 2380 0
2264 -2266 2380 0
-2270 -2272 -2383 0
2270 2272 -2383 0
-2270 2272 2383 0
2270 -2272 2383 0
-2274 -2276 -2384 0
2274 2276 -2384 0
-2274 2276 2384 0
2274 -2276 2384 0
-2278 -2280 -2386 0
2278 2280 -2386 0
-2278 2280 2386 0
2278 -2280 2386 0
-2282 -2284 -2388 0
2282 2284 -2388 0
-2282 2284 2388 0
2282 -2284 2388 0
-2286 -2288 -2390 0
2286 2288 -2390 0
-2286 2288 2390 0
2286 -2288 2390 0
-2290 -2292 -2392 0
2290 2292 -2392 0
-2290 2292 2392 0
2290 -2292 2392 0
-2294 -2296 -2394 0
2294 2296 -2394 0
-2294 2296 2394 0
2294 -2296 2394 0
-2298 -2300 -2396 0
2298 2300 -2396 0
-2298 2300 2396 0
2298 -2300 2396 0
-2303 -2305 -2398 0
2303 2305 -2398 0
-2303 2305 2398 0
2303 -2305 2398 0
-2307 -2309 -2400 0
2307 2309 -2400 0
-2307 2309 2400 0
2307 -2309 2400 0
-2311 -2313 -2402 0
2311 2313 -2402 0
-2311 2313 2402 0
2311 -2313 2402 0
-2315 -2317 -2404 0
2315 2317 -2404 0
-2315 2317 2404 0
2315 -2317 2404 0
-2319 -2321 -2406 0
2319 2321 -2406 0
-2319 2321 2406 0
2319 -2321 2406 0
-2323 -2325 -2408 0
2323 2325 -2408 0
-2323 2325 2408 0
2323 -2325 2408 0
-2327 -2329 -2410 0
2327 2329 -2410 0
-2327 2329 2410 0
2327 -2329 2410 0
-2331 -2333 -2412 0
2331 2333 -2412 0
-2331 2333 2412 0
2331 -2333 2412 0
-2335 -2337 -2414 0
2335 2337 -2414 0
-2335 2337 2414 0
2335 -2337 2414 0
-2339 -2341 -2416 0
2339 2341 -2416 0
-2339 2341 2416 0
2339 -2341 2416 0
-2343 -2345 -2418 0
2343 2345 -2418 0
-2343 2345 2418 0
2343 -2345 2418 0
-2347 -2349 -2420 0
2347 2349 -2420 0
-2347 2349 2420 0
2347 -2349 2420 0
-2351 -2353 -2422 0
2351 2353 -2422 0
-2351 2353 2422 0
2351 -2353 2422 0
-2355 -2357 -2424 0
2355 2357 -2424 0
-2355 2357 2424 0
2355 -2357 2424 0
-2359 -2361 -2426 0
2359 2361 -2426 0
-2359 2361 2426 0
2359 -2361 2426 0
-2363 -2365 -2428 0
2363 2365 -2428 0
-2363 2365 2428 0
2363 -2365 2428 0
-2367 -2368 -2430 0
2367 2368 -2430 0
-2367 2368 2430 0
2367 -2368 2430 0
-2370 -2372 -2432 0
2370 2372 -2432 0
-2370 2372 2432 0
2370 -2372 2432 0
-2373 -2374 -2433 0
2373 2374 -2433 0
-2373 2374 2433 0
2373 -2374 2433 0
-2376 -2378 -2435 0
2376 2378 -2435 0
-2376 2378 2435 0
2376 -2378 2435 0
-2380 -2382 -2437 0
2380 2382 -2437 0
-2380 2382 2437 0
2380 -2382 2437 0
-2383 -2384 -2439 0
2383 2384 -2439 0
-2383 2384 2439 0
2383 -2384 2439 0
-2386 -2388 -2441 0
2386 2388 -2441 0
-2386 2388 2441 0
2386 -2388 2441 0
-2390 -2392 -2443 0
2390 2392 -2443 0
-2390 2392 2443 0
2390 -2392 2443 0
-2394 -2396 -2445 0
2394 2396 -2445 0
-2394 2396 2445 0
2394 -2396 2445 0
-2397 -2398 -2447 0
2397 2398 -2447 0
-2397 2398 2447 0
2397 -2398 2447 0
-2400 -2402 -2449 0
2400 2402 -2449 0
-2400 2402 2449 0
2400 -2402 2449 0
-2404 -2406 -2451 0
2404 2406 -2451 0
-2404 2406 2451 0
2404 -2406 2451 0
-2408 -2410 -2453 0
2408 2410 -2453 0
-2408 2410 2453 0
2408 -2410 2453 0
-2412 -2414 -2455 0
2412 2414 -2455 0
-2412 2414 2455 0
2412 -2414 2455 0
-2416 -2418 -2457 0
2416 2418 -2457 0
-2416 2418 2457 0
2416 -2418 2457 0
-2420 -2422 -2459 0
2420 2422 -2459 0
-2420 2422 2459 0
2420 -2422 2459 0
-2424 -2426 -2461 0
2424 2426 -2461 0
-2424 2426 2461 0
2424 -2426 2461 0
-2428 -2430 -2463 0
2428 2430 -2463 0
-2428 2430 2463 0
2428 -2430 2463 0
-2366 -2431 -2465 0
2366 2431 -2465 0
-2366 2431 2465 0
2366 -2431 2465 0
-2432 -2433 -2467 0
2432 2433 -2467 0
-2432 2433 2467 0
2432 -2433 2467 0
-2435 -2437 -2469 0
2435 2437 -2469 0
-2435 2437 2469 0
2435 -2437 2469 0
-2439 -2441 -2471 0
2439 2441 -2471 0
-2439 2441 2471 0
2439 -2441 2471 0
-2443 -2445 -2473 0
2443 2445 -2473 0
-2443 2445 2473 0
2443 -2445 2473 0
-2447 -2449 -2475 0
2447 2449 -2475 0
-2447 2449 2475 0
2447 -2449 2475 0
-2451 -2453 -2477 0
2451 2453 -2477 0
-2451 2453 2477 0
2451 -2453 2477 0
-2455 -2457 -2479 0
2455 2457 -2479 0
-2455 2457 2479 0
2455 -2457 2479 0
-2459 -2461 -2481 0
2459 2461 -2481 0
-2459 2461 2481 0
2459 -2461 2481 0
-2463 -2465 -2483 0
2463 2465 -2483 0
-2463 2465 2483 0
2463 -2465 2483 0
-2467 -2469 -2485 0
2467 2469 -2485 0
-2467 2469 2485 0
2467 -2469 2485 0
-2471 -2473 -2487 0
2471 2473 -2487 0
-2471 2473 2487 0
2471 -2473 2487 0
-2475 -2477 -2489 0
2475 2477 -2489 0
-2475 2477 2489 0
2475 -2477 2489 0
-2479 -2481 -2491 0
2479 2481 -2491 0
-2479 2481 2491 0
2479 -2481 2491 0
-2483 -2485 -2493 0
2483 2485 -2493 0
-2483 2485 2493 0
2483 -2485 2493 0
-2487 -2489 -2495 0
2487 2489 -2495 0
-2487 2489 2495 0
2487 -2489 2495 0
-2491 -2493 -2495 0
2491 2493 -2495 0
-2491 2493 2495 0
2491 -2493 2495 0
-2369 -2371 -2559 0
2369 2371 -2559 0
-2369 2371 2559 0
2369 -2371 2559 0
-2375 -2377 -2499 0
2375 2377 -2499 0
-2375 2377 2499 0
2375 -2377 2499 0
-2379 -2381 -2500 0
2379 2381 -2500 0
-2379 2381 2500 0
2379 -2381 2500 0
-2385 -2387 -2502 0
2385 2387 -2502 0
-2385 2387 2502 0
2385 -2387 2502 0
-2389 -2391 -2504 0
2389 2391 -2504 0
-2389 2391 2504 0
2389 -2391 2504 0
-2393 -2395 -2506 0
2393 2395 -2506 0
-2393 2395 2506 0
2393 -2395 2506 0
-2399 -2401 -2508 0
2399 2401 -2508 0
-2399 2401 2508 0
2399 -2401 2508 0
-2403 -2405 -2510 0
2403 2405 -2510 0
-2403 2405 2510 0
2403 -2405 2510 0
-2407 -2409 -2512 0
2407 2409 -2512 0
-2407 2409 2512 0
2407 -2409 2512 0
-2411 -2413 -2514 0
2411 2413 -2514 0
-2411 2413 2514 0
2411 -2413 2514 0
-2415 -2417 -2516 0
2415 2417 -2516 0
-2415 2417 2516 0
2415 -2417 2516 0
-2419 -2421 -2518 0
2419 2421 -2518 0
-2419 2421 2518 0
2419 -2421 2518 0
-2423 -2425 -2520 0
2423 2425 -2520 0
-2423 2425 2520 0
2423 -2425 2520 0
-2427 -2429 -2522 0
2427 2429 -2522 0
-2427 2429 2522 0
2427 -2429 2522 0
-2434 -2436 -2526 0
2434 2436 -2526 0
-2434 2436 2526 0
2434 -2436 2526 0
-2438 -2440 -2528 0
2438 2440 -2528 0
-2438 2440 2528 0
2438 -2440 2528 0
-2442 -2444 -2530 0
2442 2444 -2530 0
-2442 2444 2530 0
2442 -2444 2530 0
-2446 -2448 -2532 0
2446 2448 -2532 0
-2446 2448 2532 0
2446 -2448 2532 0
-2450 -2452 -2534 0
2450 2452 -2534 0
-2450 2452 2534 0
2450 -2452 2534 0
-2454 -2456 -2536 0
2454 2456 -2536 0
-2454 2456 2536 0
2454 -2456 2536 0
-2458 -2460 -2538 0
2458 2460 -2538 0
-2458 2460 2538 0
2458 -2460 2538 0
-2462 -2464 -2540 0
2462 2464 -2540 0
-2462 2464 2540 0
2462 -2464 2540 0
-2466 -2468 -2542 0
2466 2468 -2542 0
-2466 2468 2542 0
2466 -2468 2542 0
-2470 -2472 -2544 0
2470 2472 -2544 0
-2470 2472 2544 0
2470 -2472 2544 0
-2474 -2476 -2546 0
2474 2476 -2546 0
-2474 2476 2546 0
2474 -2476 2546 0
-2478 -2480 -2548 0
2478 2480 -2548 0
-2478 2480 2548 0
2478 -2480 2548 0
-2482 -2484 -2550 0
2482 2484 -2550 0
-2482 2484 2550 0
2482 -2484 2550 0
-2486 -2488 -2552 0
2486 2488 -2552 0
-2486 2488 2552 0
2486 -2488 2552 0
-2490 -2492 -2554 0
2490 2492 -2554 0
-2490 2492 2554 0
2490 -2492 2554 0
-2494 -2496 -2556 0
2494 2496 -2556 0
-2494 2496 2556 0
2494 -2496 2556 0
-2495 -2497 -2558 0
2495 2497 -2558 0
2495 -2497 2558 0
-2495 2497 2558 0
-2498 -2499 -2560 0
2498 2499 -2560 0
-2498 2499 2560 0
2498 -2499 2560 0
-2500 -2501 -2562 0
2500 2501 -2562 0
-2500 2501 2562 0
2500 -2501 2562 0
-2502 -2504 -2564 0
2502 2504 -2564 0
-2502 2504 2564 0
2502 -2504 2564 0
-2506 -2507 -2566 0
2506 2507 -2566 0
-2506 2507 2566 0
2506 -2507 2566 0
-2508 -2510 -2568 0
2508 2510 -2568 0
-2508 2510 2568 0
2508 -2510 2568 0
-2512 -2514 -2570 0
2512 2514 -2570 0
-2512 2514 2570 0
2512 -2514 2570 0
-2516 -2518 -2572 0
2516 2518 -2572 0
-2516 2518 2572 0
2516 -2518 2572 0
-2520 -2522 -2574 0
2520 2522 -2574 0
-2520 2522 2574 0
2520 -2522 2574 0
-2524 -2525 -2576 0
2524 2525 -2576 0
-2524 2525 2576 0
2524 -2525 2576 0
-2526 -2528 -2578 0
2526 2528 -2578 0
-2526 2528 2578 0
2526 -2528 2578 0
-2530 -2532 -2580 0
2530 2532 -2580 0
-2530 2532 2580 0
2530 -2532 2580 0
-2534 -2536 -2582 0
2534 2536 -2582 0
-2534 2536 2582 0
2534 -2536 2582 0
-2538 -2540 -2584 0
2538 2540 -2584 0
-2538 2540 2584 0
2538 -2540 2584 0
-2542 -2544 -2586 0
2542 2544 -2586 0
-2542 2544 2586 0
2542 -2544 2586 0
-2546 -2548 -2588 0
2546 2548 -2588 0
-2546 2548 2588 0
2546 -2548 2588 0
-2550 -2552 -2590 0
2550 2552 -2590 0
-2550 2552 2590 0
2550 -2552 2590 0
-2554 -2556 -2592 0
2554 2556 -2592 0
-2554 2556 2592 0
2554 -2556 2592 0
-2558 -2559 -2594 0
2558 2559 -2594 0
-2558 2559 2594 0
2558 -2559 2594 0
-2560 -2562 -2596 0
2560 2562 -2596 0
-2560 2562 2596 0
2560 -2562 2596 0
-2564 -2566 -2598 0
2564 2566 -2598 0
-2564 2566 2598 0
2564 -2566 2598 0
-2568 -2570 -2600 0
2568 2570 -2600 0
-2568 2570 2600 0
2568 -2570 2600 0
-2572 -2574 -2602 0
2572 2574 -2602 0
-2572 2574 2602 0
2572 -2574 2602 0
-2576 -2578 -2604 0
2576 2578 -2604 0
-2576 2578 2604 0
2576 -2578 2604 0
-2580 -2582 -2606 0
2580 2582 -2606 0
-2580 2582 2606 0
2580 -2582 2606 0
-2584 -2586 -2608 0
2584 2586 -2608 0
-2584 2586 2608 0
2584 -2586 2608 0
-2588 -2590 -2610 0
2588 2590 -2610 0
-2588 2590 2610 0
2588 -2590 2610 0
-2592 -2594 -2612 0
2592 2594 -2612 0
-2592 2594 2612 0
2592 -2594 2612 0
-2596 -2598 -2614 0
2596 2598 -2614 0
-2596 2598 2614 0
2596 -2598 2614 0
-2600 -2602 -2616 0
2600 2602 -2616 0
-2600 2602 2616 0
2600 -2602 2616 0
-2604 -2606 -2618 0
2604 2606 -2618 0
-2604 2606 2618 0
2604 -2606 2618 0
-2608 -2610 -2620 0
2608 2610 -2620 0
-2608 2610 2620 0
2608 -2610 2620 0
-2612 -2614 -2622 0
2612 2614 -2622 0
-2612 2614 2622 0
2612 -2614 2622 0
-2616 -2618 -2624 0
2616 2618 -2624 0
-2616 2618 2624 0
2616 -2618 2624 0
-2620 -2622 -2624 0
2620 2622 -2624 0
-2620 2622 2624 0
2620 -2622 2624 0
-2503 -2505 -2630 0
2503 2505 -2630 0
-2503 2505 2630 0
2503 -2505 2630 0
-2509 -2511 -2632 0
2509 2511 -2632 0
-2509 2511 2632 0
2509 -2511 2632 0
-2513 -2515 -2633 0
2513 2515 -2633 0
-2513 2515 2633 0
2513 -2515 2633 0
-2517 -2519 -2635 0
2517 2519 -2635 0
-2517 2519 2635 0
2517 -2519 2635 0
-2521 -2523 -2637 0
2521 2523 -2637 0
-2521 2523 2637 0
2521 -2523 2637 0
-2527 -2529 -2696 0
2527 2529 -2696 0
-2527 2529 2696 0
2527 -2529 2696 0
-2531 -2533 -2639 0
2531 2533 -2639 0
-2531 2533 2639 0
2531 -2533 2639 0
-2535 -2537 -2641 0
2535 2537 -2641 0
-2535 2537 2641 0
2535 -2537 2641 0
-2539 -2541 -2643 0
2539 2541 -2643 0
-2539 2541 2643 0
2539 -2541 2643 0
-2543 -2545 -2645 0
2543 2545 -2645 0
-2543 2545 2645 0
2543 -2545 2645 0
-2547 -2549 -2647 0
2547 2549 -2647 0
-2547 2549 2647 0
2547 -2549 2647 0
-2551 -2553 -2649 0
2551 2553 -2649 0
-2551 2553 2649 0
2551 -2553 2649 0
-2555 -2557 -2651 0
2555 2557 -2651 0
-2555 2557 2651 0
2555 -2557 2651 0
-2561 -2563 -2654 0
2561 2563 -2654 0
-2561 2563 2654 0
2561 -2563 2654 0
-2565 -2567 -2655 0
2565 2567 -2655 0
-2565 2567 2655 0
2565 -2567 2655 0
-2569 -2571 -2657 0
2569 2571 -2657 0
-2569 2571 2657 0
2569 -2571 2657 0
-2573 -2575 -2659 0
2573 2575 -2659 0
-2573 2575 2659 0
2573 -2575 2659 0
-2577 -2579 -2661 0
2577 2579 -2661 0
-2577 2579 2661 0
2577 -2579 2661 0
-2581 -2583 -2663 0
2581 2583 -2663 0
-2581 2583 2663 0
2581 -2583 2663 0
-2585 -2587 -2665 0
2585 2587 -2665 0
-2585 2587 2665 0
2585 -2587 2665 0
-2589 -2591 -2667 0
2589 2591 -2667 0
-2589 2591 2667 0
2589 -2591 2667 0
-2593 -2595 -2669 0
2593 2595 -2669 0
-2593 2595 2669 0
2593 -2595 2669 0
-2597 -2599 -2671 0
2597 2599 -2671 0
-2597 2599 2671 0
2597 -2599 2671 0
-2601 -2603 -2673 0
2601 2603 -2673 0
-2601 2603 2673 0
2601 -2603 2673 0
-2605 -2607 -2675 0
2605 2607 -2675 0
-2605 2607 2675 0
2605 -2607 2675 0
-2609 -2611 -2677 0
2609 2611 -2677 0
-2609 2611 2677 0
2609 -2611 2677 0
-2613 -2615 -2679 0
2613 2615 -2679 0
-2613 2615 2679 0
2613 -2615 2679 0
-2617 -2619 -2681 0
2617 2619 -2681 0
-2617 2619 2681 0
2617 -2619 2681 0
-2621 -2623 -2683 0
2621 2623 -2683 0
-2621 2623 2683 0
2621 -2623 2683 0
-2625 -2626 -2685 0
2625 2626 -2685 0
-2625 2626 2685 0
2625 -2626 2685 0
-2624 -2627 -2687 0
2624 2627 -2687 0
-2624 2627 2687 0
2624 -2627 2687 0
-2628 -2629 -2689 0
2628 2629 -2689 0
-2628 2629 2689 0
2628 -2629 2689 0
-2630 -2631 -2691 0
2630 2631 -2691 0
-2630 2631 2691 0
2630 -2631 2691 0
-2632 -2633 -2693 0
2632 2633 -2693 0
-2632 2633 2693 0
2632 -2633 2693 0
-2635 -2637 -2695 0
2635 2637 -2695 0
-2635 2637 2695 0
2635 -2637 2695 0
-2639 -2641 -2697 0
2639 2641 -2697 0
-2639 2641 2697 0
2639 -2641 2697 0
-2643 -2645 -2699 0
2643 2645 -2699 0
-2643 2645 2699 0
2643 -2645 2699 0
-2647 -2649 -2701 0
2647 2649 -2701 0
-2647 2649 2701 0
2647 -2649 2701 0
-2651 -2653 -2703 0
2651 2653 -2703 0
-2651 2653 2703 0
2651 -2653 2703 0
-2654 -2655 -2705 0
2654 2655 -2705 0
-2654 2655 2705 0
2654 -2655 2705 0
-2657 -2659 -2707 0
2657 2659 -2707 0
-2657 2659 2707 0
2657 -2659 2707 0
-2661 -2663 -2709 0
2661 2663 -2709 0
-2661 2663 2709 0
2661 -2663 2709 0
-2665 -2667 -2711 0
2665 2667 -2711 0
-2665 2667 2711 0
2665 -2667 2711 0
-2669 -2671 -2713 0
2669 2671 -2713 0
-2669 2671 2713 0
2669 -2671 2713 0
-2673 -2675 -2715 0
2673 2675 -2715 0
-2673 2675 2715 0
2673 -2675 2715 0
-2677 -2679 -2717 0
2677 2679 -2717 0
-2677 2679 2717 0
2677 -2679 2717 0
-2681 -2683 -2719 0
2681 2683 -2719 0
-2681 2683 2719 0
2681 -2683 2719 0
-2685 -2687 -2721 0
2685 2687 -2721 0
-2685 2687 2721 0
2685 -2687 2721 0
-2689 -2691 -2723 0
2689 2691 -2723 0
-2689 2691 2723 0
2689 -2691 2723 0
-2693 -2695 -2725 0
2693 2695 -2725 0
-2693 2695 2725 0
2693 -2695 2725 0
-2696 -2697 -2727 0
2696 2697 -2727 0
-2696 2697 2727 0
2696 -2697 2727 0
-2699 -2701 -2729 0
2699 2701 -2729 0
-2699 2701 2729 0
2699 -2701 2729 0
-2703 -2705 -2731 0
2703 2705 -2731 0
-2703 2705 2731 0
2703 -2705 2731 0
-2707 -2709 -2733 0
2707 2709 -2733 0
-2707 2709 2733 0
2707 -2709 2733 0
-2711 -2713 -2735 0
2711 2713 -2735 0
-2711 2713 2735 0
2711 -2713 2735 0
-2715 -2717 -2737 0
2715 2717 -2737 0
-2715 2717 2737 0
2715 -2717 2737 0
-2719 -2721 -2739 0
2719 2721 -2739 0
-2719 2721 2739 0
2719 -2721 2739 0
-2723 -2725 -2741 0
2723 2725 -2741 0
-2723 2725 2741 0
2723 -2725 2741 0
-2727 -2729 -2743 0
2727 2729 -2743 0
-2727 2729 2743 0
2727 -2729 2743 0
-2731 -2733 -2745 0
2731 2733 -2745 0
-2731 2733 2745 0
2731 -2733 2745 0
-2735 -2737 -2747 0
2735 2737 -2747 0
-2735 2737 2747 0
2735 -2737 2747 0
-2739 -2741 -2749 0
2739 2741 -2749 0
-2739 2741 2749 0
2739 -2741 2749 0
-2743 -2745 -2751 0
2743 2745 -2751 0
-2743 2745 2751 0
2743 -2745 2751 0
-2747 -2749 -2751 0
2747 2749 -2751 0
-2747 2749 2751 0
2747 -2749 2751 0
-2634 -2636 -2756 0
2634 2636 -2756 0
-2634 2636 2756 0
2634 -2636 2756 0
-2638 -2640 -2758 0
2638 2640 -2758 0
-2638 2640 2758 0
2638 -2640 2758 0
-2642 -2644 -2759 0
2642 2644 -2759 0
-2642 2644 2759 0
2642 -2644 2759 0
-2646 -2648 -2761 0
2646 2648 -2761 0
-2646 2648 2761 0
2646 -2648 2761 0
-2650 -2652 -2763 0
2650 2652 -2763 0
-2650 2652 2763 0
2650 -2652 2763 0
-2656 -2658 -2765 0
2656 2658 -2765 0
-2656 2658 2765 0
2656 -2658 2765 0
-2660 -2662 -2767 0
2660 2662 -2767 0
-2660 2662 2767 0
2660 -2662 2767 0
-2664 -2666 -2769 0
2664 2666 -2769 0
-2664 2666 2769 0
2664 -2666 2769 0
-2668 -2670 -2771 0
2668 2670 -2771 0
-2668 2670 2771 0
2668 -2670 2771 0
-2672 -2674 -2773 0
2672 2674 -2773 0
-2672 2674 2773 0
2672 -2674 2773 0
-2676 -2678 -2775 0
2676 2678 -2775 0
-2676 2678 2775 0
2676 -2678 2775 0
-2680 -2682 -2777 0
2680 2682 -2777 0
-2680 2682 2777 0
2680 -2682 2777 0
-2684 -2686 -2779 0
2684 2686 -2779 0
-2684 2686 2779 0
2684 -2686 2779 0
-2688 -2690 -2781 0
2688 2690 -2781 0
-2688 2690 2781 0
2688 -2690 2781 0
-2692 -2694 -2783 0
2692 2694 -2783 0
-2692 2694 2783 0
2692 -2694 2783 0
-2698 -2700 -2786 0
2698 2700 -2786 0
-2698 2700 2786 0
2698 -2700 2786 0
-2702 -2704 -2787 0
2702 2704 -2787 0
-2702 2704 2787 0
2702 -2704 2787 0
-2706 -2708 -2789 0
2706 2708 -2789 0
-2706 2708 2789 0
2706 -2708 2789 0
-2710 -2712 -2791 0
2710 2712 -2791 0
-2710 2712 2791 0
2710 -2712 2791 0
-2714 -2716 -2793 0
2714 2716 -2793 0
-2714 2716 2793 0
2714 -2716 2793 0
-2718 -2720 -2795 0
2718 2720 -2795 0
-2718 2720 2795 0
2718 -2720 2795 0
-2722 -2724 -2797 0
2722 2724 -2797 0
-2722 2724 2797 0
2722 -2724 2797 0
-2726 -2728 -2799 0
2726 2728 -2799 0
-2726 2728 2799 0
2726 -2728 2799 0
-2730 -2732 -2801 0
2730 2732 -2801 0
-2730 2732 2801 0
2730 -2732 2801 0
-2734 -2736 -2803 0
2734 2736 -2803 0
-2734 2736 2803 0
2734 -2736 2803 0
-2738 -2740 -2805 0
2738 2740 -2805 0
-2738 2740 2805 0
2738 -2740 2805 0
-2742 -2744 -2807 0
2742 2744 -2807 0
-2742 2744 2807 0
2742 -2744 2807 0
-2746 -2748 -2809 0
2746 2748 -2809 0
-2746 2748 2809 0
2746 -2748 2809 0
-2750 -2752 -2811 0
2750 2752 -2811 0
-2750 2752 2811 0
2750 -2752 2811 0
-2751 -2753 -2813 0
2751 2753 -2813 0
2751 -2753 2813 0
-2751 2753 2813 0
-2755 -2756 -2815 0
2755 2756 -2815 0
-2755 2756 2815 0
2755 -2756 2815 0
-2757 -2758 -2816 0
2757 2758 -2816 0
-2757 2758 2816 0
2757 -2758 2816 0
-2759 -2761 -2818 0
2759 2761 -2818 0
-2759 2761 2818 0
2759 -2761 2818 0
-2763 -2764 -2820 0
2763 2764 -2820 0
-2763 2764 2820 0
2763 -2764 2820 0
-2765 -2767 -2822 0
2765 2767 -2822 0
-2765 2767 2822 0
2765 -2767 2822 0
-2769 -2771 -2824 0
2769 2771 -2824 0
-2769 2771 2824 0
2769 -2771 2824 0
-2773 -2775 -2826 0
2773 2775 -2826 0
-2773 2775 2826 0
2773 -2775 2826 0
-2777 -2779 -2828 0
2777 2779 -2828 0
-2777 2779 2828 0
2777 -2779 2828 0
-2781 -2783 -2830 0
2781 2783 -2830 0
-2781 2783 2830 0
2781 -2783 2830 0
-2785 -2786 -2832 0
2785 2786 -2832 0
-2785 2786 2832 0
2785 -2786 2832 0
-2787 -2789 -2834 0
2787 2789 -2834 0
-2787 2789 2834 0
2787 -2789 2834 0
-2791 -2793 -2836 0
2791 2793 -2836 0
-2791 2793 2836 0
2791 -2793 2836 0
-2795 -2797 -2838 0
2795 2797 -2838 0
-2795 2797 2838 0
2795 -2797 2838 0
-2799 -2801 -2840 0
2799 2801 -2840 0
-2799 2801 2840 0
2799 -2801 2840 0
-2803 -2805 -2842 0
2803 2805 -2842 0
-2803 2805 2842 0
2803 -2805 2842 0
-2807 -2809 -2844 0
2807 2809 -2844 0
-2807 2809 2844 0
2807 -2809 2844 0
-2811 -2813 -2846 0
2811 2813 -2846 0
-2811 2813 2846 0
2811 -2813 2846 0
-2754 -2815 -2848 0
2754 2815 -2848 0
-2754 2815 2848 0
2754 -2815 2848 0
-2816 -2818 -2850 0
2816 2818 -2850 0
-2816 2818 2850 0
2816 -2818 2850 0
-2820 -2822 -2852 0
2820 2822 -2852 0
-2820 2822 2852 0
2820 -2822 2852 0
-2824 -2826 -2854 0
2824 2826 -2854 0
-2824 2826 2854 0
2824 -2826 2854 0
-2828 -2830 -2856 0
2828 2830 -2856 0
-2828 2830 2856 0
2828 -2830 2856 0
-2832 -2834 -2858 0
2832 2834 -2858 0
-2832 2834 2858 0
2832 -2834 2858 0
-2836 -2838 -2860 0
2836 2838 -2860 0
-2836 2838 2860 0
2836 -2838 2860 0
-2840 -2842 -2862 0
2840 2842 -2862 0
-2840 2842 2862 0
2840 -2842 2862 0
-2844 -2846 -2864 0
2844 2846 -2864 0
-2844 2846 2864 0
2844 -2846 2864 0
-2848 -2850 -2866 0
2848 2850 -2866 0
-2848 2850 2866 0
2848 -2850 2866 0
-2852 -2854 -2868 0
2852 2854 -2868 0
-2852 2854 2868 0
2852 -2854 2868 0
-2856 -2858 -2870 0
2856 2858 -2870 0
-2856 2858 2870 0
2856 -2858 2870 0
-2860 -2862 -2872 0
2860 2862 -2872 0
-2860 2862 2872 0
2860 -2862 2872 0
-2864 -2866 -2874 0
2864 2866 -2874 0
-2864 2866 2874 0
2864 -2866 2874 0
-2868 -2870 -2876 0
2868 2870 -2876 0
-2868 2870 2876 0
2868 -2870 2876 0
-2872 -2874 -2876 0
2872 2874 -2876 0
-2872 2874 2876 0
2872 -2874 2876 0
-2760 -2762 -2881 0
2760 2762 -2881 0
-2760 2762 2881 0
2760 -2762 2881 0
-2766 -2768 -2883 0
2766 2768 -2883 0
-2766 2768 2883 0
2766 -2768 2883 0
-2770 -2772 -2884 0
2770 2772 -2884 0
-2770 2772 2884 0
2770 -2772 2884 0
-2774 -2776 -2886 0
2774 2776 -2886 0
-2774 2776 2886 0
2774 -2776 2886 0
-2778 -2780 -2888 0
2778 2780 -2888 0
-2778 2780 2888 0
2778 -2780 2888 0
-2782 -2784 -2890 0
2782 2784 -2890 0
-2782 2784 2890 0
2782 -2784 2890 0
-2788 -2790 -2893 0
2788 2790 -2893 0
-2788 2790 2893 0
2788 -2790 2893 0
-2792 -2794 -2894 0
2792 2794 -2894 0
-2792 2794 2894 0
2792 -2794 2894 0
-2796 -2798 -2896 0
2796 2798 -2896 0
-2796 2798 2896 0
2796 -2798 2896 0
-2800 -2802 -2898 0
2800 2802 -2898 0
-2800 2802 2898 0
2800 -2802 2898 0
-2804 -2806 -2900 0
2804 2806 -2900 0
-2804 2806 2900 0
2804 -2806 2900 0
-2808 -2810 -2902 0
2808 2810 -2902 0
-2808 2810 2902 0
2808 -2810 2902 0
-2812 -2814 -2904 0
2812 2814 -2904 0
-2812 2814 2904 0
2812 -2814 2904 0
-2817 -2819 -2907 0
2817 2819 -2907 0
-2817 2819 2907 0
2817 -2819 2907 0
-2821 -2823 -2908 0
2821 2823 -2908 0
-2821 2823 2908 0
2821 -2823 2908 0
-2825 -2827 -2910 0
2825 2827 -2910 0
-2825 2827 2910 0
2825 -2827 2910 0
-2829 -2831 -2912 0
2829 2831 -2912 0
-2829 2831 2912 0
2829 -2831 2912 0
-2833 -2835 -2914 0
2833 2835 -2914 0
-2833 2835 2914 0
2833 -2835 2914 0
-2837 -2839 -2916 0
2837 2839 -2916 0
-2837 2839 2916 0
2837 -2839 2916 0
-2841 -2843 -2918 0
2841 2843 -2918 0
-2841 2843 2918 0
2841 -2843 2918 0
-2845 -2847 -2920 0
2845 2847 -2920 0
-2845 2847 2920 0
2845 -2847 2920 0
-2849 -2851 -2922 0
2849 2851 -2922 0
-2849 2851 2922 0
2849 -2851 2922 0
-2853 -2855 -2924 0
2853 2855 -2924 0
-2853 2855 2924 0
2853 -2855 2924 0
-2857 -2859 -2926 0
2857 2859 -2926 0
-2857 2859 2926 0
2857 -2859 2926 0
-2861 -2863 -2928 0
2861 2863 -2928 0
-2861 2863 2928 0
2861 -2863 2928 0
-2865 -2867 -2930 0
2865 2867 -2930 0
-2865 2867 2930 0
2865 -2867 2930 0
-2869 -2871 -2932 0
2869 2871 -2932 0
-2869 2871 2932 0
2869 -2871 2932 0
-2873 -2875 -2934 0
2873 2875 -2934 0
-2873 2875 2934 0
2873 -2875 2934 0
-2877 -2878 -2936 0
2877 2878 -2936 0
-2877 2878 2936 0
2877 -2878 2936 0
-2879 -2880 -2937 0
2879 2880 -2937 0
-2879 2880 2937 0
2879 -2880 2937 0
-2881 -2882 -2939 0
2881 2882 -2939 0
-2881 2882 2939 0
2881 -2882 2939 0
-2883 -2884 -2941 0
2883 2884 -2941 0
-2883 2884 2941 0
2883 -2884 2941 0
-2886 -2888 -2943 0
2886 2888 -2943 0
-2886 2888 2943 0
2886 -2888 2943 0
-2890 -2892 -2945 0
2890 2892 -2945 0
-2890 2892 2945 0
2890 -2892 2945 0
-2893 -2894 -2947 0
2893 2894 -2947 0
-2893 2894 2947 0
2893 -2894 2947 0
-2896 -2898 -2949 0
2896 2898 -2949 0
-2896 2898 2949 0
2896 -2898 2949 0
-2900 -2902 -2951 0
2900 2902 -2951 0
-2900 2902 2951 0
2900 -2902 2951 0
-2904 -2906 -2953 0
2904 2906 -2953 0
-2904 2906 2953 0
2904 -2906 2953 0
-2907 -2908 -2955 0
2907 2908 -2955 0
-2907 2908 2955 0
2907 -2908 2955 0
-2910 -2912 -2957 0
2910 2912 -2957 0
-2910 2912 2957 0
2910 -2912 2957 0
-2914 -2916 -2959 0
2914 2916 -2959 0
-2914 2916 2959 0
2914 -2916 2959 0
-2918 -2920 -2961 0
2918 2920 -2961 0
-2918 2920 2961 0
2918 -2920 2961 0
-2922 -2924 -2963 0
2922 2924 -2963 0
-2922 2924 2963 0
2922 -2924 2963 0
-2926 -2928 -2965 0
2926 2928 -2965 0
-2926 2928 2965 0
2926 -2928 2965 0
-2930 -2932 -2967 0
2930 2932 -2967 0
-2930 2932 2967 0
2930 -2932 2967 0
-2934 -2936 -2969 0
2934 2936 -2969 0
-2934 2936 2969 0
2934 -2936 2969 0
-2876 -2937 -2971 0
2876 2937 -2971 0
-2876 2937 2971 0
2876 -2937 2971 0
-2939 -2941 -2973 0
2939 2941 -2973 0
-2939 2941 2973 0
2939 -2941 2973 0
-2943 -2945 -2975 0
2943 2945 -2975 0
-2943 2945 2975 0
2943 -2945 2975 0
-2947 -2949 -2977 0
2947 2949 -2977 0
-2947 2949 2977 0
2947 -2949 2977 0
-2951 -2953 -2979 0
2951 2953 -2979 0
-2951 2953 2979 0
2951 -2953 2979 0
-2955 -2957 -2981 0
2955 2957 -2981 0
-2955 2957 2981 0
2955 -2957 2981 0
-2959 -2961 -2983 0
2959 2961 -2983 0
-2959 2961 2983 0
2959 -2961 2983 0
-2963 -2965 -2985 0
2963 2965 -2985 0
-2963 2965 2985 0
2963 -2965 2985 0
-2967 -2969 -2987 0
2967 2969 -2987 0
-2967 2969 2987 0
2967 -2969 2987 0
-2971 -2973 -2989 0
2971 2973 -2989 0
-2971 2973 2989 0
2971 -2973 2989 0
-2975 -2977 -2991 0
2975 2977 -2991 0
-2975 2977 2991 0
2975 -2977 2991 0
-2979 -2981 -2993 0
2979 2981 -2993 0
-2979 2981 2993 0
2979 -2981 2993 0
-2983 -2985 -2995 0
2983 2985 -2995 0
-2983 2985 2995 0
2983 -2985 2995 0
-2987 -2989 -2997 0
2987 2989 -2997 0
-2987 2989 2997 0
2987 -2989 2997 0
-2991 -2993 -2999 0
2991 2993 -2999 0
-2991 2993 2999 0
2991 -2993 2999 0
-2995 -2997 -2999 0
2995 2997 -2999 0
-2995 2997 2999 0
2995 -2997 2999 0
-2885 -2887 -3004 0
2885 2887 -3004 0
-2885 2887 3004 0
2885 -2887 3004 0
-2889 -2891 -3005 0
2889 2891 -3005 0
-2889 2891 3005 0
2889 -2891 3005 0
-2895 -2897 -3007 0
2895 2897 -3007 0
-2895 2897 3007 0
2895 -2897 3007 0
-2899 -2901 -3009 0
2899 2901 -3009 0
-2899 2901 3009 0
2899 -2901 3009 0
-2903 -2905 -3011 0
2903 2905 -3011 0
-2903 2905 3011 0
2903 -2905 3011 0
-2909 -2911 -3013 0
2909 2911 -3013 0
-2909 2911 3013 0
2909 -2911 3013 0
-2913 -2915 -3015 0
2913 2915 -3015 0
-2913 2915 3015 0
2913 -2915 3015 0
-2917 -2919 -3017 0
2917 2919 -3017 0
-2917 2919 3017 0
2917 -2919 3017 0
-2921 -2923 -3019 0
2921 2923 -3019 0
-2921 2923 3019 0
2921 -2923 3019 0
-2925 -2927 -3021 0
2925 2927 -3021 0
-2925 2927 3021 0
2925 -2927 3021 0
-2929 -2931 -3023 0
2929 2931 -3023 0
-2929 2931 3023 0
2929 -2931 3023 0
-2933 -2935 -3025 0
2933 2935 -3025 0
-2933 2935 3025 0
2933 -2935 3025 0
-2938 -2940 -3027 0
2938 2940 -3027 0
-2938 2940 3027 0
2938 -2940 3027 0
-2942 -2944 -3029 0
2942 2944 -3029 0
-2942 2944 3029 0
2942 -2944 3029 0
-2946 -2948 -3031 0
2946 2948 -3031 0
-2946 2948 3031 0
2946 -2948 3031 0
-2950 -2952 -3033 0
2950 2952 -3033 0
-2950 2952 3033 0
2950 -2952 3033 0
-2954 -2956 -3035 0
2954 2956 -3035 0
-2954 2956 3035 0
2954 -2956 3035 0
-2958 -2960 -3037 0
2958 2960 -3037 0
-2958 2960 3037 0
2958 -2960 3037 0
-2962 -2964 -3039 0
2962 2964 -3039 0
-2962 2964 3039 0
2962 -2964 3039 0
-2966 -2968 -3041 0
2966 2968 -3041 0
-2966 2968 3041 0
2966 -2968 3041 0
-2970 -2972 -3043 0
2970 2972 -3043 0
-2970 2972 3043 0
2970 -2972 3043 0
-2974 -2976 -3045 0
2974 2976 -3045 0
-2974 2976 3045 0
2974 -2976 3045 0
-2978 -2980 -3047 0
2978 2980 -3047 0
-2978 2980 3047 0
2978 -2980 3047 0
-2982 -2984 -3049 0
2982 2984 -3049 0
-2982 2984 3049 0
2982 -2984 3049 0
-2986 -2988 -3051 0
2986 2988 -3051 0
-2986 2988 3051 0
2986 -2988 3051 0
-2990 -2992 -3053 0
2990 2992 -3053 0
-2990 2992 3053 0
2990 -2992 3053 0
-2994 -2996 -3055 0
2994 2996 -3055 0
-2994 2996 3055 0
2994 -2996 3055 0
-2998 -3000 -3057 0
2998 3000 -3057 0
-2998 3000 3057 0
2998 -3000 3057 0
-2999 -3001 -3059 0
2999 3001 -3059 0
2999 -3001 3059 0
-2999 3001 3059 0
-3003 -3004 -3060 0
3003 3004 -3060 0
-3003 3004 3060 0
3003 -3004 3060 0
-3005 -3006 -3062 0
3005 3006 -3062 0
-3005 3006 3062 0
3005 -3006 3062 0
-3007 -3009 -3064 0
3007 3009 -3064 0
-3007 3009 3064 0
3007 -3009 3064 0
-3011 -3012 -3066 0
3011 3012 -3066 0
-3011 3012 3066 0
3011 -3012 3066 0
-3013 -3015 -3068 0
3013 3015 -3068 0
-3013 3015 3068 0
3013 -3015 3068 0
-3017 -3019 -3070 0
3017 3019 -3070 0
-3017 3019 3070 0
3017 -3019 3070 0
-3021 -3023 -3072 0
3021 3023 -3072 0
-3021 3023 3072 0
3021 -3023 3072 0
-3025 -3026 -3074 0
3025 3026 -3074 0
-3025 3026 3074 0
3025 -3026 3074 0
-3027 -3029 -3076 0
3027 3029 -3076 0
-3027 3029 3076 0
3027 -3029 3076 0
-3031 -3033 -3078 0
3031 3033 -3078 0
-3031 3033 3078 0
3031 -3033 3078 0
-3035 -3037 -3080 0
3035 3037 -3080 0
-3035 3037 3080 0
3035 -3037 3080 0
-3039 -3041 -3082 0
3039 3041 -3082 0
-3039 3041 3082 0
3039 -3041 3082 0
-3043 -3045 -3084 0
3043 3045 -3084 0
-3043 3045 3084 0
3043 -3045 3084 0
-3047 -3049 -3086 0
3047 3049 -3086 0
-3047 3049 3086 0
3047 -3049 3086 0
-3051 -3053 -3088 0
3051 3053 -3088 0
-3051 3053 3088 0
3051 -3053 3088 0
-3055 -3057 -3090 0
3055 3057 -3090 0
-3055 3057 3090 0
3055 -3057 3090 0
-3002 -3059 -3092 0
3002 3059 -3092 0
3002 -3059 3092 0
-3002 3059 3092 0
-3060 -3062 -3094 0
3060 3062 -3094 0
-3060 3062 3094 0
3060 -3062 3094 0
-3064 -3066 -3096 0
3064 3066 -3096 0
-3064 3066 3096 0
3064 -3066 3096 0
-3068 -3070 -3098 0
3068 3070 -3098 0
-3068 3070 3098 0
3068 -3070 3098 0
-3072 -3074 -3100 0
3072 3074 -3100 0
-3072 3074 3100 0
3072 -3074 3100 0
-3076 -3078 -3102 0
3076 3078 -3102 0
-3076 3078 3102 0
3076 -3078 3102 0
-3080 -3082 -3104 0
3080 3082 -3104 0
-3080 3082 3104 0
3080 -3082 3104 0
-3084 -3086 -3106 0
3084 3086 -3106 0
-3084 3086 3106 0
3084 -3086 3106 0
-3088 -3090 -3108 0
3088 3090 -3108 0
-3088 3090 3108 0
3088 -3090 3108 0
-3092 -3094 -3110 0
3092 3094 -3110 0
-3092 3094 3110 0
3092 -3094 3110 0
-3096 -3098 -3112 0
3096 3098 -3112 0
-3096 3098 3112 0
3096 -3098 3112 0
-3100 -3102 -3114 0
3100 3102 -3114 0
-3100 3102 3114 0
3100 -3102 3114 0
-3104 -3106 -3116 0
3104 3106 -3116 0
-3104 3106 3116 0
3104 -3106 3116 0
-3108 -3110 -3118 0
3108 3110 -3118 0
-3108 3110 3118 0
3108 -3110 3118 0
-3112 -3114 -3120 0
3112 3114 -3120 0
-3112 3114 3120 0
3112 -3114 3120 0
-3116 -3118 -3120 0
3116 3118 -3120 0
-3116 3118 3120 0
3116 -3118 3120 0
-3008 -3010 -3125 0
3008 3010 -3125 0
-3008 3010 3125 0
3008 -3010 3125 0
-3014 -3016 -3127 0
3014 3016 -3127 0
-3014 3016 3127 0
3014 -3016 3127 0
-3018 -3020 -3128 0
3018 3020 -3128 0
-3018 3020 3128 0
3018 -3020 3128 0
-3022 -3024 -3130 0
3022 3024 -3130 0
-3022 3024 3130 0
3022 -3024 3130 0
-3028 -3030 -3133 0
3028 3030 -3133 0
-3028 3030 3133 0
3028 -3030 3133 0
-3032 -3034 -3134 0
3032 3034 -3134 0
-3032 3034 3134 0
3032 -3034 3134 0
-3036 -3038 -3136 0
3036 3038 -3136 0
-3036 3038 3136 0
3036 -3038 3136 0
-3040 -3042 -3138 0
3040 3042 -3138 0
-3040 3042 3138 0
3040 -3042 3138 0
-3044 -3046 -3140 0
3044 3046 -3140 0
-3044 3046 3140 0
3044 -3046 3140 0
-3048 -3050 -3142 0
3048 3050 -3142 0
-3048 3050 3142 0
3048 -3050 3142 0
-3052 -3054 -3144 0
3052 3054 -3144 0
-3052 3054 3144 0
3052 -3054 3144 0
-3056 -3058 -3146 0
3056 3058 -3146 0
-3056 3058 3146 0
3056 -3058 3146 0
-3061 -3063 -3148 0
3061 3063 -3148 0
-3061 3063 3148 0
3061 -3063 3148 0
-3065 -3067 -3150 0
3065 3067 -3150 0
-3065 3067 3150 0
3065 -3067 3150 0
-3069 -3071 -3152 0
3069 3071 -3152 0
-3069 3071 3152 0
3069 -3071 3152 0
-3073 -3075 -3154 0
3073 3075 -3154 0
-3073 3075 3154 0
3073 -3075 3154 0
-3077 -3079 -3156 0
3077 3079 -3156 0
-3077 3079 3156 0
3077 -3079 3156 0
-3081 -3083 -3158 0
3081 3083 -3158 0
-3081 3083 3158 0
3081 -3083 3158 0
-3085 -3087 -3160 0
3085 3087 -3160 0
-3085 3087 3160 0
3085 -3087 3160 0
-3089 -3091 -3162 0
3089 3091 -3162 0
-3089 3091 3162 0
3089 -3091 3162 0
-3093 -3095 -3164 0
3093 3095 -3164 0
-3093 3095 3164 0
3093 -3095 3164 0
-3097 -3099 -3166 0
3097 3099 -3166 0
-3097 3099 3166 0
3097 -3099 3166 0
-3101 -3103 -3168 0
3101 3103 -3168 0
-3101 3103 3168 0
3101 -3103 3168 0
-3105 -3107 -3170 0
3105 3107 -3170 0
-3105 3107 3170 0
3105 -3107 3170 0
-3109 -3111 -3172 0
3109 3111 -3172 0
-3109 3111 3172 0
3109 -3111 3172 0
-3113 -3115 -3174 0
3113 3115 -3174 0
-3113 3115 3174 0
3113 -3115 3174 0
-3117 -3119 -3176 0
3117 3119 -3176 0
-3117 3119 3176 0
3117 -3119 3176 0
-3121 -3122 -3178 0
3121 3122 -3178 0
-3121 3122 3178 0
3121 -3122 3178 0
-3123 -3124 -3180 0
3123 3124 -3180 0
-3123 3124 3180 0
3123 -3124 3180 0
-3125 -3126 -3181 0
3125 3126 -3181 0
-3125 3126 3181 0
3125 -3126 3181 0
-3127 -3128 -3183 0
3127 3128 -3183 0
-3127 3128 3183 0
3127 -3128 3183 0
-3130 -3132 -3185 0
3130 3132 -3185 0
-3130 3132 3185 0
3130 -3132 3185 0
-3133 -3134 -3187 0
3133 3134 -3187 0
-3133 3134 3187 0
3133 -3134 3187 0
-3136 -3138 -3189 0
3136 3138 -3189 0
-3136 3138 3189 0
3136 -3138 3189 0
-3140 -3142 -3191 0
3140 3142 -3191 0
-3140 3142 3191 0
3140 -3142 3191 0
-3144 -3146 -3193 0
3144 3146 -3193 0
-3144 3146 3193 0
3144 -3146 3193 0
-3147 -3148 -3195 0
3147 3148 -3195 0
-3147 3148 3195 0
3147 -3148 3195 0
-3150 -3152 -3197 0
3150 3152 -3197 0
-3150 3152 3197 0
3150 -3152 3197 0
-3154 -3156 -3199 0
3154 3156 -3199 0
-3154 3156 3199 0
3154 -3156 3199 0
-3158 -3160 -3201 0
3158 3160 -3201 0
-3158 3160 3201 0
3158 -3160 3201 0
-3162 -3164 -3203 0
3162 3164 -3203 0
-3162 3164 3203 0
3162 -3164 3203 0
-3166 -3168 -3205 0
3166 3168 -3205 0
-3166 3168 3205 0
3166 -3168 3205 0
-3170 -3172 -3207 0
3170 3172 -3207 0
-3170 3172 3207 0
3170 -3172 3207 0
-3174 -3176 -3209 0
3174 3176 -3209 0
-3174 3176 3209 0
3174 -3176 3209 0
-3120 -3178 -3211 0
3120 3178 -3211 0
3120 -3178 3211 0
-3120 3178 3211 0
-3180 -3181 -3213 0
3180 3181 -3213 0
-3180 3181 3213 0
3180 -3181 3213 0
-3183 -3185 -3215 0
3183 3185 -3215 0
-3183 3185 3215 0
3183 -3185 3215 0
-3187 -3189 -3217 0
3187 3189 -3217 0
-3187 3189 3217 0
3187 -3189 3217 0
-3191 -3193 -3219 0
3191 3193 -3219 0
-3191 3193 3219 0
3191 -3193 3219 0
-3195 -3197 -3221 0
3195 3197 -3221 0
-3195 3197 3221 0
3195 -3197 3221 0
-3199 -3201 -3223 0
3199 3201 -3223 0
-3199 3201 3223 0
3199 -3201 3223 0
-3203 -3205 -3225 0
3203 3205 -3225 0
-3203 3205 3225 0
3203 -3205 3225 0
-3207 -3209 -3227 0
3207 3209 -3227 0
-3207 3209 3227 0
3207 -3209 3227 0
-3211 -3213 -3229 0
3211 3213 -3229 0
-3211 3213 3229 0
3211 -3213 3229 0
-3215 -3217 -3231 0
3215 3217 -3231 0
-3215 3217 3231 0
3215 -3217 3231 0
-3219 -3221 -3233 0
3219 3221 -3233 0
-3219 3221 3233 0
3219 -3221 3233 0
-3223 -3225 -3235 0
3223 3225 -3235 0
-3223 3225 3235 0
3223 -3225 3235 0
-3227 -3229 -3237 0
3227 3229 -3237 0
-3227 3229 3237 0
3227 -3229 3237 0
-3231 -3233 -3239 0
3231 3233 -3239 0
-3231 3233 3239 0
3231 -3233 3239 0
-3235 -3237 -3239 0
3235 3237 -3239 0
-3235 3237 3239 0
3235 -3237 3239 0
-3129 -3131 -3243 0
3129 3131 -3243 0
-3129 3131 3243 0
3129 -3131 3243 0
-3135 -3137 -3245 0
3135 3137 -3245 0
-3135 3137 3245 0
3135 -3137 3245 0
-3139 -3141 -3246 0
3139 3141 -3246 0
-3139 3141 3246 0
3139 -3141 3246 0
-3143 -3145 -3248 0
3143 3145 -3248 0
-3143 3145 3248 0
3143 -3145 3248 0
-3149 -3151 -3251 0
3149 3151 -3251 0
-3149 3151 3251 0
3149 -3151 3251 0
-3153 -3155 -3252 0
3153 3155 -3252 0
-3153 3155 3252 0
3153 -3155 3252 0
-3157 -3159 -3254 0
3157 3159 -3254 0
-3157 3159 3254 0
3157 -3159 3254 0
-3161 -3163 -3256 0
3161 3163 -3256 0
-3161 3163 3256 0
3161 -3163 3256 0
-3165 -3167 -3258 0
3165 3167 -3258 0
-3165 3167 3258 0
3165 -3167 3258 0
-3169 -3171 -3260 0
3169 3171 -3260 0
-3169 3171 3260 0
3169 -3171 3260 0
-3173 -3175 -3262 0
3173 3175 -3262 0
-3173 3175 3262 0
3173 -3175 3262 0
-3177 -3179 -3264 0
3177 3179 -3264 0
-3177 3179 3264 0
3177 -3179 3264 0
-3182 -3184 -3266 0
3182 3184 -3266 0
-3182 3184 3266 0
3182 -3184 3266 0
-3186 -3188 -3268 0
3186 3188 -3268 0
-3186 3188 3268 0
3186 -3188 3268 0
-3190 -3192 -3270 0
3190 3192 -3270 0
-3190 3192 3270 0
3190 -3192 3270 0
-3194 -3196 -3272 0
3194 3196 -3272 0
-3194 3196 3272 0
3194 -3196 3272 0
-3198 -3200 -3274 0
3198 3200 -3274 0
-3198 3200 3274 0
3198 -3200 3274 0
-3202 -3204 -3276 0
3202 3204 -3276 0
-3202 3204 3276 0
3202 -3204 3276 0
-3206 -3208 -3278 0
3206 3208 -3278 0
-3206 3208 3278 0
3206 -3208 3278 0
-3210 -3212 -3280 0
3210 3212 -3280 0
-3210 3212 3280 0
3210 -3212 3280 0
-3214 -3216 -3282 0
3214 3216 -3282 0
-3214 3216 3282 0
3214 -3216 3282 0
-3218 -3220 -3284 0
3218 3220 -3284 0
-3218 3220 3284 0
3218 -3220 3284 0
-3222 -3224 -3286 0
3222 3224 -3286 0
-3222 3224 3286 0
3222 -3224 3286 0
-3226 -3228 -3288 0
3226 3228 -3288 0
-3226 3228 3288 0
3226 -3228 3288 0
-3230 -3232 -3290 0
3230 3232 -3290 0
-3230 3232 3290 0
3230 -3232 3290 0
-3234 -3236 -3292 0
3234 3236 -3292 0
-3234 3236 3292 0
3234 -3236 3292 0
-3238 -3240 -3294 0
3238 3240 -3294 0
-3238 3240 3294 0
3238 -3240 3294 0
-3239 -3241 -3296 0
3239 3241 -3296 0
3239 -3241 3296 0
-3239 3241 3296 0
-3242 -3243 -3299 0
3242 3243 -3299 0
-3242 3243 3299 0
3242 -3243 3299 0
-3244 -3245 -3300 0
3244 3245 -3300 0
-3244 3245 3300 0
3244 -3245 3300 0
-3246 -3248 -3302 0
3246 3248 -3302 0
-3246 3248 3302 0
3246 -3248 3302 0
-3250 -3251 -3304 0
3250 3251 -3304 0
-3250 3251 3304 0
3250 -3251 3304 0
-3252 -3254 -3306 0
3252 3254 -3306 0
-3252 3254 3306 0
3252 -3254 3306 0
-3256 -3258 -3308 0
3256 3258 -3308 0
-3256 3258 3308 0
3256 -3258 3308 0
-3260 -3262 -3310 0
3260 3262 -3310 0
-3260 3262 3310 0
3260 -3262 3310 0
-3264 -3265 -3312 0
3264 3265 -3312 0
-3264 3265 3312 0
3264 -3265 3312 0
-3266 -3268 -3314 0
3266 3268 -3314 0
-3266 3268 3314 0
3266 -3268 3314 0
-3270 -3272 -3316 0
3270 3272 -3316 0
-3270 3272 3316 0
3270 -3272 3316 0
-3274 -3276 -3318 0
3274 3276 -3318 0
-3274 3276 3318 0
3274 -3276 3318 0
-3278 -3280 -3320 0
3278 3280 -3320 0
-3278 3280 3320 0
3278 -3280 3320 0
-3282 -3284 -3322 0
3282 3284 -3322 0
-3282 3284 3322 0
3282 -3284 3322 0
-3286 -3288 -3324 0
3286 3288 -3324 0
-3286 3288 3324 0
3286 -3288 3324 0
-3290 -3292 -3326 0
3290 3292 -3326 0
-3290 3292 3326 0
3290 -3292 3326 0
-3294 -3296 -3328 0
3294 3296 -3328 0
-3294 3296 3328 0
3294 -3296 3328 0
-3298 -3299 -3330 0
3298 3299 -3330 0
-3298 3299 3330 0
3298 -3299 3330 0
-3300 -3302 -3332 0
3300 3302 -3332 0
-3300 3302 3332 0
3300 -3302 3332 0
-3304 -3306 -3334 0
3304 3306 -3334 0
-3304 3306 3334 0
3304 -3306 3334 0
-3308 -3310 -3336 0
3308 3310 -3336 0
-3308 3310 3336 0
3308 -3310 3336 0
-3312 -3314 -3338 0
3312 3314 -3338 0
-3312 3314 3338 0
3312 -3314 3338 0
-3316 -3318 -3340 0
3316 3318 -3340 0
-3316 3318 3340 0
3316 -3318 3340 0
-3320 -3322 -3342 0
3320 3322 -3342 0
-3320 3322 3342 0
3320 -3322 3342 0
-3324 -3326 -3344 0
3324 3326 -3344 0
-3324 3326 3344 0
3324 -3326 3344 0
-3328 -3330 -3346 0
3328 3330 -3346 0
-3328 3330 3346 0
3328 -3330 3346 0
-3332 -3334 -3348 0
3332 3334 -3348 0
-3332 3334 3348 0
3332 -3334 3348 0
-3336 -3338 -3350 0
3336 3338 -3350 0
-3336 3338 3350 0
3336 -3338 3350 0
-3340 -3342 -3352 0
3340 3342 -3352 0
-3340 3342 3352 0
3340 -3342 3352 0
-3344 -3346 -3354 0
3344 3346 -3354 0
-3344 3346 3354 0
3344 -3346 3354 0
-3348 -3350 -3356 0
3348 3350 -3356 0
-3348 3350 3356 0
3348 -3350 3356 0
-3352 -3354 -3356 0
3352 3354 -3356 0
-3352 3354 3356 0
3352 -3354 3356 0
-3247 -3249 -3361 0
3247 3249 -3361 0
-3247 3249 3361 0
3247 -3249 3361 0
-3253 -3255 -3363 0
3253 3255 -3363 0
-3253 3255 3363 0
3253 -3255 3363 0
-3257 -3259 -3364 0
3257 3259 -3364 0
-3257 3259 3364 0
3257 -3259 3364 0
-3261 -3263 -3366 0
3261 3263 -3366 0
-3261 3263 3366 0
3261 -3263 3366 0
-3267 -3269 -3369 0
3267 3269 -3369 0
-3267 3269 3369 0
3267 -3269 3369 0
-3271 -3273 -3370 0
3271 3273 -3370 0
-3271 3273 3370 0
3271 -3273 3370 0
-3275 -3277 -3372 0
3275 3277 -3372 0
-3275 3277 3372 0
3275 -3277 3372 0
-3279 -3281 -3374 0
3279 3281 -3374 0
-3279 3281 3374 0
3279 -3281 3374 0
-3283 -3285 -3376 0
3283 3285 -3376 0
-3283 3285 3376 0
3283 -3285 3376 0
-3287 -3289 -3378 0
3287 3289 -3378 0
-3287 3289 3378 0
3287 -3289 3378 0
-3291 -3293 -3380 0
3291 3293 -3380 0
-3291 3293 3380 0
3291 -3293 3380 0
-3295 -3297 -3382 0
3295 3297 -3382 0
-3295 3297 3382 0
3295 -3297 3382 0
-3301 -3303 -3384 0
3301 3303 -3384 0
-3301 3303 3384 0
3301 -3303 3384 0
-3305 -3307 -3386 0
3305 3307 -3386 0
-3305 3307 3386 0
3305 -3307 3386 0
-3309 -3311 -3388 0
3309 3311 -3388 0
-3309 3311 3388 0
3309 -3311 3388 0
-3313 -3315 -3390 0
3313 3315 -3390 0
-3313 3315 3390 0
3313 -3315 3390 0
-3317 -3319 -3392 0
3317 3319 -3392 0
-3317 3319 3392 0
3317 -3319 3392 0
-3321 -3323 -3394 0
3321 3323 -3394 0
-3321 3323 3394 0
3321 -3323 3394 0
-3325 -3327 -3396 0
3325 3327 -3396 0
-3325 3327 3396 0
3325 -3327 3396 0
-3329 -3331 -3398 0
3329 3331 -3398 0
-3329 3331 3398 0
3329 -3331 3398 0
-3333 -3335 -3400 0
3333 3335 -3400 0
-3333 3335 3400 0
3333 -3335 3400 0
-3337 -3339 -3402 0
3337 3339 -3402 0
-3337 3339 3402 0
3337 -3339 3402 0
-3341 -3343 -3404 0
3341 3343 -3404 0
-3341 3343 3404 0
3341 -3343 3404 0
-3345 -3347 -3406 0
3345 3347 -3406 0
-3345 3347 3406 0
3345 -3347 3406 0
-3349 -3351 -3408 0
3349 3351 -3408 0
-3349 3351 3408 0
3349 -3351 3408 0
-3353 -3355 -3410 0
3353 3355 -3410 0
-3353 3355 3410 0
3353 -3355 3410 0
-3357 -3358 -3412 0
3357 3358 -3412 0
-3357 3358 3412 0
3357 -3358 3412 0
-3359 -3360 -3413 0
3359 3360 -3413 0
-3359 3360 3413 0
3359 -3360 3413 0
-3361 -3362 -3415 0
3361 3362 -3415 0
-3361 3362 3415 0
3361 -3362 3415 0
-3363 -3364 -3417 0
3363 3364 -3417 0
-3363 3364 3417 0
3363 -3364 3417 0
-3366 -3368 -3419 0
3366 3368 -3419 0
-3366 3368 3419 0
3366 -3368 3419 0
-3369 -3370 -3421 0
3369 3370 -3421 0
-3369 3370 3421 0
3369 -3370 3421 0
-3372 -3374 -3423 0
3372 3374 -3423 0
-3372 3374 3423 0
3372 -3374 3423 0
-3376 -3378 -3425 0
3376 3378 -3425 0
-3376 3378 3425 0
3376 -3378 3425 0
-3380 -3382 -3427 0
3380 3382 -3427 0
-3380 3382 3427 0
3380 -3382 3427 0
-3383 -3384 -3429 0
3383 3384 -3429 0
-3383 3384 3429 0
3383 -3384 3429 0
-3386 -3388 -3431 0
3386 3388 -3431 0
-3386 3388 3431 0
3386 -3388 3431 0
-3390 -3392 -3433 0
3390 3392 -3433 0
-3390 3392 3433 0
3390 -3392 3433 0
-3394 -3396 -3435 0
3394 3396 -3435 0
-3394 3396 3435 0
3394 -3396 3435 0
-3398 -3400 -3437 0
3398 3400 -3437 0
-3398 3400 3437 0
3398 -3400 3437 0
-3402 -3404 -3439 0
3402 3404 -3439 0
-3402 3404 3439 0
3402 -3404 3439 0
-3406 -3408 -3441 0
3406 3408 -3441 0
-3406 3408 3441 0
3406 -3408 3441 0
-3410 -3412 -3443 0
3410 3412 -3443 0
-3410 3412 3443 0
3410 -3412 3443 0
-3356 -3413 -3445 0
3356 3413 -3445 0
-3356 3413 3445 0
3356 -3413 3445 0
-3415 -3417 -3447 0
3415 3417 -3447 0
-3415 3417 3447 0
3415 -3417 3447 0
-3419 -3421 -3449 0
3419 3421 -3449 0
-3419 3421 3449 0
3419 -3421 3449 0
-3423 -3425 -3451 0
3423 3425 -3451 0
-3423 3425 3451 0
3423 -3425 3451 0
-3427 -3429 -3453 0
3427 3429 -3453 0
-3427 3429 3453 0
3427 -3429 3453 0
-3431 -3433 -3455 0
3431 3433 -3455 0
-3431 3433 3455 0
3431 -3433 3455 0
-3435 -3437 -3457 0
3435 3437 -3457 0
-3435 3437 3457 0
3435 -3437 3457 0
-3439 -3441 -3459 0
3439 3441 -3459 0
-3439 3441 3459 0
3439 -3441 3459 0
-3443 -3445 -3461 0
3443 3445 -3461 0
-3443 3445 3461 0
3443 -3445 3461 0
-3447 -3449 -3463 0
3447 3449 -3463 0
-3447 3449 3463 0
3447 -3449 3463 0
-3451 -3453 -3465 0
3451 3453 -3465 0
-3451 3453 3465 0
3451 -3453 3465 0
-3455 -3457 -3467 0
3455 3457 -3467 0
-3455 3457 3467 0
3455 -3457 3467 0
-3459 -3461 -3469 0
3459 3461 -3469 0
-3459 3461 3469 0
3459 -3461 3469 0
-3463 -3465 -3471 0
3463 3465 -3471 0
-3463 3465 3471 0
3463 -3465 3471 0
-3467 -3469 -3471 0
3467 3469 -3471 0
-3467 3469 3471 0
3467 -3469 3471 0
-3365 -3367 -3476 0
3365 3367 -3476 0
-3365 3367 3476 0
3365 -3367 3476 0
-3371 -3373 -3478 0
3371 3373 -3478 0
-3371 3373 3478 0
3371 -3373 3478 0
-3375 -3377 -3479 0
3375 3377 -3479 0
-3375 3377 3479 0
3375 -3377 3479 0
-3379 -3381 -3481 0
3379 3381 -3481 0
-3379 3381 3481 0
3379 -3381 3481 0
-3385 -3387 -3484 0
3385 3387 -3484 0
-3385 3387 3484 0
3385 -3387 3484 0
-3389 -3391 -3485 0
3389 3391 -3485 0
-3389 3391 3485 0
3389 -3391 3485 0
-3393 -3395 -3487 0
3393 3395 -3487 0
-3393 3395 3487 0
3393 -3395 3487 0
-3397 -3399 -3489 0
3397 3399 -3489 0
-3397 3399 3489 0
3397 -3399 3489 0
-3401 -3403 -3491 0
3401 3403 -3491 0
-3401 3403 3491 0
3401 -3403 3491 0
-3405 -3407 -3493 0
3405 3407 -3493 0
-3405 3407 3493 0
3405 -3407 3493 0
-3409 -3411 -3495 0
3409 3411 -3495 0
-3409 3411 3495 0
3409 -3411 3495 0
-3414 -3416 -3498 0
3414 3416 -3498 0
-3414 3416 3498 0
3414 -3416 3498 0
-3418 -3420 -3499 0
3418 3420 -3499 0
-3418 3420 3499 0
3418 -3420 3499 0
-3422 -3424 -3501 0
3422 3424 -3501 0
-3422 3424 3501 0
3422 -3424 3501 0
-3426 -3428 -3503 0
3426 3428 -3503 0
-3426 3428 3503 0
3426 -3428 3503 0
-3430 -3432 -3505 0
3430 3432 -3505 0
-3430 3432 3505 0
3430 -3432 3505 0
-3434 -3436 -3507 0
3434 3436 -3507 0
-3434 3436 3507 0
3434 -3436 3507 0
-3438 -3440 -3509 0
3438 3440 -3509 0
-3438 3440 3509 0
3438 -3440 3509 0
-3442 -3444 -3511 0
3442 3444 -3511 0
-3442 3444 3511 0
3442 -3444 3511 0
-3446 -3448 -3513 0
3446 3448 -3513 0
-3446 3448 3513 0
3446 -3448 3513 0
-3450 -3452 -3515 0
3450 3452 -3515 0
-3450 3452 3515 0
3450 -3452 3515 0
-3454 -3456 -3517 0
3454 3456 -3517 0
-3454 3456 3517 0
3454 -3456 3517 0
-3458 -3460 -3519 0
3458 3460 -3519 0
-3458 3460 3519 0
3458 -3460 3519 0
-3462 -3464 -3521 0
3462 3464 -3521 0
-3462 3464 3521 0
3462 -3464 3521 0
-3466 -3468 -3523 0
3466 3468 -3523 0
-3466 3468 3523 0
3466 -3468 3523 0
-3470 -3472 -3525 0
3470 3472 -3525 0
-3470 3472 3525 0
3470 -3472 3525 0
-3471 -3473 -3527 0
3471 3473 -3527 0
3471 -3473 3527 0
-3471 3473 3527 0
-3475 -3476 -3528 0
3475 3476 -3528 0
-3475 3476 3528 0
3475 -3476 3528 0
-3477 -3478 -3530 0
3477 3478 -3530 0
-3477 3478 3530 0
3477 -3478 3530 0
-3479 -3481 -3532 0
3479 3481 -3532 0
-3479 3481 3532 0
3479 -3481 3532 0
-3483 -3484 -3534 0
3483 3484 -3534 0
-3483 3484 3534 0
3483 -3484 3534 0
-3485 -3487 -3536 0
3485 3487 -3536 0
-3485 3487 3536 0
3485 -3487 3536 0
-3489 -3491 -3538 0
3489 3491 -3538 0
-3489 3491 3538 0
3489 -3491 3538 0
-3493 -3495 -3540 0
3493 3495 -3540 0
-3493 3495 3540 0
3493 -3495 3540 0
-3497 -3498 -3542 0
3497 3498 -3542 0
-3497 3498 3542 0
3497 -3498 3542 0
-3499 -3501 -3544 0
3499 3501 -3544 0
-3499 3501 3544 0
3499 -3501 3544 0
-3503 -3505 -3546 0
3503 3505 -3546 0
-3503 3505 3546 0
3503 -3505 3546 0
-3507 -3509 -3548 0
3507 3509 -3548 0
-3507 3509 3548 0
3507 -3509 3548 0
-3511 -3513 -3550 0
3511 3513 -3550 0
-3511 3513 3550 0
3511 -3513 3550 0
-3515 -3517 -3552 0
3515 3517 -3552 0
-3515 3517 3552 0
3515 -3517 3552 0
-3519 -3521 -3554 0
3519 3521 -3554 0
-3519 3521 3554 0
3519 -3521 3554 0
-3523 -3525 -3556 0
3523 3525 -3556 0
-3523 3525 3556 0
3523 -3525 3556 0
-3474 -3527 -3558 0
3474 3527 -3558 0
3474 -3527 3558 0
-3474 3527 3558 0
-3528 -3530 -3560 0
3528 3530 -3560 0
-3528 3530 3560 0
3528 -3530 3560 0
-3532 -3534 -3562 0
3532 3534 -3562 0
-3532 3534 3562 0
3532 -3534 3562 0
-3536 -3538 -3564 0
3536 3538 -3564 0
-3536 3538 3564 0
3536 -3538 3564 0
-3540 -3542 -3566 0
3540 3542 -3566 0
-3540 3542 3566 0
3540 -3542 3566 0
-3544 -3546 -3568 0
3544 3546 -3568 0
-3544 3546 3568 0
3544 -3546 3568 0
-3548 -3550 -3570 0
3548 3550 -3570 0
-3548 3550 3570 0
3548 -3550 3570 0
-3552 -3554 -3572 0
3552 3554 -3572 0
-3552 3554 3572 0
3552 -3554 3572 0
-3556 -3558 -3574 0
3556 3558 -3574 0
-3556 3558 3574 0
3556 -3558 3574 0
-3560 -3562 -3576 0
3560 3562 -3576 0
-3560 3562 3576 0
3560 -3562 3576 0
-3564 -3566 -3578 0
3564 3566 -3578 0
-3564 3566 3578 0
3564 -3566 3578 0
-3568 -3570 -3580 0
3568 3570 -3580 0
-3568 3570 3580 0
3568 -3570 3580 0
-3572 -3574 -3582 0
3572 3574 -3582 0
-3572 3574 3582 0
3572 -3574 3582 0
-3576 -3578 -3584 0
3576 3578 -3584 0
-3576 3578 3584 0
3576 -3578 3584 0
-3580 -3582 -3584 0
3580 3582 -3584 0
-3580 3582 3584 0
3580 -3582 3584 0
-3480 -3482 -3589 0
3480 3482 -3589 0
-3480 3482 3589 0
3480 -3482 3589 0
-3486 -3488 -3591 0
3486 3488 -3591 0
-3486 3488 3591 0
3486 -3488 3591 0
-3490 -3492 -3592 0
3490 3492 -3592 0
-3490 3492 3592 0
3490 -3492 3592 0
-3494 -3496 -3594 0
3494 3496 -3594 0
-3494 3496 3594 0
3494 -3496 3594 0
-3500 -3502 -3597 0
3500 3502 -3597 0
-3500 3502 3597 0
3500 -3502 3597 0
-3504 -3506 -3598 0
3504 3506 -3598 0
-3504 3506 3598 0
3504 -3506 3598 0
-3508 -3510 -3600 0
3508 3510 -3600 0
-3508 3510 3600 0
3508 -3510 3600 0
-3512 -3514 -3602 0
3512 3514 -3602 0
-3512 3514 3602 0
3512 -3514 3602 0
-3516 -3518 -3604 0
3516 3518 -3604 0
-3516 3518 3604 0
3516 -3518 3604 0
-3520 -3522 -3606 0
3520 3522 -3606 0
-3520 3522 3606 0
3520 -3522 3606 0
-3524 -3526 -3608 0
3524 3526 -3608 0
-3524 3526 3608 0
3524 -3526 3608 0
-3529 -3531 -3611 0
3529 3531 -3611 0
-3529 3531 3611 0
3529 -3531 3611 0
-3533 -3535 -3612 0
3533 3535 -3612 0
-3533 3535 3612 0
3533 -3535 3612 0
-3537 -3539 -3614 0
3537 3539 -3614 0
-3537 3539 3614 0
3537 -3539 3614 0
-3541 -3543 -3616 0
3541 3543 -3616 0
-3541 3543 3616 0
3541 -3543 3616 0
-3545 -3547 -3618 0
3545 3547 -3618 0
-3545 3547 3618 0
3545 -3547 3618 0
-3549 -3551 -3620 0
3549 3551 -3620 0
-3549 3551 3620 0
3549 -3551 3620 0
-3553 -3555 -3622 0
3553 3555 -3622 0
-3553 3555 3622 0
3553 -3555 3622 0
-3557 -3559 -3624 0
3557 3559 -3624 0
-3557 3559 3624 0
3557 -3559 3624 0
-3561 -3563 -3626 0
3561 3563 -3626 0
-3561 3563 3626 0
3561 -3563 3626 0
-3565 -3567 -3628 0
3565 3567 -3628 0
-3565 3567 3628 0
3565 -3567 3628 0
-3569 -3571 -3630 0
3569 3571 -3630 0
-3569 3571 3630 0
3569 -3571 3630 0
-3573 -3575 -3632 0
3573 3575 -3632 0
-3573 3575 3632 0
3573 -3575 3632 0
-3577 -3579 -3634 0
3577 3579 -3634 0
-3577 3579 3634 0
3577 -3579 3634 0
-3581 -3583 -3636 0
3581 3583 -3636 0
-3581 3583 3636 0
3581 -3583 3636 0
-3585 -3586 -3638 0
3585 3586 -3638 0
-3585 3586 3638 0
3585 -3586 3638 0
-3587 -3588 -3640 0
3587 3588 -3640 0
-3587 3588 3640 0
3587 -3588 3640 0
-3589 -3590 -3641 0
3589 3590 -3641 0
-3589 3590 3641 0
3589 -3590 3641 0
-3591 -3592 -3643 0
3591 3592 -3643 0
-3591 3592 3643 0
3591 -3592 3643 0
-3594 -3596 -3645 0
3594 3596 -3645 0
-3594 3596 3645 0
3594 -3596 3645 0
-3597 -3598 -3647 0
3597 3598 -3647 0
-3597 3598 3647 0
3597 -3598 3647 0
-3600 -3602 -3649 0
3600 3602 -3649 0
-3600 3602 3649 0
3600 -3602 3649 0
-3604 -3606 -3651 0
3604 3606 -3651 0
-3604 3606 3651 0
3604 -3606 3651 0
-3608 -3610 -3653 0
3608 3610 -3653 0
-3608 3610 3653 0
3608 -3610 3653 0
-3611 -3612 -3655 0
3611 3612 -3655 0
-3611 3612 3655 0
3611 -3612 3655 0
-3614 -3616 -3657 0
3614 3616 -3657 0
-3614 3616 3657 0
3614 -3616 3657 0
-3618 -3620 -3659 0
3618 3620 -3659 0
-3618 3620 3659 0
3618 -3620 3659 0
-3622 -3624 -3661 0
3622 3624 -3661 0
-3622 3624 3661 0
3622 -3624 3661 0
-3626 -3628 -3663 0
3626 3628 -3663 0
-3626 3628 3663 0
3626 -3628 3663 0
-3630 -3632 -3665 0
3630 3632 -3665 0
-3630 3632 3665 0
3630 -3632 3665 0
-3634 -3636 -3667 0
3634 3636 -3667 0
-3634 3636 3667 0
3634 -3636 3667 0
-3584 -3638 -3669 0
3584 3638 -3669 0
3584 -3638 3669 0
-3584 3638 3669 0
-3640 -3641 -3671 0
3640 3641 -3671 0
-3640 3641 3671 0
3640 -3641 3671 0
-3643 -3645 -3673 0
3643 3645 -3673 0
-3643 3645 3673 0
3643 -3645 3673 0
-3647 -3649 -3675 0
3647 3649 -3675 0
-3647 3649 3675 0
3647 -3649 3675 0
-3651 -3653 -3677 0
3651 3653 -3677 0
-3651 3653 3677 0
3651 -3653 3677 0
-3655 -3657 -3679 0
3655 3657 -3679 0
-3655 3657 3679 0
3655 -3657 3679 0
-3659 -3661 -3681 0
3659 3661 -3681 0
-3659 3661 3681 0
3659 -3661 3681 0
-3663 -3665 -3683 0
3663 3665 -3683 0
-3663 3665 3683 0
3663 -3665 3683 0
-3667 -3669 -3685 0
3667 3669 -3685 0
-3667 3669 3685 0
3667 -3669 3685 0
-3671 -3673 -3687 0
3671 3673 -3687 0
-3671 3673 3687 0
3671 -3673 3687 0
-3675 -3677 -3689 0
3675 3677 -3689 0
-3675 3677 3689 0
3675 -3677 3689 0
-3679 -3681 -3691 0
3679 3681 -3691 0
-3679 3681 3691 0
3679 -3681 3691 0
-3683 -3685 -3693 0
3683 3685 -3693 0
-3683 3685 3693 0
3683 -3685 3693 0
-3687 -3689 -3695 0
3687 3689 -3695 0
-3687 3689 3695 0
3687 -3689 3695 0
-3691 -3693 -3695 0
3691 3693 -3695 0
-3691 3693 3695 0
3691 -3693 3695 0
-3593 -3595 -3700 0
3593 3595 -3700 0
-3593 3595 3700 0
3593 -3595 3700 0
-3599 -3601 -3702 0
3599 3601 -3702 0
-3599 3601 3702 0
3599 -3601 3702 0
-3603 -3605 -3703 0
3603 3605 -3703 0
-3603 3605 3703 0
3603 -3605 3703 0
-3607 -3609 -3705 0
3607 3609 -3705 0
-3607 3609 3705 0
3607 -3609 3705 0
-3613 -3615 -3708 0
3613 3615 -3708 0
-3613 3615 3708 0
3613 -3615 3708 0
-3617 -3619 -3709 0
3617 3619 -3709 0
-3617 3619 3709 0
3617 -3619 3709 0
-3621 -3623 -3711 0
3621 3623 -3711 0
-3621 3623 3711 0
3621 -3623 3711 0
-3625 -3627 -3713 0
3625 3627 -3713 0
-3625 3627 3713 0
3625 -3627 3713 0
-3629 -3631 -3715 0
3629 3631 -3715 0
-3629 3631 3715 0
3629 -3631 3715 0
-3633 -3635 -3717 0
3633 3635 -3717 0
-3633 3635 3717 0
3633 -3635 3717 0
-3637 -3639 -3719 0
3637 3639 -3719 0
-3637 3639 3719 0
3637 -3639 3719 0
-3642 -3644 -3722 0
3642 3644 -3722 0
-3642 3644 3722 0
3642 -3644 3722 0
-3646 -3648 -3723 0
3646 3648 -3723 0
-3646 3648 3723 0
3646 -3648 3723 0
-3650 -3652 -3725 0
3650 3652 -3725 0
-3650 3652 3725 0
3650 -3652 3725 0
-3654 -3656 -3727 0
3654 3656 -3727 0
-3654 3656 3727 0
3654 -3656 3727 0
-3658 -3660 -3729 0
3658 3660 -3729 0
-3658 3660 3729 0
3658 -3660 3729 0
-3662 -3664 -3731 0
3662 3664 -3731 0
-3662 3664 3731 0
3662 -3664 3731 0
-3666 -3668 -3733 0
3666 3668 -3733 0
-3666 3668 3733 0
3666 -3668 3733 0
-3670 -3672 -3735 0
3670 3672 -3735 0
-3670 3672 3735 0
3670 -3672 3735 0
-3674 -3676 -3737 0
3674 3676 -3737 0
-3674 3676 3737 0
3674 -3676 3737 0
-3678 -3680 -3739 0
3678 3680 -3739 0
-3678 3680 3739 0
3678 -3680 3739 0
-3682 -3684 -3741 0
3682 3684 -3741 0
-3682 3684 3741 0
3682 -3684 3741 0
-3686 -3688 -3743 0
3686 3688 -3743 0
-3686 3688 3743 0
3686 -3688 3743 0
-3690 -3692 -3745 0
3690 3692 -3745 0
-3690 3692 3745 0
3690 -3692 3745 0
-3694 -3696 -3747 0
3694 3696 -3747 0
-3694 3696 3747 0
3694 -3696 3747 0
-3695 -3697 -3749 0
3695 3697 -3749 0
3695 -3697 3749 0
-3695 3697 3749 0
-3699 -3700 -3751 0
3699 3700 -3751 0
-3699 3700 3751 0
3699 -3700 3751 0
-3701 -3702 -3752 0
3701 3702 -3752 0
-3701 3702 3752 0
3701 -3702 3752 0
-3703 -3705 -3754 0
3703 3705 -3754 0
-3703 3705 3754 0
3703 -3705 3754 0
-3707 -3708 -3756 0
3707 3708 -3756 0
-3707 3708 3756 0
3707 -3708 3756 0
-3709 -3711 -3758 0
3709 3711 -3758 0
-3709 3711 3758 0
3709 -3711 3758 0
-3713 -3715 -3760 0
3713 3715 -3760 0
-3713 3715 3760 0
3713 -3715 3760 0
-3717 -3719 -3762 0
3717 3719 -3762 0
-3717 3719 3762 0
3717 -3719 3762 0
-3721 -3722 -3764 0
3721 3722 -3764 0
-3721 3722 3764 0
3721 -3722 3764 0
-3723 -3725 -3766 0
3723 3725 -3766 0
-3723 3725 3766 0
3723 -3725 3766 0
-3727 -3729 -3768 0
3727 3729 -3768 0
-3727 3729 3768 0
3727 -3729 3768 0
-3731 -3733 -3770 0
3731 3733 -3770 0
-3731 3733 3770 0
3731 -3733 3770 0
-3735 -3737 -3772 0
3735 3737 -3772 0
-3735 3737 3772 0
3735 -3737 3772 0
-3739 -3741 -3774 0
3739 3741 -3774 0
-3739 3741 3774 0
3739 -3741 3774 0
-3743 -3745 -3776 0
3743 3745 -3776 0
-3743 3745 3776 0
3743 -3745 3776 0
-3747 -3749 -3778 0
3747 3749 -3778 0
-3747 3749 3778 0
3747 -3749 3778 0
-3698 -3751 -3780 0
3698 3751 -3780 0
-3698 3751 3780 0
3698 -3751 3780 0
-3752 -3754 -3782 0
3752 3754 -3782 0
-3752 3754 3782 0
3752 -3754 3782 0
-3756 -3758 -3784 0
3756 3758 -3784 0
-3756 3758 3784 0
3756 -3758 3784 0
-3760 -3762 -3786 0
3760 3762 -3786 0
-3760 3762 3786 0
3760 -3762 3786 0
-3764 -3766 -3788 0
3764 3766 -3788 0
-3764 3766 3788 0
3764 -3766 3788 0
-3768 -3770 -3790 0
3768 3770 -3790 0
-3768 3770 3790 0
3768 -3770 3790 0
-3772 -3774 -3792 0
3772 3774 -3792 0
-3772 3774 3792 0
3772 -3774 3792 0
-3776 -3778 -3794 0
3776 3778 -3794 0
-3776 3778 3794 0
3776 -3778 3794 0
-3780 -3782 -3796 0
3780 3782 -3796 0
-3780 3782 3796 0
3780 -3782 3796 0
-3784 -3786 -3798 0
3784 3786 -3798 0
-3784 3786 3798 0
3784 -3786 3798 0
-3788 -3790 -3800 0
3788 3790 -3800 0
-3788 3790 3800 0
3788 -3790 3800 0
-3792 -3794 -3802 0
3792 3794 -3802 0
-3792 3794 3802 0
3792 -3794 3802 0
-3796 -3798 -3804 0
3796 3798 -3804 0
-3796 3798 3804 0
3796 -3798 3804 0
-3800 -3802 -3804 0
3800 3802 -3804 0
-3800 3802 3804 0
3800 -3802 3804 0
-3704 -3706 -3809 0
3704 3706 -3809 0
-3704 3706 3809 0
3704 -3706 3809 0
-3710 -3712 -3811 0
3710 3712 -3811 0
-3710 3712 3811 0
3710 -3712 3811 0
-3714 -3716 -3812 0
3714 3716 -3812 0
-3714 3716 3812 0
3714 -3716 3812 0
-3718 -3720 -3814 0
3718 3720 -3814 0
-3718 3720 3814 0
3718 -3720 3814 0
-3724 -3726 -3817 0
3724 3726 -3817 0
-3724 3726 3817 0
3724 -3726 3817 0
-3728 -3730 -3818 0
3728 3730 -3818 0
-3728 3730 3818 0
3728 -3730 3818 0
-3732 -3734 -3820 0
3732 3734 -3820 0
-3732 3734 3820 0
3732 -3734 3820 0
-3736 -3738 -3822 0
3736 3738 -3822 0
-3736 3738 3822 0
3736 -3738 3822 0
-3740 -3742 -3824 0
3740 3742 -3824 0
-3740 3742 3824 0
3740 -3742 3824 0
-3744 -3746 -3826 0
3744 3746 -3826 0
-3744 3746 3826 0
3744 -3746 3826 0
-3748 -3750 -3828 0
3748 3750 -3828 0
-3748 3750 3828 0
3748 -3750 3828 0
-3753 -3755 -3831 0
3753 3755 -3831 0
-3753 3755 3831 0
3753 -3755 3831 0
-3757 -3759 -3832 0
3757 3759 -3832 0
-3757 3759 3832 0
3757 -3759 3832 0
-3761 -3763 -3834 0
3761 3763 -3834 0
-3761 3763 3834 0
3761 -3763 3834 0
-3765 -3767 -3836 0
3765 3767 -3836 0
-3765 3767 3836 0
3765 -3767 3836 0
-3769 -3771 -3838 0
3769 3771 -3838 0
-3769 3771 3838 0
3769 -3771 3838 0
-3773 -3775 -3840 0
3773 3775 -3840 0
-3773 3775 3840 0
3773 -3775 3840 0
-3777 -3779 -3842 0
3777 3779 -3842 0
-3777 3779 3842 0
3777 -3779 3842 0
-3781 -3783 -3844 0
3781 3783 -3844 0
-3781 3783 3844 0
3781 -3783 3844 0
-3785 -3787 -3846 0
3785 3787 -3846 0
-3785 3787 3846 0
3785 -3787 3846 0
-3789 -3791 -3848 0
3789 3791 -3848 0
-3789 3791 3848 0
3789 -3791 3848 0
-3793 -3795 -3850 0
3793 3795 -3850 0
-3793 3795 3850 0
3793 -3795 3850 0
-3797 -3799 -3852 0
3797 3799 -3852 0
-3797 3799 3852 0
3797 -3799 3852 0
-3801 -3803 -3854 0
3801 3803 -3854 0
-3801 3803 3854 0
3801 -3803 3854 0
-3805 -3806 -3856 0
3805 3806 -3856 0
-3805 3806 3856 0
3805 -3806 3856 0
-3807 -3808 -3857 0
3807 3808 -3857 0
-3807 3808 3857 0
3807 -3808 3857 0
-3809 -3810 -3859 0
3809 3810 -3859 0
-3809 3810 3859 0
3809 -3810 3859 0
-3811 -3812 -3861 0
3811 3812 -3861 0
-3811 3812 3861 0
3811 -3812 3861 0
-3814 -3816 -3863 0
3814 3816 -3863 0
-3814 3816 3863 0
3814 -3816 3863 0
-3817 -3818 -3865 0
3817 3818 -3865 0
-3817 3818 3865 0
3817 -3818 3865 0
-3820 -3822 -3867 0
3820 3822 -3867 0
-3820 3822 3867 0
3820 -3822 3867 0
-3824 -3826 -3869 0
3824 3826 -3869 0
-3824 3826 3869 0
3824 -3826 3869 0
-3828 -3830 -3871 0
3828 3830 -3871 0
-3828 3830 3871 0
3828 -3830 3871 0
-3831 -3832 -3873 0
3831 3832 -3873 0
-3831 3832 3873 0
3831 -3832 3873 0
-3834 -3836 -3875 0
3834 3836 -3875 0
-3834 3836 3875 0
3834 -3836 3875 0
-3838 -3840 -3877 0
3838 3840 -3877 0
-3838 3840 3877 0
3838 -3840 3877 0
-3842 -3844 -3879 0
3842 3844 -3879 0
-3842 3844 3879 0
3842 -3844 3879 0
-3846 -3848 -3881 0
3846 3848 -3881 0
-3846 3848 3881 0
3846 -3848 3881 0
-3850 -3852 -3883 0
3850 3852 -3883 0
-3850 3852 3883 0
3850 -3852 3883 0
-3854 -3856 -3885 0
3854 3856 -3885 0
-3854 3856 3885 0
3854 -3856 3885 0
-3804 -3857 -3887 0
3804 3857 -3887 0
-3804 3857 3887 0
3804 -3857 3887 0
-3859 -3861 -3889 0
3859 3861 -3889 0
-3859 3861 3889 0
3859 -3861 3889 0
-3863 -3865 -3891 0
3863 3865 -3891 0
-3863 3865 3891 0
3863 -3865 3891 0
-3867 -3869 -3893 0
3867 3869 -3893 0
-3867 3869 3893 0
3867 -3869 3893 0
-3871 -3873 -3895 0
3871 3873 -3895 0
-3871 3873 3895 0
3871 -3873 3895 0
-3875 -3877 -3897 0
3875 3877 -3897 0
-3875 3877 3897 0
3875 -3877 3897 0
-3879 -3881 -3899 0
3879 3881 -3899 0
-3879 3881 3899 0
3879 -3881 3899 0
-3883 -3885 -3901 0
3883 3885 -3901 0
-3883 3885 3901 0
3883 -3885 3901 0
-3887 -3889 -3903 0
3887 3889 -3903 0
-3887 3889 3903 0
3887 -3889 3903 0
-3891 -3893 -3905 0
3891 3893 -3905 0
-3891 3893 3905 0
3891 -3893 3905 0
-3895 -3897 -3907 0
3895 3897 -3907 0
-3895 3897 3907 0
3895 -3897 3907 0
-3899 -3901 -3909 0
3899 3901 -3909 0
-3899 3901 3909 0
3899 -3901 3909 0
-3903 -3905 -3911 0
3903 3905 -3911 0
-3903 3905 3911 0
3903 -3905 3911 0
-3907 -3909 -3911 0
3907 3909 -3911 0
-3907 3909 3911 0
3907 -3909 3911 0
-3813 -3815 -3915 0
3813 3815 -3915 0
-3813 3815 3915 0
3813 -3815 3915 0
-3819 -3821 -3917 0
3819 3821 -3917 0
-3819 3821 3917 0
3819 -3821 3917 0
-3823 -3825 -3918 0
3823 3825 -3918 0
-3823 3825 3918 0
3823 -3825 3918 0
-3827 -3829 -3920 0
3827 3829 -3920 0
-3827 3829 3920 0
3827 -3829 3920 0
-3833 -3835 -3923 0
3833 3835 -3923 0
-3833 3835 3923 0
3833 -3835 3923 0
-3837 -3839 -3924 0
3837 3839 -3924 0
-3837 3839 3924 0
3837 -3839 3924 0
-3841 -3843 -3926 0
3841 3843 -3926 0
-3841 3843 3926 0
3841 -3843 3926 0
-3845 -3847 -3928 0
3845 3847 -3928 0
-3845 3847 3928 0
3845 -3847 3928 0
-3849 -3851 -3930 0
3849 3851 -3930 0
-3849 3851 3930 0
3849 -3851 3930 0
-3853 -3855 -3932 0
3853 3855 -3932 0
-3853 3855 3932 0
3853 -3855 3932 0
-3858 -3860 -3934 0
3858 3860 -3934 0
-3858 3860 3934 0
3858 -3860 3934 0
-3862 -3864 -3936 0
3862 3864 -3936 0
-3862 3864 3936 0
3862 -3864 3936 0
-3866 -3868 -3938 0
3866 3868 -3938 0
-3866 3868 3938 0
3866 -3868 3938 0
-3870 -3872 -3940 0
3870 3872 -3940 0
-3870 3872 3940 0
3870 -3872 3940 0
-3874 -3876 -3942 0
3874 3876 -3942 0
-3874 3876 3942 0
3874 -3876 3942 0
-3878 -3880 -3944 0
3878 3880 -3944 0
-3878 3880 3944 0
3878 -3880 3944 0
-3882 -3884 -3946 0
3882 3884 -3946 0
-3882 3884 3946 0
3882 -3884 3946 0
-3886 -3888 -3948 0
3886 3888 -3948 0
-3886 3888 3948 0
3886 -3888 3948 0
-3890 -3892 -3950 0
3890 3892 -3950 0
-3890 3892 3950 0
3890 -3892 3950 0
-3894 -3896 -3952 0
3894 3896 -3952 0
-3894 3896 3952 0
3894 -3896 3952 0
-3898 -3900 -3954 0
3898 3900 -3954 0
-3898 3900 3954 0
3898 -3900 3954 0
-3902 -3904 -3956 0
3902 3904 -3956 0
-3902 3904 3956 0
3902 -3904 3956 0
-3906 -3908 -3958 0
3906 3908 -3958 0
-3906 3908 3958 0
3906 -3908 3958 0
-3910 -3912 -3960 0
3910 3912 -3960 0
-3910 3912 3960 0
3910 -3912 3960 0
-3911 -3913 -3962 0
3911 3913 -3962 0
3911 -3913 3962 0
-3911 3913 3962 0
-3914 -3915 -3964 0
3914 3915 -3964 0
-3914 3915 3964 0
3914 -3915 3964 0
-3916 -3917 -3966 0
3916 3917 -3966 0
-3916 3917 3966 0
3916 -3917 3966 0
-3918 -3920 -3968 0
3918 3920 -3968 0
-3918 3920 3968 0
3918 -3920 3968 0
-3922 -3923 -3970 0
3922 3923 -3970 0
-3922 3923 3970 0
3922 -3923 3970 0
-3924 -3926 -3972 0
3924 3926 -3972 0
-3924 3926 3972 0
3924 -3926 3972 0
-3928 -3930 -3974 0
3928 3930 -3974 0
-3928 3930 3974 0
3928 -3930 3974 0
-3932 -3933 -3976 0
3932 3933 -3976 0
-3932 3933 3976 0
3932 -3933 3976 0
-3934 -3936 -3978 0
3934 3936 -3978 0
-3934 3936 3978 0
3934 -3936 3978 0
-3938 -3940 -3980 0
3938 3940 -3980 0
-3938 3940 3980 0
3938 -3940 3980 0
-3942 -3944 -3982 0
3942 3944 -3982 0
-3942 3944 3982 0
3942 -3944 3982 0
-3946 -3948 -3984 0
3946 3948 -3984 0
-3946 3948 3984 0
3946 -3948 3984 0
-3950 -3952 -3986 0
3950 3952 -3986 0
-3950 3952 3986 0
3950 -3952 3986 0
-3954 -3956 -3988 0
3954 3956 -3988 0
-3954 3956 3988 0
3954 -3956 3988 0
-3958 -3960 -3990 0
3958 3960 -3990 0
-3958 3960 3990 0
3958 -3960 3990 0
-3962 -3963 -3992 0
3962 3963 -3992 0
-3962 3963 3992 0
3962 -3963 3992 0
-3964 -3966 -3994 0
3964 3966 -3994 0
-3964 3966 3994 0
3964 -3966 3994 0
-3968 -3970 -3996 0
3968 3970 -3996 0
-3968 3970 3996 0
3968 -3970 3996 0
-3972 -3974 -3998 0
3972 3974 -3998 0
-3972 3974 3998 0
3972 -3974 3998 0
-3976 -3978 -4000 0
3976 3978 -4000 0
-3976 3978 4000 0
3976 -3978 4000 0
-3980 -3982 -4002 0
3980 3982 -4002 0
-3980 3982 4002 0
3980 -3982 4002 0
-3984 -3986 -4004 0
3984 3986 -4004 0
-3984 3986 4004 0
3984 -3986 4004 0
-3988 -3990 -4006 0
3988 3990 -4006 0
-3988 3990 4006 0
3988 -3990 4006 0
-3992 -3994 -4008 0
3992 3994 -4008 0
-3992 3994 4008 0
3992 -3994 4008 0
-3996 -3998 -4010 0
3996 3998 -4010 0
-3996 3998 4010 0
3996 -3998 4010 0
-4000 -4002 -4012 0
4000 4002 -4012 0
-4000 4002 4012 0
4000 -4002 4012 0
-4004 -4006 -4014 0
4004 4006 -4014 0
-4004 4006 4014 0
4004 -4006 4014 0
-4008 -4010 -4016 0
4008 4010 -4016 0
-4008 4010 4016 0
4008 -4010 4016 0
-4012 -4014 -4016 0
4012 4014 -4016 0
-4012 4014 4016 0
4012 -4014 4016 0
-3919 -3921 -4021 0
3919 3921 -4021 0
-3919 3921 4021 0
3919 -3921 4021 0
-3925 -3927 -4023 0
3925 3927 -4023 0
-3925 3927 4023 0
3925 -3927 4023 0
-3929 -3931 -4024 0
3929 3931 -4024 0
-3929 3931 4024 0
3929 -3931 4024 0
-3935 -3937 -4026 0
3935 3937 -4026 0
-3935 3937 4026 0
3935 -3937 4026 0
-3939 -3941 -4028 0
3939 3941 -4028 0
-3939 3941 4028 0
3939 -3941 4028 0
-3943 -3945 -4030 0
3943 3945 -4030 0
-3943 3945 4030 0
3943 -3945 4030 0
-3947 -3949 -4032 0
3947 3949 -4032 0
-3947 3949 4032 0
3947 -3949 4032 0
-3951 -3953 -4034 0
3951 3953 -4034 0
-3951 3953 4034 0
3951 -3953 4034 0
-3955 -3957 -4036 0
3955 3957 -4036 0
-3955 3957 4036 0
3955 -3957 4036 0
-3959 -3961 -4038 0
3959 3961 -4038 0
-3959 3961 4038 0
3959 -3961 4038 0
-3965 -3967 -4040 0
3965 3967 -4040 0
-3965 3967 4040 0
3965 -3967 4040 0
-3969 -3971 -4042 0
3969 3971 -4042 0
-3969 3971 4042 0
3969 -3971 4042 0
-3973 -3975 -4044 0
3973 3975 -4044 0
-3973 3975 4044 0
3973 -3975 4044 0
-3977 -3979 -4046 0
3977 3979 -4046 0
-3977 3979 4046 0
3977 -3979 4046 0
-3981 -3983 -4048 0
3981 3983 -4048 0
-3981 3983 4048 0
3981 -3983 4048 0
-3985 -3987 -4050 0
3985 3987 -4050 0
-3985 3987 4050 0
3985 -3987 4050 0
-3989 -3991 -4052 0
3989 3991 -4052 0
-3989 3991 4052 0
3989 -3991 4052 0
-3993 -3995 -4054 0
3993 3995 -4054 0
-3993 3995 4054 0
3993 -3995 4054 0
-3997 -3999 -4056 0
3997 3999 -4056 0
-3997 3999 4056 0
3997 -3999 4056 0
-4001 -4003 -4058 0
4001 4003 -4058 0
-4001 4003 4058 0
4001 -4003 4058 0
-4005 -4007 -4060 0
4005 4007 -4060 0
-4005 4007 4060 0
4005 -4007 4060 0
-4009 -4011 -4062 0
4009 4011 -4062 0
-4009 4011 4062 0
4009 -4011 4062 0
-4013 -4015 -4064 0
4013 4015 -4064 0
-4013 4015 4064 0
4013 -4015 4064 0
-4017 -4018 -4066 0
4017 4018 -4066 0
-4017 4018 4066 0
4017 -4018 4066 0
-4019 -4020 -4068 0
4019 4020 -4068 0
-4019 4020 4068 0
4019 -4020 4068 0
-4021 -4022 -4069 0
4021 4022 -4069 0
-4021 4022 4069 0
4021 -4022 4069 0
-4023 -4024 -4071 0
4023 4024 -4071 0
-4023 4024 4071 0
4023 -4024 4071 0
-4025 -4026 -4073 0
4025 4026 -4073 0
-4025 4026 4073 0
4025 -4026 4073 0
-4028 -4030 -4075 0
4028 4030 -4075 0
-4028 4030 4075 0
4028 -4030 4075 0
-4032 -4034 -4077 0
4032 4034 -4077 0
-4032 4034 4077 0
4032 -4034 4077 0
-4036 -4038 -4079 0
4036 4038 -4079 0
-4036 4038 4079 0
4036 -4038 4079 0
-4039 -4040 -4081 0
4039 4040 -4081 0
-4039 4040 4081 0
4039 -4040 4081 0
-4042 -4044 -4083 0
4042 4044 -4083 0
-4042 4044 4083 0
4042 -4044 4083 0
-4046 -4048 -4085 0
4046 4048 -4085 0
-4046 4048 4085 0
4046 -4048 4085 0
-4050 -4052 -4087 0
4050 4052 -4087 0
-4050 4052 4087 0
4050 -4052 4087 0
-4054 -4056 -4089 0
4054 4056 -4089 0
-4054 4056 4089 0
4054 -4056 4089 0
-4058 -4060 -4091 0
4058 4060 -4091 0
-4058 4060 4091 0
4058 -4060 4091 0
-4062 -4064 -4093 0
4062 4064 -4093 0
-4062 4064 4093 0
4062 -4064 4093 0
-4016 -4066 -4095 0
4016 4066 -4095 0
4016 -4066 4095 0
-4016 4066 4095 0
-4068 -4069 -4097 0
4068 4069 -4097 0
-4068 4069 4097 0
4068 -4069 4097 0
-4071 -4073 -4099 0
4071 4073 -4099 0
-4071 4073 4099 0
4071 -4073 4099 0
-4075 -4077 -4101 0
4075 4077 -4101 0
-4075 4077 4101 0
4075 -4077 4101 0
-4079 -4081 -4103 0
4079 4081 -4103 0
-4079 4081 4103 0
4079 -4081 4103 0
-4083 -4085 -4105 0
4083 4085 -4105 0
-4083 4085 4105 0
4083 -4085 4105 0
-4087 -4089 -4107 0
4087 4089 -4107 0
-4087 4089 4107 0
4087 -4089 4107 0
-4091 -4093 -4109 0
4091 4093 -4109 0
-4091 4093 4109 0
4091 -4093 4109 0
-4095 -4097 -4111 0
4095 4097 -4111 0
-4095 4097 4111 0
4095 -4097 4111 0
-4099 -4101 -4113 0
4099 4101 -4113 0
-4099 4101 4113 0
4099 -4101 4113 0
-4103 -4105 -4115 0
4103 4105 -4115 0
-4103 4105 4115 0
4103 -4105 4115 0
-4107 -4109 -4117 0
4107 4109 -4117 0
-4107 4109 4117 0
4107 -4109 4117 0
-4111 -4113 -4119 0
4111 4113 -4119 0
-4111 4113 4119 0
4111 -4113 4119 0
-4115 -4117 -4119 0
4115 4117 -4119 0
-4115 4117 4119 0
4115 -4117 4119 0
-4027 -4029 -4125 0
4027 4029 -4125 0
-4027 4029 4125 0
4027 -4029 4125 0
-4031 -4033 -4127 0
4031 4033 -4127 0
-4031 4033 4127 0
4031 -4033 4127 0
-4035 -4037 -4129 0
4035 4037 -4129 0
-4035 4037 4129 0
4035 -4037 4129 0
-4041 -4043 -4131 0
4041 4043 -4131 0
-4041 4043 4131 0
4041 -4043 4131 0
-4045 -4047 -4133 0
4045 4047 -4133 0
-4045 4047 4133 0
4045 -4047 4133 0
-4049 -4051 -4135 0
4049 4051 -4135 0
-4049 4051 4135 0
4049 -4051 4135 0
-4053 -4055 -4137 0
4053 4055 -4137 0
-4053 4055 4137 0
4053 -4055 4137 0
-4057 -4059 -4139 0
4057 4059 -4139 0
-4057 4059 4139 0
4057 -4059 4139 0
-4061 -4063 -4141 0
4061 4063 -4141 0
-4061 4063 4141 0
4061 -4063 4141 0
-4065 -4067 -4143 0
4065 4067 -4143 0
-4065 4067 4143 0
4065 -4067 4143 0
-4070 -4072 -4145 0
4070 4072 -4145 0
-4070 4072 4145 0
4070 -4072 4145 0
-4074 -4076 -4147 0
4074 4076 -4147 0
-4074 4076 4147 0
4074 -4076 4147 0
-4078 -4080 -4149 0
4078 4080 -4149 0
-4078 4080 4149 0
4078 -4080 4149 0
-4082 -4084 -4151 0
4082 4084 -4151 0
-4082 4084 4151 0
4082 -4084 4151 0
-4086 -4088 -4153 0
4086 4088 -4153 0
-4086 4088 4153 0
4086 -4088 4153 0
-4090 -4092 -4155 0
4090 4092 -4155 0
-4090 4092 4155 0
4090 -4092 4155 0
-4094 -4096 -4157 0
4094 4096 -4157 0
-4094 4096 4157 0
4094 -4096 4157 0
-4098 -4100 -4159 0
4098 4100 -4159 0
-4098 4100 4159 0
4098 -4100 4159 0
-4102 -4104 -4161 0
4102 4104 -4161 0
-4102 4104 4161 0
4102 -4104 4161 0
-4106 -4108 -4163 0
4106 4108 -4163 0
-4106 4108 4163 0
4106 -4108 4163 0
-4110 -4112 -4165 0
4110 4112 -4165 0
-4110 4112 4165 0
4110 -4112 4165 0
-4114 -4116 -4167 0
4114 4116 -4167 0
-4114 4116 4167 0
4114 -4116 4167 0
-4118 -4120 -4169 0
4118 4120 -4169 0
-4118 4120 4169 0
4118 -4120 4169 0
-4119 -4121 -4171 0
4119 4121 -4171 0
4119 -4121 4171 0
-4119 4121 4171 0
-4123 -4124 -4173 0
4123 4124 -4173 0
-4123 4124 4173 0
4123 -4124 4173 0
-4125 -4127 -4174 0
4125 4127 -4174 0
-4125 4127 4174 0
4125 -4127 4174 0
-4129 -4130 -4176 0
4129 4130 -4176 0
-4129 4130 4176 0
4129 -4130 4176 0
-4131 -4133 -4178 0
4131 4133 -4178 0
-4131 4133 4178 0
4131 -4133 4178 0
-4135 -4137 -4180 0
4135 4137 -4180 0
-4135 4137 4180 0
4135 -4137 4180 0
-4139 -4141 -4182 0
4139 4141 -4182 0
-4139 4141 4182 0
4139 -4141 4182 0
-4143 -4144 -4184 0
4143 4144 -4184 0
-4143 4144 4184 0
4143 -4144 4184 0
-4145 -4147 -4186 0
4145 4147 -4186 0
-4145 4147 4186 0
4145 -4147 4186 0
-4149 -4151 -4188 0
4149 4151 -4188 0
-4149 4151 4188 0
4149 -4151 4188 0
-4153 -4155 -4190 0
4153 4155 -4190 0
-4153 4155 4190 0
4153 -4155 4190 0
-4157 -4159 -4192 0
4157 4159 -4192 0
-4157 4159 4192 0
4157 -4159 4192 0
-4161 -4163 -4194 0
4161 4163 -4194 0
-4161 4163 4194 0
4161 -4163 4194 0
-4165 -4167 -4196 0
4165 4167 -4196 0
-4165 4167 4196 0
4165 -4167 4196 0
-4169 -4171 -4198 0
4169 4171 -4198 0
-4169 4171 4198 0
4169 -4171 4198 0
-4122 -4173 -4200 0
4122 4173 -4200 0
-4122 4173 4200 0
4122 -4173 4200 0
-4174 -4176 -4202 0
4174 4176 -4202 0
-4174 4176 4202 0
4174 -4176 4202 0
-4178 -4180 -4204 0
4178 4180 -4204 0
-4178 4180 4204 0
4178 -4180 4204 0
-4182 -4184 -4206 0
4182 4184 -4206 0
-4182 4184 4206 0
4182 -4184 4206 0
-4186 -4188 -4208 0
4186 4188 -4208 0
-4186 4188 4208 0
4186 -4188 4208 0
-4190 -4192 -4210 0
4190 4192 -4210 0
-4190 4192 4210 0
4190 -4192 4210 0
-4194 -4196 -4212 0
4194 4196 -4212 0
-4194 4196 4212 0
4194 -4196 4212 0
-4198 -4200 -4214 0
4198 4200 -4214 0
-4198 4200 4214 0
4198 -4200 4214 0
-4202 -4204 -4216 0
4202 4204 -4216 0
-4202 4204 4216 0
4202 -4204 4216 0
-4206 -4208 -4218 0
4206 4208 -4218 0
-4206 4208 4218 0
4206 -4208 4218 0
-4210 -4212 -4220 0
4210 4212 -4220 0
-4210 4212 4220 0
4210 -4212 4220 0
-4214 -4216 -4222 0
4214 4216 -4222 0
-4214 4216 4222 0
4214 -4216 4222 0
-4218 -4220 -4222 0
4218 4220 -4222 0
-4218 4220 4222 0
4218 -4220 4222 0
-4126 -4128 -4271 0
4126 4128 -4271 0
-4126 4128 4271 0
4126 -4128 4271 0
-4132 -4134 -4226 0
4132 4134 -4226 0
-4132 4134 4226 0
4132 -4134 4226 0
-4136 -4138 -4228 0
4136 4138 -4228 0
-4136 4138 4228 0
4136 -4138 4228 0
-4140 -4142 -4230 0
4140 4142 -4230 0
-4140 4142 4230 0
4140 -4142 4230 0
-4146 -4148 -4232 0
4146 4148 -4232 0
-4146 4148 4232 0
4146 -4148 4232 0
-4150 -4152 -4234 0
4150 4152 -4234 0
-4150 4152 4234 0
4150 -4152 4234 0
-4154 -4156 -4236 0
4154 4156 -4236 0
-4154 4156 4236 0
4154 -4156 4236 0
-4158 -4160 -4238 0
4158 4160 -4238 0
-4158 4160 4238 0
4158 -4160 4238 0
-4162 -4164 -4240 0
4162 4164 -4240 0
-4162 4164 4240 0
4162 -4164 4240 0
-4166 -4168 -4242 0
4166 4168 -4242 0
-4166 4168 4242 0
4166 -4168 4242 0
-4170 -4172 -4244 0
4170 4172 -4244 0
-4170 4172 4244 0
4170 -4172 4244 0
-4175 -4177 -4246 0
4175 4177 -4246 0
-4175 4177 4246 0
4175 -4177 4246 0
-4179 -4181 -4248 0
4179 4181 -4248 0
-4179 4181 4248 0
4179 -4181 4248 0
-4183 -4185 -4250 0
4183 4185 -4250 0
-4183 4185 4250 0
4183 -4185 4250 0
-4187 -4189 -4252 0
4187 4189 -4252 0
-4187 4189 4252 0
4187 -4189 4252 0
-4191 -4193 -4254 0
4191 4193 -4254 0
-4191 4193 4254 0
4191 -4193 4254 0
-4195 -4197 -4256 0
4195 4197 -4256 0
-4195 4197 4256 0
4195 -4197 4256 0
-4199 -4201 -4258 0
4199 4201 -4258 0
-4199 4201 4258 0
4199 -4201 4258 0
-4203 -4205 -4260 0
4203 4205 -4260 0
-4203 4205 4260 0
4203 -4205 4260 0
-4207 -4209 -4262 0
4207 4209 -4262 0
-4207 4209 4262 0
4207 -4209 4262 0
-4211 -4213 -4264 0
4211 4213 -4264 0
-4211 4213 4264 0
4211 -4213 4264 0
-4215 -4217 -4266 0
4215 4217 -4266 0
-4215 4217 4266 0
4215 -4217 4266 0
-4219 -4221 -4268 0
4219 4221 -4268 0
-4219 4221 4268 0
4219 -4221 4268 0
-4223 -4224 -4270 0
4223 4224 -4270 0
-4223 4224 4270 0
4223 -4224 4270 0
-4225 -4226 -4272 0
4225 4226 -4272 0
-4225 4226 4272 0
4225 -4226 4272 0
-4228 -4230 -4273 0
4228 4230 -4273 0
-4228 4230 4273 0
4228 -4230 4273 0
-4231 -4232 -4275 0
4231 4232 -4275 0
-4231 4232 4275 0
4231 -4232 4275 0
-4234 -4236 -4277 0
4234 4236 -4277 0
-4234 4236 4277 0
4234 -4236 4277 0
-4238 -4240 -4279 0
4238 4240 -4279 0
-4238 4240 4279 0
4238 -4240 4279 0
-4242 -4244 -4281 0
4242 4244 -4281 0
-4242 4244 4281 0
4242 -4244 4281 0
-4245 -4246 -4283 0
4245 4246 -4283 0
-4245 4246 4283 0
4245 -4246 4283 0
-4248 -4250 -4285 0
4248 4250 -4285 0
-4248 4250 4285 0
4248 -4250 4285 0
-4252 -4254 -4287 0
4252 4254 -4287 0
-4252 4254 4287 0
4252 -4254 4287 0
-4256 -4258 -4289 0
4256 4258 -4289 0
-4256 4258 4289 0
4256 -4258 4289 0
-4260 -4262 -4291 0
4260 4262 -4291 0
-4260 4262 4291 0
4260 -4262 4291 0
-4264 -4266 -4293 0
4264 4266 -4293 0
-4264 4266 4293 0
4264 -4266 4293 0
-4268 -4270 -4295 0
4268 4270 -4295 0
-4268 4270 4295 0
4268 -4270 4295 0
-4222 -4271 -4297 0
4222 4271 -4297 0
-4222 4271 4297 0
4222 -4271 4297 0
-4272 -4273 -4299 0
4272 4273 -4299 0
-4272 4273 4299 0
4272 -4273 4299 0
-4275 -4277 -4301 0
4275 4277 -4301 0
-4275 4277 4301 0
4275 -4277 4301 0
-4279 -4281 -4303 0
4279 4281 -4303 0
-4279 4281 4303 0
4279 -4281 4303 0
-4283 -4285 -4305 0
4283 4285 -4305 0
-4283 4285 4305 0
4283 -4285 4305 0
-4287 -4289 -4307 0
4287 4289 -4307 0
-4287 4289 4307 0
4287 -4289 4307 0
-4291 -4293 -4309 0
4291 4293 -4309 0
-4291 4293 4309 0
4291 -4293 4309 0
-4295 -4297 -4311 0
4295 4297 -4311 0
-4295 4297 4311 0
4295 -4297 4311 0
-4299 -4301 -4313 0
4299 4301 -4313 0
-4299 4301 4313 0
4299 -4301 4313 0
-4303 -4305 -4315 0
4303 4305 -4315 0
-4303 4305 4315 0
4303 -4305 4315 0
-4307 -4309 -4317 0
4307 4309 -4317 0
-4307 4309 4317 0
4307 -4309 4317 0
-4311 -4313 -4319 0
4311 4313 -4319 0
-4311 4313 4319 0
4311 -4313 4319 0
-4315 -4317 -4319 0
4315 4317 -4319 0
-4315 4317 4319 0
4315 -4317 4319 0
-4227 -4229 -4323 0
4227 4229 -4323 0
-4227 4229 4323 0
4227 -4229 4323 0
-4233 -4235 -4325 0
4233 4235 -4325 0
-4233 4235 4325 0
4233 -4235 4325 0
-4237 -4239 -4327 0
4237 4239 -4327 0
-4237 4239 4327 0
4237 -4239 4327 0
-4241 -4243 -4329 0
4241 4243 -4329 0
-4241 4243 4329 0
4241 -4243 4329 0
-4247 -4249 -4331 0
4247 4249 -4331 0
-4247 4249 4331 0
4247 -4249 4331 0
-4251 -4253 -4333 0
4251 4253 -4333 0
-4251 4253 4333 0
4251 -4253 4333 0
-4255 -4257 -4335 0
4255 4257 -4335 0
-4255 4257 4335 0
4255 -4257 4335 0
-4259 -4261 -4337 0
4259 4261 -4337 0
-4259 4261 4337 0
4259 -4261 4337 0
-4263 -4265 -4339 0
4263 4265 -4339 0
-4263 4265 4339 0
4263 -4265 4339 0
-4267 -4269 -4341 0
4267 4269 -4341 0
-4267 4269 4341 0
4267 -4269 4341 0
-4274 -4276 -4345 0
4274 4276 -4345 0
-4274 4276 4345 0
4274 -4276 4345 0
-4278 -4280 -4347 0
4278 4280 -4347 0
-4278 4280 4347 0
4278 -4280 4347 0
-4282 -4284 -4349 0
4282 4284 -4349 0
-4282 4284 4349 0
4282 -4284 4349 0
-4286 -4288 -4351 0
4286 4288 -4351 0
-4286 4288 4351 0
4286 -4288 4351 0
-4290 -4292 -4353 0
4290 4292 -4353 0
-4290 4292 4353 0
4290 -4292 4353 0
-4294 -4296 -4355 0
4294 4296 -4355 0
-4294 4296 4355 0
4294 -4296 4355 0
-4298 -4300 -4357 0
4298 4300 -4357 0
-4298 4300 4357 0
4298 -4300 4357 0
-4302 -4304 -4359 0
4302 4304 -4359 0
-4302 4304 4359 0
4302 -4304 4359 0
-4306 -4308 -4361 0
4306 4308 -4361 0
-4306 4308 4361 0
4306 -4308 4361 0
-4310 -4312 -4363 0
4310 4312 -4363 0
-4310 4312 4363 0
4310 -4312 4363 0
-4314 -4316 -4365 0
4314 4316 -4365 0
-4314 4316 4365 0
4314 -4316 4365 0
-4318 -4320 -4367 0
4318 4320 -4367 0
-4318 4320 4367 0
4318 -4320 4367 0
-4319 -4321 -4369 0
4319 4321 -4369 0
4319 -4321 4369 0
-4319 4321 4369 0
-4323 -4324 -4370 0
4323 4324 -4370 0
-4323 4324 4370 0
4323 -4324 4370 0
-4325 -4327 -4372 0
4325 4327 -4372 0
-4325 4327 4372 0
4325 -4327 4372 0
-4329 -4330 -4374 0
4329 4330 -4374 0
-4329 4330 4374 0
4329 -4330 4374 0
-4331 -4333 -4376 0
4331 4333 -4376 0
-4331 4333 4376 0
4331 -4333 4376 0
-4335 -4337 -4378 0
4335 4337 -4378 0
-4335 4337 4378 0
4335 -4337 4378 0
-4339 -4341 -4380 0
4339 4341 -4380 0
-4339 4341 4380 0
4339 -4341 4380 0
-4343 -4344 -4382 0
4343 4344 -4382 0
-4343 4344 4382 0
4343 -4344 4382 0
-4345 -4347 -4384 0
4345 4347 -4384 0
-4345 4347 4384 0
4345 -4347 4384 0
-4349 -4351 -4386 0
4349 4351 -4386 0
-4349 4351 4386 0
4349 -4351 4386 0
-4353 -4355 -4388 0
4353 4355 -4388 0
-4353 4355 4388 0
4353 -4355 4388 0
-4357 -4359 -4390 0
4357 4359 -4390 0
-4357 4359 4390 0
4357 -4359 4390 0
-4361 -4363 -4392 0
4361 4363 -4392 0
-4361 4363 4392 0
4361 -4363 4392 0
-4365 -4367 -4394 0
4365 4367 -4394 0
-4365 4367 4394 0
4365 -4367 4394 0
-4322 -4369 -4396 0
4322 4369 -4396 0
4322 -4369 4396 0
-4322 4369 4396 0
-4370 -4372 -4398 0
4370 4372 -4398 0
-4370 4372 4398 0
4370 -4372 4398 0
-4374 -4376 -4400 0
4374 4376 -4400 0
-4374 4376 4400 0
4374 -4376 4400 0
-4378 -4380 -4402 0
4378 4380 -4402 0
-4378 4380 4402 0
4378 -4380 4402 0
-4382 -4384 -4404 0
4382 4384 -4404 0
-4382 4384 4404 0
4382 -4384 4404 0
-4386 -4388 -4406 0
4386 4388 -4406 0
-4386 4388 4406 0
4386 -4388 4406 0
-4390 -4392 -4408 0
4390 4392 -4408 0
-4390 4392 4408 0
4390 -4392 4408 0
-4394 -4396 -4410 0
4394 4396 -4410 0
-4394 4396 4410 0
4394 -4396 4410 0
-4398 -4400 -4412 0
4398 4400 -4412 0
-4398 4400 4412 0
4398 -4400 4412 0
-4402 -4404 -4414 0
4402 4404 -4414 0
-4402 4404 4414 0
4402 -4404 4414 0
-4406 -4408 -4416 0
4406 4408 -4416 0
-4406 4408 4416 0
4406 -4408 4416 0
-4410 -4412 -4418 0
4410 4412 -4418 0
-4410 4412 4418 0
4410 -4412 4418 0
-4414 -4416 -4418 0
4414 4416 -4418 0
-4414 4416 4418 0
4414 -4416 4418 0
-4326 -4328 -4422 0
4326 4328 -4422 0
-4326 4328 4422 0
4326 -4328 4422 0
-4332 -4334 -4424 0
4332 4334 -4424 0
-4332 4334 4424 0
4332 -4334 4424 0
-4336 -4338 -4426 0
4336 4338 -4426 0
-4336 4338 4426 0
4336 -4338 4426 0
-4340 -4342 -4428 0
4340 4342 -4428 0
-4340 4342 4428 0
4340 -4342 4428 0
-4346 -4348 -4471 0
4346 4348 -4471 0
-4346 4348 4471 0
4346 -4348 4471 0
-4350 -4352 -4430 0
4350 4352 -4430 0
-4350 4352 4430 0
4350 -4352 4430 0
-4354 -4356 -4432 0
4354 4356 -4432 0
-4354 4356 4432 0
4354 -4356 4432 0
-4358 -4360 -4434 0
4358 4360 -4434 0
-4358 4360 4434 0
4358 -4360 4434 0
-4362 -4364 -4436 0
4362 4364 -4436 0
-4362 4364 4436 0
4362 -4364 4436 0
-4366 -4368 -4438 0
4366 4368 -4438 0
-4366 4368 4438 0
4366 -4368 4438 0
-4371 -4373 -4441 0
4371 4373 -4441 0
-4371 4373 4441 0
4371 -4373 4441 0
-4375 -4377 -4442 0
4375 4377 -4442 0
-4375 4377 4442 0
4375 -4377 4442 0
-4379 -4381 -4444 0
4379 4381 -4444 0
-4379 4381 4444 0
4379 -4381 4444 0
-4383 -4385 -4446 0
4383 4385 -4446 0
-4383 4385 4446 0
4383 -4385 4446 0
-4387 -4389 -4448 0
4387 4389 -4448 0
-4387 4389 4448 0
4387 -4389 4448 0
-4391 -4393 -4450 0
4391 4393 -4450 0
-4391 4393 4450 0
4391 -4393 4450 0
-4395 -4397 -4452 0
4395 4397 -4452 0
-4395 4397 4452 0
4395 -4397 4452 0
-4399 -4401 -4454 0
4399 4401 -4454 0
-4399 4401 4454 0
4399 -4401 4454 0
-4403 -4405 -4456 0
4403 4405 -4456 0
-4403 4405 4456 0
4403 -4405 4456 0
-4407 -4409 -4458 0
4407 4409 -4458 0
-4407 4409 4458 0
4407 -4409 4458 0
-4411 -4413 -4460 0
4411 4413 -4460 0
-4411 4413 4460 0
4411 -4413 4460 0
-4415 -4417 -4462 0
4415 4417 -4462 0
-4415 4417 4462 0
4415 -4417 4462 0
-4419 -4420 -4464 0
4419 4420 -4464 0
-4419 4420 4464 0
4419 -4420 4464 0
-4421 -4422 -4466 0
4421 4422 -4466 0
-4421 4422 4466 0
4421 -4422 4466 0
-4423 -4424 -4467 0
4423 4424 -4467 0
-4423 4424 4467 0
4423 -4424 4467 0
-4426 -4428 -4469 0
4426 4428 -4469 0
-4426 4428 4469 0
4426 -4428 4469 0
-4430 -4432 -4472 0
4430 4432 -4472 0
-4430 4432 4472 0
4430 -4432 4472 0
-4434 -4436 -4473 0
4434 4436 -4473 0
-4434 4436 4473 0
4434 -4436 4473 0
-4438 -4440 -4475 0
4438 4440 -4475 0
-4438 4440 4475 0
4438 -4440 4475 0
-4441 -4442 -4477 0
4441 4442 -4477 0
-4441 4442 4477 0
4441 -4442 4477 0
-4444 -4446 -4479 0
4444 4446 -4479 0
-4444 4446 4479 0
4444 -4446 4479 0
-4448 -4450 -4481 0
4448 4450 -4481 0
-4448 4450 4481 0
4448 -4450 4481 0
-4452 -4454 -4483 0
4452 4454 -4483 0
-4452 4454 4483 0
4452 -4454 4483 0
-4456 -4458 -4485 0
4456 4458 -4485 0
-4456 4458 4485 0
4456 -4458 4485 0
-4460 -4462 -4487 0
4460 4462 -4487 0
-4460 4462 4487 0
4460 -4462 4487 0
-4418 -4464 -4489 0
4418 4464 -4489 0
4418 -4464 4489 0
-4418 4464 4489 0
-4466 -4467 -4491 0
4466 4467 -4491 0
-4466 4467 4491 0
4466 -4467 4491 0
-4469 -4471 -4493 0
4469 4471 -4493 0
-4469 4471 4493 0
4469 -4471 4493 0
-4472 -4473 -4495 0
4472 4473 -4495 0
-4472 4473 4495 0
4472 -4473 4495 0
-4475 -4477 -4497 0
4475 4477 -4497 0
-4475 4477 4497 0
4475 -4477 4497 0
-4479 -4481 -4499 0
4479 4481 -4499 0
-4479 4481 4499 0
4479 -4481 4499 0
-4483 -4485 -4501 0
4483 4485 -4501 0
-4483 4485 4501 0
4483 -4485 4501 0
-4487 -4489 -4503 0
4487 4489 -4503 0
-4487 4489 4503 0
4487 -4489 4503 0
-4491 -4493 -4505 0
4491 4493 -4505 0
-4491 4493 4505 0
4491 -4493 4505 0
-4495 -4497 -4507 0
4495 4497 -4507 0
-4495 4497 4507 0
4495 -4497 4507 0
-4499 -4501 -4509 0
4499 4501 -4509 0
-4499 4501 4509 0
4499 -4501 4509 0
-4503 -4505 -4511 0
4503 4505 -4511 0
-4503 4505 4511 0
4503 -4505 4511 0
-4507 -4509 -4511 0
4507 4509 -4511 0
-4507 4509 4511 0
4507 -4509 4511 0
-4425 -4427 -4515 0
4425 4427 -4515 0
-4425 4427 4515 0
4425 -4427 4515 0
-4429 -4431 -4517 0
4429 4431 -4517 0
-4429 4431 4517 0
4429 -4431 4517 0
-4433 -4435 -4519 0
4433 4435 -4519 0
-4433 4435 4519 0
4433 -4435 4519 0
-4437 -4439 -4521 0
4437 4439 -4521 0
-4437 4439 4521 0
4437 -4439 4521 0
-4443 -4445 -4523 0
4443 4445 -4523 0
-4443 4445 4523 0
4443 -4445 4523 0
-4447 -4449 -4525 0
4447 4449 -4525 0
-4447 4449 4525 0
4447 -4449 4525 0
-4451 -4453 -4527 0
4451 4453 -4527 0
-4451 4453 4527 0
4451 -4453 4527 0
-4455 -4457 -4529 0
4455 4457 -4529 0
-4455 4457 4529 0
4455 -4457 4529 0
-4459 -4461 -4531 0
4459 4461 -4531 0
-4459 4461 4531 0
4459 -4461 4531 0
-4463 -4465 -4533 0
4463 4465 -4533 0
-4463 4465 4533 0
4463 -4465 4533 0
-4468 -4470 -4536 0
4468 4470 -4536 0
-4468 4470 4536 0
4468 -4470 4536 0
-4474 -4476 -4538 0
4474 4476 -4538 0
-4474 4476 4538 0
4474 -4476 4538 0
-4478 -4480 -4539 0
4478 4480 -4539 0
-4478 4480 4539 0
4478 -4480 4539 0
-4482 -4484 -4541 0
4482 4484 -4541 0
-4482 4484 4541 0
4482 -4484 4541 0
-4486 -4488 -4543 0
4486 4488 -4543 0
-4486 4488 4543 0
4486 -4488 4543 0
-4490 -4492 -4545 0
4490 4492 -4545 0
-4490 4492 4545 0
4490 -4492 4545 0
-4494 -4496 -4547 0
4494 4496 -4547 0
-4494 4496 4547 0
4494 -4496 4547 0
-4498 -4500 -4549 0
4498 4500 -4549 0
-4498 4500 4549 0
4498 -4500 4549 0
-4502 -4504 -4551 0
4502 4504 -4551 0
-4502 4504 4551 0
4502 -4504 4551 0
-4506 -4508 -4553 0
4506 4508 -4553 0
-4506 4508 4553 0
4506 -4508 4553 0
-4510 -4512 -4555 0
4510 4512 -4555 0
-4510 4512 4555 0
4510 -4512 4555 0
-4511 -4513 -4557 0
4511 4513 -4557 0
4511 -4513 4557 0
-4511 4513 4557 0
-4515 -4516 -4559 0
4515 4516 -4559 0
-4515 4516 4559 0
4515 -4516 4559 0
-4517 -4519 -4560 0
4517 4519 -4560 0
-4517 4519 4560 0
4517 -4519 4560 0
-4521 -4522 -4562 0
4521 4522 -4562 0
-4521 4522 4562 0
4521 -4522 4562 0
-4523 -4525 -4564 0
4523 4525 -4564 0
-4523 4525 4564 0
4523 -4525 4564 0
-4527 -4529 -4566 0
4527 4529 -4566 0
-4527 4529 4566 0
4527 -4529 4566 0
-4531 -4533 -4568 0
4531 4533 -4568 0
-4531 4533 4568 0
4531 -4533 4568 0
-4535 -4536 -4570 0
4535 4536 -4570 0
-4535 4536 4570 0
4535 -4536 4570 0
-4537 -4538 -4572 0
4537 4538 -4572 0
-4537 4538 4572 0
4537 -4538 4572 0
-4539 -4541 -4574 0
4539 4541 -4574 0
-4539 4541 4574 0
4539 -4541 4574 0
-4543 -4545 -4576 0
4543 4545 -4576 0
-4543 4545 4576 0
4543 -4545 4576 0
-4547 -4549 -4578 0
4547 4549 -4578 0
-4547 4549 4578 0
4547 -4549 4578 0
-4551 -4553 -4580 0
4551 4553 -4580 0
-4551 4553 4580 0
4551 -4553 4580 0
-4555 -4557 -4582 0
4555 4557 -4582 0
-4555 4557 4582 0
4555 -4557 4582 0
-4514 -4559 -4584 0
4514 4559 -4584 0
-4514 4559 4584 0
4514 -4559 4584 0
-4560 -4562 -4586 0
4560 4562 -4586 0
-4560 4562 4586 0
4560 -4562 4586 0
-4564 -4566 -4588 0
4564 4566 -4588 0
-4564 4566 4588 0
4564 -4566 4588 0
-4568 -4570 -4590 0
4568 4570 -4590 0
-4568 4570 4590 0
4568 -4570 4590 0
-4572 -4574 -4592 0
4572 4574 -4592 0
-4572 4574 4592 0
4572 -4574 4592 0
-4576 -4578 -4594 0
4576 4578 -4594 0
-4576 4578 4594 0
4576 -4578 4594 0
-4580 -4582 -4596 0
4580 4582 -4596 0
-4580 4582 4596 0
4580 -4582 4596 0
-4584 -4586 -4598 0
4584 4586 -4598 0
-4584 4586 4598 0
4584 -4586 4598 0
-4588 -4590 -4600 0
4588 4590 -4600 0
-4588 4590 4600 0
4588 -4590 4600 0
-4592 -4594 -4602 0
4592 4594 -4602 0
-4592 4594 4602 0
4592 -4594 4602 0
-4596 -4598 -4604 0
4596 4598 -4604 0
-4596 4598 4604 0
4596 -4598 4604 0
-4600 -4602 -4604 0
4600 4602 -4604 0
-4600 4602 4604 0
4600 -4602 4604 0
-4518 -4520 -4608 0
4518 4520 -4608 0
-4518 4520 4608 0
4518 -4520 4608 0
-4524 -4526 -4610 0
4524 4526 -4610 0
-4524 4526 4610 0
4524 -4526 4610 0
-4528 -4530 -4612 0
4528 4530 -4612 0
-4528 4530 4612 0
4528 -4530 4612 0
-4532 -4534 -4614 0
4532 4534 -4614 0
-4532 4534 4614 0
4532 -4534 4614 0
-4540 -4542 -4617 0
4540 4542 -4617 0
-4540 4542 4617 0
4540 -4542 4617 0
-4544 -4546 -4618 0
4544 4546 -4618 0
-4544 4546 4618 0
4544 -4546 4618 0
-4548 -4550 -4620 0
4548 4550 -4620 0
-4548 4550 4620 0
4548 -4550 4620 0
-4552 -4554 -4622 0
4552 4554 -4622 0
-4552 4554 4622 0
4552 -4554 4622 0
-4556 -4558 -4624 0
4556 4558 -4624 0
-4556 4558 4624 0
4556 -4558 4624 0
-4561 -4563 -4627 0
4561 4563 -4627 0
-4561 4563 4627 0
4561 -4563 4627 0
-4565 -4567 -4628 0
4565 4567 -4628 0
-4565 4567 4628 0
4565 -4567 4628 0
-4569 -4571 -4630 0
4569 4571 -4630 0
-4569 4571 4630 0
4569 -4571 4630 0
-4573 -4575 -4632 0
4573 4575 -4632 0
-4573 4575 4632 0
4573 -4575 4632 0
-4577 -4579 -4634 0
4577 4579 -4634 0
-4577 4579 4634 0
4577 -4579 4634 0
-4581 -4583 -4636 0
4581 4583 -4636 0
-4581 4583 4636 0
4581 -4583 4636 0
-4585 -4587 -4638 0
4585 4587 -4638 0
-4585 4587 4638 0
4585 -4587 4638 0
-4589 -4591 -4640 0
4589 4591 -4640 0
-4589 4591 4640 0
4589 -4591 4640 0
-4593 -4595 -4642 0
4593 4595 -4642 0
-4593 4595 4642 0
4593 -4595 4642 0
-4597 -4599 -4644 0
4597 4599 -4644 0
-4597 4599 4644 0
4597 -4599 4644 0
-4601 -4603 -4646 0
4601 4603 -4646 0
-4601 4603 4646 0
4601 -4603 4646 0
-4605 -4606 -4648 0
4605 4606 -4648 0
-4605 4606 4648 0
4605 -4606 4648 0
-4607 -4608 -4649 0
4607 4608 -4649 0
-4607 4608 4649 0
4607 -4608 4649 0
-4609 -4610 -4651 0
4609 4610 -4651 0
-4609 4610 4651 0
4609 -4610 4651 0
-4612 -4614 -4653 0
4612 4614 -4653 0
-4612 4614 4653 0
4612 -4614 4653 0
-4615 -4616 -4655 0
4615 4616 -4655 0
-4615 4616 4655 0
4615 -4616 4655 0
-4617 -4618 -4657 0
4617 4618 -4657 0
-4617 4618 4657 0
4617 -4618 4657 0
-4620 -4622 -4659 0
4620 4622 -4659 0
-4620 4622 4659 0
4620 -4622 4659 0
-4624 -4626 -4661 0
4624 4626 -4661 0
-4624 4626 4661 0
4624 -4626 4661 0
-4627 -4628 -4663 0
4627 4628 -4663 0
-4627 4628 4663 0
4627 -4628 4663 0
-4630 -4632 -4665 0
4630 4632 -4665 0
-4630 4632 4665 0
4630 -4632 4665 0
-4634 -4636 -4667 0
4634 4636 -4667 0
-4634 4636 4667 0
4634 -4636 4667 0
-4638 -4640 -4669 0
4638 4640 -4669 0
-4638 4640 4669 0
4638 -4640 4669 0
-4642 -4644 -4671 0
4642 4644 -4671 0
-4642 4644 4671 0
4642 -4644 4671 0
-4646 -4648 -4673 0
4646 4648 -4673 0
-4646 4648 4673 0
4646 -4648 4673 0
-4604 -4649 -4675 0
4604 4649 -4675 0
-4604 4649 4675 0
4604 -4649 4675 0
-4651 -4653 -4677 0
4651 4653 -4677 0
-4651 4653 4677 0
4651 -4653 4677 0
-4655 -4657 -4679 0
4655 4657 -4679 0
-4655 4657 4679 0
4655 -4657 4679 0
-4659 -4661 -4681 0
4659 4661 -4681 0
-4659 4661 4681 0
4659 -4661 4681 0
-4663 -4665 -4683 0
4663 4665 -4683 0
-4663 4665 4683 0
4663 -4665 4683 0
-4667 -4669 -4685 0
4667 4669 -4685 0
-4667 4669 4685 0
4667 -4669 4685 0
-4671 -4673 -4687 0
4671 4673 -4687 0
-4671 4673 4687 0
4671 -4673 4687 0
-4675 -4677 -4689 0
4675 4677 -4689 0
-4675 4677 4689 0
4675 -4677 4689 0
-4679 -4681 -4691 0
4679 4681 -4691 0
-4679 4681 4691 0
4679 -4681 4691 0
-4683 -4685 -4693 0
4683 4685 -4693 0
-4683 4685 4693 0
4683 -4685 4693 0
-4687 -4689 -4695 0
4687 4689 -4695 0
-4687 4689 4695 0
4687 -4689 4695 0
-4691 -4693 -4695 0
4691 4693 -4695 0
-4691 4693 4695 0
4691 -4693 4695 0
-4611 -4613 -4699 0
4611 4613 -4699 0
-4611 4613 4699 0
4611 -4613 4699 0
-4619 -4621 -4702 0
4619 4621 -4702 0
-4619 4621 4702 0
4619 -4621 4702 0
-4623 -4625 -4703 0
4623 4625 -4703 0
-4623 4625 4703 0
4623 -4625 4703 0
-4629 -4631 -4705 0
4629 4631 -4705 0
-4629 4631 4705 0
4629 -4631 4705 0
-4633 -4635 -4707 0
4633 4635 -4707 0
-4633 4635 4707 0
4633 -4635 4707 0
-4637 -4639 -4709 0
4637 4639 -4709 0
-4637 4639 4709 0
4637 -4639 4709 0
-4641 -4643 -4711 0
4641 4643 -4711 0
-4641 4643 4711 0
4641 -4643 4711 0
-4645 -4647 -4713 0
4645 4647 -4713 0
-4645 4647 4713 0
4645 -4647 4713 0
-4650 -4652 -4715 0
4650 4652 -4715 0
-4650 4652 4715 0
4650 -4652 4715 0
-4654 -4656 -4717 0
4654 4656 -4717 0
-4654 4656 4717 0
4654 -4656 4717 0
-4658 -4660 -4719 0
4658 4660 -4719 0
-4658 4660 4719 0
4658 -4660 4719 0
-4662 -4664 -4721 0
4662 4664 -4721 0
-4662 4664 4721 0
4662 -4664 4721 0
-4666 -4668 -4723 0
4666 4668 -4723 0
-4666 4668 4723 0
4666 -4668 4723 0
-4670 -4672 -4725 0
4670 4672 -4725 0
-4670 4672 4725 0
4670 -4672 4725 0
-4674 -4676 -4727 0
4674 4676 -4727 0
-4674 4676 4727 0
4674 -4676 4727 0
-4678 -4680 -4729 0
4678 4680 -4729 0
-4678 4680 4729 0
4678 -4680 4729 0
-4682 -4684 -4731 0
4682 4684 -4731 0
-4682 4684 4731 0
4682 -4684 4731 0
-4686 -4688 -4733 0
4686 4688 -4733 0
-4686 4688 4733 0
4686 -4688 4733 0
-4690 -4692 -4735 0
4690 4692 -4735 0
-4690 4692 4735 0
4690 -4692 4735 0
-4694 -4696 -4737 0
4694 4696 -4737 0
-4694 4696 4737 0
4694 -4696 4737 0
-4695 -4697 -4739 0
4695 4697 -4739 0
4695 -4697 4739 0
-4695 4697 4739 0
-4699 -4700 -4740 0
4699 4700 -4740 0
-4699 4700 4740 0
4699 -4700 4740 0
-4701 -4702 -4742 0
4701 4702 -4742 0
-4701 4702 4742 0
4701 -4702 4742 0
-4703 -4704 -4744 0
4703 4704 -4744 0
-4703 4704 4744 0
4703 -4704 4744 0
-4705 -4707 -4746 0
4705 4707 -4746 0
-4705 4707 4746 0
4705 -4707 4746 0
-4709 -4711 -4748 0
4709 4711 -4748 0
-4709 4711 4748 0
4709 -4711 4748 0
-4713 -4714 -4750 0
4713 4714 -4750 0
-4713 4714 4750 0
4713 -4714 4750 0
-4715 -4717 -4752 0
4715 4717 -4752 0
-4715 4717 4752 0
4715 -4717 4752 0
-4719 -4721 -4754 0
4719 4721 -4754 0
-4719 4721 4754 0
4719 -4721 4754 0
-4723 -4725 -4756 0
4723 4725 -4756 0
-4723 4725 4756 0
4723 -4725 4756 0
-4727 -4729 -4758 0
4727 4729 -4758 0
-4727 4729 4758 0
4727 -4729 4758 0
-4731 -4733 -4760 0
4731 4733 -4760 0
-4731 4733 4760 0
4731 -4733 4760 0
-4735 -4737 -4762 0
4735 4737 -4762 0
-4735 4737 4762 0
4735 -4737 4762 0
-4698 -4739 -4764 0
4698 4739 -4764 0
4698 -4739 4764 0
-4698 4739 4764 0
-4740 -4742 -4766 0
4740 4742 -4766 0
-4740 4742 4766 0
4740 -4742 4766 0
-4744 -4746 -4768 0
4744 4746 -4768 0
-4744 4746 4768 0
4744 -4746 4768 0
-4748 -4750 -4770 0
4748 4750 -4770 0
-4748 4750 4770 0
4748 -4750 4770 0
-4752 -4754 -4772 0
4752 4754 -4772 0
-4752 4754 4772 0
4752 -4754 4772 0
-4756 -4758 -4774 0
4756 4758 -4774 0
-4756 4758 4774 0
4756 -4758 4774 0
-4760 -4762 -4776 0
4760 4762 -4776 0
-4760 4762 4776 0
4760 -4762 4776 0
-4764 -4766 -4778 0
4764 4766 -4778 0
-4764 4766 4778 0
4764 -4766 4778 0
-4768 -4770 -4780 0
4768 4770 -4780 0
-4768 4770 4780 0
4768 -4770 4780 0
-4772 -4774 -4782 0
4772 4774 -4782 0
-4772 4774 4782 0
4772 -4774 4782 0
-4776 -4778 -4784 0
4776 4778 -4784 0
-4776 4778 4784 0
4776 -4778 4784 0
-4780 -4782 -4784 0
4780 4782 -4784 0
-4780 4782 4784 0
4780 -4782 4784 0
-4706 -4708 -4790 0
4706 4708 -4790 0
-4706 4708 4790 0
4706 -4708 4790 0
-4710 -4712 -4792 0
4710 4712 -4792 0
-4710 4712 4792 0
4710 -4712 4792 0
-4716 -4718 -4795 0
4716 4718 -4795 0
-4716 4718 4795 0
4716 -4718 4795 0
-4720 -4722 -4796 0
4720 4722 -4796 0
-4720 4722 4796 0
4720 -4722 4796 0
-4724 -4726 -4798 0
4724 4726 -4798 0
-4724 4726 4798 0
4724 -4726 4798 0
-4728 -4730 -4800 0
4728 4730 -4800 0
-4728 4730 4800 0
4728 -4730 4800 0
-4732 -4734 -4802 0
4732 4734 -4802 0
-4732 4734 4802 0
4732 -4734 4802 0
-4736 -4738 -4804 0
4736 4738 -4804 0
-4736 4738 4804 0
4736 -4738 4804 0
-4741 -4743 -4806 0
4741 4743 -4806 0
-4741 4743 4806 0
4741 -4743 4806 0
-4745 -4747 -4808 0
4745 4747 -4808 0
-4745 4747 4808 0
4745 -4747 4808 0
-4749 -4751 -4810 0
4749 4751 -4810 0
-4749 4751 4810 0
4749 -4751 4810 0
-4753 -4755 -4812 0
4753 4755 -4812 0
-4753 4755 4812 0
4753 -4755 4812 0
-4757 -4759 -4814 0
4757 4759 -4814 0
-4757 4759 4814 0
4757 -4759 4814 0
-4761 -4763 -4816 0
4761 4763 -4816 0
-4761 4763 4816 0
4761 -4763 4816 0
-4765 -4767 -4818 0
4765 4767 -4818 0
-4765 4767 4818 0
4765 -4767 4818 0
-4769 -4771 -4820 0
4769 4771 -4820 0
-4769 4771 4820 0
4769 -4771 4820 0
-4773 -4775 -4822 0
4773 4775 -4822 0
-4773 4775 4822 0
4773 -4775 4822 0
-4777 -4779 -4824 0
4777 4779 -4824 0
-4777 4779 4824 0
4777 -4779 4824 0
-4781 -4783 -4826 0
4781 4783 -4826 0
-4781 4783 4826 0
4781 -4783 4826 0
-4785 -4786 -4828 0
4785 4786 -4828 0
-4785 4786 4828 0
4785 -4786 4828 0
-4787 -4788 -4830 0
4787 4788 -4830 0
-4787 4788 4830 0
4787 -4788 4830 0
-4789 -4790 -4831 0
4789 4790 -4831 0
-4789 4790 4831 0
4789 -4790 4831 0
-4792 -4794 -4833 0
4792 4794 -4833 0
-4792 4794 4833 0
4792 -4794 4833 0
-4795 -4796 -4835 0
4795 4796 -4835 0
-4795 4796 4835 0
4795 -4796 4835 0
-4798 -4800 -4837 0
4798 4800 -4837 0
-4798 4800 4837 0
4798 -4800 4837 0
-4802 -4804 -4839 0
4802 4804 -4839 0
-4802 4804 4839 0
4802 -4804 4839 0
-4805 -4806 -4841 0
4805 4806 -4841 0
-4805 4806 4841 0
4805 -4806 4841 0
-4808 -4810 -4843 0
4808 4810 -4843 0
-4808 4810 4843 0
4808 -4810 4843 0
-4812 -4814 -4845 0
4812 4814 -4845 0
-4812 4814 4845 0
4812 -4814 4845 0
-4816 -4818 -4847 0
4816 4818 -4847 0
-4816 4818 4847 0
4816 -4818 4847 0
-4820 -4822 -4849 0
4820 4822 -4849 0
-4820 4822 4849 0
4820 -4822 4849 0
-4824 -4826 -4851 0
4824 4826 -4851 0
-4824 4826 4851 0
4824 -4826 4851 0
-4784 -4828 -4853 0
4784 4828 -4853 0
4784 -4828 4853 0
-4784 4828 4853 0
-4830 -4831 -4855 0
4830 4831 -4855 0
-4830 4831 4855 0
4830 -4831 4855 0
-4833 -4835 -4857 0
4833 4835 -4857 0
-4833 4835 4857 0
4833 -4835 4857 0
-4837 -4839 -4859 0
4837 4839 -4859 0
-4837 4839 4859 0
4837 -4839 4859 0
-4841 -4843 -4861 0
4841 4843 -4861 0
-4841 4843 4861 0
4841 -4843 4861 0
-4845 -4847 -4863 0
4845 4847 -4863 0
-4845 4847 4863 0
4845 -4847 4863 0
-4849 -4851 -4865 0
4849 4851 -4865 0
-4849 4851 4865 0
4849 -4851 4865 0
-4853 -4855 -4867 0
4853 4855 -4867 0
-4853 4855 4867 0
4853 -4855 4867 0
-4857 -4859 -4869 0
4857 4859 -4869 0
-4857 4859 4869 0
4857 -4859 4869 0
-4861 -4863 -4871 0
4861 4863 -4871 0
-4861 4863 4871 0
4861 -4863 4871 0
-4865 -4867 -4873 0
4865 4867 -4873 0
-4865 4867 4873 0
4865 -4867 4873 0
-4869 -4871 -4873 0
4869 4871 -4873 0
-4869 4871 4873 0
4869 -4871 4873 0
-4791 -4793 -4876 0
4791 4793 -4876 0
-4791 4793 4876 0
4791 -4793 4876 0
-4797 -4799 -4878 0
4797 4799 -4878 0
-4797 4799 4878 0
4797 -4799 4878 0
-4801 -4803 -4880 0
4801 4803 -4880 0
-4801 4803 4880 0
4801 -4803 4880 0
-4807 -4809 -4883 0
4807 4809 -4883 0
-4807 4809 4883 0
4807 -4809 4883 0
-4811 -4813 -4884 0
4811 4813 -4884 0
-4811 4813 4884 0
4811 -4813 4884 0
-4815 -4817 -4886 0
4815 4817 -4886 0
-4815 4817 4886 0
4815 -4817 4886 0
-4819 -4821 -4888 0
4819 4821 -4888 0
-4819 4821 4888 0
4819 -4821 4888 0
-4823 -4825 -4890 0
4823 4825 -4890 0
-4823 4825 4890 0
4823 -4825 4890 0
-4827 -4829 -4892 0
4827 4829 -4892 0
-4827 4829 4892 0
4827 -4829 4892 0
-4832 -4834 -4894 0
4832 4834 -4894 0
-4832 4834 4894 0
4832 -4834 4894 0
-4836 -4838 -4896 0
4836 4838 -4896 0
-4836 4838 4896 0
4836 -4838 4896 0
-4840 -4842 -4898 0
4840 4842 -4898 0
-4840 4842 4898 0
4840 -4842 4898 0
-4844 -4846 -4900 0
4844 4846 -4900 0
-4844 4846 4900 0
4844 -4846 4900 0
-4848 -4850 -4902 0
4848 4850 -4902 0
-4848 4850 4902 0
4848 -4850 4902 0
-4852 -4854 -4904 0
4852 4854 -4904 0
-4852 4854 4904 0
4852 -4854 4904 0
-4856 -4858 -4906 0
4856 4858 -4906 0
-4856 4858 4906 0
4856 -4858 4906 0
-4860 -4862 -4908 0
4860 4862 -4908 0
-4860 4862 4908 0
4860 -4862 4908 0
-4864 -4866 -4910 0
4864 4866 -4910 0
-4864 4866 4910 0
4864 -4866 4910 0
-4868 -4870 -4912 0
4868 4870 -4912 0
-4868 4870 4912 0
4868 -4870 4912 0
-4872 -4874 -4914 0
4872 4874 -4914 0
-4872 4874 4914 0
4872 -4874 4914 0
-4873 -4875 -4916 0
4873 4875 -4916 0
4873 -4875 4916 0
-4873 4875 4916 0
-4876 -4877 -4939 0
4876 4877 -4939 0
-4876 4877 4939 0
4876 -4877 4939 0
-4878 -4880 -4918 0
4878 4880 -4918 0
-4878 4880 4918 0
4878 -4880 4918 0
-4882 -4883 -4920 0
4882 4883 -4920 0
-4882 4883 4920 0
4882 -4883 4920 0
-4884 -4886 -4922 0
4884 4886 -4922 0
-4884 4886 4922 0
4884 -4886 4922 0
-4888 -4890 -4924 0
4888 4890 -4924 0
-4888 4890 4924 0
4888 -4890 4924 0
-4892 -4893 -4926 0
4892 4893 -4926 0
-4892 4893 4926 0
4892 -4893 4926 0
-4894 -4896 -4928 0
4894 4896 -4928 0
-4894 4896 4928 0
4894 -4896 4928 0
-4898 -4900 -4930 0
4898 4900 -4930 0
-4898 4900 4930 0
4898 -4900 4930 0
-4902 -4904 -4932 0
4902 4904 -4932 0
-4902 4904 4932 0
4902 -4904 4932 0
-4906 -4908 -4934 0
4906 4908 -4934 0
-4906 4908 4934 0
4906 -4908 4934 0
-4910 -4912 -4936 0
4910 4912 -4936 0
-4910 4912 4936 0
4910 -4912 4936 0
-4914 -4916 -4938 0
4914 4916 -4938 0
-4914 4916 4938 0
4914 -4916 4938 0
-4918 -4920 -4940 0
4918 4920 -4940 0
-4918 4920 4940 0
4918 -4920 4940 0
-4922 -4924 -4942 0
4922 4924 -4942 0
-4922 4924 4942 0
4922 -4924 4942 0
-4926 -4928 -4944 0
4926 4928 -4944 0
-4926 4928 4944 0
4926 -4928 4944 0
-4930 -4932 -4946 0
4930 4932 -4946 0
-4930 4932 4946 0
4930 -4932 4946 0
-4934 -4936 -4948 0
4934 4936 -4948 0
-4934 4936 4948 0
4934 -4936 4948 0
-4938 -4939 -4950 0
4938 4939 -4950 0
-4938 4939 4950 0
4938 -4939 4950 0
-4940 -4942 -4952 0
4940 4942 -4952 0
-4940 4942 4952 0
4940 -4942 4952 0
-4944 -4946 -4954 0
4944 4946 -4954 0
-4944 4946 4954 0
4944 -4946 4954 0
-4948 -4950 -4956 0
4948 4950 -4956 0
-4948 4950 4956 0
4948 -4950 4956 0
-4952 -4954 -4956 0
4952 4954 -4956 0
-4952 4954 4956 0
4952 -4954 4956 0
-4879 -4881 -4960 0
4879 4881 -4960 0
-4879 4881 4960 0
4879 -4881 4960 0
-4885 -4887 -4962 0
4885 4887 -4962 0
-4885 4887 4962 0
4885 -4887 4962 0
-4889 -4891 -4964 0
4889 4891 -4964 0
-4889 4891 4964 0
4889 -4891 4964 0
-4895 -4897 -4967 0
4895 4897 -4967 0
-4895 4897 4967 0
4895 -4897 4967 0
-4899 -4901 -4968 0
4899 4901 -4968 0
-4899 4901 4968 0
4899 -4901 4968 0
-4903 -4905 -4970 0
4903 4905 -4970 0
-4903 4905 4970 0
4903 -4905 4970 0
-4907 -4909 -4972 0
4907 4909 -4972 0
-4907 4909 4972 0
4907 -4909 4972 0
-4911 -4913 -4974 0
4911 4913 -4974 0
-4911 4913 4974 0
4911 -4913 4974 0
-4915 -4917 -4976 0
4915 4917 -4976 0
-4915 4917 4976 0
4915 -4917 4976 0
-4919 -4921 -4978 0
4919 4921 -4978 0
-4919 4921 4978 0
4919 -4921 4978 0
-4923 -4925 -4980 0
4923 4925 -4980 0
-4923 4925 4980 0
4923 -4925 4980 0
-4927 -4929 -4982 0
4927 4929 -4982 0
-4927 4929 4982 0
4927 -4929 4982 0
-4931 -4933 -4984 0
4931 4933 -4984 0
-4931 4933 4984 0
4931 -4933 4984 0
-4935 -4937 -4986 0
4935 4937 -4986 0
-4935 4937 4986 0
4935 -4937 4986 0
-4941 -4943 -4988 0
4941 4943 -4988 0
-4941 4943 4988 0
4941 -4943 4988 0
-4945 -4947 -4990 0
4945 4947 -4990 0
-4945 4947 4990 0
4945 -4947 4990 0
-4949 -4951 -4992 0
4949 4951 -4992 0
-4949 4951 4992 0
4949 -4951 4992 0
-4953 -4955 -4994 0
4953 4955 -4994 0
-4953 4955 4994 0
4953 -4955 4994 0
-4957 -4958 -4996 0
4957 4958 -4996 0
-4957 4958 4996 0
4957 -4958 4996 0
-4959 -4960 -4997 0
4959 4960 -4997 0
-4959 4960 4997 0
4959 -4960 4997 0
-4961 -4962 -4999 0
4961 4962 -4999 0
-4961 4962 4999 0
4961 -4962 4999 0
-4964 -4966 -5001 0
4964 4966 -5001 0
-4964 4966 5001 0
4964 -4966 5001 0
-4967 -4968 -5003 0
4967 4968 -5003 0
-4967 4968 5003 0
4967 -4968 5003 0
-4970 -4972 -5005 0
4970 4972 -5005 0
-4970 4972 5005 0
4970 -4972 5005 0
-4974 -4976 -5007 0
4974 4976 -5007 0
-4974 4976 5007 0
4974 -4976 5007 0
-4977 -4978 -5009 0
4977 4978 -5009 0
-4977 4978 5009 0
4977 -4978 5009 0
-4980 -4982 -5011 0
4980 4982 -5011 0
-4980 4982 5011 0
4980 -4982 5011 0
-4984 -4986 -5013 0
4984 4986 -5013 0
-4984 4986 5013 0
4984 -4986 5013 0
-4987 -4988 -5015 0
4987 4988 -5015 0
-4987 4988 5015 0
4987 -4988 5015 0
-4990 -4992 -5017 0
4990 4992 -5017 0
-4990 4992 5017 0
4990 -4992 5017 0
-4994 -4996 -5019 0
4994 4996 -5019 0
-4994 4996 5019 0
4994 -4996 5019 0
-4956 -4997 -5021 0
4956 4997 -5021 0
-4956 4997 5021 0
4956 -4997 5021 0
-4999 -5001 -5023 0
4999 5001 -5023 0
-4999 5001 5023 0
4999 -5001 5023 0
-5003 -5005 -5025 0
5003 5005 -5025 0
-5003 5005 5025 0
5003 -5005 5025 0
-5007 -5009 -5027 0
5007 5009 -5027 0
-5007 5009 5027 0
5007 -5009 5027 0
-5011 -5013 -5029 0
5011 5013 -5029 0
-5011 5013 5029 0
5011 -5013 5029 0
-5015 -5017 -5031 0
5015 5017 -5031 0
-5015 5017 5031 0
5015 -5017 5031 0
-5019 -5021 -5033 0
5019 5021 -5033 0
-5019 5021 5033 0
5019 -5021 5033 0
-5023 -5025 -5035 0
5023 5025 -5035 0
-5023 5025 5035 0
5023 -5025 5035 0
-5027 -5029 -5037 0
5027 5029 -5037 0
-5027 5029 5037 0
5027 -5029 5037 0
-5031 -5033 -5039 0
5031 5033 -5039 0
-5031 5033 5039 0
5031 -5033 5039 0
-5035 -5037 -5039 0
5035 5037 -5039 0
-5035 5037 5039 0
5035 -5037 5039 0
-4963 -4965 -5043 0
4963 4965 -5043 0
-4963 4965 5043 0
4963 -4965 5043 0
-4969 -4971 -5045 0
4969 4971 -5045 0
-4969 4971 5045 0
4969 -4971 5045 0
-4973 -4975 -5047 0
4973 4975 -5047 0
-4973 4975 5047 0
4973 -4975 5047 0
-4979 -4981 -5050 0
4979 4981 -5050 0
-4979 4981 5050 0
4979 -4981 5050 0
-4983 -4985 -5051 0
4983 4985 -5051 0
-4983 4985 5051 0
4983 -4985 5051 0
-4989 -4991 -5053 0
4989 4991 -5053 0
-4989 4991 5053 0
4989 -4991 5053 0
-4993 -4995 -5055 0
4993 4995 -5055 0
-4993 4995 5055 0
4993 -4995 5055 0
-4998 -5000 -5058 0
4998 5000 -5058 0
-4998 5000 5058 0
4998 -5000 5058 0
-5002 -5004 -5059 0
5002 5004 -5059 0
-5002 5004 5059 0
5002 -5004 5059 0
-5006 -5008 -5061 0
5006 5008 -5061 0
-5006 5008 5061 0
5006 -5008 5061 0
-5010 -5012 -5063 0
5010 5012 -5063 0
-5010 5012 5063 0
5010 -5012 5063 0
-5014 -5016 -5065 0
5014 5016 -5065 0
-5014 5016 5065 0
5014 -5016 5065 0
-5018 -5020 -5067 0
5018 5020 -5067 0
-5018 5020 5067 0
5018 -5020 5067 0
-5022 -5024 -5069 0
5022 5024 -5069 0
-5022 5024 5069 0
5022 -5024 5069 0
-5026 -5028 -5071 0
5026 5028 -5071 0
-5026 5028 5071 0
5026 -5028 5071 0
-5030 -5032 -5073 0
5030 5032 -5073 0
-5030 5032 5073 0
5030 -5032 5073 0
-5034 -5036 -5075 0
5034 5036 -5075 0
-5034 5036 5075 0
5034 -5036 5075 0
-5038 -5040 -5077 0
5038 5040 -5077 0
-5038 5040 5077 0
5038 -5040 5077 0
-5039 -5041 -5079 0
5039 5041 -5079 0
5039 -5041 5079 0
-5039 5041 5079 0
-5043 -5044 -5080 0
5043 5044 -5080 0
-5043 5044 5080 0
5043 -5044 5080 0
-5045 -5047 -5082 0
5045 5047 -5082 0
-5045 5047 5082 0
5045 -5047 5082 0
-5049 -5050 -5084 0
5049 5050 -5084 0
-5049 5050 5084 0
5049 -5050 5084 0
-5051 -5052 -5086 0
5051 5052 -5086 0
-5051 5052 5086 0
5051 -5052 5086 0
-5053 -5055 -5088 0
5053 5055 -5088 0
-5053 5055 5088 0
5053 -5055 5088 0
-5057 -5058 -5090 0
5057 5058 -5090 0
-5057 5058 5090 0
5057 -5058 5090 0
-5059 -5061 -5092 0
5059 5061 -5092 0
-5059 5061 5092 0
5059 -5061 5092 0
-5063 -5065 -5094 0
5063 5065 -5094 0
-5063 5065 5094 0
5063 -5065 5094 0
-5067 -5069 -5096 0
5067 5069 -5096 0
-5067 5069 5096 0
5067 -5069 5096 0
-5071 -5073 -5098 0
5071 5073 -5098 0
-5071 5073 5098 0
5071 -5073 5098 0
-5075 -5077 -5100 0
5075 5077 -5100 0
-5075 5077 5100 0
5075 -5077 5100 0
-5042 -5079 -5102 0
5042 5079 -5102 0
5042 -5079 5102 0
-5042 5079 5102 0
-5080 -5082 -5104 0
5080 5082 -5104 0
-5080 5082 5104 0
5080 -5082 5104 0
-5084 -5086 -5106 0
5084 5086 -5106 0
-5084 5086 5106 0
5084 -5086 5106 0
-5088 -5090 -5108 0
5088 5090 -5108 0
-5088 5090 5108 0
5088 -5090 5108 0
-5092 -5094 -5110 0
5092 5094 -5110 0
-5092 5094 5110 0
5092 -5094 5110 0
-5096 -5098 -5112 0
5096 5098 -5112 0
-5096 5098 5112 0
5096 -5098 5112 0
-5100 -5102 -5114 0
5100 5102 -5114 0
-5100 5102 5114 0
5100 -5102 5114 0
-5104 -5106 -5116 0
5104 5106 -5116 0
-5104 5106 5116 0
5104 -5106 5116 0
-5108 -5110 -5118 0
5108 5110 -5118 0
-5108 5110 5118 0
5108 -5110 5118 0
-5112 -5114 -5120 0
5112 5114 -5120 0
-5112 5114 5120 0
5112 -5114 5120 0
-5116 -5118 -5120 0
5116 5118 -5120 0
-5116 5118 5120 0
5116 -5118 5120 0
-5046 -5048 -5124 0
5046 5048 -5124 0
-5046 5048 5124 0
5046 -5048 5124 0
-5054 -5056 -5127 0
5054 5056 -5127 0
-5054 5056 5127 0
5054 -5056 5127 0
-5060 -5062 -5129 0
5060 5062 -5129 0
-5060 5062 5129 0
5060 -5062 5129 0
-5064 -5066 -5130 0
5064 5066 -5130 0
-5064 5066 5130 0
5064 -5066 5130 0
-5068 -5070 -5132 0
5068 5070 -5132 0
-5068 5070 5132 0
5068 -5070 5132 0
-5072 -5074 -5134 0
5072 5074 -5134 0
-5072 5074 5134 0
5072 -5074 5134 0
-5076 -5078 -5136 0
5076 5078 -5136 0
-5076 5078 5136 0
5076 -5078 5136 0
-5081 -5083 -5139 0
5081 5083 -5139 0
-5081 5083 5139 0
5081 -5083 5139 0
-5085 -5087 -5140 0
5085 5087 -5140 0
-5085 5087 5140 0
5085 -5087 5140 0
-5089 -5091 -5142 0
5089 5091 -5142 0
-5089 5091 5142 0
5089 -5091 5142 0
-5093 -5095 -5144 0
5093 5095 -5144 0
-5093 5095 5144 0
5093 -5095 5144 0
-5097 -5099 -5146 0
5097 5099 -5146 0
-5097 5099 5146 0
5097 -5099 5146 0
-5101 -5103 -5148 0
5101 5103 -5148 0
-5101 5103 5148 0
5101 -5103 5148 0
-5105 -5107 -5150 0
5105 5107 -5150 0
-5105 5107 5150 0
5105 -5107 5150 0
-5109 -5111 -5152 0
5109 5111 -5152 0
-5109 5111 5152 0
5109 -5111 5152 0
-5113 -5115 -5154 0
5113 5115 -5154 0
-5113 5115 5154 0
5113 -5115 5154 0
-5117 -5119 -5156 0
5117 5119 -5156 0
-5117 5119 5156 0
5117 -5119 5156 0
-5121 -5122 -5158 0
5121 5122 -5158 0
-5121 5122 5158 0
5121 -5122 5158 0
-5123 -5124 -5160 0
5123 5124 -5160 0
-5123 5124 5160 0
5123 -5124 5160 0
-5125 -5126 -5161 0
5125 5126 -5161 0
-5125 5126 5161 0
5125 -5126 5161 0
-5127 -5128 -5163 0
5127 5128 -5163 0
-5127 5128 5163 0
5127 -5128 5163 0
-5129 -5130 -5165 0
5129 5130 -5165 0
-5129 5130 5165 0
5129 -5130 5165 0
-5132 -5134 -5167 0
5132 5134 -5167 0
-5132 5134 5167 0
5132 -5134 5167 0
-5136 -5138 -5169 0
5136 5138 -5169 0
-5136 5138 5169 0
5136 -5138 5169 0
-5139 -5140 -5171 0
5139 5140 -5171 0
-5139 5140 5171 0
5139 -5140 5171 0
-5142 -5144 -5173 0
5142 5144 -5173 0
-5142 5144 5173 0
5142 -5144 5173 0
-5146 -5148 -5175 0
5146 5148 -5175 0
-5146 5148 5175 0
5146 -5148 5175 0
-5150 -5152 -5177 0
5150 5152 -5177 0
-5150 5152 5177 0
5150 -5152 5177 0
-5154 -5156 -5179 0
5154 5156 -5179 0
-5154 5156 5179 0
5154 -5156 5179 0
-5120 -5158 -5181 0
5120 5158 -5181 0
5120 -5158 5181 0
-5120 5158 5181 0
-5160 -5161 -5183 0
5160 5161 -5183 0
-5160 5161 5183 0
5160 -5161 5183 0
-5163 -5165 -5185 0
5163 5165 -5185 0
-5163 5165 5185 0
5163 -5165 5185 0
-5167 -5169 -5187 0
5167 5169 -5187 0
-5167 5169 5187 0
5167 -5169 5187 0
-5171 -5173 -5189 0
5171 5173 -5189 0
-5171 5173 5189 0
5171 -5173 5189 0
-5175 -5177 -5191 0
5175 5177 -5191 0
-5175 5177 5191 0
5175 -5177 5191 0
-5179 -5181 -5193 0
5179 5181 -5193 0
-5179 5181 5193 0
5179 -5181 5193 0
-5183 -5185 -5195 0
5183 5185 -5195 0
-5183 5185 5195 0
5183 -5185 5195 0
-5187 -5189 -5197 0
5187 5189 -5197 0
-5187 5189 5197 0
5187 -5189 5197 0
-5191 -5193 -5199 0
5191 5193 -5199 0
-5191 5193 5199 0
5191 -5193 5199 0
-5195 -5197 -5199 0
5195 5197 -5199 0
-5195 5197 5199 0
5195 -5197 5199 0
-5131 -5133 -5205 0
5131 5133 -5205 0
-5131 5133 5205 0
5131 -5133 5205 0
-5135 -5137 -5207 0
5135 5137 -5207 0
-5135 5137 5207 0
5135 -5137 5207 0
-5141 -5143 -5210 0
5141 5143 -5210 0
-5141 5143 5210 0
5141 -5143 5210 0
-5145 -5147 -5211 0
5145 5147 -5211 0
-5145 5147 5211 0
5145 -5147 5211 0
-5149 -5151 -5213 0
5149 5151 -5213 0
-5149 5151 5213 0
5149 -5151 5213 0
-5153 -5155 -5215 0
5153 5155 -5215 0
-5153 5155 5215 0
5153 -5155 5215 0
-5157 -5159 -5217 0
5157 5159 -5217 0
-5157 5159 5217 0
5157 -5159 5217 0
-5162 -5164 -5220 0
5162 5164 -5220 0
-5162 5164 5220 0
5162 -5164 5220 0
-5166 -5168 -5221 0
5166 5168 -5221 0
-5166 5168 5221 0
5166 -5168 5221 0
-5170 -5172 -5223 0
5170 5172 -5223 0
-5170 5172 5223 0
5170 -5172 5223 0
-5174 -5176 -5225 0
5174 5176 -5225 0
-5174 5176 5225 0
5174 -5176 5225 0
-5178 -5180 -5227 0
5178 5180 -5227 0
-5178 5180 5227 0
5178 -5180 5227 0
-5182 -5184 -5229 0
5182 5184 -5229 0
-5182 5184 5229 0
5182 -5184 5229 0
-5186 -5188 -5231 0
5186 5188 -5231 0
-5186 5188 5231 0
5186 -5188 5231 0
-5190 -5192 -5233 0
5190 5192 -5233 0
-5190 5192 5233 0
5190 -5192 5233 0
-5194 -5196 -5235 0
5194 5196 -5235 0
-5194 5196 5235 0
5194 -5196 5235 0
-5198 -5200 -5237 0
5198 5200 -5237 0
-5198 5200 5237 0
5198 -5200 5237 0
-5199 -5201 -5239 0
5199 5201 -5239 0
5199 -5201 5239 0
-5199 5201 5239 0
-5203 -5204 -5241 0
5203 5204 -5241 0
-5203 5204 5241 0
5203 -5204 5241 0
-5205 -5207 -5242 0
5205 5207 -5242 0
-5205 5207 5242 0
5205 -5207 5242 0
-5209 -5210 -5244 0
5209 5210 -5244 0
-5209 5210 5244 0
5209 -5210 5244 0
-5211 -5213 -5246 0
5211 5213 -5246 0
-5211 5213 5246 0
5211 -5213 5246 0
-5215 -5217 -5248 0
5215 5217 -5248 0
-5215 5217 5248 0
5215 -5217 5248 0
-5219 -5220 -5250 0
5219 5220 -5250 0
-5219 5220 5250 0
5219 -5220 5250 0
-5221 -5223 -5252 0
5221 5223 -5252 0
-5221 5223 5252 0
5221 -5223 5252 0
-5225 -5227 -5254 0
5225 5227 -5254 0
-5225 5227 5254 0
5225 -5227 5254 0
-5229 -5231 -5256 0
5229 5231 -5256 0
-5229 5231 5256 0
5229 -5231 5256 0
-5233 -5235 -5258 0
5233 5235 -5258 0
-5233 5235 5258 0
5233 -5235 5258 0
-5237 -5239 -5260 0
5237 5239 -5260 0
-5237 5239 5260 0
5237 -5239 5260 0
-5202 -5241 -5262 0
5202 5241 -5262 0
-5202 5241 5262 0
5202 -5241 5262 0
-5242 -5244 -5264 0
5242 5244 -5264 0
-5242 5244 5264 0
5242 -5244 5264 0
-5246 -5248 -5266 0
5246 5248 -5266 0
-5246 5248 5266 0
5246 -5248 5266 0
-5250 -5252 -5268 0
5250 5252 -5268 0
-5250 5252 5268 0
5250 -5252 5268 0
-5254 -5256 -5270 0
5254 5256 -5270 0
-5254 5256 5270 0
5254 -5256 5270 0
-5258 -5260 -5272 0
5258 5260 -5272 0
-5258 5260 5272 0
5258 -5260 5272 0
-5262 -5264 -5274 0
5262 5264 -5274 0
-5262 5264 5274 0
5262 -5264 5274 0
-5266 -5268 -5276 0
5266 5268 -5276 0
-5266 5268 5276 0
5266 -5268 5276 0
-5270 -5272 -5278 0
5270 5272 -5278 0
-5270 5272 5278 0
5270 -5272 5278 0
-5274 -5276 -5278 0
5274 5276 -5278 0
-5274 5276 5278 0
5274 -5276 5278 0
-5206 -5208 -5315 0
5206 5208 -5315 0
-5206 5208 5315 0
5206 -5208 5315 0
-5212 -5214 -5282 0
5212 5214 -5282 0
-5212 5214 5282 0
5212 -5214 5282 0
-5216 -5218 -5284 0
5216 5218 -5284 0
-5216 5218 5284 0
5216 -5218 5284 0
-5222 -5224 -5287 0
5222 5224 -5287 0
-5222 5224 5287 0
5222 -5224 5287 0
-5226 -5228 -5288 0
5226 5228 -5288 0
-5226 5228 5288 0
5226 -5228 5288 0
-5230 -5232 -5290 0
5230 5232 -5290 0
-5230 5232 5290 0
5230 -5232 5290 0
-5234 -5236 -5292 0
5234 5236 -5292 0
-5234 5236 5292 0
5234 -5236 5292 0
-5238 -5240 -5294 0
5238 5240 -5294 0
-5238 5240 5294 0
5238 -5240 5294 0
-5243 -5245 -5297 0
5243 5245 -5297 0
-5243 5245 5297 0
5243 -5245 5297 0
-5247 -5249 -5298 0
5247 5249 -5298 0
-5247 5249 5298 0
5247 -5249 5298 0
-5251 -5253 -5300 0
5251 5253 -5300 0
-5251 5253 5300 0
5251 -5253 5300 0
-5255 -5257 -5302 0
5255 5257 -5302 0
-5255 5257 5302 0
5255 -5257 5302 0
-5259 -5261 -5304 0
5259 5261 -5304 0
-5259 5261 5304 0
5259 -5261 5304 0
-5263 -5265 -5306 0
5263 5265 -5306 0
-5263 5265 5306 0
5263 -5265 5306 0
-5267 -5269 -5308 0
5267 5269 -5308 0
-5267 5269 5308 0
5267 -5269 5308 0
-5271 -5273 -5310 0
5271 5273 -5310 0
-5271 5273 5310 0
5271 -5273 5310 0
-5275 -5277 -5312 0
5275 5277 -5312 0
-5275 5277 5312 0
5275 -5277 5312 0
-5279 -5280 -5314 0
5279 5280 -5314 0
-5279 5280 5314 0
5279 -5280 5314 0
-5281 -5282 -5316 0
5281 5282 -5316 0
-5281 5282 5316 0
5281 -5282 5316 0
-5284 -5286 -5317 0
5284 5286 -5317 0
-5284 5286 5317 0
5284 -5286 5317 0
-5287 -5288 -5319 0
5287 5288 -5319 0
-5287 5288 5319 0
5287 -5288 5319 0
-5290 -5292 -5321 0
5290 5292 -5321 0
-5290 5292 5321 0
5290 -5292 5321 0
-5294 -5296 -5323 0
5294 5296 -5323 0
-5294 5296 5323 0
5294 -5296 5323 0
-5297 -5298 -5325 0
5297 5298 -5325 0
-5297 5298 5325 0
5297 -5298 5325 0
-5300 -5302 -5327 0
5300 5302 -5327 0
-5300 5302 5327 0
5300 -5302 5327 0
-5304 -5306 -5329 0
5304 5306 -5329 0
-5304 5306 5329 0
5304 -5306 5329 0
-5308 -5310 -5331 0
5308 5310 -5331 0
-5308 5310 5331 0
5308 -5310 5331 0
-5312 -5314 -5333 0
5312 5314 -5333 0
-5312 5314 5333 0
5312 -5314 5333 0
-5278 -5315 -5335 0
5278 5315 -5335 0
-5278 5315 5335 0
5278 -5315 5335 0
-5316 -5317 -5337 0
5316 5317 -5337 0
-5316 5317 5337 0
5316 -5317 5337 0
-5319 -5321 -5339 0
5319 5321 -5339 0
-5319 5321 5339 0
5319 -5321 5339 0
-5323 -5325 -5341 0
5323 5325 -5341 0
-5323 5325 5341 0
5323 -5325 5341 0
-5327 -5329 -5343 0
5327 5329 -5343 0
-5327 5329 5343 0
5327 -5329 5343 0
-5331 -5333 -5345 0
5331 5333 -5345 0
-5331 5333 5345 0
5331 -5333 5345 0
-5335 -5337 -5347 0
5335 5337 -5347 0
-5335 5337 5347 0
5335 -5337 5347 0
-5339 -5341 -5349 0
5339 5341 -5349 0
-5339 5341 5349 0
5339 -5341 5349 0
-5343 -5345 -5351 0
5343 5345 -5351 0
-5343 5345 5351 0
5343 -5345 5351 0
-5347 -5349 -5351 0
5347 5349 -5351 0
-5347 5349 5351 0
5347 -5349 5351 0
-5283 -5285 -5355 0
5283 5285 -5355 0
-5283 5285 5355 0
5283 -5285 5355 0
-5289 -5291 -5357 0
5289 5291 -5357 0
-5289 5291 5357 0
5289 -5291 5357 0
-5293 -5295 -5359 0
5293 5295 -5359 0
-5293 5295 5359 0
5293 -5295 5359 0
-5299 -5301 -5362 0
5299 5301 -5362 0
-5299 5301 5362 0
5299 -5301 5362 0
-5303 -5305 -5363 0
5303 5305 -5363 0
-5303 5305 5363 0
5303 -5305 5363 0
-5307 -5309 -5365 0
5307 5309 -5365 0
-5307 5309 5365 0
5307 -5309 5365 0
-5311 -5313 -5367 0
5311 5313 -5367 0
-5311 5313 5367 0
5311 -5313 5367 0
-5318 -5320 -5370 0
5318 5320 -5370 0
-5318 5320 5370 0
5318 -5320 5370 0
-5322 -5324 -5371 0
5322 5324 -5371 0
-5322 5324 5371 0
5322 -5324 5371 0
-5326 -5328 -5373 0
5326 5328 -5373 0
-5326 5328 5373 0
5326 -5328 5373 0
-5330 -5332 -5375 0
5330 5332 -5375 0
-5330 5332 5375 0
5330 -5332 5375 0
-5334 -5336 -5377 0
5334 5336 -5377 0
-5334 5336 5377 0
5334 -5336 5377 0
-5338 -5340 -5379 0
5338 5340 -5379 0
-5338 5340 5379 0
5338 -5340 5379 0
-5342 -5344 -5381 0
5342 5344 -5381 0
-5342 5344 5381 0
5342 -5344 5381 0
-5346 -5348 -5383 0
5346 5348 -5383 0
-5346 5348 5383 0
5346 -5348 5383 0
-5350 -5352 -5385 0
5350 5352 -5385 0
-5350 5352 5385 0
5350 -5352 5385 0
-5351 -5353 -5387 0
5351 5353 -5387 0
5351 -5353 5387 0
-5351 5353 5387 0
-5355 -5356 -5388 0
5355 5356 -5388 0
-5355 5356 5388 0
5355 -5356 5388 0
-5357 -5359 -5390 0
5357 5359 -5390 0
-5357 5359 5390 0
5357 -5359 5390 0
-5361 -5362 -5392 0
5361 5362 -5392 0
-5361 5362 5392 0
5361 -5362 5392 0
-5363 -5365 -5394 0
5363 5365 -5394 0
-5363 5365 5394 0
5363 -5365 5394 0
-5367 -5368 -5396 0
5367 5368 -5396 0
-5367 5368 5396 0
5367 -5368 5396 0
-5369 -5370 -5398 0
5369 5370 -5398 0
-5369 5370 5398 0
5369 -5370 5398 0
-5371 -5373 -5400 0
5371 5373 -5400 0
-5371 5373 5400 0
5371 -5373 5400 0
-5375 -5377 -5402 0
5375 5377 -5402 0
-5375 5377 5402 0
5375 -5377 5402 0
-5379 -5381 -5404 0
5379 5381 -5404 0
-5379 5381 5404 0
5379 -5381 5404 0
-5383 -5385 -5406 0
5383 5385 -5406 0
-5383 5385 5406 0
5383 -5385 5406 0
-5354 -5387 -5408 0
5354 5387 -5408 0
5354 -5387 5408 0
-5354 5387 5408 0
-5388 -5390 -5410 0
5388 5390 -5410 0
-5388 5390 5410 0
5388 -5390 5410 0
-5392 -5394 -5412 0
5392 5394 -5412 0
-5392 5394 5412 0
5392 -5394 5412 0
-5396 -5398 -5414 0
5396 5398 -5414 0
-5396 5398 5414 0
5396 -5398 5414 0
-5400 -5402 -5416 0
5400 5402 -5416 0
-5400 5402 5416 0
5400 -5402 5416 0
-5404 -5406 -5418 0
5404 5406 -5418 0
-5404 5406 5418 0
5404 -5406 5418 0
-5408 -5410 -5420 0
5408 5410 -5420 0
-5408 5410 5420 0
5408 -5410 5420 0
-5412 -5414 -5422 0
5412 5414 -5422 0
-5412 5414 5422 0
5412 -5414 5422 0
-5416 -5418 -5424 0
5416 5418 -5424 0
-5416 5418 5424 0
5416 -5418 5424 0
-5420 -5422 -5424 0
5420 5422 -5424 0
-5420 5422 5424 0
5420 -5422 5424 0
-5358 -5360 -5428 0
5358 5360 -5428 0
-5358 5360 5428 0
5358 -5360 5428 0
-5364 -5366 -5430 0
5364 5366 -5430 0
-5364 5366 5430 0
5364 -5366 5430 0
-5372 -5374 -5433 0
5372 5374 -5433 0
-5372 5374 5433 0
5372 -5374 5433 0
-5376 -5378 -5434 0
5376 5378 -5434 0
-5376 5378 5434 0
5376 -5378 5434 0
-5380 -5382 -5436 0
5380 5382 -5436 0
-5380 5382 5436 0
5380 -5382 5436 0
-5384 -5386 -5438 0
5384 5386 -5438 0
-5384 5386 5438 0
5384 -5386 5438 0
-5389 -5391 -5440 0
5389 5391 -5440 0
-5389 5391 5440 0
5389 -5391 5440 0
-5393 -5395 -5442 0
5393 5395 -5442 0
-5393 5395 5442 0
5393 -5395 5442 0
-5397 -5399 -5444 0
5397 5399 -5444 0
-5397 5399 5444 0
5397 -5399 5444 0
-5401 -5403 -5446 0
5401 5403 -5446 0
-5401 5403 5446 0
5401 -5403 5446 0
-5405 -5407 -5448 0
5405 5407 -5448 0
-5405 5407 5448 0
5405 -5407 5448 0
-5409 -5411 -5450 0
5409 5411 -5450 0
-5409 5411 5450 0
5409 -5411 5450 0
-5413 -5415 -5452 0
5413 5415 -5452 0
-5413 5415 5452 0
5413 -5415 5452 0
-5417 -5419 -5454 0
5417 5419 -5454 0
-5417 5419 5454 0
5417 -5419 5454 0
-5421 -5423 -5456 0
5421 5423 -5456 0
-5421 5423 5456 0
5421 -5423 5456 0
-5425 -5426 -5458 0
5425 5426 -5458 0
-5425 5426 5458 0
5425 -5426 5458 0
-5427 -5428 -5460 0
5427 5428 -5460 0
-5427 5428 5460 0
5427 -5428 5460 0
-5429 -5430 -5461 0
5429 5430 -5461 0
-5429 5430 5461 0
5429 -5430 5461 0
-5431 -5432 -5463 0
5431 5432 -5463 0
-5431 5432 5463 0
5431 -5432 5463 0
-5433 -5434 -5465 0
5433 5434 -5465 0
-5433 5434 5465 0
5433 -5434 5465 0
-5436 -5438 -5467 0
5436 5438 -5467 0
-5436 5438 5467 0
5436 -5438 5467 0
-5439 -5440 -5469 0
5439 5440 -5469 0
-5439 5440 5469 0
5439 -5440 5469 0
-5442 -5444 -5471 0
5442 5444 -5471 0
-5442 5444 5471 0
5442 -5444 5471 0
-5446 -5448 -5473 0
5446 5448 -5473 0
-5446 5448 5473 0
5446 -5448 5473 0
-5450 -5452 -5475 0
5450 5452 -5475 0
-5450 5452 5475 0
5450 -5452 5475 0
-5454 -5456 -5477 0
5454 5456 -5477 0
-5454 5456 5477 0
5454 -5456 5477 0
-5424 -5458 -5479 0
5424 5458 -5479 0
5424 -5458 5479 0
-5424 5458 5479 0
-5460 -5461 -5481 0
5460 5461 -5481 0
-5460 5461 5481 0
5460 -5461 5481 0
-5463 -5465 -5483 0
5463 5465 -5483 0
-5463 5465 5483 0
5463 -5465 5483 0
-5467 -5469 -5485 0
5467 5469 -5485 0
-5467 5469 5485 0
5467 -5469 5485 0
-5471 -5473 -5487 0
5471 5473 -5487 0
-5471 5473 5487 0
5471 -5473 5487 0
-5475 -5477 -5489 0
5475 5477 -5489 0
-5475 5477 5489 0
5475 -5477 5489 0
-5479 -5481 -5491 0
5479 5481 -5491 0
-5479 5481 5491 0
5479 -5481 5491 0
-5483 -5485 -5493 0
5483 5485 -5493 0
-5483 5485 5493 0
5483 -5485 5493 0
-5487 -5489 -5495 0
5487 5489 -5495 0
-5487 5489 5495 0
5487 -5489 5495 0
-5491 -5493 -5495 0
5491 5493 -5495 0
-5491 5493 5495 0
5491 -5493 5495 0
-5435 -5437 -5501 0
5435 5437 -5501 0
-5435 5437 5501 0
5435 -5437 5501 0
-5441 -5443 -5503 0
5441 5443 -5503 0
-5441 5443 5503 0
5441 -5443 5503 0
-5445 -5447 -5505 0
5445 5447 -5505 0
-5445 5447 5505 0
5445 -5447 5505 0
-5449 -5451 -5507 0
5449 5451 -5507 0
-5449 5451 5507 0
5449 -5451 5507 0
-5453 -5455 -5509 0
5453 5455 -5509 0
-5453 5455 5509 0
5453 -5455 5509 0
-5457 -5459 -5511 0
5457 5459 -5511 0
-5457 5459 5511 0
5457 -5459 5511 0
-5462 -5464 -5513 0
5462 5464 -5513 0
-5462 5464 5513 0
5462 -5464 5513 0
-5466 -5468 -5515 0
5466 5468 -5515 0
-5466 5468 5515 0
5466 -5468 5515 0
-5470 -5472 -5517 0
5470 5472 -5517 0
-5470 5472 5517 0
5470 -5472 5517 0
-5474 -5476 -5519 0
5474 5476 -5519 0
-5474 5476 5519 0
5474 -5476 5519 0
-5478 -5480 -5521 0
5478 5480 -5521 0
-5478 5480 5521 0
5478 -5480 5521 0
-5482 -5484 -5523 0
5482 5484 -5523 0
-5482 5484 5523 0
5482 -5484 5523 0
-5486 -5488 -5525 0
5486 5488 -5525 0
-5486 5488 5525 0
5486 -5488 5525 0
-5490 -5492 -5527 0
5490 5492 -5527 0
-5490 5492 5527 0
5490 -5492 5527 0
-5494 -5496 -5529 0
5494 5496 -5529 0
-5494 5496 5529 0
5494 -5496 5529 0
-5495 -5497 -5531 0
5495 5497 -5531 0
5495 -5497 5531 0
-5495 5497 5531 0
-5499 -5500 -5533 0
5499 5500 -5533 0
-5499 5500 5533 0
5499 -5500 5533 0
-5501 -5502 -5534 0
5501 5502 -5534 0
-5501 5502 5534 0
5501 -5502 5534 0
-5503 -5505 -5536 0
5503 5505 -5536 0
-5503 5505 5536 0
5503 -5505 5536 0
-5507 -5509 -5538 0
5507 5509 -5538 0
-5507 5509 5538 0
5507 -5509 5538 0
-5511 -5512 -5540 0
5511 5512 -5540 0
-5511 5512 5540 0
5511 -5512 5540 0
-5513 -5515 -5542 0
5513 5515 -5542 0
-5513 5515 5542 0
5513 -5515 5542 0
-5517 -5519 -5544 0
5517 5519 -5544 0
-5517 5519 5544 0
5517 -5519 5544 0
-5521 -5523 -5546 0
5521 5523 -5546 0
-5521 5523 5546 0
5521 -5523 5546 0
-5525 -5527 -5548 0
5525 5527 -5548 0
-5525 5527 5548 0
5525 -5527 5548 0
-5529 -5531 -5550 0
5529 5531 -5550 0
-5529 5531 5550 0
5529 -5531 5550 0
-5498 -5533 -5552 0
5498 5533 -5552 0
-5498 5533 5552 0
5498 -5533 5552 0
-5534 -5536 -5554 0
5534 5536 -5554 0
-5534 5536 5554 0
5534 -5536 5554 0
-5538 -5540 -5556 0
5538 5540 -5556 0
-5538 5540 5556 0
5538 -5540 5556 0
-5542 -5544 -5558 0
5542 5544 -5558 0
-5542 5544 5558 0
5542 -5544 5558 0
-5546 -5548 -5560 0
5546 5548 -5560 0
-5546 5548 5560 0
5546 -5548 5560 0
-5550 -5552 -5562 0
5550 5552 -5562 0
-5550 5552 5562 0
5550 -5552 5562 0
-5554 -5556 -5564 0
5554 5556 -5564 0
-5554 5556 5564 0
5554 -5556 5564 0
-5558 -5560 -5566 0
5558 5560 -5566 0
-5558 5560 5566 0
5558 -5560 5566 0
-5562 -5564 -5566 0
5562 5564 -5566 0
-5562 5564 5566 0
5562 -5564 5566 0
-5504 -5506 -5570 0
5504 5506 -5570 0
-5504 5506 5570 0
5504 -5506 5570 0
-5508 -5510 -5571 0
5508 5510 -5571 0
-5508 5510 5571 0
5508 -5510 5571 0
-5514 -5516 -5573 0
5514 5516 -5573 0
-5514 5516 5573 0
5514 -5516 5573 0
-5518 -5520 -5575 0
5518 5520 -5575 0
-5518 5520 5575 0
5518 -5520 5575 0
-5522 -5524 -5577 0
5522 5524 -5577 0
-5522 5524 5577 0
5522 -5524 5577 0
-5526 -5528 -5579 0
5526 5528 -5579 0
-5526 5528 5579 0
5526 -5528 5579 0
-5530 -5532 -5581 0
5530 5532 -5581 0
-5530 5532 5581 0
5530 -5532 5581 0
-5535 -5537 -5583 0
5535 5537 -5583 0
-5535 5537 5583 0
5535 -5537 5583 0
-5539 -5541 -5585 0
5539 5541 -5585 0
-5539 5541 5585 0
5539 -5541 5585 0
-5543 -5545 -5587 0
5543 5545 -5587 0
-5543 5545 5587 0
5543 -5545 5587 0
-5547 -5549 -5589 0
5547 5549 -5589 0
-5547 5549 5589 0
5547 -5549 5589 0
-5551 -5553 -5591 0
5551 5553 -5591 0
-5551 5553 5591 0
5551 -5553 5591 0
-5555 -5557 -5593 0
5555 5557 -5593 0
-5555 5557 5593 0
5555 -5557 5593 0
-5559 -5561 -5595 0
5559 5561 -5595 0
-5559 5561 5595 0
5559 -5561 5595 0
-5563 -5565 -5597 0
5563 5565 -5597 0
-5563 5565 5597 0
5563 -5565 5597 0
-5567 -5568 -5599 0
5567 5568 -5599 0
-5567 5568 5599 0
5567 -5568 5599 0
-5570 -5571 -5600 0
5570 5571 -5600 0
-5570 5571 5600 0
5570 -5571 5600 0
-5572 -5573 -5601 0
5572 5573 -5601 0
-5572 5573 5601 0
5572 -5573 5601 0
-5575 -5577 -5603 0
5575 5577 -5603 0
-5575 5577 5603 0
5575 -5577 5603 0
-5579 -5581 -5605 0
5579 5581 -5605 0
-5579 5581 5605 0
5579 -5581 5605 0
-5582 -5583 -5607 0
5582 5583 -5607 0
-5582 5583 5607 0
5582 -5583 5607 0
-5585 -5587 -5609 0
5585 5587 -5609 0
-5585 5587 5609 0
5585 -5587 5609 0
-5589 -5591 -5611 0
5589 5591 -5611 0
-5589 5591 5611 0
5589 -5591 5611 0
-5593 -5595 -5613 0
5593 5595 -5613 0
-5593 5595 5613 0
5593 -5595 5613 0
-5597 -5599 -5615 0
5597 5599 -5615 0
-5597 5599 5615 0
5597 -5599 5615 0
-5566 -5569 -5617 0
5566 5569 -5617 0
-5566 5569 5617 0
5566 -5569 5617 0
-5600 -5601 -5619 0
5600 5601 -5619 0
-5600 5601 5619 0
5600 -5601 5619 0
-5603 -5605 -5621 0
5603 5605 -5621 0
-5603 5605 5621 0
5603 -5605 5621 0
-5607 -5609 -5623 0
5607 5609 -5623 0
-5607 5609 5623 0
5607 -5609 5623 0
-5611 -5613 -5625 0
5611 5613 -5625 0
-5611 5613 5625 0
5611 -5613 5625 0
-5615 -5617 -5627 0
5615 5617 -5627 0
-5615 5617 5627 0
5615 -5617 5627 0
-5619 -5621 -5629 0
5619 5621 -5629 0
-5619 5621 5629 0
5619 -5621 5629 0
-5623 -5625 -5631 0
5623 5625 -5631 0
-5623 5625 5631 0
5623 -5625 5631 0
-5627 -5629 -5631 0
5627 5629 -5631 0
-5627 5629 5631 0
5627 -5629 5631 0
-5574 -5576 -5635 0
5574 5576 -5635 0
-5574 5576 5635 0
5574 -5576 5635 0
-5578 -5580 -5636 0
5578 5580 -5636 0
-5578 5580 5636 0
5578 -5580 5636 0
-5584 -5586 -5638 0
5584 5586 -5638 0
-5584 5586 5638 0
5584 -5586 5638 0
-5588 -5590 -5640 0
5588 5590 -5640 0
-5588 5590 5640 0
5588 -5590 5640 0
-5592 -5594 -5642 0
5592 5594 -5642 0
-5592 5594 5642 0
5592 -5594 5642 0
-5596 -5598 -5644 0
5596 5598 -5644 0
-5596 5598 5644 0
5596 -5598 5644 0
-5602 -5604 -5648 0
5602 5604 -5648 0
-5602 5604 5648 0
5602 -5604 5648 0
-5606 -5608 -5650 0
5606 5608 -5650 0
-5606 5608 5650 0
5606 -5608 5650 0
-5610 -5612 -5652 0
5610 5612 -5652 0
-5610 5612 5652 0
5610 -5612 5652 0
-5614 -5616 -5654 0
5614 5616 -5654 0
-5614 5616 5654 0
5614 -5616 5654 0
-5618 -5620 -5656 0
5618 5620 -5656 0
-5618 5620 5656 0
5618 -5620 5656 0
-5622 -5624 -5658 0
5622 5624 -5658 0
-5622 5624 5658 0
5622 -5624 5658 0
-5626 -5628 -5660 0
5626 5628 -5660 0
-5626 5628 5660 0
5626 -5628 5660 0
-5630 -5632 -5662 0
5630 5632 -5662 0
-5630 5632 5662 0
5630 -5632 5662 0
-5631 -5633 -5664 0
5631 5633 -5664 0
5631 -5633 5664 0
-5631 5633 5664 0
-5634 -5635 -5666 0
5634 5635 -5666 0
-5634 5635 5666 0
5634 -5635 5666 0
-5636 -5637 -5668 0
5636 5637 -5668 0
-5636 5637 5668 0
5636 -5637 5668 0
-5638 -5640 -5670 0
5638 5640 -5670 0
-5638 5640 5670 0
5638 -5640 5670 0
-5642 -5644 -5672 0
5642 5644 -5672 0
-5642 5644 5672 0
5642 -5644 5672 0
-5646 -5647 -5674 0
5646 5647 -5674 0
-5646 5647 5674 0
5646 -5647 5674 0
-5648 -5650 -5676 0
5648 5650 -5676 0
-5648 5650 5676 0
5648 -5650 5676 0
-5652 -5654 -5678 0
5652 5654 -5678 0
-5652 5654 5678 0
5652 -5654 5678 0
-5656 -5658 -5680 0
5656 5658 -5680 0
-5656 5658 5680 0
5656 -5658 5680 0
-5660 -5662 -5682 0
5660 5662 -5682 0
-5660 5662 5682 0
5660 -5662 5682 0
-5664 -5665 -5684 0
5664 5665 -5684 0
-5664 5665 5684 0
5664 -5665 5684 0
-5666 -5668 -5686 0
5666 5668 -5686 0
-5666 5668 5686 0
5666 -5668 5686 0
-5670 -5672 -5688 0
5670 5672 -5688 0
-5670 5672 5688 0
5670 -5672 5688 0
-5674 -5676 -5690 0
5674 5676 -5690 0
-5674 5676 5690 0
5674 -5676 5690 0
-5678 -5680 -5692 0
5678 5680 -5692 0
-5678 5680 5692 0
5678 -5680 5692 0
-5682 -5684 -5694 0
5682 5684 -5694 0
-5682 5684 5694 0
5682 -5684 5694 0
-5686 -5688 -5696 0
5686 5688 -5696 0
-5686 5688 5696 0
5686 -5688 5696 0
-5690 -5692 -5698 0
5690 5692 -5698 0
-5690 5692 5698 0
5690 -5692 5698 0
-5694 -5696 -5698 0
5694 5696 -5698 0
-5694 5696 5698 0
5694 -5696 5698 0
-5639 -5641 -5703 0
5639 5641 -5703 0
-5639 5641 5703 0
5639 -5641 5703 0
-5643 -5645 -5704 0
5643 5645 -5704 0
-5643 5645 5704 0
5643 -5645 5704 0
-5649 -5651 -5732 0
5649 5651 -5732 0
-5649 5651 5732 0
5649 -5651 5732 0
-5653 -5655 -5706 0
5653 5655 -5706 0
-5653 5655 5706 0
5653 -5655 5706 0
-5657 -5659 -5708 0
5657 5659 -5708 0
-5657 5659 5708 0
5657 -5659 5708 0
-5661 -5663 -5710 0
5661 5663 -5710 0
-5661 5663 5710 0
5661 -5663 5710 0
-5667 -5669 -5713 0
5667 5669 -5713 0
-5667 5669 5713 0
5667 -5669 5713 0
-5671 -5673 -5714 0
5671 5673 -5714 0
-5671 5673 5714 0
5671 -5673 5714 0
-5675 -5677 -5716 0
5675 5677 -5716 0
-5675 5677 5716 0
5675 -5677 5716 0
-5679 -5681 -5718 0
5679 5681 -5718 0
-5679 5681 5718 0
5679 -5681 5718 0
-5683 -5685 -5720 0
5683 5685 -5720 0
-5683 5685 5720 0
5683 -5685 5720 0
-5687 -5689 -5722 0
5687 5689 -5722 0
-5687 5689 5722 0
5687 -5689 5722 0
-5691 -5693 -5724 0
5691 5693 -5724 0
-5691 5693 5724 0
5691 -5693 5724 0
-5695 -5697 -5726 0
5695 5697 -5726 0
-5695 5697 5726 0
5695 -5697 5726 0
-5699 -5700 -5728 0
5699 5700 -5728 0
-5699 5700 5728 0
5699 -5700 5728 0
-5701 -5702 -5730 0
5701 5702 -5730 0
-5701 5702 5730 0
5701 -5702 5730 0
-5703 -5704 -5731 0
5703 5704 -5731 0
-5703 5704 5731 0
5703 -5704 5731 0
-5706 -5708 -5733 0
5706 5708 -5733 0
-5706 5708 5733 0
5706 -5708 5733 0
-5710 -5712 -5735 0
5710 5712 -5735 0
-5710 5712 5735 0
5710 -5712 5735 0
-5713 -5714 -5737 0
5713 5714 -5737 0
-5713 5714 5737 0
5713 -5714 5737 0
-5716 -5718 -5739 0
5716 5718 -5739 0
-5716 5718 5739 0
5716 -5718 5739 0
-5720 -5722 -5741 0
5720 5722 -5741 0
-5720 5722 5741 0
5720 -5722 5741 0
-5724 -5726 -5743 0
5724 5726 -5743 0
-5724 5726 5743 0
5724 -5726 5743 0
-5698 -5728 -5745 0
5698 5728 -5745 0
5698 -5728 5745 0
-5698 5728 5745 0
-5730 -5731 -5747 0
5730 5731 -5747 0
-5730 5731 5747 0
5730 -5731 5747 0
-5732 -5733 -5749 0
5732 5733 -5749 0
-5732 5733 5749 0
5732 -5733 5749 0
-5735 -5737 -5751 0
5735 5737 -5751 0
-5735 5737 5751 0
5735 -5737 5751 0
-5739 -5741 -5753 0
5739 5741 -5753 0
-5739 5741 5753 0
5739 -5741 5753 0
-5743 -5745 -5755 0
5743 5745 -5755 0
-5743 5745 5755 0
5743 -5745 5755 0
-5747 -5749 -5757 0
5747 5749 -5757 0
-5747 5749 5757 0
5747 -5749 5757 0
-5751 -5753 -5759 0
5751 5753 -5759 0
-5751 5753 5759 0
5751 -5753 5759 0
-5755 -5757 -5759 0
5755 5757 -5759 0
-5755 5757 5759 0
5755 -5757 5759 0
-5705 -5707 -5764 0
5705 5707 -5764 0
-5705 5707 5764 0
5705 -5707 5764 0
-5709 -5711 -5765 0
5709 5711 -5765 0
-5709 5711 5765 0
5709 -5711 5765 0
-5715 -5717 -5767 0
5715 5717 -5767 0
-5715 5717 5767 0
5715 -5717 5767 0
-5719 -5721 -5769 0
5719 5721 -5769 0
-5719 5721 5769 0
5719 -5721 5769 0
-5723 -5725 -5771 0
5723 5725 -5771 0
-5723 5725 5771 0
5723 -5725 5771 0
-5727 -5729 -5773 0
5727 5729 -5773 0
-5727 5729 5773 0
5727 -5729 5773 0
-5734 -5736 -5777 0
5734 5736 -5777 0
-5734 5736 5777 0
5734 -5736 5777 0
-5738 -5740 -5779 0
5738 5740 -5779 0
-5738 5740 5779 0
5738 -5740 5779 0
-5742 -5744 -5781 0
5742 5744 -5781 0
-5742 5744 5781 0
5742 -5744 5781 0
-5746 -5748 -5783 0
5746 5748 -5783 0
-5746 5748 5783 0
5746 -5748 5783 0
-5750 -5752 -5785 0
5750 5752 -5785 0
-5750 5752 5785 0
5750 -5752 5785 0
-5754 -5756 -5787 0
5754 5756 -5787 0
-5754 5756 5787 0
5754 -5756 5787 0
-5758 -5760 -5789 0
5758 5760 -5789 0
-5758 5760 5789 0
5758 -5760 5789 0
-5759 -5761 -5791 0
5759 5761 -5791 0
5759 -5761 5791 0
-5759 5761 5791 0
-5763 -5764 -5793 0
5763 5764 -5793 0
-5763 5764 5793 0
5763 -5764 5793 0
-5765 -5766 -5794 0
5765 5766 -5794 0
-5765 5766 5794 0
5765 -5766 5794 0
-5767 -5769 -5796 0
5767 5769 -5796 0
-5767 5769 5796 0
5767 -5769 5796 0
-5771 -5773 -5798 0
5771 5773 -5798 0
-5771 5773 5798 0
5771 -5773 5798 0
-5775 -5776 -5800 0
5775 5776 -5800 0
-5775 5776 5800 0
5775 -5776 5800 0
-5777 -5779 -5802 0
5777 5779 -5802 0
-5777 5779 5802 0
5777 -5779 5802 0
-5781 -5783 -5804 0
5781 5783 -5804 0
-5781 5783 5804 0
5781 -5783 5804 0
-5785 -5787 -5806 0
5785 5787 -5806 0
-5785 5787 5806 0
5785 -5787 5806 0
-5789 -5791 -5808 0
5789 5791 -5808 0
-5789 5791 5808 0
5789 -5791 5808 0
-5762 -5793 -5810 0
5762 5793 -5810 0
-5762 5793 5810 0
5762 -5793 5810 0
-5794 -5796 -5812 0
5794 5796 -5812 0
-5794 5796 5812 0
5794 -5796 5812 0
-5798 -5800 -5814 0
5798 5800 -5814 0
-5798 5800 5814 0
5798 -5800 5814 0
-5802 -5804 -5816 0
5802 5804 -5816 0
-5802 5804 5816 0
5802 -5804 5816 0
-5806 -5808 -5818 0
5806 5808 -5818 0
-5806 5808 5818 0
5806 -5808 5818 0
-5810 -5812 -5820 0
5810 5812 -5820 0
-5810 5812 5820 0
5810 -5812 5820 0
-5814 -5816 -5822 0
5814 5816 -5822 0
-5814 5816 5822 0
5814 -5816 5822 0
-5818 -5820 -5822 0
5818 5820 -5822 0
-5818 5820 5822 0
5818 -5820 5822 0
-5768 -5770 -5827 0
5768 5770 -5827 0
-5768 5770 5827 0
5768 -5770 5827 0
-5772 -5774 -5828 0
5772 5774 -5828 0
-5772 5774 5828 0
5772 -5774 5828 0
-5778 -5780 -5855 0
5778 5780 -5855 0
-5778 5780 5855 0
5778 -5780 5855 0
-5782 -5784 -5830 0
5782 5784 -5830 0
-5782 5784 5830 0
5782 -5784 5830 0
-5786 -5788 -5832 0
5786 5788 -5832 0
-5786 5788 5832 0
5786 -5788 5832 0
-5790 -5792 -5834 0
5790 5792 -5834 0
-5790 5792 5834 0
5790 -5792 5834 0
-5795 -5797 -5837 0
5795 5797 -5837 0
-5795 5797 5837 0
5795 -5797 5837 0
-5799 -5801 -5838 0
5799 5801 -5838 0
-5799 5801 5838 0
5799 -5801 5838 0
-5803 -5805 -5840 0
5803 5805 -5840 0
-5803 5805 5840 0
5803 -5805 5840 0
-5807 -5809 -5842 0
5807 5809 -5842 0
-5807 5809 5842 0
5807 -5809 5842 0
-5811 -5813 -5844 0
5811 5813 -5844 0
-5811 5813 5844 0
5811 -5813 5844 0
-5815 -5817 -5846 0
5815 5817 -5846 0
-5815 5817 5846 0
5815 -5817 5846 0
-5819 -5821 -5848 0
5819 5821 -5848 0
-5819 5821 5848 0
5819 -5821 5848 0
-5823 -5824 -5850 0
5823 5824 -5850 0
-5823 5824 5850 0
5823 -5824 5850 0
-5825 -5826 -5851 0
5825 5826 -5851 0
-5825 5826 5851 0
5825 -5826 5851 0
-5827 -5828 -5853 0
5827 5828 -5853 0
-5827 5828 5853 0
5827 -5828 5853 0
-5830 -5832 -5856 0
5830 5832 -5856 0
-5830 5832 5856 0
5830 -5832 5856 0
-5834 -5836 -5857 0
5834 5836 -5857 0
-5834 5836 5857 0
5834 -5836 5857 0
-5837 -5838 -5859 0
5837 5838 -5859 0
-5837 5838 5859 0
5837 -5838 5859 0
-5840 -5842 -5861 0
5840 5842 -5861 0
-5840 5842 5861 0
5840 -5842 5861 0
-5844 -5846 -5863 0
5844 5846 -5863 0
-5844 5846 5863 0
5844 -5846 5863 0
-5848 -5850 -5865 0
5848 5850 -5865 0
-5848 5850 5865 0
5848 -5850 5865 0
-5822 -5851 -5867 0
5822 5851 -5867 0
-5822 5851 5867 0
5822 -5851 5867 0
-5853 -5855 -5869 0
5853 5855 -5869 0
-5853 5855 5869 0
5853 -5855 5869 0
-5856 -5857 -5871 0
5856 5857 -5871 0
-5856 5857 5871 0
5856 -5857 5871 0
-5859 -5861 -5873 0
5859 5861 -5873 0
-5859 5861 5873 0
5859 -5861 5873 0
-5863 -5865 -5875 0
5863 5865 -5875 0
-5863 5865 5875 0
5863 -5865 5875 0
-5867 -5869 -5877 0
5867 5869 -5877 0
-5867 5869 5877 0
5867 -5869 5877 0
-5871 -5873 -5879 0
5871 5873 -5879 0
-5871 5873 5879 0
5871 -5873 5879 0
-5875 -5877 -5879 0
5875 5877 -5879 0
-5875 5877 5879 0
5875 -5877 5879 0
-5829 -5831 -5884 0
5829 5831 -5884 0
-5829 5831 5884 0
5829 -5831 5884 0
-5833 -5835 -5885 0
5833 5835 -5885 0
-5833 5835 5885 0
5833 -5835 5885 0
-5839 -5841 -5887 0
5839 5841 -5887 0
-5839 5841 5887 0
5839 -5841 5887 0
-5843 -5845 -5889 0
5843 5845 -5889 0
-5843 5845 5889 0
5843 -5845 5889 0
-5847 -5849 -5891 0
5847 5849 -5891 0
-5847 5849 5891 0
5847 -5849 5891 0
-5852 -5854 -5893 0
5852 5854 -5893 0
-5852 5854 5893 0
5852 -5854 5893 0
-5858 -5860 -5895 0
5858 5860 -5895 0
-5858 5860 5895 0
5858 -5860 5895 0
-5862 -5864 -5897 0
5862 5864 -5897 0
-5862 5864 5897 0
5862 -5864 5897 0
-5866 -5868 -5899 0
5866 5868 -5899 0
-5866 5868 5899 0
5866 -5868 5899 0
-5870 -5872 -5901 0
5870 5872 -5901 0
-5870 5872 5901 0
5870 -5872 5901 0
-5874 -5876 -5903 0
5874 5876 -5903 0
-5874 5876 5903 0
5874 -5876 5903 0
-5878 -5880 -5905 0
5878 5880 -5905 0
-5878 5880 5905 0
5878 -5880 5905 0
-5879 -5881 -5907 0
5879 5881 -5907 0
5879 -5881 5907 0
-5879 5881 5907 0
-5883 -5884 -5908 0
5883 5884 -5908 0
-5883 5884 5908 0
5883 -5884 5908 0
-5885 -5886 -5910 0
5885 5886 -5910 0
-5885 5886 5910 0
5885 -5886 5910 0
-5887 -5889 -5912 0
5887 5889 -5912 0
-5887 5889 5912 0
5887 -5889 5912 0
-5891 -5892 -5914 0
5891 5892 -5914 0
-5891 5892 5914 0
5891 -5892 5914 0
-5893 -5894 -5916 0
5893 5894 -5916 0
-5893 5894 5916 0
5893 -5894 5916 0
-5895 -5897 -5918 0
5895 5897 -5918 0
-5895 5897 5918 0
5895 -5897 5918 0
-5899 -5901 -5920 0
5899 5901 -5920 0
-5899 5901 5920 0
5899 -5901 5920 0
-5903 -5905 -5922 0
5903 5905 -5922 0
-5903 5905 5922 0
5903 -5905 5922 0
-5882 -5907 -5924 0
5882 5907 -5924 0
5882 -5907 5924 0
-5882 5907 5924 0
-5908 -5910 -5926 0
5908 5910 -5926 0
-5908 5910 5926 0
5908 -5910 5926 0
-5912 -5914 -5928 0
5912 5914 -5928 0
-5912 5914 5928 0
5912 -5914 5928 0
-5916 -5918 -5930 0
5916 5918 -5930 0
-5916 5918 5930 0
5916 -5918 5930 0
-5920 -5922 -5932 0
5920 5922 -5932 0
-5920 5922 5932 0
5920 -5922 5932 0
-5924 -5926 -5934 0
5924 5926 -5934 0
-5924 5926 5934 0
5924 -5926 5934 0
-5928 -5930 -5936 0
5928 5930 -5936 0
-5928 5930 5936 0
5928 -5930 5936 0
-5932 -5934 -5936 0
5932 5934 -5936 0
-5932 5934 5936 0
5932 -5934 5936 0
-5888 -5890 -5941 0
5888 5890 -5941 0
-5888 5890 5941 0
5888 -5890 5941 0
-5896 -5898 -5944 0
5896 5898 -5944 0
-5896 5898 5944 0
5896 -5898 5944 0
-5900 -5902 -5946 0
5900 5902 -5946 0
-5900 5902 5946 0
5900 -5902 5946 0
-5904 -5906 -5948 0
5904 5906 -5948 0
-5904 5906 5948 0
5904 -5906 5948 0
-5909 -5911 -5950 0
5909 5911 -5950 0
-5909 5911 5950 0
5909 -5911 5950 0
-5913 -5915 -5952 0
5913 5915 -5952 0
-5913 5915 5952 0
5913 -5915 5952 0
-5917 -5919 -5954 0
5917 5919 -5954 0
-5917 5919 5954 0
5917 -5919 5954 0
-5921 -5923 -5956 0
5921 5923 -5956 0
-5921 5923 5956 0
5921 -5923 5956 0
-5925 -5927 -5958 0
5925 5927 -5958 0
-5925 5927 5958 0
5925 -5927 5958 0
-5929 -5931 -5960 0
5929 5931 -5960 0
-5929 5931 5960 0
5929 -5931 5960 0
-5933 -5935 -5962 0
5933 5935 -5962 0
-5933 5935 5962 0
5933 -5935 5962 0
-5937 -5938 -5964 0
5937 5938 -5964 0
-5937 5938 5964 0
5937 -5938 5964 0
-5939 -5940 -5966 0
5939 5940 -5966 0
-5939 5940 5966 0
5939 -5940 5966 0
-5941 -5942 -5967 0
5941 5942 -5967 0
-5941 5942 5967 0
5941 -5942 5967 0
-5943 -5944 -5969 0
5943 5944 -5969 0
-5943 5944 5969 0
5943 -5944 5969 0
-5946 -5948 -5971 0
5946 5948 -5971 0
-5946 5948 5971 0
5946 -5948 5971 0
-5949 -5950 -5973 0
5949 5950 -5973 0
-5949 5950 5973 0
5949 -5950 5973 0
-5952 -5954 -5975 0
5952 5954 -5975 0
-5952 5954 5975 0
5952 -5954 5975 0
-5956 -5958 -5977 0
5956 5958 -5977 0
-5956 5958 5977 0
5956 -5958 5977 0
-5960 -5962 -5979 0
5960 5962 -5979 0
-5960 5962 5979 0
5960 -5962 5979 0
-5936 -5964 -5981 0
5936 5964 -5981 0
5936 -5964 5981 0
-5936 5964 5981 0
-5966 -5967 -5983 0
5966 5967 -5983 0
-5966 5967 5983 0
5966 -5967 5983 0
-5969 -5971 -5985 0
5969 5971 -5985 0
-5969 5971 5985 0
5969 -5971 5985 0
-5973 -5975 -5987 0
5973 5975 -5987 0
-5973 5975 5987 0
5973 -5975 5987 0
-5977 -5979 -5989 0
5977 5979 -5989 0
-5977 5979 5989 0
5977 -5979 5989 0
-5981 -5983 -5991 0
5981 5983 -5991 0
-5981 5983 5991 0
5981 -5983 5991 0
-5985 -5987 -5993 0
5985 5987 -5993 0
-5985 5987 5993 0
5985 -5987 5993 0
-5989 -5991 -5993 0
5989 5991 -5993 0
-5989 5991 5993 0
5989 -5991 5993 0
-5945 -5947 -6021 0
5945 5947 -6021 0
-5945 5947 6021 0
5945 -5947 6021 0
-5951 -5953 -5998 0
5951 5953 -5998 0
-5951 5953 5998 0
5951 -5953 5998 0
-5955 -5957 -5999 0
5955 5957 -5999 0
-5955 5957 5999 0
5955 -5957 5999 0
-5959 -5961 -6001 0
5959 5961 -6001 0
-5959 5961 6001 0
5959 -5961 6001 0
-5963 -5965 -6003 0
5963 5965 -6003 0
-5963 5965 6003 0
5963 -5965 6003 0
-5968 -5970 -6005 0
5968 5970 -6005 0
-5968 5970 6005 0
5968 -5970 6005 0
-5972 -5974 -6007 0
5972 5974 -6007 0
-5972 5974 6007 0
5972 -5974 6007 0
-5976 -5978 -6009 0
5976 5978 -6009 0
-5976 5978 6009 0
5976 -5978 6009 0
-5980 -5982 -6011 0
5980 5982 -6011 0
-5980 5982 6011 0
5980 -5982 6011 0
-5984 -5986 -6013 0
5984 5986 -6013 0
-5984 5986 6013 0
5984 -5986 6013 0
-5988 -5990 -6015 0
5988 5990 -6015 0
-5988 5990 6015 0
5988 -5990 6015 0
-5992 -5994 -6017 0
5992 5994 -6017 0
-5992 5994 6017 0
5992 -5994 6017 0
-5993 -5995 -6019 0
5993 5995 -6019 0
5993 -5995 6019 0
-5993 5995 6019 0
-5997 -5998 -6022 0
5997 5998 -6022 0
-5997 5998 6022 0
5997 -5998 6022 0
-5999 -6001 -6024 0
5999 6001 -6024 0
-5999 6001 6024 0
5999 -6001 6024 0
-6003 -6004 -6026 0
6003 6004 -6026 0
-6003 6004 6026 0
6003 -6004 6026 0
-6005 -6007 -6028 0
6005 6007 -6028 0
-6005 6007 6028 0
6005 -6007 6028 0
-6009 -6011 -6030 0
6009 6011 -6030 0
-6009 6011 6030 0
6009 -6011 6030 0
-6013 -6015 -6032 0
6013 6015 -6032 0
-6013 6015 6032 0
6013 -6015 6032 0
-6017 -6019 -6034 0
6017 6019 -6034 0
-6017 6019 6034 0
6017 -6019 6034 0
-5996 -6021 -6036 0
5996 6021 -6036 0
-5996 6021 6036 0
5996 -6021 6036 0
-6022 -6024 -6038 0
6022 6024 -6038 0
-6022 6024 6038 0
6022 -6024 6038 0
-6026 -6028 -6040 0
6026 6028 -6040 0
-6026 6028 6040 0
6026 -6028 6040 0
-6030 -6032 -6042 0
6030 6032 -6042 0
-6030 6032 6042 0
6030 -6032 6042 0
-6034 -6036 -6044 0
6034 6036 -6044 0
-6034 6036 6044 0
6034 -6036 6044 0
-6038 -6040 -6046 0
6038 6040 -6046 0
-6038 6040 6046 0
6038 -6040 6046 0
-6042 -6044 -6046 0
6042 6044 -6046 0
-6042 6044 6046 0
6042 -6044 6046 0
-6000 -6002 -6051 0
6000 6002 -6051 0
-6000 6002 6051 0
6000 -6002 6051 0
-6006 -6008 -6053 0
6006 6008 -6053 0
-6006 6008 6053 0
6006 -6008 6053 0
-6010 -6012 -6054 0
6010 6012 -6054 0
-6010 6012 6054 0
6010 -6012 6054 0
-6014 -6016 -6056 0
6014 6016 -6056 0
-6014 6016 6056 0
6014 -6016 6056 0
-6018 -6020 -6058 0
6018 6020 -6058 0
-6018 6020 6058 0
6018 -6020 6058 0
-6023 -6025 -6079 0
6023 6025 -6079 0
-6023 6025 6079 0
6023 -6025 6079 0
-6027 -6029 -6060 0
6027 6029 -6060 0
-6027 6029 6060 0
6027 -6029 6060 0
-6031 -6033 -6062 0
6031 6033 -6062 0
-6031 6033 6062 0
6031 -6033 6062 0
-6035 -6037 -6064 0
6035 6037 -6064 0
-6035 6037 6064 0
6035 -6037 6064 0
-6039 -6041 -6066 0
6039 6041 -6066 0
-6039 6041 6066 0
6039 -6041 6066 0
-6043 -6045 -6068 0
6043 6045 -6068 0
-6043 6045 6068 0
6043 -6045 6068 0
-6047 -6048 -6070 0
6047 6048 -6070 0
-6047 6048 6070 0
6047 -6048 6070 0
-6049 -6050 -6071 0
6049 6050 -6071 0
-6049 6050 6071 0
6049 -6050 6071 0
-6051 -6052 -6073 0
6051 6052 -6073 0
-6051 6052 6073 0
6051 -6052 6073 0
-6053 -6054 -6075 0
6053 6054 -6075 0
-6053 6054 6075 0
6053 -6054 6075 0
-6056 -6058 -6077 0
6056 6058 -6077 0
-6056 6058 6077 0
6056 -6058 6077 0
-6060 -6062 -6080 0
6060 6062 -6080 0
-6060 6062 6080 0
6060 -6062 6080 0
-6064 -6066 -6081 0
6064 6066 -6081 0
-6064 6066 6081 0
6064 -6066 6081 0
-6068 -6070 -6083 0
6068 6070 -6083 0
-6068 6070 6083 0
6068 -6070 6083 0
-6046 -6071 -6085 0
6046 6071 -6085 0
-6046 6071 6085 0
6046 -6071 6085 0
-6073 -6075 -6087 0
6073 6075 -6087 0
-6073 6075 6087 0
6073 -6075 6087 0
-6077 -6079 -6089 0
6077 6079 -6089 0
-6077 6079 6089 0
6077 -6079 6089 0
-6080 -6081 -6091 0
6080 6081 -6091 0
-6080 6081 6091 0
6080 -6081 6091 0
-6083 -6085 -6093 0
6083 6085 -6093 0
-6083 6085 6093 0
6083 -6085 6093 0
-6087 -6089 -6095 0
6087 6089 -6095 0
-6087 6089 6095 0
6087 -6089 6095 0
-6091 -6093 -6095 0
6091 6093 -6095 0
-6091 6093 6095 0
6091 -6093 6095 0
-6055 -6057 -6100 0
6055 6057 -6100 0
-6055 6057 6100 0
6055 -6057 6100 0
-6059 -6061 -6102 0
6059 6061 -6102 0
-6059 6061 6102 0
6059 -6061 6102 0
-6063 -6065 -6103 0
6063 6065 -6103 0
-6063 6065 6103 0
6063 -6065 6103 0
-6067 -6069 -6105 0
6067 6069 -6105 0
-6067 6069 6105 0
6067 -6069 6105 0
-6072 -6074 -6108 0
6072 6074 -6108 0
-6072 6074 6108 0
6072 -6074 6108 0
-6076 -6078 -6109 0
6076 6078 -6109 0
-6076 6078 6109 0
6076 -6078 6109 0
-6082 -6084 -6111 0
6082 6084 -6111 0
-6082 6084 6111 0
6082 -6084 6111 0
-6086 -6088 -6113 0
6086 6088 -6113 0
-6086 6088 6113 0
6086 -6088 6113 0
-6090 -6092 -6115 0
6090 6092 -6115 0
-6090 6092 6115 0
6090 -6092 6115 0
-6094 -6096 -6117 0
6094 6096 -6117 0
-6094 6096 6117 0
6094 -6096 6117 0
-6095 -6097 -6119 0
6095 6097 -6119 0
6095 -6097 6119 0
-6095 6097 6119 0
-6099 -6100 -6120 0
6099 6100 -6120 0
-6099 6100 6120 0
6099 -6100 6120 0
-6101 -6102 -6122 0
6101 6102 -6122 0
-6101 6102 6122 0
6101 -6102 6122 0
-6103 -6105 -6124 0
6103 6105 -6124 0
-6103 6105 6124 0
6103 -6105 6124 0
-6107 -6108 -6126 0
6107 6108 -6126 0
-6107 6108 6126 0
6107 -6108 6126 0
-6109 -6110 -6128 0
6109 6110 -6128 0
-6109 6110 6128 0
6109 -6110 6128 0
-6111 -6113 -6130 0
6111 6113 -6130 0
-6111 6113 6130 0
6111 -6113 6130 0
-6115 -6117 -6132 0
6115 6117 -6132 0
-6115 6117 6132 0
6115 -6117 6132 0
-6098 -6119 -6134 0
6098 6119 -6134 0
6098 -6119 6134 0
-6098 6119 6134 0
-6120 -6122 -6136 0
6120 6122 -6136 0
-6120 6122 6136 0
6120 -6122 6136 0
-6124 -6126 -6138 0
6124 6126 -6138 0
-6124 6126 6138 0
6124 -6126 6138 0
-6128 -6130 -6140 0
6128 6130 -6140 0
-6128 6130 6140 0
6128 -6130 6140 0
-6132 -6134 -6142 0
6132 6134 -6142 0
-6132 6134 6142 0
6132 -6134 6142 0
-6136 -6138 -6144 0
6136 6138 -6144 0
-6136 6138 6144 0
6136 -6138 6144 0
-6140 -6142 -6144 0
6140 6142 -6144 0
-6140 6142 6144 0
6140 -6142 6144 0
-6104 -6106 -6149 0
6104 6106 -6149 0
-6104 6106 6149 0
6104 -6106 6149 0
-6112 -6114 -6152 0
6112 6114 -6152 0
-6112 6114 6152 0
6112 -6114 6152 0
-6116 -6118 -6154 0
6116 6118 -6154 0
-6116 6118 6154 0
6116 -6118 6154 0
-6121 -6123 -6157 0
6121 6123 -6157 0
-6121 6123 6157 0
6121 -6123 6157 0
-6125 -6127 -6158 0
6125 6127 -6158 0
-6125 6127 6158 0
6125 -6127 6158 0
-6129 -6131 -6160 0
6129 6131 -6160 0
-6129 6131 6160 0
6129 -6131 6160 0
-6133 -6135 -6162 0
6133 6135 -6162 0
-6133 6135 6162 0
6133 -6135 6162 0
-6137 -6139 -6164 0
6137 6139 -6164 0
-6137 6139 6164 0
6137 -6139 6164 0
-6141 -6143 -6166 0
6141 6143 -6166 0
-6141 6143 6166 0
6141 -6143 6166 0
-6145 -6146 -6168 0
6145 6146 -6168 0
-6145 6146 6168 0
6145 -6146 6168 0
-6147 -6148 -6170 0
6147 6148 -6170 0
-6147 6148 6170 0
6147 -6148 6170 0
-6149 -6150 -6171 0
6149 6150 -6171 0
-6149 6150 6171 0
6149 -6150 6171 0
-6151 -6152 -6173 0
6151 6152 -6173 0
-6151 6152 6173 0
6151 -6152 6173 0
-6154 -6156 -6175 0
6154 6156 -6175 0
-6154 6156 6175 0
6154 -6156 6175 0
-6157 -6158 -6177 0
6157 6158 -6177 0
-6157 6158 6177 0
6157 -6158 6177 0
-6160 -6162 -6179 0
6160 6162 -6179 0
-6160 6162 6179 0
6160 -6162 6179 0
-6164 -6166 -6181 0
6164 6166 -6181 0
-6164 6166 6181 0
6164 -6166 6181 0
-6144 -6168 -6183 0
6144 6168 -6183 0
6144 -6168 6183 0
-6144 6168 6183 0
-6170 -6171 -6185 0
6170 6171 -6185 0
-6170 6171 6185 0
6170 -6171 6185 0
-6173 -6175 -6187 0
6173 6175 -6187 0
-6173 6175 6187 0
6173 -6175 6187 0
-6177 -6179 -6189 0
6177 6179 -6189 0
-6177 6179 6189 0
6177 -6179 6189 0
-6181 -6183 -6191 0
6181 6183 -6191 0
-6181 6183 6191 0
6181 -6183 6191 0
-6185 -6187 -6193 0
6185 6187 -6193 0
-6185 6187 6193 0
6185 -6187 6193 0
-6189 -6191 -6193 0
6189 6191 -6193 0
-6189 6191 6193 0
6189 -6191 6193 0
-6153 -6155 -6217 0
6153 6155 -6217 0
-6153 6155 6217 0
6153 -6155 6217 0
-6159 -6161 -6197 0
6159 6161 -6197 0
-6159 6161 6197 0
6159 -6161 6197 0
-6163 -6165 -6198 0
6163 6165 -6198 0
-6163 6165 6198 0
6163 -6165 6198 0
-6167 -6169 -6200 0
6167 6169 -6200 0
-6167 6169 6200 0
6167 -6169 6200 0
-6172 -6174 -6203 0
6172 6174 -6203 0
-6172 6174 6203 0
6172 -6174 6203 0
-6176 -6178 -6204 0
6176 6178 -6204 0
-6176 6178 6204 0
6176 -6178 6204 0
-6180 -6182 -6206 0
6180 6182 -6206 0
-6180 6182 6206 0
6180 -6182 6206 0
-6184 -6186 -6208 0
6184 6186 -6208 0
-6184 6186 6208 0
6184 -6186 6208 0
-6188 -6190 -6210 0
6188 6190 -6210 0
-6188 6190 6210 0
6188 -6190 6210 0
-6192 -6194 -6212 0
6192 6194 -6212 0
-6192 6194 6212 0
6192 -6194 6212 0
-6193 -6195 -6214 0
6193 6195 -6214 0
6193 -6195 6214 0
-6193 6195 6214 0
-6196 -6197 -6218 0
6196 6197 -6218 0
-6196 6197 6218 0
6196 -6197 6218 0
-6198 -6200 -6220 0
6198 6200 -6220 0
-6198 6200 6220 0
6198 -6200 6220 0
-6202 -6203 -6222 0
6202 6203 -6222 0
-6202 6203 6222 0
6202 -6203 6222 0
-6204 -6206 -6224 0
6204 6206 -6224 0
-6204 6206 6224 0
6204 -6206 6224 0
-6208 -6210 -6226 0
6208 6210 -6226 0
-6208 6210 6226 0
6208 -6210 6226 0
-6212 -6214 -6228 0
6212 6214 -6228 0
-6212 6214 6228 0
6212 -6214 6228 0
-6216 -6217 -6230 0
6216 6217 -6230 0
-6216 6217 6230 0
6216 -6217 6230 0
-6218 -6220 -6232 0
6218 6220 -6232 0
-6218 6220 6232 0
6218 -6220 6232 0
-6222 -6224 -6234 0
6222 6224 -6234 0
-6222 6224 6234 0
6222 -6224 6234 0
-6226 -6228 -6236 0
6226 6228 -6236 0
-6226 6228 6236 0
6226 -6228 6236 0
-6230 -6232 -6238 0
6230 6232 -6238 0
-6230 6232 6238 0
6230 -6232 6238 0
-6234 -6236 -6238 0
6234 6236 -6238 0
-6234 6236 6238 0
6234 -6236 6238 0
-6199 -6201 -6243 0
6199 6201 -6243 0
-6199 6201 6243 0
6199 -6201 6243 0
-6205 -6207 -6245 0
6205 6207 -6245 0
-6205 6207 6245 0
6205 -6207 6245 0
-6209 -6211 -6246 0
6209 6211 -6246 0
-6209 6211 6246 0
6209 -6211 6246 0
-6213 -6215 -6264 0
6213 6215 -6264 0
-6213 6215 6264 0
6213 -6215 6264 0
-6219 -6221 -6249 0
6219 6221 -6249 0
-6219 6221 6249 0
6219 -6221 6249 0
-6223 -6225 -6250 0
6223 6225 -6250 0
-6223 6225 6250 0
6223 -6225 6250 0
-6227 -6229 -6252 0
6227 6229 -6252 0
-6227 6229 6252 0
6227 -6229 6252 0
-6231 -6233 -6254 0
6231 6233 -6254 0
-6231 6233 6254 0
6231 -6233 6254 0
-6235 -6237 -6256 0
6235 6237 -6256 0
-6235 6237 6256 0
6235 -6237 6256 0
-6239 -6240 -6258 0
6239 6240 -6258 0
-6239 6240 6258 0
6239 -6240 6258 0
-6241 -6242 -6259 0
6241 6242 -6259 0
-6241 6242 6259 0
6241 -6242 6259 0
-6243 -6244 -6261 0
6243 6244 -6261 0
-6243 6244 6261 0
6243 -6244 6261 0
-6245 -6246 -6263 0
6245 6246 -6263 0
-6245 6246 6263 0
6245 -6246 6263 0
-6249 -6250 -6265 0
6249 6250 -6265 0
-6249 6250 6265 0
6249 -6250 6265 0
-6252 -6254 -6267 0
6252 6254 -6267 0
-6252 6254 6267 0
6252 -6254 6267 0
-6256 -6258 -6269 0
6256 6258 -6269 0
-6256 6258 6269 0
6256 -6258 6269 0
-6238 -6259 -6271 0
6238 6259 -6271 0
-6238 6259 6271 0
6238 -6259 6271 0
-6261 -6263 -6273 0
6261 6263 -6273 0
-6261 6263 6273 0
6261 -6263 6273 0
-6264 -6265 -6275 0
6264 6265 -6275 0
-6264 6265 6275 0
6264 -6265 6275 0
-6267 -6269 -6277 0
6267 6269 -6277 0
-6267 6269 6277 0
6267 -6269 6277 0
-6271 -6273 -6279 0
6271 6273 -6279 0
-6271 6273 6279 0
6271 -6273 6279 0
-6275 -6277 -6279 0
6275 6277 -6279 0
-6275 6277 6279 0
6275 -6277 6279 0
-6247 -6248 -6284 0
6247 6248 -6284 0
-6247 6248 6284 0
6247 -6248 6284 0
-6251 -6253 -6286 0
6251 6253 -6286 0
-6251 6253 6286 0
6251 -6253 6286 0
-6255 -6257 -6287 0
6255 6257 -6287 0
-6255 6257 6287 0
6255 -6257 6287 0
-6260 -6262 -6289 0
6260 6262 -6289 0
-6260 6262 6289 0
6260 -6262 6289 0
-6266 -6268 -6291 0
6266 6268 -6291 0
-6266 6268 6291 0
6266 -6268 6291 0
-6270 -6272 -6293 0
6270 6272 -6293 0
-6270 6272 6293 0
6270 -6272 6293 0
-6274 -6276 -6295 0
6274 6276 -6295 0
-6274 6276 6295 0
6274 -6276 6295 0
-6278 -6280 -6297 0
6278 6280 -6297 0
-6278 6280 6297 0
6278 -6280 6297 0
-6279 -6281 -6299 0
6279 6281 -6299 0
6279 -6281 6299 0
-6279 6281 6299 0
-6283 -6284 -6300 0
6283 6284 -6300 0
-6283 6284 6300 0
6283 -6284 6300 0
-6285 -6286 -6302 0
6285 6286 -6302 0
-6285 6286 6302 0
6285 -6286 6302 0
-6287 -6288 -6304 0
6287 6288 -6304 0
-6287 6288 6304 0
6287 -6288 6304 0
-6289 -6290 -6306 0
6289 6290 -6306 0
-6289 6290 6306 0
6289 -6290 6306 0
-6291 -6293 -6308 0
6291 6293 -6308 0
-6291 6293 6308 0
6291 -6293 6308 0
-6295 -6297 -6310 0
6295 6297 -6310 0
-6295 6297 6310 0
6295 -6297 6310 0
-6282 -6299 -6312 0
6282 6299 -6312 0
6282 -6299 6312 0
-6282 6299 6312 0
-6300 -6302 -6314 0
6300 6302 -6314 0
-6300 6302 6314 0
6300 -6302 6314 0
-6304 -6306 -6316 0
6304 6306 -6316 0
-6304 6306 6316 0
6304 -6306 6316 0
-6308 -6310 -6318 0
6308 6310 -6318 0
-6308 6310 6318 0
6308 -6310 6318 0
-6312 -6314 -6320 0
6312 6314 -6320 0
-6312 6314 6320 0
6312 -6314 6320 0
-6316 -6318 -6320 0
6316 6318 -6320 0
-6316 6318 6320 0
6316 -6318 6320 0
-6292 -6294 -6327 0
6292 6294 -6327 0
-6292 6294 6327 0
6292 -6294 6327 0
-6296 -6298 -6328 0
6296 6298 -6328 0
-6296 6298 6328 0
6296 -6298 6328 0
-6301 -6303 -6330 0
6301 6303 -6330 0
-6301 6303 6330 0
6301 -6303 6330 0
-6305 -6307 -6332 0
6305 6307 -6332 0
-6305 6307 6332 0
6305 -6307 6332 0
-6309 -6311 -6334 0
6309 6311 -6334 0
-6309 6311 6334 0
6309 -6311 6334 0
-6313 -6315 -6336 0
6313 6315 -6336 0
-6313 6315 6336 0
6313 -6315 6336 0
-6317 -6319 -6338 0
6317 6319 -6338 0
-6317 6319 6338 0
6317 -6319 6338 0
-6321 -6322 -6340 0
6321 6322 -6340 0
-6321 6322 6340 0
6321 -6322 6340 0
-6323 -6324 -6342 0
6323 6324 -6342 0
-6323 6324 6342 0
6323 -6324 6342 0
-6325 -6326 -6343 0
6325 6326 -6343 0
-6325 6326 6343 0
6325 -6326 6343 0
-6327 -6328 -6345 0
6327 6328 -6345 0
-6327 6328 6345 0
6327 -6328 6345 0
-6329 -6330 -6347 0
6329 6330 -6347 0
-6329 6330 6347 0
6329 -6330 6347 0
-6332 -6334 -6349 0
6332 6334 -6349 0
-6332 6334 6349 0
6332 -6334 6349 0
-6336 -6338 -6351 0
6336 6338 -6351 0
-6336 6338 6351 0
6336 -6338 6351 0
-6320 -6340 -6353 0
6320 6340 -6353 0
6320 -6340 6353 0
-6320 6340 6353 0
-6342 -6343 -6355 0
6342 6343 -6355 0
-6342 6343 6355 0
6342 -6343 6355 0
-6345 -6347 -6357 0
6345 6347 -6357 0
-6345 6347 6357 0
6345 -6347 6357 0
-6349 -6351 -6359 0
6349 6351 -6359 0
-6349 6351 6359 0
6349 -6351 6359 0
-6353 -6355 -6361 0
6353 6355 -6361 0
-6353 6355 6361 0
6353 -6355 6361 0
-6357 -6359 -6361 0
6357 6359 -6361 0
-6357 6359 6361 0
6357 -6359 6361 0
-6331 -6333 -6366 0
6331 6333 -6366 0
-6331 6333 6366 0
6331 -6333 6366 0
-6335 -6337 -6368 0
6335 6337 -6368 0
-6335 6337 6368 0
6335 -6337 6368 0
-6339 -6341 -6370 0
6339 6341 -6370 0
-6339 6341 6370 0
6339 -6341 6370 0
-6344 -6346 -6372 0
6344 6346 -6372 0
-6344 6346 6372 0
6344 -6346 6372 0
-6348 -6350 -6374 0
6348 6350 -6374 0
-6348 6350 6374 0
6348 -6350 6374 0
-6352 -6354 -6376 0
6352 6354 -6376 0
-6352 6354 6376 0
6352 -6354 6376 0
-6356 -6358 -6378 0
6356 6358 -6378 0
-6356 6358 6378 0
6356 -6358 6378 0
-6360 -6362 -6380 0
6360 6362 -6380 0
-6360 6362 6380 0
6360 -6362 6380 0
-6361 -6363 -6382 0
6361 6363 -6382 0
6361 -6363 6382 0
-6361 6363 6382 0
-6364 -6365 -6393 0
6364 6365 -6393 0
-6364 6365 6393 0
6364 -6365 6393 0
-6366 -6368 -6384 0
6366 6368 -6384 0
-6366 6368 6384 0
6366 -6368 6384 0
-6370 -6371 -6386 0
6370 6371 -6386 0
-6370 6371 6386 0
6370 -6371 6386 0
-6372 -6374 -6388 0
6372 6374 -6388 0
-6372 6374 6388 0
6372 -6374 6388 0
-6376 -6378 -6390 0
6376 6378 -6390 0
-6376 6378 6390 0
6376 -6378 6390 0
-6380 -6382 -6392 0
6380 6382 -6392 0
-6380 6382 6392 0
6380 -6382 6392 0
-6384 -6386 -6394 0
6384 6386 -6394 0
-6384 6386 6394 0
6384 -6386 6394 0
-6388 -6390 -6396 0
6388 6390 -6396 0
-6388 6390 6396 0
6388 -6390 6396 0
-6392 -6393 -6398 0
6392 6393 -6398 0
-6392 6393 6398 0
6392 -6393 6398 0
-6394 -6396 -6398 0
6394 6396 -6398 0
-6394 6396 6398 0
6394 -6396 6398 0
-6367 -6369 -6415 0
6367 6369 -6415 0
-6367 6369 6415 0
6367 -6369 6415 0
-6373 -6375 -6402 0
6373 6375 -6402 0
-6373 6375 6402 0
6373 -6375 6402 0
-6377 -6379 -6404 0
6377 6379 -6404 0
-6377 6379 6404 0
6377 -6379 6404 0
-6381 -6383 -6406 0
6381 6383 -6406 0
-6381 6383 6406 0
6381 -6383 6406 0
-6385 -6387 -6408 0
6385 6387 -6408 0
-6385 6387 6408 0
6385 -6387 6408 0
-6389 -6391 -6410 0
6389 6391 -6410 0
-6389 6391 6410 0
6389 -6391 6410 0
-6395 -6397 -6413 0
6395 6397 -6413 0
-6395 6397 6413 0
6395 -6397 6413 0
-6399 -6400 -6414 0
6399 6400 -6414 0
-6399 6400 6414 0
6399 -6400 6414 0
-6401 -6402 -6416 0
6401 6402 -6416 0
-6401 6402 6416 0
6401 -6402 6416 0
-6404 -6406 -6417 0
6404 6406 -6417 0
-6404 6406 6417 0
6404 -6406 6417 0
-6407 -6408 -6419 0
6407 6408 -6419 0
-6407 6408 6419 0
6407 -6408 6419 0
-6410 -6412 -6421 0
6410 6412 -6421 0
-6410 6412 6421 0
6410 -6412 6421 0
-6413 -6414 -6423 0
6413 6414 -6423 0
-6413 6414 6423 0
6413 -6414 6423 0
-6398 -6415 -6425 0
6398 6415 -6425 0
-6398 6415 6425 0
6398 -6415 6425 0
-6416 -6417 -6427 0
6416 6417 -6427 0
-6416 6417 6427 0
6416 -6417 6427 0
-6419 -6421 -6429 0
6419 6421 -6429 0
-6419 6421 6429 0
6419 -6421 6429 0
-6423 -6425 -6431 0
6423 6425 -6431 0
-6423 6425 6431 0
6423 -6425 6431 0
-6427 -6429 -6431 0
6427 6429 -6431 0
-6427 6429 6431 0
6427 -6429 6431 0
-6403 -6405 -6435 0
6403 6405 -6435 0
-6403 6405 6435 0
6403 -6405 6435 0
-6409 -6411 -6437 0
6409 6411 -6437 0
-6409 6411 6437 0
6409 -6411 6437 0
-6418 -6420 -6441 0
6418 6420 -6441 0
-6418 6420 6441 0
6418 -6420 6441 0
-6422 -6424 -6443 0
6422 6424 -6443 0
-6422 6424 6443 0
6422 -6424 6443 0
-6426 -6428 -6445 0
6426 6428 -6445 0
-6426 6428 6445 0
6426 -6428 6445 0
-6430 -6432 -6447 0
6430 6432 -6447 0
-6430 6432 6447 0
6430 -6432 6447 0
-6431 -6433 -6449 0
6431 6433 -6449 0
6431 -6433 6449 0
-6431 6433 6449 0
-6435 -6436 -6450 0
6435 6436 -6450 0
-6435 6436 6450 0
6435 -6436 6450 0
-6437 -6438 -6452 0
6437 6438 -6452 0
-6437 6438 6452 0
6437 -6438 6452 0
-6439 -6440 -6454 0
6439 6440 -6454 0
-6439 6440 6454 0
6439 -6440 6454 0
-6441 -6443 -6456 0
6441 6443 -6456 0
-6441 6443 6456 0
6441 -6443 6456 0
-6445 -6447 -6458 0
6445 6447 -6458 0
-6445 6447 6458 0
6445 -6447 6458 0
-6434 -6449 -6460 0
6434 6449 -6460 0
6434 -6449 6460 0
-6434 6449 6460 0
-6450 -6452 -6462 0
6450 6452 -6462 0
-6450 6452 6462 0
6450 -6452 6462 0
-6454 -6456 -6464 0
6454 6456 -6464 0
-6454 6456 6464 0
6454 -6456 6464 0
-6458 -6460 -6466 0
6458 6460 -6466 0
-6458 6460 6466 0
6458 -6460 6466 0
-6462 -6464 -6466 0
6462 6464 -6466 0
-6462 6464 6466 0
6462 -6464 6466 0
-6442 -6444 -6485 0
6442 6444 -6485 0
-6442 6444 6485 0
6442 -6444 6485 0
-6446 -6448 -6472 0
6446 6448 -6472 0
-6446 6448 6472 0
6446 -6448 6472 0
-6451 -6453 -6475 0
6451 6453 -6475 0
-6451 6453 6475 0
6451 -6453 6475 0
-6455 -6457 -6476 0
6455 6457 -6476 0
-6455 6457 6476 0
6455 -6457 6476 0
-6459 -6461 -6478 0
6459 6461 -6478 0
-6459 6461 6478 0
6459 -6461 6478 0
-6463 -6465 -6480 0
6463 6465 -6480 0
-6463 6465 6480 0
6463 -6465 6480 0
-6467 -6468 -6482 0
6467 6468 -6482 0
-6467 6468 6482 0
6467 -6468 6482 0
-6469 -6470 -6484 0
6469 6470 -6484 0
-6469 6470 6484 0
6469 -6470 6484 0
-6472 -6474 -6486 0
6472 6474 -6486 0
-6472 6474 6486 0
6472 -6474 6486 0
-6475 -6476 -6487 0
6475 6476 -6487 0
-6475 6476 6487 0
6475 -6476 6487 0
-6478 -6480 -6489 0
6478 6480 -6489 0
-6478 6480 6489 0
6478 -6480 6489 0
-6466 -6482 -6491 0
6466 6482 -6491 0
6466 -6482 6491 0
-6466 6482 6491 0
-6484 -6485 -6493 0
6484 6485 -6493 0
-6484 6485 6493 0
6484 -6485 6493 0
-6486 -6487 -6495 0
6486 6487 -6495 0
-6486 6487 6495 0
6486 -6487 6495 0
-6489 -6491 -6497 0
6489 6491 -6497 0
-6489 6491 6497 0
6489 -6491 6497 0
-6493 -6495 -6497 0
6493 6495 -6497 0
-6493 6495 6497 0
6493 -6495 6497 0
-6471 -6473 -6500 0
6471 6473 -6500 0
-6471 6473 6500 0
6471 -6473 6500 0
-6477 -6479 -6502 0
6477 6479 -6502 0
-6477 6479 6502 0
6477 -6479 6502 0
-6481 -6483 -6504 0
6481 6483 -6504 0
-6481 6483 6504 0
6481 -6483 6504 0
-6488 -6490 -6508 0
6488 6490 -6508 0
-6488 6490 6508 0
6488 -6490 6508 0
-6492 -6494 -6510 0
6492 6494 -6510 0
-6492 6494 6510 0
6492 -6494 6510 0
-6496 -6498 -6512 0
6496 6498 -6512 0
-6496 6498 6512 0
6496 -6498 6512 0
-6497 -6499 -6514 0
6497 6499 -6514 0
6497 -6499 6514 0
-6497 6499 6514 0
-6500 -6501 -6524 0
6500 6501 -6524 0
-6500 6501 6524 0
6500 -6501 6524 0
-6502 -6504 -6516 0
6502 6504 -6516 0
-6502 6504 6516 0
6502 -6504 6516 0
-6506 -6507 -6518 0
6506 6507 -6518 0
-6506 6507 6518 0
6506 -6507 6518 0
-6508 -6510 -6520 0
6508 6510 -6520 0
-6508 6510 6520 0
6508 -6510 6520 0
-6512 -6514 -6522 0
6512 6514 -6522 0
-6512 6514 6522 0
6512 -6514 6522 0
-6516 -6518 -6525 0
6516 6518 -6525 0
-6516 6518 6525 0
6516 -6518 6525 0
-6520 -6522 -6526 0
6520 6522 -6526 0
-6520 6522 6526 0
6520 -6522 6526 0
-6524 -6525 -6526 0
6524 6525 -6526 0
-6524 6525 6526 0
6524 -6525 6526 0
-6503 -6505 -6530 0
6503 6505 -6530 0
-6503 6505 6530 0
6503 -6505 6530 0
-6509 -6511 -6540 0
6509 6511 -6540 0
-6509 6511 6540 0
6509 -6511 6540 0
-6513 -6515 -6532 0
6513 6515 -6532 0
-6513 6515 6532 0
6513 -6515 6532 0
-6517 -6519 -6535 0
6517 6519 -6535 0
-6517 6519 6535 0
6517 -6519 6535 0
-6521 -6523 -6536 0
6521 6523 -6536 0
-6521 6523 6536 0
6521 -6523 6536 0
-6527 -6528 -6538 0
6527 6528 -6538 0
-6527 6528 6538 0
6527 -6528 6538 0
-6529 -6530 -6539 0
6529 6530 -6539 0
-6529 6530 6539 0
6529 -6530 6539 0
-6532 -6534 -6541 0
6532 6534 -6541 0
-6532 6534 6541 0
6532 -6534 6541 0
-6535 -6536 -6543 0
6535 6536 -6543 0
-6535 6536 6543 0
6535 -6536 6543 0
-6537 -6538 -6545 0
6537 6538 -6545 0
-6537 6538 6545 0
6537 -6538 6545 0
-6526 -6539 -6547 0
6526 6539 -6547 0
-6526 6539 6547 0
6526 -6539 6547 0
-6540 -6541 -6549 0
6540 6541 -6549 0
-6540 6541 6549 0
6540 -6541 6549 0
-6543 -6545 -6551 0
6543 6545 -6551 0
-6543 6545 6551 0
6543 -6545 6551 0
-6547 -6549 -6551 0
6547 6549 -6551 0
-6547 6549 6551 0
6547 -6549 6551 0
-6531 -6533 -6555 0
6531 6533 -6555 0
-6531 6533 6555 0
6531 -6533 6555 0
-6542 -6544 -6560 0
6542 6544 -6560 0
-6542 6544 6560 0
6542 -6544 6560 0
-6546 -6548 -6561 0
6546 6548 -6561 0
-6546 6548 6561 0
6546 -6548 6561 0
-6550 -6552 -6563 0
6550 6552 -6563 0
-6550 6552 6563 0
6550 -6552 6563 0
-6551 -6553 -6565 0
6551 6553 -6565 0
6551 -6553 6565 0
-6551 6553 6565 0
-6555 -6556 -6566 0
6555 6556 -6566 0
-6555 6556 6566 0
6555 -6556 6566 0
-6557 -6558 -6568 0
6557 6558 -6568 0
-6557 6558 6568 0
6557 -6558 6568 0
-6559 -6560 -6570 0
6559 6560 -6570 0
-6559 6560 6570 0
6559 -6560 6570 0
-6561 -6563 -6572 0
6561 6563 -6572 0
-6561 6563 6572 0
6561 -6563 6572 0
-6554 -6565 -6574 0
6554 6565 -6574 0
6554 -6565 6574 0
-6554 6565 6574 0
-6566 -6568 -6576 0
6566 6568 -6576 0
-6566 6568 6576 0
6566 -6568 6576 0
-6570 -6572 -6578 0
6570 6572 -6578 0
-6570 6572 6578 0
6570 -6572 6578 0
-6574 -6576 -6578 0
6574 6576 -6578 0
-6574 6576 6578 0
6574 -6576 6578 0
-6562 -6564 -6583 0
6562 6564 -6583 0
-6562 6564 6583 0
6562 -6564 6583 0
-6567 -6569 -6585 0
6567 6569 -6585 0
-6567 6569 6585 0
6567 -6569 6585 0
-6571 -6573 -6587 0
6571 6573 -6587 0
-6571 6573 6587 0
6571 -6573 6587 0
-6575 -6577 -6589 0
6575 6577 -6589 0
-6575 6577 6589 0
6575 -6577 6589 0
-6579 -6580 -6591 0
6579 6580 -6591 0
-6579 6580 6591 0
6579 -6580 6591 0
-6582 -6583 -6593 0
6582 6583 -6593 0
-6582 6583 6593 0
6582 -6583 6593 0
-6584 -6585 -6595 0
6584 6585 -6595 0
-6584 6585 6595 0
6584 -6585 6595 0
-6587 -6589 -6597 0
6587 6589 -6597 0
-6587 6589 6597 0
6587 -6589 6597 0
-6578 -6591 -6599 0
6578 6591 -6599 0
6578 -6591 6599 0
-6578 6591 6599 0
-6581 -6593 -6601 0
6581 6593 -6601 0
-6581 6593 6601 0
6581 -6593 6601 0
-6595 -6597 -6603 0
6595 6597 -6603 0
-6595 6597 6603 0
6595 -6597 6603 0
-6599 -6601 -6603 0
6599 6601 -6603 0
-6599 6601 6603 0
6599 -6601 6603 0
-6586 -6588 -6607 0
6586 6588 -6607 0
-6586 6588 6607 0
6586 -6588 6607 0
-6590 -6592 -6616 0
6590 6592 -6616 0
-6590 6592 6616 0
6590 -6592 6616 0
-6594 -6596 -6608 0
6594 6596 -6608 0
-6594 6596 6608 0
6594 -6596 6608 0
-6598 -6600 -6610 0
6598 6600 -6610 0
-6598 6600 6610 0
6598 -6600 6610 0
-6602 -6604 -6612 0
6602 6604 -6612 0
-6602 6604 6612 0
6602 -6604 6612 0
-6603 -6605 -6614 0
6603 6605 -6614 0
6603 -6605 6614 0
-6603 6605 6614 0
-6606 -6607 -6619 0
6606 6607 -6619 0
-6606 6607 6619 0
6606 -6607 6619 0
-6608 -6610 -6617 0
6608 6610 -6617 0
-6608 6610 6617 0
6608 -6610 6617 0
-6612 -6614 -6618 0
6612 6614 -6618 0
-6612 6614 6618 0
6612 -6614 6618 0
-6616 -6617 -6620 0
6616 6617 -6620 0
-6616 6617 6620 0
6616 -6617 6620 0
-6618 -6619 -6620 0
6618 6619 -6620 0
-6618 6619 6620 0
6618 -6619 6620 0
-6609 -6611 -6625 0
6609 6611 -6625 0
-6609 6611 6625 0
6609 -6611 6625 0
-6613 -6615 -6626 0
6613 6615 -6626 0
-6613 6615 6626 0
6613 -6615 6626 0
-6621 -6622 -6630 0
6621 6622 -6630 0
-6621 6622 6630 0
6621 -6622 6630 0
-6623 -6624 -6631 0
6623 6624 -6631 0
-6623 6624 6631 0
6623 -6624 6631 0
-6625 -6626 -6633 0
6625 6626 -6633 0
-6625 6626 6633 0
6625 -6626 6633 0
-6627 -6628 -6635 0
6627 6628 -6635 0
-6627 6628 6635 0
6627 -6628 6635 0
-6629 -6630 -6637 0
6629 6630 -6637 0
-6629 6630 6637 0
6629 -6630 6637 0
-6620 -6631 -6639 0
6620 6631 -6639 0
-6620 6631 6639 0
6620 -6631 6639 0
-6633 -6635 -6641 0
6633 6635 -6641 0
-6633 6635 6641 0
6633 -6635 6641 0
-6637 -6639 -6641 0
6637 6639 -6641 0
-6637 6639 6641 0
6637 -6639 6641 0
-6632 -6634 -6647 0
6632 6634 -6647 0
-6632 6634 6647 0
6632 -6634 6647 0
-6636 -6638 -6648 0
6636 6638 -6648 0
-6636 6638 6648 0
6636 -6638 6648 0
-6640 -6642 -6650 0
6640 6642 -6650 0
-6640 6642 6650 0
6640 -6642 6650 0
-6641 -6643 -6652 0
6641 6643 -6652 0
6641 -6643 6652 0
-6641 6643 6652 0
-6646 -6647 -6653 0
6646 6647 -6653 0
-6646 6647 6653 0
6646 -6647 6653 0
-6648 -6650 -6654 0
6648 6650 -6654 0
-6648 6650 6654 0
6648 -6650 6654 0
-6644 -6652 -6656 0
6644 6652 -6656 0
6644 -6652 6656 0
-6644 6652 6656 0
-6645 -6653 -6658 0
6645 6653 -6658 0
-6645 6653 6658 0
6645 -6653 6658 0
-6654 -6656 -6658 0
6654 6656 -6658 0
-6654 6656 6658 0
6654 -6656 6658 0
-6649 -6651 -6662 0
6649 6651 -6662 0
-6649 6651 6662 0
6649 -6651 6662 0
-6655 -6657 -6665 0
6655 6657 -6665 0
-6655 6657 6665 0
6655 -6657 6665 0
-6659 -6660 -6667 0
6659 6660 -6667 0
-6659 6660 6667 0
6659 -6660 6667 0
-6662 -6663 -6669 0
6662 6663 -6669 0
-6662 6663 6669 0
6662 -6663 6669 0
-6664 -6665 -6671 0
6664 6665 -6671 0
-6664 6665 6671 0
6664 -6665 6671 0
-6658 -6667 -6673 0
6658 6667 -6673 0
6658 -6667 6673 0
-6658 6667 6673 0
-6661 -6669 -6675 0
6661 6669 -6675 0
-6661 6669 6675 0
6661 -6669 6675 0
-6671 -6673 -6675 0
6671 6673 -6675 0
-6671 6673 6675 0
6671 -6673 6675 0
-6666 -6668 -6683 0
6666 6668 -6683 0
-6666 6668 6683 0
6666 -6668 6683 0
-6670 -6672 -6684 0
6670 6672 -6684 0
-6670 6672 6684 0
6670 -6672 6684 0
-6674 -6676 -6679 0
6674 6676 -6679 0
-6674 6676 6679 0
6674 -6676 6679 0
-6675 -6677 -6681 0
6675 6677 -6681 0
6675 -6677 6681 0
-6675 6677 6681 0
-6679 -6681 -6685 0
6679 6681 -6685 0
-6679 6681 6685 0
6679 -6681 6685 0
-6678 -6683 -6686 0
6678 6683 -6686 0
-6678 6683 6686 0
6678 -6683 6686 0
-6684 -6685 -6686 0
6684 6685 -6686 0
-6684 6685 6686 0
6684 -6685 6686 0
-6680 -6682 -6694 0
6680 6682 -6694 0
-6680 6682 6694 0
6680 -6682 6694 0
-6687 -6688 -6692 0
6687 6688 -6692 0
-6687 6688 6692 0
6687 -6688 6692 0
-6689 -6690 -6693 0
6689 6690 -6693 0
-6689 6690 6693 0
6689 -6690 6693 0
-6691 -6692 -6695 0
6691 6692 -6695 0
-6691 6692 6695 0
6691 -6692 6695 0
-6686 -6693 -6697 0
6686 6693 -6697 0
-6686 6693 6697 0
6686 -6693 6697 0
-6694 -6695 -6697 0
6694 6695 -6697 0
-6694 6695 6697 0
6694 -6695 6697 0
-6696 -6698 -6703 0
6696 6698 -6703 0
-6696 6698 6703 0
6696 -6698 6703 0
-6697 -6699 -6704 0
6697 6699 -6704 0
6697 -6699 6704 0
-6697 6699 6704 0
-6702 -6703 -6705 0
6702 6703 -6705 0
-6702 6703 6705 0
6702 -6703 6705 0
-6700 -6704 -6706 0
6700 6704 -6706 0
6700 -6704 6706 0
-6700 6704 6706 0
-6701 -6705 -6706 0
6701 6705 -6706 0
-6701 6705 6706 0
6701 -6705 6706 0
-6707 -6708 -6711 0
6707 6708 -6711 0
-6707 6708 6711 0
6707 -6708 6711 0
-6709 -6710 -6713 0
6709 6710 -6713 0
-6709 6710 6713 0
6709 -6710 6713 0
-6706 -6711 -6715 0
6706 6711 -6715 0
6706 -6711 6715 0
-6706 6711 6715 0
-6712 -6713 -6715 0
6712 6713 -6715 0
-6712 6713 6715 0
6712 -6713 6715 0
-6714 -6716 -6718 0
6714 6716 -6718 0
-6714 6716 6718 0
6714 -6716 6718 0
-6715 -6717 -6720 0
6715 6717 -6720 0
6715 -6717 6720 0
-6715 6717 6720 0
-6718 -6720 -6722 0
6718 6720 -6722 0
-6718 6720 6722 0
6718 -6720 6722 0
-6719 -6721 -6723 0
6719 6721 -6723 0
-6719 6721 6723 0
6719 -6721 6723 0
-6722 -6723 -6724 0
6722 6723 -6724 0
-6722 6723 6724 0
6722 -6723 6724 0
6724 -6725 6726 0
-6724 6725 6726 0
