c Factorization SAT instance #45: N = 515197 = 677 x 761
c p = 677 (10 bits), q = 761 (10 bits)
c N = 515197 (19 bits)
c Generator: generate_instances.py  d=3, k=50, seed=None
p cnf 5817 20549
-1 -2 10 0
1 -10 0
2 -10 0
-1 -3 11 0
1 -11 0
3 -11 0
-1 -4 12 0
1 -12 0
4 -12 0
-1 -5 13 0
1 -13 0
5 -13 0
-1 -6 14 0
1 -14 0
6 -14 0
-1 -7 15 0
1 -15 0
7 -15 0
-1 -8 16 0
1 -16 0
8 -16 0
-1 -9 17 0
1 -17 0
9 -17 0
-1 -18 19 0
18 -19 0
1 -19 0
-2 -18 20 0
18 -20 0
2 -20 0
-3 -18 21 0
18 -21 0
3 -21 0
-4 -18 22 0
18 -22 0
4 -22 0
-5 -18 23 0
18 -23 0
5 -23 0
-6 -18 24 0
18 -24 0
6 -24 0
-7 -18 25 0
18 -25 0
7 -25 0
-8 -18 26 0
18 -26 0
8 -26 0
-9 -18 27 0
18 -27 0
9 -27 0
-1 -28 29 0
28 -29 0
1 -29 0
-2 -28 30 0
28 -30 0
2 -30 0
-3 -28 31 0
28 -31 0
3 -31 0
-4 -28 32 0
28 -32 0
4 -32 0
-5 -28 33 0
28 -33 0
5 -33 0
-6 -28 34 0
28 -34 0
6 -34 0
-7 -28 35 0
28 -35 0
7 -35 0
-8 -28 36 0
28 -36 0
8 -36 0
-9 -28 37 0
28 -37 0
9 -37 0
-1 -38 39 0
38 -39 0
1 -39 0
-2 -38 40 0
38 -40 0
2 -40 0
-3 -38 41 0
38 -41 0
3 -41 0
-4 -38 42 0
38 -42 0
4 -42 0
-5 -38 43 0
38 -43 0
5 -43 0
-6 -38 44 0
38 -44 0
6 -44 0
-7 -38 45 0
38 -45 0
7 -45 0
-8 -38 46 0
38 -46 0
8 -46 0
-9 -38 47 0
38 -47 0
9 -47 0
-1 -48 49 0
48 -49 0
1 -49 0
-2 -48 50 0
48 -50 0
2 -50 0
-3 -48 51 0
48 -51 0
3 -51 0
-4 -48 52 0
48 -52 0
4 -52 0
-5 -48 53 0
48 -53 0
5 -53 0
-6 -48 54 0
48 -54 0
6 -54 0
-7 -48 55 0
48 -55 0
7 -55 0
-8 -48 56 0
48 -56 0
8 -56 0
-9 -48 57 0
48 -57 0
9 -57 0
-1 -58 59 0
58 -59 0
1 -59 0
-2 -58 60 0
58 -60 0
2 -60 0
-3 -58 61 0
58 -61 0
3 -61 0
-4 -58 62 0
58 -62 0
4 -62 0
-5 -58 63 0
58 -63 0
5 -63 0
-6 -58 64 0
58 -64 0
6 -64 0
-7 -58 65 0
58 -65 0
7 -65 0
-8 -58 66 0
58 -66 0
8 -66 0
-9 -58 67 0
58 -67 0
9 -67 0
-1 -68 69 0
68 -69 0
1 -69 0
-2 -68 70 0
68 -70 0
2 -70 0
-3 -68 71 0
68 -71 0
3 -71 0
-4 -68 72 0
68 -72 0
4 -72 0
-5 -68 73 0
68 -73 0
5 -73 0
-6 -68 74 0
68 -74 0
6 -74 0
-7 -68 75 0
68 -75 0
7 -75 0
-8 -68 76 0
68 -76 0
8 -76 0
-9 -68 77 0
68 -77 0
9 -77 0
-1 -78 79 0
78 -79 0
1 -79 0
-2 -78 80 0
78 -80 0
2 -80 0
-3 -78 81 0
78 -81 0
3 -81 0
-4 -78 82 0
78 -82 0
4 -82 0
-5 -78 83 0
78 -83 0
5 -83 0
-6 -78 84 0
78 -84 0
6 -84 0
-7 -78 85 0
78 -85 0
7 -85 0
-8 -78 86 0
78 -86 0
8 -86 0
-9 -78 87 0
78 -87 0
9 -87 0
-1 -88 89 0
88 -89 0
1 -89 0
-2 -88 90 0
88 -90 0
2 -90 0
-3 -88 91 0
88 -91 0
3 -91 0
-4 -88 92 0
88 -92 0
4 -92 0
-5 -88 93 0
88 -93 0
5 -93 0
-6 -88 94 0
88 -94 0
6 -94 0
-7 -88 95 0
88 -95 0
7 -95 0
-8 -88 96 0
88 -96 0
8 -96 0
-9 -88 97 0
88 -97 0
9 -97 0
-1 -2 99 0
2 -99 0
1 -99 0
-1 -18 100 0
18 -100 0
1 -100 0
-3 -10 101 0
3 -101 0
10 -101 0
-19 -28 103 0
19 -103 0
28 -103 0
-99 -100 105 0
99 -105 0
100 -105 0
-102 -104 114 0
102 -114 0
104 -114 0
-4 -11 107 0
4 -107 0
11 -107 0
-20 -29 109 0
20 -109 0
29 -109 0
-38 -101 111 0
38 -111 0
101 -111 0
-103 -105 113 0
103 -113 0
105 -113 0
-108 -110 117 0
108 -117 0
110 -117 0
-112 -114 119 0
112 -119 0
114 -119 0
-115 -116 130 0
115 -130 0
116 -130 0
-5 -12 121 0
5 -121 0
12 -121 0
-21 -30 123 0
21 -123 0
30 -123 0
-39 -48 125 0
39 -125 0
48 -125 0
-107 -109 127 0
107 -127 0
109 -127 0
-111 -113 128 0
111 -128 0
113 -128 0
-117 -119 150 0
117 -150 0
119 -150 0
-120 -122 151 0
120 -151 0
122 -151 0
-124 -126 152 0
124 -152 0
126 -152 0
-129 -130 135 0
129 -135 0
130 -135 0
-131 -132 137 0
131 -137 0
132 -137 0
-133 -134 154 0
133 -154 0
134 -154 0
-6 -13 139 0
6 -139 0
13 -139 0
-22 -31 141 0
22 -141 0
31 -141 0
-40 -49 143 0
40 -143 0
49 -143 0
-58 -121 145 0
58 -145 0
121 -145 0
-123 -125 147 0
123 -147 0
125 -147 0
-127 -128 149 0
127 -149 0
128 -149 0
-135 -137 197 0
135 -197 0
137 -197 0
-138 -140 184 0
138 -184 0
140 -184 0
-142 -144 157 0
142 -157 0
144 -157 0
-146 -148 159 0
146 -159 0
148 -159 0
-150 -151 161 0
150 -161 0
151 -161 0
-152 -153 163 0
152 -163 0
153 -163 0
-154 -155 165 0
154 -165 0
155 -165 0
-156 -158 167 0
156 -167 0
158 -167 0
-160 -162 169 0
160 -169 0
162 -169 0
-164 -166 170 0
164 -170 0
166 -170 0
-7 -14 171 0
7 -171 0
14 -171 0
-23 -32 173 0
23 -173 0
32 -173 0
-41 -50 175 0
41 -175 0
50 -175 0
-59 -68 177 0
59 -177 0
68 -177 0
-139 -141 179 0
139 -179 0
141 -179 0
-143 -145 181 0
143 -181 0
145 -181 0
-147 -149 183 0
147 -183 0
149 -183 0
-157 -159 228 0
157 -228 0
159 -228 0
-161 -163 187 0
161 -187 0
163 -187 0
-165 -167 189 0
165 -189 0
167 -189 0
-169 -170 230 0
169 -230 0
170 -230 0
-172 -174 193 0
172 -193 0
174 -193 0
-176 -178 195 0
176 -195 0
178 -195 0
-180 -182 232 0
180 -232 0
182 -232 0
-184 -185 199 0
184 -199 0
185 -199 0
-186 -188 201 0
186 -201 0
188 -201 0
-190 -191 203 0
190 -203 0
191 -203 0
-192 -194 205 0
192 -205 0
194 -205 0
-196 -197 207 0
196 -207 0
197 -207 0
-198 -200 209 0
198 -209 0
200 -209 0
-202 -204 211 0
202 -211 0
204 -211 0
-206 -208 212 0
206 -212 0
208 -212 0
-8 -15 214 0
8 -214 0
15 -214 0
-24 -33 216 0
24 -216 0
33 -216 0
-42 -51 218 0
42 -218 0
51 -218 0
-60 -69 220 0
60 -220 0
69 -220 0
-78 -171 222 0
78 -222 0
171 -222 0
-173 -175 224 0
173 -224 0
175 -224 0
-177 -179 226 0
177 -226 0
179 -226 0
-181 -183 227 0
181 -227 0
183 -227 0
-187 -189 289 0
187 -289 0
189 -289 0
-193 -195 290 0
193 -290 0
195 -290 0
-199 -201 234 0
199 -234 0
201 -234 0
-203 -205 236 0
203 -236 0
205 -236 0
-207 -209 238 0
207 -238 0
209 -238 0
-211 -212 240 0
211 -240 0
212 -240 0
-210 -213 242 0
210 -242 0
213 -242 0
-215 -217 244 0
215 -244 0
217 -244 0
-219 -221 246 0
219 -246 0
221 -246 0
-223 -225 248 0
223 -248 0
225 -248 0
-228 -229 297 0
228 -297 0
229 -297 0
-230 -231 252 0
230 -252 0
231 -252 0
-232 -233 254 0
232 -254 0
233 -254 0
-235 -237 256 0
235 -256 0
237 -256 0
-239 -241 258 0
239 -258 0
241 -258 0
-243 -245 260 0
243 -260 0
245 -260 0
-247 -249 262 0
247 -262 0
249 -262 0
-250 -251 264 0
250 -264 0
251 -264 0
-253 -255 266 0
253 -266 0
255 -266 0
-257 -259 268 0
257 -268 0
259 -268 0
-261 -263 270 0
261 -270 0
263 -270 0
-265 -267 271 0
265 -271 0
267 -271 0
-9 -16 273 0
9 -273 0
16 -273 0
-25 -34 275 0
25 -275 0
34 -275 0
-43 -52 277 0
43 -277 0
52 -277 0
-61 -70 279 0
61 -279 0
70 -279 0
-79 -88 281 0
79 -281 0
88 -281 0
-214 -216 283 0
214 -283 0
216 -283 0
-218 -220 285 0
218 -285 0
220 -285 0
-222 -224 287 0
222 -287 0
224 -287 0
-226 -227 288 0
226 -288 0
227 -288 0
-234 -236 365 0
234 -365 0
236 -365 0
-238 -240 293 0
238 -293 0
240 -293 0
-242 -244 295 0
242 -295 0
244 -295 0
-246 -248 367 0
246 -367 0
248 -367 0
-252 -254 299 0
252 -299 0
254 -299 0
-256 -258 301 0
256 -301 0
258 -301 0
-260 -262 303 0
260 -303 0
262 -303 0
-264 -266 305 0
264 -305 0
266 -305 0
-268 -270 307 0
268 -307 0
270 -307 0
-269 -271 309 0
271 -309 0
269 -309 0
-272 -274 311 0
272 -311 0
274 -311 0
-276 -278 313 0
276 -313 0
278 -313 0
-280 -282 315 0
280 -315 0
282 -315 0
-284 -286 317 0
284 -317 0
286 -317 0
-289 -290 377 0
289 -377 0
290 -377 0
-291 -292 321 0
291 -321 0
292 -321 0
-294 -296 323 0
294 -323 0
296 -323 0
-297 -298 325 0
297 -325 0
298 -325 0
-300 -302 327 0
300 -327 0
302 -327 0
-304 -306 329 0
304 -329 0
306 -329 0
-308 -310 331 0
308 -331 0
310 -331 0
-312 -314 333 0
312 -333 0
314 -333 0
-316 -318 335 0
316 -335 0
318 -335 0
-319 -320 337 0
319 -337 0
320 -337 0
-322 -324 339 0
322 -339 0
324 -339 0
-326 -328 341 0
326 -341 0
328 -341 0
-330 -332 343 0
330 -343 0
332 -343 0
-334 -336 345 0
334 -345 0
336 -345 0
-338 -340 347 0
338 -347 0
340 -347 0
-342 -344 348 0
342 -348 0
344 -348 0
-17 -26 350 0
17 -350 0
26 -350 0
-35 -44 352 0
35 -352 0
44 -352 0
-53 -62 354 0
53 -354 0
62 -354 0
-71 -80 356 0
71 -356 0
80 -356 0
-89 -273 358 0
89 -358 0
273 -358 0
-275 -277 360 0
275 -360 0
277 -360 0
-279 -281 362 0
279 -362 0
281 -362 0
-283 -285 364 0
283 -364 0
285 -364 0
-287 -288 454 0
287 -454 0
288 -454 0
-293 -295 455 0
293 -455 0
295 -455 0
-299 -301 456 0
299 -456 0
301 -456 0
-303 -305 370 0
303 -370 0
305 -370 0
-307 -309 372 0
307 -372 0
309 -372 0
-311 -313 374 0
311 -374 0
313 -374 0
-315 -317 376 0
315 -376 0
317 -376 0
-321 -323 461 0
321 -461 0
323 -461 0
-325 -327 380 0
325 -380 0
327 -380 0
-329 -331 382 0
329 -382 0
331 -382 0
-333 -335 384 0
333 -384 0
335 -384 0
-337 -339 386 0
337 -386 0
339 -386 0
-341 -343 388 0
341 -388 0
343 -388 0
-345 -347 390 0
345 -390 0
347 -390 0
-346 -348 392 0
348 -392 0
346 -392 0
-349 -351 394 0
349 -394 0
351 -394 0
-353 -355 396 0
353 -396 0
355 -396 0
-357 -359 398 0
357 -398 0
359 -398 0
-361 -363 471 0
361 -471 0
363 -471 0
-365 -366 402 0
365 -402 0
366 -402 0
-367 -368 404 0
367 -404 0
368 -404 0
-369 -371 406 0
369 -406 0
371 -406 0
-373 -375 408 0
373 -408 0
375 -408 0
-377 -378 410 0
377 -410 0
378 -410 0
-379 -381 412 0
379 -412 0
381 -412 0
-383 -385 414 0
383 -414 0
385 -414 0
-387 -389 416 0
387 -416 0
389 -416 0
-391 -393 418 0
391 -418 0
393 -418 0
-395 -397 420 0
395 -420 0
397 -420 0
-399 -400 422 0
399 -422 0
400 -422 0
-401 -403 424 0
401 -424 0
403 -424 0
-405 -407 426 0
405 -426 0
407 -426 0
-409 -411 428 0
409 -428 0
411 -428 0
-413 -415 430 0
413 -430 0
415 -430 0
-417 -419 432 0
417 -432 0
419 -432 0
-421 -423 434 0
421 -434 0
423 -434 0
-425 -427 436 0
425 -436 0
427 -436 0
-429 -431 438 0
429 -438 0
431 -438 0
-433 -435 439 0
433 -439 0
435 -439 0
-27 -36 440 0
27 -440 0
36 -440 0
-45 -54 442 0
45 -442 0
54 -442 0
-63 -72 444 0
63 -444 0
72 -444 0
-81 -90 446 0
81 -446 0
90 -446 0
-350 -352 448 0
350 -448 0
352 -448 0
-354 -356 450 0
354 -450 0
356 -450 0
-358 -360 452 0
358 -452 0
360 -452 0
-362 -364 558 0
362 -558 0
364 -558 0
-370 -372 458 0
370 -458 0
372 -458 0
-374 -376 460 0
374 -460 0
376 -460 0
-380 -382 560 0
380 -560 0
382 -560 0
-384 -386 464 0
384 -464 0
386 -464 0
-388 -390 466 0
388 -466 0
390 -466 0
-392 -394 468 0
392 -468 0
394 -468 0
-396 -398 470 0
396 -470 0
398 -470 0
-402 -404 563 0
402 -563 0
404 -563 0
-406 -408 474 0
406 -474 0
408 -474 0
-410 -412 476 0
410 -476 0
412 -476 0
-414 -416 478 0
414 -478 0
416 -478 0
-418 -420 480 0
418 -480 0
420 -480 0
-422 -424 482 0
422 -482 0
424 -482 0
-426 -428 484 0
426 -484 0
428 -484 0
-430 -432 486 0
430 -486 0
432 -486 0
-434 -436 488 0
434 -488 0
436 -488 0
-438 -439 572 0
438 -572 0
439 -572 0
-441 -443 492 0
441 -492 0
443 -492 0
-445 -447 494 0
445 -494 0
447 -494 0
-449 -451 496 0
449 -496 0
451 -496 0
-453 -454 498 0
453 -498 0
454 -498 0
-455 -456 500 0
455 -500 0
456 -500 0
-457 -459 502 0
457 -502 0
459 -502 0
-461 -462 504 0
461 -504 0
462 -504 0
-463 -465 506 0
463 -506 0
465 -506 0
-467 -469 508 0
467 -508 0
469 -508 0
-471 -472 510 0
471 -510 0
472 -510 0
-473 -475 512 0
473 -512 0
475 -512 0
-477 -479 514 0
477 -514 0
479 -514 0
-481 -483 516 0
481 -516 0
483 -516 0
-485 -487 518 0
485 -518 0
487 -518 0
-489 -490 520 0
489 -520 0
490 -520 0
-491 -493 522 0
491 -522 0
493 -522 0
-495 -497 524 0
495 -524 0
497 -524 0
-499 -501 526 0
499 -526 0
501 -526 0
-503 -505 528 0
503 -528 0
505 -528 0
-507 -509 530 0
507 -530 0
509 -530 0
-511 -513 532 0
511 -532 0
513 -532 0
-515 -517 534 0
515 -534 0
517 -534 0
-519 -521 536 0
519 -536 0
521 -536 0
-523 -525 538 0
523 -538 0
525 -538 0
-527 -529 540 0
527 -540 0
529 -540 0
-531 -533 542 0
531 -542 0
533 -542 0
-535 -537 544 0
535 -544 0
537 -544 0
-539 -541 545 0
539 -545 0
541 -545 0
-37 -46 546 0
37 -546 0
46 -546 0
-55 -64 548 0
55 -548 0
64 -548 0
-73 -82 550 0
73 -550 0
82 -550 0
-91 -440 552 0
91 -552 0
440 -552 0
-442 -444 554 0
442 -554 0
444 -554 0
-446 -448 556 0
446 -556 0
448 -556 0
-450 -452 668 0
450 -668 0
452 -668 0
-458 -460 669 0
458 -669 0
460 -669 0
-464 -466 670 0
464 -670 0
466 -670 0
-468 -470 671 0
468 -671 0
470 -671 0
-474 -476 565 0
474 -565 0
476 -565 0
-478 -480 567 0
478 -567 0
480 -567 0
-482 -484 569 0
482 -569 0
484 -569 0
-486 -488 571 0
486 -571 0
488 -571 0
-492 -494 674 0
492 -674 0
494 -674 0
-496 -498 575 0
496 -575 0
498 -575 0
-500 -502 577 0
500 -577 0
502 -577 0
-504 -506 579 0
504 -579 0
506 -579 0
-508 -510 581 0
508 -581 0
510 -581 0
-512 -514 583 0
512 -583 0
514 -583 0
-516 -518 585 0
516 -585 0
518 -585 0
-520 -522 587 0
520 -587 0
522 -587 0
-524 -526 589 0
524 -589 0
526 -589 0
-528 -530 591 0
528 -591 0
530 -591 0
-532 -534 593 0
532 -593 0
534 -593 0
-536 -538 595 0
536 -595 0
538 -595 0
-540 -542 597 0
540 -597 0
542 -597 0
-544 -545 687 0
544 -687 0
545 -687 0
-547 -549 601 0
547 -601 0
549 -601 0
-551 -553 603 0
551 -603 0
553 -603 0
-555 -557 689 0
555 -689 0
557 -689 0
-559 -560 606 0
559 -606 0
560 -606 0
-561 -562 608 0
561 -608 0
562 -608 0
-563 -564 610 0
563 -610 0
564 -610 0
-566 -568 612 0
566 -612 0
568 -612 0
-570 -572 614 0
570 -614 0
572 -614 0
-573 -574 616 0
573 -616 0
574 -616 0
-576 -578 618 0
576 -618 0
578 -618 0
-580 -582 620 0
580 -620 0
582 -620 0
-584 -586 622 0
584 -622 0
586 -622 0
-588 -590 624 0
588 -624 0
590 -624 0
-592 -594 626 0
592 -626 0
594 -626 0
-596 -598 628 0
596 -628 0
598 -628 0
-599 -600 630 0
599 -630 0
600 -630 0
-602 -604 632 0
602 -632 0
604 -632 0
-558 -605 634 0
558 -634 0
605 -634 0
-607 -609 636 0
607 -636 0
609 -636 0
-611 -613 638 0
611 -638 0
613 -638 0
-615 -617 640 0
615 -640 0
617 -640 0
-619 -621 642 0
619 -642 0
621 -642 0
-623 -625 644 0
623 -644 0
625 -644 0
-627 -629 646 0
627 -646 0
629 -646 0
-631 -633 648 0
631 -648 0
633 -648 0
-635 -637 650 0
635 -650 0
637 -650 0
-639 -641 652 0
639 -652 0
641 -652 0
-643 -645 654 0
643 -654 0
645 -654 0
-647 -649 656 0
647 -656 0
649 -656 0
-651 -653 715 0
651 -715 0
653 -715 0
-47 -56 658 0
47 -658 0
56 -658 0
-65 -74 660 0
65 -660 0
74 -660 0
-83 -92 662 0
83 -662 0
92 -662 0
-546 -548 664 0
546 -664 0
548 -664 0
-550 -552 666 0
550 -666 0
552 -666 0
-554 -556 791 0
554 -791 0
556 -791 0
-565 -567 792 0
565 -792 0
567 -792 0
-569 -571 793 0
569 -793 0
571 -793 0
-575 -577 676 0
575 -676 0
577 -676 0
-579 -581 678 0
579 -678 0
581 -678 0
-583 -585 680 0
583 -680 0
585 -680 0
-587 -589 682 0
587 -682 0
589 -682 0
-591 -593 684 0
591 -684 0
593 -684 0
-595 -597 686 0
595 -686 0
597 -686 0
-601 -603 799 0
601 -799 0
603 -799 0
-606 -608 800 0
606 -800 0
608 -800 0
-610 -612 692 0
610 -692 0
612 -692 0
-614 -616 694 0
614 -694 0
616 -694 0
-618 -620 696 0
618 -696 0
620 -696 0
-622 -624 698 0
622 -698 0
624 -698 0
-626 -628 700 0
626 -700 0
628 -700 0
-630 -632 702 0
630 -702 0
632 -702 0
-634 -636 704 0
634 -704 0
636 -704 0
-638 -640 706 0
638 -706 0
640 -706 0
-642 -644 708 0
642 -708 0
644 -708 0
-646 -648 710 0
646 -710 0
648 -710 0
-650 -652 712 0
650 -712 0
652 -712 0
-654 -656 714 0
654 -714 0
656 -714 0
-657 -659 813 0
657 -813 0
659 -813 0
-661 -663 718 0
661 -718 0
663 -718 0
-665 -667 720 0
665 -720 0
667 -720 0
-668 -669 722 0
668 -722 0
669 -722 0
-670 -671 724 0
670 -724 0
671 -724 0
-672 -673 726 0
672 -726 0
673 -726 0
-674 -675 728 0
674 -728 0
675 -728 0
-677 -679 730 0
677 -730 0
679 -730 0
-681 -683 732 0
681 -732 0
683 -732 0
-685 -687 734 0
685 -734 0
687 -734 0
-688 -689 736 0
688 -736 0
689 -736 0
-690 -691 738 0
690 -738 0
691 -738 0
-693 -695 740 0
693 -740 0
695 -740 0
-697 -699 742 0
697 -742 0
699 -742 0
-701 -703 744 0
701 -744 0
703 -744 0
-705 -707 746 0
705 -746 0
707 -746 0
-709 -711 748 0
709 -748 0
711 -748 0
-713 -715 750 0
713 -750 0
715 -750 0
-716 -717 752 0
716 -752 0
717 -752 0
-719 -721 754 0
719 -754 0
721 -754 0
-723 -725 756 0
723 -756 0
725 -756 0
-727 -729 758 0
727 -758 0
729 -758 0
-731 -733 760 0
731 -760 0
733 -760 0
-735 -737 762 0
735 -762 0
737 -762 0
-739 -741 764 0
739 -764 0
741 -764 0
-743 -745 766 0
743 -766 0
745 -766 0
-747 -749 768 0
747 -768 0
749 -768 0
-751 -753 770 0
751 -770 0
753 -770 0
-755 -757 772 0
755 -772 0
757 -772 0
-759 -761 774 0
759 -774 0
761 -774 0
-763 -765 776 0
763 -776 0
765 -776 0
-767 -769 778 0
767 -778 0
769 -778 0
-771 -773 780 0
771 -780 0
773 -780 0
-775 -777 781 0
775 -781 0
777 -781 0
-57 -66 783 0
57 -783 0
66 -783 0
-75 -84 785 0
75 -785 0
84 -785 0
-93 -658 787 0
93 -787 0
658 -787 0
-660 -662 789 0
660 -789 0
662 -789 0
-664 -666 921 0
664 -921 0
666 -921 0
-676 -678 922 0
676 -922 0
678 -922 0
-680 -682 796 0
680 -796 0
682 -796 0
-684 -686 798 0
684 -798 0
686 -798 0
-692 -694 802 0
692 -802 0
694 -802 0
-696 -698 804 0
696 -804 0
698 -804 0
-700 -702 806 0
700 -806 0
702 -806 0
-704 -706 808 0
704 -808 0
706 -808 0
-708 -710 810 0
708 -810 0
710 -810 0
-712 -714 812 0
712 -812 0
714 -812 0
-718 -720 928 0
718 -928 0
720 -928 0
-722 -724 816 0
722 -816 0
724 -816 0
-726 -728 818 0
726 -818 0
728 -818 0
-730 -732 820 0
730 -820 0
732 -820 0
-734 -736 822 0
734 -822 0
736 -822 0
-738 -740 824 0
738 -824 0
740 -824 0
-742 -744 826 0
742 -826 0
744 -826 0
-746 -748 828 0
746 -828 0
748 -828 0
-750 -752 830 0
750 -830 0
752 -830 0
-754 -756 832 0
754 -832 0
756 -832 0
-758 -760 834 0
758 -834 0
760 -834 0
-762 -764 836 0
762 -836 0
764 -836 0
-766 -768 838 0
766 -838 0
768 -838 0
-770 -772 840 0
770 -840 0
772 -840 0
-774 -776 842 0
774 -842 0
776 -842 0
-778 -780 844 0
778 -844 0
780 -844 0
-779 -781 846 0
781 -846 0
779 -846 0
-782 -784 848 0
782 -848 0
784 -848 0
-786 -788 850 0
786 -850 0
788 -850 0
-790 -791 946 0
790 -946 0
791 -946 0
-793 -794 853 0
793 -853 0
794 -853 0
-795 -797 855 0
795 -855 0
797 -855 0
-799 -800 857 0
799 -857 0
800 -857 0
-801 -803 859 0
801 -859 0
803 -859 0
-805 -807 861 0
805 -861 0
807 -861 0
-809 -811 863 0
809 -863 0
811 -863 0
-813 -814 865 0
813 -865 0
814 -865 0
-815 -817 867 0
815 -867 0
817 -867 0
-819 -821 869 0
819 -869 0
821 -869 0
-823 -825 871 0
823 -871 0
825 -871 0
-827 -829 873 0
827 -873 0
829 -873 0
-831 -833 875 0
831 -875 0
833 -875 0
-835 -837 877 0
835 -877 0
837 -877 0
-839 -841 879 0
839 -879 0
841 -879 0
-843 -845 881 0
843 -881 0
845 -881 0
-847 -849 883 0
847 -883 0
849 -883 0
-792 -851 885 0
851 -885 0
792 -885 0
-852 -854 887 0
852 -887 0
854 -887 0
-856 -858 889 0
856 -889 0
858 -889 0
-860 -862 891 0
860 -891 0
862 -891 0
-864 -866 893 0
864 -893 0
866 -893 0
-868 -870 895 0
868 -895 0
870 -895 0
-872 -874 897 0
872 -897 0
874 -897 0
-876 -878 899 0
876 -899 0
878 -899 0
-880 -882 901 0
880 -901 0
882 -901 0
-884 -886 903 0
884 -903 0
886 -903 0
-888 -890 905 0
888 -905 0
890 -905 0
-892 -894 907 0
892 -907 0
894 -907 0
-896 -898 909 0
896 -909 0
898 -909 0
-900 -902 911 0
900 -911 0
902 -911 0
-904 -906 913 0
904 -913 0
906 -913 0
-908 -910 914 0
908 -914 0
910 -914 0
-67 -76 915 0
67 -915 0
76 -915 0
-85 -94 917 0
85 -917 0
94 -917 0
-783 -785 919 0
783 -919 0
785 -919 0
-787 -789 1051 0
787 -1051 0
789 -1051 0
-796 -798 1052 0
796 -1052 0
798 -1052 0
-802 -804 924 0
802 -924 0
804 -924 0
-806 -808 926 0
806 -926 0
808 -926 0
-810 -812 1054 0
810 -1054 0
812 -1054 0
-816 -818 930 0
816 -930 0
818 -930 0
-820 -822 932 0
820 -932 0
822 -932 0
-824 -826 934 0
824 -934 0
826 -934 0
-828 -830 936 0
828 -936 0
830 -936 0
-832 -834 938 0
832 -938 0
834 -938 0
-836 -838 940 0
836 -940 0
838 -940 0
-840 -842 942 0
840 -942 0
842 -942 0
-844 -846 944 0
844 -944 0
846 -944 0
-848 -850 1063 0
848 -1063 0
850 -1063 0
-853 -855 948 0
853 -948 0
855 -948 0
-857 -859 950 0
857 -950 0
859 -950 0
-861 -863 952 0
861 -952 0
863 -952 0
-865 -867 954 0
865 -954 0
867 -954 0
-869 -871 956 0
869 -956 0
871 -956 0
-873 -875 958 0
873 -958 0
875 -958 0
-877 -879 960 0
877 -960 0
879 -960 0
-881 -883 962 0
881 -962 0
883 -962 0
-885 -887 964 0
885 -964 0
887 -964 0
-889 -891 966 0
889 -966 0
891 -966 0
-893 -895 968 0
893 -968 0
895 -968 0
-897 -899 970 0
897 -970 0
899 -970 0
-901 -903 972 0
901 -972 0
903 -972 0
-905 -907 974 0
905 -974 0
907 -974 0
-909 -911 976 0
909 -976 0
911 -976 0
-913 -914 978 0
913 -978 0
914 -978 0
-916 -918 1078 0
916 -1078 0
918 -1078 0
-920 -921 1079 0
920 -1079 0
921 -1079 0
-923 -925 1080 0
923 -1080 0
925 -1080 0
-927 -928 985 0
927 -985 0
928 -985 0
-929 -931 987 0
929 -987 0
931 -987 0
-933 -935 989 0
933 -989 0
935 -989 0
-937 -939 991 0
937 -991 0
939 -991 0
-941 -943 993 0
941 -993 0
943 -993 0
-945 -946 995 0
945 -995 0
946 -995 0
-947 -949 997 0
947 -997 0
949 -997 0
-951 -953 999 0
951 -999 0
953 -999 0
-955 -957 1001 0
955 -1001 0
957 -1001 0
-959 -961 1003 0
959 -1003 0
961 -1003 0
-963 -965 1005 0
963 -1005 0
965 -1005 0
-967 -969 1007 0
967 -1007 0
969 -1007 0
-971 -973 1009 0
971 -1009 0
973 -1009 0
-975 -977 1011 0
975 -1011 0
977 -1011 0
-979 -980 1013 0
979 -1013 0
980 -1013 0
-922 -981 1015 0
981 -1015 0
922 -1015 0
-982 -983 1017 0
982 -1017 0
983 -1017 0
-984 -986 1019 0
984 -1019 0
986 -1019 0
-988 -990 1021 0
988 -1021 0
990 -1021 0
-992 -994 1023 0
992 -1023 0
994 -1023 0
-996 -998 1025 0
996 -1025 0
998 -1025 0
-1000 -1002 1027 0
1000 -1027 0
1002 -1027 0
-1004 -1006 1029 0
1004 -1029 0
1006 -1029 0
-1008 -1010 1031 0
1008 -1031 0
1010 -1031 0
-1012 -1014 1033 0
1012 -1033 0
1014 -1033 0
-1016 -1018 1035 0
1016 -1035 0
1018 -1035 0
-1020 -1022 1037 0
1020 -1037 0
1022 -1037 0
-1024 -1026 1039 0
1024 -1039 0
1026 -1039 0
-1028 -1030 1041 0
1028 -1041 0
1030 -1041 0
-1032 -1034 1043 0
1032 -1043 0
1034 -1043 0
-1036 -1038 1045 0
1036 -1045 0
1038 -1045 0
-1040 -1042 1046 0
1040 -1046 0
1042 -1046 0
-77 -86 1047 0
77 -1047 0
86 -1047 0
-95 -915 1049 0
95 -1049 0
915 -1049 0
-917 -919 1187 0
917 -1187 0
919 -1187 0
-924 -926 1188 0
924 -1188 0
926 -1188 0
-930 -932 1056 0
930 -1056 0
932 -1056 0
-934 -936 1058 0
934 -1058 0
936 -1058 0
-938 -940 1060 0
938 -1060 0
940 -1060 0
-942 -944 1062 0
942 -1062 0
944 -1062 0
-948 -950 1193 0
948 -1193 0
950 -1193 0
-952 -954 1066 0
952 -1066 0
954 -1066 0
-956 -958 1068 0
956 -1068 0
958 -1068 0
-960 -962 1070 0
960 -1070 0
962 -1070 0
-964 -966 1072 0
964 -1072 0
966 -1072 0
-968 -970 1074 0
968 -1074 0
970 -1074 0
-972 -974 1076 0
972 -1076 0
974 -1076 0
-976 -978 1199 0
976 -1199 0
978 -1199 0
-985 -987 1082 0
985 -1082 0
987 -1082 0
-989 -991 1084 0
989 -1084 0
991 -1084 0
-993 -995 1086 0
993 -1086 0
995 -1086 0
-997 -999 1088 0
997 -1088 0
999 -1088 0
-1001 -1003 1090 0
1001 -1090 0
1003 -1090 0
-1005 -1007 1092 0
1005 -1092 0
1007 -1092 0
-1009 -1011 1094 0
1009 -1094 0
1011 -1094 0
-1013 -1015 1096 0
1013 -1096 0
1015 -1096 0
-1017 -1019 1098 0
1017 -1098 0
1019 -1098 0
-1021 -1023 1100 0
1021 -1100 0
1023 -1100 0
-1025 -1027 1102 0
1025 -1102 0
1027 -1102 0
-1029 -1031 1104 0
1029 -1104 0
1031 -1104 0
-1033 -1035 1106 0
1033 -1106 0
1035 -1106 0
-1037 -1039 1108 0
1037 -1108 0
1039 -1108 0
-1041 -1043 1110 0
1041 -1110 0
1043 -1110 0
-1045 -1046 1112 0
1045 -1112 0
1046 -1112 0
-1048 -1050 1215 0
1048 -1215 0
1050 -1215 0
-1052 -1053 1216 0
1052 -1216 0
1053 -1216 0
-1054 -1055 1117 0
1054 -1117 0
1055 -1117 0
-1057 -1059 1119 0
1057 -1119 0
1059 -1119 0
-1061 -1063 1121 0
1061 -1121 0
1063 -1121 0
-1064 -1065 1123 0
1064 -1123 0
1065 -1123 0
-1067 -1069 1125 0
1067 -1125 0
1069 -1125 0
-1071 -1073 1127 0
1071 -1127 0
1073 -1127 0
-1075 -1077 1129 0
1075 -1129 0
1077 -1129 0
-1078 -1079 1131 0
1078 -1131 0
1079 -1131 0
-1080 -1081 1133 0
1080 -1133 0
1081 -1133 0
-1083 -1085 1135 0
1083 -1135 0
1085 -1135 0
-1087 -1089 1137 0
1087 -1137 0
1089 -1137 0
-1091 -1093 1139 0
1091 -1139 0
1093 -1139 0
-1095 -1097 1141 0
1095 -1141 0
1097 -1141 0
-1099 -1101 1143 0
1099 -1143 0
1101 -1143 0
-1103 -1105 1145 0
1103 -1145 0
1105 -1145 0
-1107 -1109 1147 0
1107 -1147 0
1109 -1147 0
-1111 -1113 1149 0
1111 -1149 0
1113 -1149 0
-1051 -1114 1151 0
1114 -1151 0
1051 -1151 0
-1115 -1116 1153 0
1115 -1153 0
1116 -1153 0
-1118 -1120 1155 0
1118 -1155 0
1120 -1155 0
-1122 -1124 1157 0
1122 -1157 0
1124 -1157 0
-1126 -1128 1159 0
1126 -1159 0
1128 -1159 0
-1130 -1132 1161 0
1130 -1161 0
1132 -1161 0
-1134 -1136 1163 0
1134 -1163 0
1136 -1163 0
-1138 -1140 1165 0
1138 -1165 0
1140 -1165 0
-1142 -1144 1167 0
1142 -1167 0
1144 -1167 0
-1146 -1148 1169 0
1146 -1169 0
1148 -1169 0
-1150 -1152 1171 0
1150 -1171 0
1152 -1171 0
-1154 -1156 1173 0
1154 -1173 0
1156 -1173 0
-1158 -1160 1175 0
1158 -1175 0
1160 -1175 0
-1162 -1164 1177 0
1162 -1177 0
1164 -1177 0
-1166 -1168 1179 0
1166 -1179 0
1168 -1179 0
-1170 -1172 1181 0
1170 -1181 0
1172 -1181 0
-1174 -1176 1183 0
1174 -1183 0
1176 -1183 0
-1178 -1180 1250 0
1178 -1250 0
1180 -1250 0
-87 -96 1185 0
87 -1185 0
96 -1185 0
-1047 -1049 1323 0
1047 -1323 0
1049 -1323 0
-1056 -1058 1190 0
1056 -1190 0
1058 -1190 0
-1060 -1062 1192 0
1060 -1192 0
1062 -1192 0
-1066 -1068 1324 0
1066 -1324 0
1068 -1324 0
-1070 -1072 1196 0
1070 -1196 0
1072 -1196 0
-1074 -1076 1198 0
1074 -1198 0
1076 -1198 0
-1082 -1084 1200 0
1082 -1200 0
1084 -1200 0
-1086 -1088 1202 0
1086 -1202 0
1088 -1202 0
-1090 -1092 1204 0
1090 -1204 0
1092 -1204 0
-1094 -1096 1206 0
1094 -1206 0
1096 -1206 0
-1098 -1100 1208 0
1098 -1208 0
1100 -1208 0
-1102 -1104 1210 0
1102 -1210 0
1104 -1210 0
-1106 -1108 1212 0
1106 -1212 0
1108 -1212 0
-1110 -1112 1214 0
1110 -1214 0
1112 -1214 0
-1117 -1119 1218 0
1117 -1218 0
1119 -1218 0
-1121 -1123 1220 0
1121 -1220 0
1123 -1220 0
-1125 -1127 1222 0
1125 -1222 0
1127 -1222 0
-1129 -1131 1224 0
1129 -1224 0
1131 -1224 0
-1133 -1135 1226 0
1133 -1226 0
1135 -1226 0
-1137 -1139 1228 0
1137 -1228 0
1139 -1228 0
-1141 -1143 1230 0
1141 -1230 0
1143 -1230 0
-1145 -1147 1232 0
1145 -1232 0
1147 -1232 0
-1149 -1151 1234 0
1149 -1234 0
1151 -1234 0
-1153 -1155 1236 0
1153 -1236 0
1155 -1236 0
-1157 -1159 1238 0
1157 -1238 0
1159 -1238 0
-1161 -1163 1240 0
1161 -1240 0
1163 -1240 0
-1165 -1167 1242 0
1165 -1242 0
1167 -1242 0
-1169 -1171 1244 0
1169 -1244 0
1171 -1244 0
-1173 -1175 1246 0
1173 -1246 0
1175 -1246 0
-1177 -1179 1248 0
1177 -1248 0
1179 -1248 0
-1181 -1183 1346 0
1181 -1346 0
1183 -1346 0
-1184 -1186 1347 0
1184 -1347 0
1186 -1347 0
-1188 -1189 1253 0
1188 -1253 0
1189 -1253 0
-1191 -1193 1255 0
1191 -1255 0
1193 -1255 0
-1194 -1195 1257 0
1194 -1257 0
1195 -1257 0
-1197 -1199 1259 0
1197 -1259 0
1199 -1259 0
-1201 -1203 1352 0
1201 -1352 0
1203 -1352 0
-1205 -1207 1263 0
1205 -1263 0
1207 -1263 0
-1209 -1211 1265 0
1209 -1265 0
1211 -1265 0
-1213 -1215 1267 0
1213 -1267 0
1215 -1267 0
-1216 -1217 1269 0
1216 -1269 0
1217 -1269 0
-1219 -1221 1271 0
1219 -1271 0
1221 -1271 0
-1223 -1225 1273 0
1223 -1273 0
1225 -1273 0
-1227 -1229 1275 0
1227 -1275 0
1229 -1275 0
-1231 -1233 1277 0
1231 -1277 0
1233 -1277 0
-1235 -1237 1279 0
1235 -1279 0
1237 -1279 0
-1239 -1241 1281 0
1239 -1281 0
1241 -1281 0
-1243 -1245 1283 0
1243 -1283 0
1245 -1283 0
-1247 -1249 1285 0
1247 -1285 0
1249 -1285 0
-1250 -1251 1287 0
1250 -1287 0
1251 -1287 0
-1187 -1252 1289 0
1187 -1289 0
1252 -1289 0
-1254 -1256 1291 0
1254 -1291 0
1256 -1291 0
-1258 -1260 1293 0
1258 -1293 0
1260 -1293 0
-1261 -1262 1295 0
1261 -1295 0
1262 -1295 0
-1264 -1266 1297 0
1264 -1297 0
1266 -1297 0
-1268 -1270 1299 0
1268 -1299 0
1270 -1299 0
-1272 -1274 1301 0
1272 -1301 0
1274 -1301 0
-1276 -1278 1303 0
1276 -1303 0
1278 -1303 0
-1280 -1282 1305 0
1280 -1305 0
1282 -1305 0
-1284 -1286 1307 0
1284 -1307 0
1286 -1307 0
-1288 -1290 1309 0
1288 -1309 0
1290 -1309 0
-1292 -1294 1311 0
1292 -1311 0
1294 -1311 0
-1296 -1298 1313 0
1296 -1313 0
1298 -1313 0
-1300 -1302 1315 0
1300 -1315 0
1302 -1315 0
-1304 -1306 1317 0
1304 -1317 0
1306 -1317 0
-1308 -1310 1319 0
1308 -1319 0
1310 -1319 0
-1312 -1314 1321 0
1312 -1321 0
1314 -1321 0
-1316 -1318 1382 0
1316 -1382 0
1318 -1382 0
-97 -1185 1453 0
97 -1453 0
1185 -1453 0
-1190 -1192 1454 0
1190 -1454 0
1192 -1454 0
-1196 -1198 1455 0
1196 -1455 0
1198 -1455 0
-1200 -1202 1456 0
1200 -1456 0
1202 -1456 0
-1204 -1206 1327 0
1204 -1327 0
1206 -1327 0
-1208 -1210 1329 0
1208 -1329 0
1210 -1329 0
-1212 -1214 1458 0
1212 -1458 0
1214 -1458 0
-1218 -1220 1331 0
1218 -1331 0
1220 -1331 0
-1222 -1224 1333 0
1222 -1333 0
1224 -1333 0
-1226 -1228 1335 0
1226 -1335 0
1228 -1335 0
-1230 -1232 1337 0
1230 -1337 0
1232 -1337 0
-1234 -1236 1339 0
1234 -1339 0
1236 -1339 0
-1238 -1240 1341 0
1238 -1341 0
1240 -1341 0
-1242 -1244 1343 0
1242 -1343 0
1244 -1343 0
-1246 -1248 1345 0
1246 -1345 0
1248 -1345 0
-1253 -1255 1349 0
1253 -1349 0
1255 -1349 0
-1257 -1259 1351 0
1257 -1351 0
1259 -1351 0
-1263 -1265 1467 0
1263 -1467 0
1265 -1467 0
-1267 -1269 1355 0
1267 -1355 0
1269 -1355 0
-1271 -1273 1357 0
1271 -1357 0
1273 -1357 0
-1275 -1277 1359 0
1275 -1359 0
1277 -1359 0
-1279 -1281 1361 0
1279 -1361 0
1281 -1361 0
-1283 -1285 1363 0
1283 -1363 0
1285 -1363 0
-1287 -1289 1365 0
1287 -1365 0
1289 -1365 0
-1291 -1293 1367 0
1291 -1367 0
1293 -1367 0
-1295 -1297 1369 0
1295 -1369 0
1297 -1369 0
-1299 -1301 1371 0
1299 -1371 0
1301 -1371 0
-1303 -1305 1373 0
1303 -1373 0
1305 -1373 0
-1307 -1309 1375 0
1307 -1375 0
1309 -1375 0
-1311 -1313 1377 0
1311 -1377 0
1313 -1377 0
-1315 -1317 1379 0
1315 -1379 0
1317 -1379 0
-1319 -1321 1381 0
1319 -1381 0
1321 -1381 0
-1322 -1323 1481 0
1322 -1481 0
1323 -1481 0
-1324 -1325 1482 0
1324 -1482 0
1325 -1482 0
-1326 -1328 1483 0
1326 -1483 0
1328 -1483 0
-1330 -1332 1484 0
1330 -1484 0
1332 -1484 0
-1334 -1336 1391 0
1334 -1391 0
1336 -1391 0
-1338 -1340 1393 0
1338 -1393 0
1340 -1393 0
-1342 -1344 1395 0
1342 -1395 0
1344 -1395 0
-1346 -1347 1397 0
1346 -1397 0
1347 -1397 0
-1348 -1350 1399 0
1348 -1399 0
1350 -1399 0
-1352 -1353 1401 0
1352 -1401 0
1353 -1401 0
-1354 -1356 1403 0
1354 -1403 0
1356 -1403 0
-1358 -1360 1405 0
1358 -1405 0
1360 -1405 0
-1362 -1364 1407 0
1362 -1407 0
1364 -1407 0
-1366 -1368 1409 0
1366 -1409 0
1368 -1409 0
-1370 -1372 1411 0
1370 -1411 0
1372 -1411 0
-1374 -1376 1413 0
1374 -1413 0
1376 -1413 0
-1378 -1380 1415 0
1378 -1415 0
1380 -1415 0
-1382 -1383 1417 0
1382 -1417 0
1383 -1417 0
-1384 -1385 1419 0
1384 -1419 0
1385 -1419 0
-1386 -1387 1421 0
1386 -1421 0
1387 -1421 0
-1388 -1389 1423 0
1388 -1423 0
1389 -1423 0
-1390 -1392 1425 0
1390 -1425 0
1392 -1425 0
-1394 -1396 1427 0
1394 -1427 0
1396 -1427 0
-1398 -1400 1429 0
1398 -1429 0
1400 -1429 0
-1402 -1404 1431 0
1402 -1431 0
1404 -1431 0
-1406 -1408 1433 0
1406 -1433 0
1408 -1433 0
-1410 -1412 1435 0
1410 -1435 0
1412 -1435 0
-1414 -1416 1437 0
1414 -1437 0
1416 -1437 0
-1418 -1420 1439 0
1418 -1439 0
1420 -1439 0
-1422 -1424 1441 0
1422 -1441 0
1424 -1441 0
-1426 -1428 1443 0
1426 -1443 0
1428 -1443 0
-1430 -1432 1445 0
1430 -1445 0
1432 -1445 0
-1434 -1436 1447 0
1434 -1447 0
1436 -1447 0
-1438 -1440 1449 0
1438 -1449 0
1440 -1449 0
-1442 -1444 1451 0
1442 -1451 0
1444 -1451 0
-1446 -1448 1452 0
1446 -1452 0
1448 -1452 0
-1327 -1329 1589 0
1327 -1589 0
1329 -1589 0
-1331 -1333 1460 0
1331 -1460 0
1333 -1460 0
-1335 -1337 1462 0
1335 -1462 0
1337 -1462 0
-1339 -1341 1464 0
1339 -1464 0
1341 -1464 0
-1343 -1345 1465 0
1343 -1465 0
1345 -1465 0
-1349 -1351 1592 0
1349 -1592 0
1351 -1592 0
-1355 -1357 1593 0
1355 -1593 0
1357 -1593 0
-1359 -1361 1470 0
1359 -1470 0
1361 -1470 0
-1363 -1365 1472 0
1363 -1472 0
1365 -1472 0
-1367 -1369 1474 0
1367 -1474 0
1369 -1474 0
-1371 -1373 1476 0
1371 -1476 0
1373 -1476 0
-1375 -1377 1478 0
1375 -1478 0
1377 -1478 0
-1379 -1381 1480 0
1379 -1480 0
1381 -1480 0
-1391 -1393 1486 0
1391 -1486 0
1393 -1486 0
-1395 -1397 1488 0
1395 -1488 0
1397 -1488 0
-1399 -1401 1490 0
1399 -1490 0
1401 -1490 0
-1403 -1405 1492 0
1403 -1492 0
1405 -1492 0
-1407 -1409 1494 0
1407 -1494 0
1409 -1494 0
-1411 -1413 1496 0
1411 -1496 0
1413 -1496 0
-1415 -1417 1498 0
1415 -1498 0
1417 -1498 0
-1419 -1421 1500 0
1419 -1500 0
1421 -1500 0
-1423 -1425 1502 0
1423 -1502 0
1425 -1502 0
-1427 -1429 1504 0
1427 -1504 0
1429 -1504 0
-1431 -1433 1506 0
1431 -1506 0
1433 -1506 0
-1435 -1437 1508 0
1435 -1508 0
1437 -1508 0
-1439 -1441 1510 0
1439 -1510 0
1441 -1510 0
-1443 -1445 1512 0
1443 -1512 0
1445 -1512 0
-1447 -1449 1514 0
1447 -1514 0
1449 -1514 0
-1451 -1452 1516 0
1451 -1516 0
1452 -1516 0
-1454 -1455 1615 0
1454 -1615 0
1455 -1615 0
-1456 -1457 1519 0
1456 -1519 0
1457 -1519 0
-1458 -1459 1521 0
1458 -1521 0
1459 -1521 0
-1461 -1463 1617 0
1461 -1617 0
1463 -1617 0
-1466 -1467 1525 0
1466 -1525 0
1467 -1525 0
-1468 -1469 1527 0
1468 -1527 0
1469 -1527 0
-1471 -1473 1529 0
1471 -1529 0
1473 -1529 0
-1475 -1477 1531 0
1475 -1531 0
1477 -1531 0
-1479 -1481 1533 0
1479 -1533 0
1481 -1533 0
-1482 -1483 1535 0
1482 -1535 0
1483 -1535 0
-1484 -1485 1537 0
1484 -1537 0
1485 -1537 0
-1487 -1489 1539 0
1487 -1539 0
1489 -1539 0
-1491 -1493 1541 0
1491 -1541 0
1493 -1541 0
-1495 -1497 1543 0
1495 -1543 0
1497 -1543 0
-1499 -1501 1545 0
1499 -1545 0
1501 -1545 0
-1503 -1505 1547 0
1503 -1547 0
1505 -1547 0
-1507 -1509 1549 0
1507 -1549 0
1509 -1549 0
-1511 -1513 1551 0
1511 -1551 0
1513 -1551 0
-1453 -1515 1553 0
1515 -1553 0
1453 -1553 0
-1517 -1518 1555 0
1517 -1555 0
1518 -1555 0
-1520 -1522 1557 0
1520 -1557 0
1522 -1557 0
-1523 -1524 1559 0
1523 -1559 0
1524 -1559 0
-1526 -1528 1561 0
1526 -1561 0
1528 -1561 0
-1530 -1532 1563 0
1530 -1563 0
1532 -1563 0
-1534 -1536 1565 0
1534 -1565 0
1536 -1565 0
-1538 -1540 1567 0
1538 -1567 0
1540 -1567 0
-1542 -1544 1569 0
1542 -1569 0
1544 -1569 0
-1546 -1548 1571 0
1546 -1571 0
1548 -1571 0
-1550 -1552 1573 0
1550 -1573 0
1552 -1573 0
-1554 -1556 1575 0
1554 -1575 0
1556 -1575 0
-1558 -1560 1577 0
1558 -1577 0
1560 -1577 0
-1562 -1564 1579 0
1562 -1579 0
1564 -1579 0
-1566 -1568 1581 0
1566 -1581 0
1568 -1581 0
-1570 -1572 1583 0
1570 -1583 0
1572 -1583 0
-1574 -1576 1585 0
1574 -1585 0
1576 -1585 0
-1578 -1580 1587 0
1578 -1587 0
1580 -1587 0
-1582 -1584 1588 0
1582 -1588 0
1584 -1588 0
-1460 -1462 1714 0
1460 -1714 0
1462 -1714 0
-1464 -1465 1715 0
1464 -1715 0
1465 -1715 0
-1470 -1472 1716 0
1470 -1716 0
1472 -1716 0
-1474 -1476 1596 0
1474 -1596 0
1476 -1596 0
-1478 -1480 1598 0
1478 -1598 0
1480 -1598 0
-1486 -1488 1600 0
1486 -1600 0
1488 -1600 0
-1490 -1492 1602 0
1490 -1602 0
1492 -1602 0
-1494 -1496 1604 0
1494 -1604 0
1496 -1604 0
-1498 -1500 1606 0
1498 -1606 0
1500 -1606 0
-1502 -1504 1608 0
1502 -1608 0
1504 -1608 0
-1506 -1508 1610 0
1506 -1610 0
1508 -1610 0
-1510 -1512 1612 0
1510 -1612 0
1512 -1612 0
-1514 -1516 1614 0
1514 -1614 0
1516 -1614 0
-1519 -1521 1725 0
1519 -1725 0
1521 -1725 0
-1525 -1527 1726 0
1525 -1726 0
1527 -1726 0
-1529 -1531 1620 0
1529 -1620 0
1531 -1620 0
-1533 -1535 1622 0
1533 -1622 0
1535 -1622 0
-1537 -1539 1624 0
1537 -1624 0
1539 -1624 0
-1541 -1543 1626 0
1541 -1626 0
1543 -1626 0
-1545 -1547 1628 0
1545 -1628 0
1547 -1628 0
-1549 -1551 1630 0
1549 -1630 0
1551 -1630 0
-1553 -1555 1632 0
1553 -1632 0
1555 -1632 0
-1557 -1559 1634 0
1557 -1634 0
1559 -1634 0
-1561 -1563 1636 0
1561 -1636 0
1563 -1636 0
-1565 -1567 1638 0
1565 -1638 0
1567 -1638 0
-1569 -1571 1640 0
1569 -1640 0
1571 -1640 0
-1573 -1575 1642 0
1573 -1642 0
1575 -1642 0
-1577 -1579 1644 0
1577 -1644 0
1579 -1644 0
-1581 -1583 1646 0
1581 -1646 0
1583 -1646 0
-1585 -1587 1648 0
1585 -1648 0
1587 -1648 0
-1586 -1588 1650 0
1588 -1650 0
1586 -1650 0
-1589 -1590 1743 0
1589 -1743 0
1590 -1743 0
-1591 -1592 1652 0
1591 -1652 0
1592 -1652 0
-1593 -1594 1654 0
1593 -1654 0
1594 -1654 0
-1595 -1597 1745 0
1595 -1745 0
1597 -1745 0
-1599 -1601 1656 0
1599 -1656 0
1601 -1656 0
-1603 -1605 1658 0
1603 -1658 0
1605 -1658 0
-1607 -1609 1660 0
1607 -1660 0
1609 -1660 0
-1611 -1613 1662 0
1611 -1662 0
1613 -1662 0
-1615 -1616 1664 0
1615 -1664 0
1616 -1664 0
-1617 -1618 1666 0
1617 -1666 0
1618 -1666 0
-1619 -1621 1668 0
1619 -1668 0
1621 -1668 0
-1623 -1625 1670 0
1623 -1670 0
1625 -1670 0
-1627 -1629 1672 0
1627 -1672 0
1629 -1672 0
-1631 -1633 1674 0
1631 -1674 0
1633 -1674 0
-1635 -1637 1676 0
1635 -1676 0
1637 -1676 0
-1639 -1641 1678 0
1639 -1678 0
1641 -1678 0
-1643 -1645 1680 0
1643 -1680 0
1645 -1680 0
-1647 -1649 1682 0
1647 -1682 0
1649 -1682 0
-1651 -1653 1759 0
1651 -1759 0
1653 -1759 0
-1655 -1657 1760 0
1655 -1760 0
1657 -1760 0
-1659 -1661 1688 0
1659 -1688 0
1661 -1688 0
-1663 -1665 1690 0
1663 -1690 0
1665 -1690 0
-1667 -1669 1692 0
1667 -1692 0
1669 -1692 0
-1671 -1673 1694 0
1671 -1694 0
1673 -1694 0
-1675 -1677 1696 0
1675 -1696 0
1677 -1696 0
-1679 -1681 1698 0
1679 -1698 0
1681 -1698 0
-1683 -1684 1700 0
1683 -1700 0
1684 -1700 0
-1685 -1686 1702 0
1685 -1702 0
1686 -1702 0
-1687 -1689 1704 0
1687 -1704 0
1689 -1704 0
-1691 -1693 1706 0
1691 -1706 0
1693 -1706 0
-1695 -1697 1708 0
1695 -1708 0
1697 -1708 0
-1699 -1701 1710 0
1699 -1710 0
1701 -1710 0
-1703 -1705 1712 0
1703 -1712 0
1705 -1712 0
-1707 -1709 1713 0
1707 -1713 0
1709 -1713 0
-1596 -1598 1845 0
1596 -1845 0
1598 -1845 0
-1600 -1602 1718 0
1600 -1718 0
1602 -1718 0
-1604 -1606 1720 0
1604 -1720 0
1606 -1720 0
-1608 -1610 1722 0
1608 -1722 0
1610 -1722 0
-1612 -1614 1724 0
1612 -1724 0
1614 -1724 0
-1620 -1622 1728 0
1620 -1728 0
1622 -1728 0
-1624 -1626 1730 0
1624 -1730 0
1626 -1730 0
-1628 -1630 1732 0
1628 -1732 0
1630 -1732 0
-1632 -1634 1734 0
1632 -1734 0
1634 -1734 0
-1636 -1638 1736 0
1636 -1736 0
1638 -1736 0
-1640 -1642 1738 0
1640 -1738 0
1642 -1738 0
-1644 -1646 1740 0
1644 -1740 0
1646 -1740 0
-1648 -1650 1742 0
1648 -1742 0
1650 -1742 0
-1652 -1654 1855 0
1652 -1855 0
1654 -1855 0
-1656 -1658 1856 0
1656 -1856 0
1658 -1856 0
-1660 -1662 1748 0
1660 -1748 0
1662 -1748 0
-1664 -1666 1750 0
1664 -1750 0
1666 -1750 0
-1668 -1670 1752 0
1668 -1752 0
1670 -1752 0
-1672 -1674 1754 0
1672 -1754 0
1674 -1754 0
-1676 -1678 1756 0
1676 -1756 0
1678 -1756 0
-1680 -1682 1758 0
1680 -1758 0
1682 -1758 0
-1688 -1690 1762 0
1688 -1762 0
1690 -1762 0
-1692 -1694 1764 0
1692 -1764 0
1694 -1764 0
-1696 -1698 1766 0
1696 -1766 0
1698 -1766 0
-1700 -1702 1768 0
1700 -1768 0
1702 -1768 0
-1704 -1706 1770 0
1704 -1770 0
1706 -1770 0
-1708 -1710 1772 0
1708 -1772 0
1710 -1772 0
-1712 -1713 1866 0
1712 -1866 0
1713 -1866 0
-1714 -1715 1775 0
1714 -1775 0
1715 -1775 0
-1716 -1717 1777 0
1716 -1777 0
1717 -1777 0
-1719 -1721 1868 0
1719 -1868 0
1721 -1868 0
-1723 -1725 1781 0
1723 -1781 0
1725 -1781 0
-1726 -1727 1783 0
1726 -1783 0
1727 -1783 0
-1729 -1731 1785 0
1729 -1785 0
1731 -1785 0
-1733 -1735 1787 0
1733 -1787 0
1735 -1787 0
-1737 -1739 1789 0
1737 -1789 0
1739 -1789 0
-1741 -1743 1791 0
1741 -1791 0
1743 -1791 0
-1744 -1745 1793 0
1744 -1793 0
1745 -1793 0
-1746 -1747 1795 0
1746 -1795 0
1747 -1795 0
-1749 -1751 1797 0
1749 -1797 0
1751 -1797 0
-1753 -1755 1799 0
1753 -1799 0
1755 -1799 0
-1757 -1759 1801 0
1757 -1801 0
1759 -1801 0
-1760 -1761 1803 0
1760 -1803 0
1761 -1803 0
-1763 -1765 1805 0
1763 -1805 0
1765 -1805 0
-1767 -1769 1807 0
1767 -1807 0
1769 -1807 0
-1771 -1773 1809 0
1771 -1809 0
1773 -1809 0
-1711 -1774 1811 0
1711 -1811 0
1774 -1811 0
-1776 -1778 1813 0
1776 -1813 0
1778 -1813 0
-1779 -1780 1815 0
1779 -1815 0
1780 -1815 0
-1782 -1784 1817 0
1782 -1817 0
1784 -1817 0
-1786 -1788 1819 0
1786 -1819 0
1788 -1819 0
-1790 -1792 1821 0
1790 -1821 0
1792 -1821 0
-1794 -1796 1823 0
1794 -1823 0
1796 -1823 0
-1798 -1800 1825 0
1798 -1825 0
1800 -1825 0
-1802 -1804 1827 0
1802 -1827 0
1804 -1827 0
-1806 -1808 1829 0
1806 -1829 0
1808 -1829 0
-1810 -1812 1831 0
1810 -1831 0
1812 -1831 0
-1814 -1816 1833 0
1814 -1833 0
1816 -1833 0
-1818 -1820 1835 0
1818 -1835 0
1820 -1835 0
-1822 -1824 1837 0
1822 -1837 0
1824 -1837 0
-1826 -1828 1839 0
1826 -1839 0
1828 -1839 0
-1830 -1832 1841 0
1830 -1841 0
1832 -1841 0
-1834 -1836 1843 0
1834 -1843 0
1836 -1843 0
-1838 -1840 1844 0
1838 -1844 0
1840 -1844 0
-1718 -1720 1966 0
1718 -1966 0
1720 -1966 0
-1722 -1724 1967 0
1722 -1967 0
1724 -1967 0
-1728 -1730 1848 0
1728 -1848 0
1730 -1848 0
-1732 -1734 1850 0
1732 -1850 0
1734 -1850 0
-1736 -1738 1852 0
1736 -1852 0
1738 -1852 0
-1740 -1742 1854 0
1740 -1854 0
1742 -1854 0
-1748 -1750 1858 0
1748 -1858 0
1750 -1858 0
-1752 -1754 1860 0
1752 -1860 0
1754 -1860 0
-1756 -1758 1970 0
1756 -1970 0
1758 -1970 0
-1762 -1764 1862 0
1762 -1862 0
1764 -1862 0
-1766 -1768 1864 0
1766 -1864 0
1768 -1864 0
-1770 -1772 1972 0
1770 -1972 0
1772 -1972 0
-1775 -1777 1973 0
1775 -1973 0
1777 -1973 0
-1781 -1783 1870 0
1781 -1870 0
1783 -1870 0
-1785 -1787 1872 0
1785 -1872 0
1787 -1872 0
-1789 -1791 1874 0
1789 -1874 0
1791 -1874 0
-1793 -1795 1876 0
1793 -1876 0
1795 -1876 0
-1797 -1799 1878 0
1797 -1878 0
1799 -1878 0
-1801 -1803 1880 0
1801 -1880 0
1803 -1880 0
-1805 -1807 1882 0
1805 -1882 0
1807 -1882 0
-1809 -1811 1884 0
1809 -1884 0
1811 -1884 0
-1813 -1815 1886 0
1813 -1886 0
1815 -1886 0
-1817 -1819 1888 0
1817 -1888 0
1819 -1888 0
-1821 -1823 1890 0
1821 -1890 0
1823 -1890 0
-1825 -1827 1892 0
1825 -1892 0
1827 -1892 0
-1829 -1831 1894 0
1829 -1894 0
1831 -1894 0
-1833 -1835 1896 0
1833 -1896 0
1835 -1896 0
-1837 -1839 1898 0
1837 -1898 0
1839 -1898 0
-1841 -1843 1900 0
1841 -1900 0
1843 -1900 0
-1842 -1844 1988 0
1844 -1988 0
1842 -1988 0
-1845 -1846 1989 0
1845 -1989 0
1846 -1989 0
-1847 -1849 1904 0
1847 -1904 0
1849 -1904 0
-1851 -1853 1906 0
1851 -1906 0
1853 -1906 0
-1855 -1856 1908 0
1855 -1908 0
1856 -1908 0
-1857 -1859 1910 0
1857 -1910 0
1859 -1910 0
-1861 -1863 1992 0
1861 -1992 0
1863 -1992 0
-1865 -1866 1914 0
1865 -1914 0
1866 -1914 0
-1867 -1868 1916 0
1867 -1916 0
1868 -1916 0
-1869 -1871 1918 0
1869 -1918 0
1871 -1918 0
-1873 -1875 1920 0
1873 -1920 0
1875 -1920 0
-1877 -1879 1922 0
1877 -1922 0
1879 -1922 0
-1881 -1883 1924 0
1881 -1924 0
1883 -1924 0
-1885 -1887 1926 0
1885 -1926 0
1887 -1926 0
-1889 -1891 1928 0
1889 -1928 0
1891 -1928 0
-1893 -1895 1930 0
1893 -1930 0
1895 -1930 0
-1897 -1899 1932 0
1897 -1932 0
1899 -1932 0
-1901 -1902 2002 0
1901 -2002 0
1902 -2002 0
-1903 -1905 1936 0
1903 -1936 0
1905 -1936 0
-1907 -1909 1938 0
1907 -1938 0
1909 -1938 0
-1911 -1912 1940 0
1911 -1940 0
1912 -1940 0
-1913 -1915 1942 0
1913 -1942 0
1915 -1942 0
-1917 -1919 1944 0
1917 -1944 0
1919 -1944 0
-1921 -1923 1946 0
1921 -1946 0
1923 -1946 0
-1925 -1927 1948 0
1925 -1948 0
1927 -1948 0
-1929 -1931 1950 0
1929 -1950 0
1931 -1950 0
-1933 -1934 1952 0
1933 -1952 0
1934 -1952 0
-1935 -1937 1954 0
1935 -1954 0
1937 -1954 0
-1939 -1941 1956 0
1939 -1956 0
1941 -1956 0
-1943 -1945 1958 0
1943 -1958 0
1945 -1958 0
-1947 -1949 1960 0
1947 -1960 0
1949 -1960 0
-1951 -1953 1962 0
1951 -1962 0
1953 -1962 0
-1955 -1957 1964 0
1955 -1964 0
1957 -1964 0
-1959 -1961 1965 0
1959 -1965 0
1961 -1965 0
-1848 -1850 2087 0
1848 -2087 0
1850 -2087 0
-1852 -1854 2088 0
1852 -2088 0
1854 -2088 0
-1858 -1860 2089 0
1858 -2089 0
1860 -2089 0
-1862 -1864 2090 0
1862 -2090 0
1864 -2090 0
-1870 -1872 2091 0
1870 -2091 0
1872 -2091 0
-1874 -1876 1976 0
1874 -1976 0
1876 -1976 0
-1878 -1880 1978 0
1878 -1978 0
1880 -1978 0
-1882 -1884 1980 0
1882 -1980 0
1884 -1980 0
-1886 -1888 1982 0
1886 -1982 0
1888 -1982 0
-1890 -1892 1984 0
1890 -1984 0
1892 -1984 0
-1894 -1896 1986 0
1894 -1986 0
1896 -1986 0
-1898 -1900 2097 0
1898 -2097 0
1900 -2097 0
-1904 -1906 2098 0
1904 -2098 0
1906 -2098 0
-1908 -1910 2099 0
1908 -2099 0
1910 -2099 0
-1914 -1916 1994 0
1914 -1994 0
1916 -1994 0
-1918 -1920 1996 0
1918 -1996 0
1920 -1996 0
-1922 -1924 1998 0
1922 -1998 0
1924 -1998 0
-1926 -1928 2000 0
1926 -2000 0
1928 -2000 0
-1930 -1932 2104 0
1930 -2104 0
1932 -2104 0
-1936 -1938 2004 0
1936 -2004 0
1938 -2004 0
-1940 -1942 2006 0
1940 -2006 0
1942 -2006 0
-1944 -1946 2008 0
1944 -2008 0
1946 -2008 0
-1948 -1950 2010 0
1948 -2010 0
1950 -2010 0
-1952 -1954 2012 0
1952 -2012 0
1954 -2012 0
-1956 -1958 2014 0
1956 -2014 0
1958 -2014 0
-1960 -1962 2016 0
1960 -2016 0
1962 -2016 0
-1964 -1965 2018 0
1964 -2018 0
1965 -2018 0
-1966 -1967 2111 0
1966 -2111 0
1967 -2111 0
-1968 -1969 2112 0
1968 -2112 0
1969 -2112 0
-1970 -1971 2023 0
1970 -2023 0
1971 -2023 0
-1972 -1973 2025 0
1972 -2025 0
1973 -2025 0
-1974 -1975 2027 0
1974 -2027 0
1975 -2027 0
-1977 -1979 2029 0
1977 -2029 0
1979 -2029 0
-1981 -1983 2031 0
1981 -2031 0
1983 -2031 0
-1985 -1987 2033 0
1985 -2033 0
1987 -2033 0
-1988 -1989 2035 0
1988 -2035 0
1989 -2035 0
-1990 -1991 2037 0
1990 -2037 0
1991 -2037 0
-1992 -1993 2039 0
1992 -2039 0
1993 -2039 0
-1995 -1997 2041 0
1995 -2041 0
1997 -2041 0
-1999 -2001 2043 0
1999 -2043 0
2001 -2043 0
-2002 -2003 2045 0
2002 -2045 0
2003 -2045 0
-2005 -2007 2047 0
2005 -2047 0
2007 -2047 0
-2009 -2011 2049 0
2009 -2049 0
2011 -2049 0
-2013 -2015 2051 0
2013 -2051 0
2015 -2051 0
-1963 -2017 2053 0
2017 -2053 0
1963 -2053 0
-2019 -2020 2055 0
2019 -2055 0
2020 -2055 0
-2021 -2022 2057 0
2021 -2057 0
2022 -2057 0
-2024 -2026 2059 0
2024 -2059 0
2026 -2059 0
-2028 -2030 2061 0
2028 -2061 0
2030 -2061 0
-2032 -2034 2063 0
2032 -2063 0
2034 -2063 0
-2036 -2038 2065 0
2036 -2065 0
2038 -2065 0
-2040 -2042 2067 0
2040 -2067 0
2042 -2067 0
-2044 -2046 2069 0
2044 -2069 0
2046 -2069 0
-2048 -2050 2071 0
2048 -2071 0
2050 -2071 0
-2052 -2054 2073 0
2052 -2073 0
2054 -2073 0
-2056 -2058 2075 0
2056 -2075 0
2058 -2075 0
-2060 -2062 2077 0
2060 -2077 0
2062 -2077 0
-2064 -2066 2079 0
2064 -2079 0
2066 -2079 0
-2068 -2070 2081 0
2068 -2081 0
2070 -2081 0
-2072 -2074 2083 0
2072 -2083 0
2074 -2083 0
-2076 -2078 2085 0
2076 -2085 0
2078 -2085 0
-2080 -2082 2086 0
2080 -2086 0
2082 -2086 0
-1976 -1978 2093 0
1976 -2093 0
1978 -2093 0
-1980 -1982 2095 0
1980 -2095 0
1982 -2095 0
-1984 -1986 2215 0
1984 -2215 0
1986 -2215 0
-1994 -1996 2101 0
1994 -2101 0
1996 -2101 0
-1998 -2000 2103 0
1998 -2103 0
2000 -2103 0
-2004 -2006 2216 0
2004 -2216 0
2006 -2216 0
-2008 -2010 2107 0
2008 -2107 0
2010 -2107 0
-2012 -2014 2109 0
2012 -2109 0
2014 -2109 0
-2016 -2018 2218 0
2016 -2218 0
2018 -2218 0
-2023 -2025 2219 0
2023 -2219 0
2025 -2219 0
-2027 -2029 2115 0
2027 -2115 0
2029 -2115 0
-2031 -2033 2117 0
2031 -2117 0
2033 -2117 0
-2035 -2037 2119 0
2035 -2119 0
2037 -2119 0
-2039 -2041 2121 0
2039 -2121 0
2041 -2121 0
-2043 -2045 2123 0
2043 -2123 0
2045 -2123 0
-2047 -2049 2125 0
2047 -2125 0
2049 -2125 0
-2051 -2053 2127 0
2051 -2127 0
2053 -2127 0
-2055 -2057 2129 0
2055 -2129 0
2057 -2129 0
-2059 -2061 2131 0
2059 -2131 0
2061 -2131 0
-2063 -2065 2133 0
2063 -2133 0
2065 -2133 0
-2067 -2069 2135 0
2067 -2135 0
2069 -2135 0
-2071 -2073 2137 0
2071 -2137 0
2073 -2137 0
-2075 -2077 2139 0
2075 -2139 0
2077 -2139 0
-2079 -2081 2141 0
2079 -2141 0
2081 -2141 0
-2083 -2085 2143 0
2083 -2143 0
2085 -2143 0
-2084 -2086 2145 0
2086 -2145 0
2084 -2145 0
-2088 -2089 2234 0
2088 -2234 0
2089 -2234 0
-2090 -2091 2148 0
2090 -2148 0
2091 -2148 0
-2092 -2094 2150 0
2092 -2150 0
2094 -2150 0
-2096 -2097 2152 0
2096 -2152 0
2097 -2152 0
-2098 -2099 2154 0
2098 -2154 0
2099 -2154 0
-2100 -2102 2156 0
2100 -2156 0
2102 -2156 0
-2104 -2105 2158 0
2104 -2158 0
2105 -2158 0
-2106 -2108 2160 0
2106 -2160 0
2108 -2160 0
-2110 -2111 2162 0
2110 -2162 0
2111 -2162 0
-2112 -2113 2164 0
2112 -2164 0
2113 -2164 0
-2114 -2116 2166 0
2114 -2166 0
2116 -2166 0
-2118 -2120 2168 0
2118 -2168 0
2120 -2168 0
-2122 -2124 2170 0
2122 -2170 0
2124 -2170 0
-2126 -2128 2172 0
2126 -2172 0
2128 -2172 0
-2130 -2132 2174 0
2130 -2174 0
2132 -2174 0
-2134 -2136 2176 0
2134 -2176 0
2136 -2176 0
-2138 -2140 2178 0
2138 -2178 0
2140 -2178 0
-2142 -2144 2180 0
2142 -2180 0
2144 -2180 0
-2087 -2146 2182 0
2087 -2182 0
2146 -2182 0
-2147 -2149 2184 0
2147 -2184 0
2149 -2184 0
-2151 -2153 2186 0
2151 -2186 0
2153 -2186 0
-2155 -2157 2188 0
2155 -2188 0
2157 -2188 0
-2159 -2161 2190 0
2159 -2190 0
2161 -2190 0
-2163 -2165 2192 0
2163 -2192 0
2165 -2192 0
-2167 -2169 2194 0
2167 -2194 0
2169 -2194 0
-2171 -2173 2196 0
2171 -2196 0
2173 -2196 0
-2175 -2177 2198 0
2175 -2198 0
2177 -2198 0
-2179 -2181 2200 0
2179 -2200 0
2181 -2200 0
-2183 -2185 2202 0
2183 -2202 0
2185 -2202 0
-2187 -2189 2204 0
2187 -2204 0
2189 -2204 0
-2191 -2193 2206 0
2191 -2206 0
2193 -2206 0
-2195 -2197 2208 0
2195 -2208 0
2197 -2208 0
-2199 -2201 2210 0
2199 -2210 0
2201 -2210 0
-2203 -2205 2212 0
2203 -2212 0
2205 -2212 0
-2207 -2209 2213 0
2207 -2213 0
2209 -2213 0
-2093 -2095 2329 0
2093 -2329 0
2095 -2329 0
-2101 -2103 2385 0
2101 -2385 0
2103 -2385 0
-2107 -2109 2330 0
2107 -2330 0
2109 -2330 0
-2115 -2117 2331 0
2115 -2331 0
2117 -2331 0
-2119 -2121 2222 0
2119 -2222 0
2121 -2222 0
-2123 -2125 2224 0
2123 -2224 0
2125 -2224 0
-2127 -2129 2226 0
2127 -2226 0
2129 -2226 0
-2131 -2133 2228 0
2131 -2228 0
2133 -2228 0
-2135 -2137 2230 0
2135 -2230 0
2137 -2230 0
-2139 -2141 2232 0
2139 -2232 0
2141 -2232 0
-2143 -2145 2337 0
2143 -2337 0
2145 -2337 0
-2148 -2150 2236 0
2148 -2236 0
2150 -2236 0
-2152 -2154 2238 0
2152 -2238 0
2154 -2238 0
-2156 -2158 2240 0
2156 -2240 0
2158 -2240 0
-2160 -2162 2242 0
2160 -2242 0
2162 -2242 0
-2164 -2166 2244 0
2164 -2244 0
2166 -2244 0
-2168 -2170 2246 0
2168 -2246 0
2170 -2246 0
-2172 -2174 2248 0
2172 -2248 0
2174 -2248 0
-2176 -2178 2250 0
2176 -2250 0
2178 -2250 0
-2180 -2182 2252 0
2180 -2252 0
2182 -2252 0
-2184 -2186 2254 0
2184 -2254 0
2186 -2254 0
-2188 -2190 2256 0
2188 -2256 0
2190 -2256 0
-2192 -2194 2258 0
2192 -2258 0
2194 -2258 0
-2196 -2198 2260 0
2196 -2260 0
2198 -2260 0
-2200 -2202 2262 0
2200 -2262 0
2202 -2262 0
-2204 -2206 2264 0
2204 -2264 0
2206 -2264 0
-2208 -2210 2266 0
2208 -2266 0
2210 -2266 0
-2212 -2213 2354 0
2212 -2354 0
2213 -2354 0
-2214 -2215 2355 0
2214 -2355 0
2215 -2355 0
-2216 -2217 2356 0
2216 -2356 0
2217 -2356 0
-2218 -2219 2272 0
2218 -2272 0
2219 -2272 0
-2220 -2221 2274 0
2220 -2274 0
2221 -2274 0
-2223 -2225 2276 0
2223 -2276 0
2225 -2276 0
-2227 -2229 2278 0
2227 -2278 0
2229 -2278 0
-2231 -2233 2280 0
2231 -2280 0
2233 -2280 0
-2234 -2235 2282 0
2234 -2282 0
2235 -2282 0
-2237 -2239 2284 0
2237 -2284 0
2239 -2284 0
-2241 -2243 2286 0
2241 -2286 0
2243 -2286 0
-2245 -2247 2288 0
2245 -2288 0
2247 -2288 0
-2249 -2251 2290 0
2249 -2290 0
2251 -2290 0
-2253 -2255 2292 0
2253 -2292 0
2255 -2292 0
-2257 -2259 2294 0
2257 -2294 0
2259 -2294 0
-2261 -2263 2296 0
2261 -2296 0
2263 -2296 0
-2265 -2267 2298 0
2265 -2298 0
2267 -2298 0
-2268 -2269 2370 0
2268 -2370 0
2269 -2370 0
-2270 -2271 2301 0
2270 -2301 0
2271 -2301 0
-2273 -2275 2303 0
2273 -2303 0
2275 -2303 0
-2277 -2279 2305 0
2277 -2305 0
2279 -2305 0
-2281 -2283 2307 0
2281 -2307 0
2283 -2307 0
-2285 -2287 2309 0
2285 -2309 0
2287 -2309 0
-2289 -2291 2311 0
2289 -2311 0
2291 -2311 0
-2293 -2295 2313 0
2293 -2313 0
2295 -2313 0
-2211 -2297 2315 0
2297 -2315 0
2211 -2315 0
-2299 -2300 2317 0
2299 -2317 0
2300 -2317 0
-2302 -2304 2319 0
2302 -2319 0
2304 -2319 0
-2306 -2308 2321 0
2306 -2321 0
2308 -2321 0
-2310 -2312 2323 0
2310 -2323 0
2312 -2323 0
-2314 -2316 2325 0
2314 -2325 0
2316 -2325 0
-2318 -2320 2327 0
2318 -2327 0
2320 -2327 0
-2322 -2324 2328 0
2322 -2328 0
2324 -2328 0
-2222 -2224 2333 0
2222 -2333 0
2224 -2333 0
-2226 -2228 2335 0
2226 -2335 0
2228 -2335 0
-2230 -2232 2451 0
2230 -2451 0
2232 -2451 0
-2236 -2238 2339 0
2236 -2339 0
2238 -2339 0
-2240 -2242 2341 0
2240 -2341 0
2242 -2341 0
-2244 -2246 2343 0
2244 -2343 0
2246 -2343 0
-2248 -2250 2345 0
2248 -2345 0
2250 -2345 0
-2252 -2254 2347 0
2252 -2347 0
2254 -2347 0
-2256 -2258 2349 0
2256 -2349 0
2258 -2349 0
-2260 -2262 2351 0
2260 -2351 0
2262 -2351 0
-2264 -2266 2353 0
2264 -2353 0
2266 -2353 0
-2272 -2274 2507 0
2272 -2507 0
2274 -2507 0
-2276 -2278 2359 0
2276 -2359 0
2278 -2359 0
-2280 -2282 2361 0
2280 -2361 0
2282 -2361 0
-2284 -2286 2363 0
2284 -2363 0
2286 -2363 0
-2288 -2290 2365 0
2288 -2365 0
2290 -2365 0
-2292 -2294 2367 0
2292 -2367 0
2294 -2367 0
-2296 -2298 2369 0
2296 -2369 0
2298 -2369 0
-2301 -2303 2463 0
2301 -2463 0
2303 -2463 0
-2305 -2307 2373 0
2305 -2373 0
2307 -2373 0
-2309 -2311 2375 0
2309 -2375 0
2311 -2375 0
-2313 -2315 2377 0
2313 -2377 0
2315 -2377 0
-2317 -2319 2379 0
2317 -2379 0
2319 -2379 0
-2321 -2323 2381 0
2321 -2381 0
2323 -2381 0
-2325 -2327 2383 0
2325 -2383 0
2327 -2383 0
-2326 -2328 2469 0
2328 -2469 0
2326 -2469 0
-2330 -2331 2470 0
2330 -2470 0
2331 -2470 0
-2332 -2334 2388 0
2332 -2388 0
2334 -2388 0
-2336 -2337 2390 0
2336 -2390 0
2337 -2390 0
-2338 -2340 2392 0
2338 -2392 0
2340 -2392 0
-2342 -2344 2394 0
2342 -2394 0
2344 -2394 0
-2346 -2348 2396 0
2346 -2396 0
2348 -2396 0
-2350 -2352 2398 0
2350 -2398 0
2352 -2398 0
-2354 -2355 2400 0
2354 -2400 0
2355 -2400 0
-2356 -2357 2402 0
2356 -2402 0
2357 -2402 0
-2358 -2360 2404 0
2358 -2404 0
2360 -2404 0
-2362 -2364 2406 0
2362 -2406 0
2364 -2406 0
-2366 -2368 2408 0
2366 -2408 0
2368 -2408 0
-2370 -2371 2410 0
2370 -2410 0
2371 -2410 0
-2372 -2374 2412 0
2372 -2412 0
2374 -2412 0
-2376 -2378 2414 0
2376 -2414 0
2378 -2414 0
-2380 -2382 2416 0
2380 -2416 0
2382 -2416 0
-2329 -2384 2418 0
2384 -2418 0
2329 -2418 0
-2385 -2386 2420 0
2385 -2420 0
2386 -2420 0
-2387 -2389 2422 0
2387 -2422 0
2389 -2422 0
-2391 -2393 2424 0
2391 -2424 0
2393 -2424 0
-2395 -2397 2426 0
2395 -2426 0
2397 -2426 0
-2399 -2401 2428 0
2399 -2428 0
2401 -2428 0
-2403 -2405 2430 0
2403 -2430 0
2405 -2430 0
-2407 -2409 2432 0
2407 -2432 0
2409 -2432 0
-2411 -2413 2434 0
2411 -2434 0
2413 -2434 0
-2415 -2417 2436 0
2415 -2436 0
2417 -2436 0
-2419 -2421 2438 0
2419 -2438 0
2421 -2438 0
-2423 -2425 2440 0
2423 -2440 0
2425 -2440 0
-2427 -2429 2442 0
2427 -2442 0
2429 -2442 0
-2431 -2433 2444 0
2431 -2444 0
2433 -2444 0
-2435 -2437 2446 0
2435 -2446 0
2437 -2446 0
-2439 -2441 2448 0
2439 -2448 0
2441 -2448 0
-2443 -2445 2449 0
2443 -2449 0
2445 -2449 0
-2333 -2335 2563 0
2333 -2563 0
2335 -2563 0
-2339 -2341 2564 0
2339 -2564 0
2341 -2564 0
-2343 -2345 2454 0
2343 -2454 0
2345 -2454 0
-2347 -2349 2456 0
2347 -2456 0
2349 -2456 0
-2351 -2353 2566 0
2351 -2566 0
2353 -2566 0
-2359 -2361 2567 0
2359 -2567 0
2361 -2567 0
-2363 -2365 2460 0
2363 -2460 0
2365 -2460 0
-2367 -2369 2462 0
2367 -2462 0
2369 -2462 0
-2373 -2375 2569 0
2373 -2569 0
2375 -2569 0
-2377 -2379 2466 0
2377 -2466 0
2379 -2466 0
-2381 -2383 2468 0
2381 -2468 0
2383 -2468 0
-2388 -2390 2472 0
2388 -2472 0
2390 -2472 0
-2392 -2394 2474 0
2392 -2474 0
2394 -2474 0
-2396 -2398 2476 0
2396 -2476 0
2398 -2476 0
-2400 -2402 2478 0
2400 -2478 0
2402 -2478 0
-2404 -2406 2480 0
2404 -2480 0
2406 -2480 0
-2408 -2410 2482 0
2408 -2482 0
2410 -2482 0
-2412 -2414 2484 0
2412 -2484 0
2414 -2484 0
-2416 -2418 2486 0
2416 -2486 0
2418 -2486 0
-2420 -2422 2488 0
2420 -2488 0
2422 -2488 0
-2424 -2426 2490 0
2424 -2490 0
2426 -2490 0
-2428 -2430 2492 0
2428 -2492 0
2430 -2492 0
-2432 -2434 2494 0
2432 -2494 0
2434 -2494 0
-2436 -2438 2496 0
2436 -2496 0
2438 -2496 0
-2440 -2442 2498 0
2440 -2498 0
2442 -2498 0
-2444 -2446 2500 0
2444 -2500 0
2446 -2500 0
-2448 -2449 2502 0
2448 -2502 0
2449 -2502 0
-2450 -2451 2503 0
2450 -2503 0
2451 -2503 0
-2452 -2453 2505 0
2452 -2505 0
2453 -2505 0
-2455 -2457 2586 0
2455 -2586 0
2457 -2586 0
-2458 -2459 2509 0
2458 -2509 0
2459 -2509 0
-2461 -2463 2511 0
2461 -2511 0
2463 -2511 0
-2464 -2465 2513 0
2464 -2513 0
2465 -2513 0
-2467 -2469 2515 0
2467 -2515 0
2469 -2515 0
-2470 -2471 2517 0
2470 -2517 0
2471 -2517 0
-2473 -2475 2519 0
2473 -2519 0
2475 -2519 0
-2477 -2479 2521 0
2477 -2521 0
2479 -2521 0
-2481 -2483 2523 0
2481 -2523 0
2483 -2523 0
-2485 -2487 2525 0
2485 -2525 0
2487 -2525 0
-2489 -2491 2527 0
2489 -2527 0
2491 -2527 0
-2493 -2495 2529 0
2493 -2529 0
2495 -2529 0
-2497 -2499 2531 0
2497 -2531 0
2499 -2531 0
-2447 -2501 2597 0
2501 -2597 0
2447 -2597 0
-2504 -2506 2535 0
2504 -2535 0
2506 -2535 0
-2507 -2508 2537 0
2507 -2537 0
2508 -2537 0
-2510 -2512 2539 0
2510 -2539 0
2512 -2539 0
-2514 -2516 2541 0
2514 -2541 0
2516 -2541 0
-2518 -2520 2543 0
2518 -2543 0
2520 -2543 0
-2522 -2524 2545 0
2522 -2545 0
2524 -2545 0
-2526 -2528 2547 0
2526 -2547 0
2528 -2547 0
-2530 -2532 2549 0
2530 -2549 0
2532 -2549 0
-2533 -2534 2551 0
2533 -2551 0
2534 -2551 0
-2536 -2538 2553 0
2536 -2553 0
2538 -2553 0
-2540 -2542 2555 0
2540 -2555 0
2542 -2555 0
-2544 -2546 2557 0
2544 -2557 0
2546 -2557 0
-2548 -2550 2559 0
2548 -2559 0
2550 -2559 0
-2552 -2554 2561 0
2552 -2561 0
2554 -2561 0
-2556 -2558 2562 0
2556 -2562 0
2558 -2562 0
-2454 -2456 2674 0
2454 -2674 0
2456 -2674 0
-2460 -2462 2675 0
2460 -2675 0
2462 -2675 0
-2466 -2468 2676 0
2466 -2676 0
2468 -2676 0
-2472 -2474 2571 0
2472 -2571 0
2474 -2571 0
-2476 -2478 2573 0
2476 -2573 0
2478 -2573 0
-2480 -2482 2575 0
2480 -2575 0
2482 -2575 0
-2484 -2486 2577 0
2484 -2577 0
2486 -2577 0
-2488 -2490 2579 0
2488 -2579 0
2490 -2579 0
-2492 -2494 2581 0
2492 -2581 0
2494 -2581 0
-2496 -2498 2583 0
2496 -2583 0
2498 -2583 0
-2500 -2502 2585 0
2500 -2585 0
2502 -2585 0
-2503 -2505 2683 0
2503 -2683 0
2505 -2683 0
-2509 -2511 2684 0
2509 -2684 0
2511 -2684 0
-2513 -2515 2589 0
2513 -2589 0
2515 -2589 0
-2517 -2519 2591 0
2517 -2591 0
2519 -2591 0
-2521 -2523 2593 0
2521 -2593 0
2523 -2593 0
-2525 -2527 2595 0
2525 -2595 0
2527 -2595 0
-2529 -2531 2687 0
2529 -2687 0
2531 -2687 0
-2535 -2537 2599 0
2535 -2599 0
2537 -2599 0
-2539 -2541 2601 0
2539 -2601 0
2541 -2601 0
-2543 -2545 2603 0
2543 -2603 0
2545 -2603 0
-2547 -2549 2605 0
2547 -2605 0
2549 -2605 0
-2551 -2553 2607 0
2551 -2607 0
2553 -2607 0
-2555 -2557 2609 0
2555 -2609 0
2557 -2609 0
-2559 -2561 2611 0
2559 -2611 0
2561 -2611 0
-2560 -2562 2613 0
2562 -2613 0
2560 -2613 0
-2564 -2565 2696 0
2564 -2696 0
2565 -2696 0
-2566 -2567 2616 0
2566 -2616 0
2567 -2616 0
-2568 -2569 2618 0
2568 -2618 0
2569 -2618 0
-2570 -2572 2698 0
2570 -2698 0
2572 -2698 0
-2574 -2576 2622 0
2574 -2622 0
2576 -2622 0
-2578 -2580 2624 0
2578 -2624 0
2580 -2624 0
-2582 -2584 2700 0
2582 -2700 0
2584 -2700 0
-2586 -2587 2628 0
2586 -2628 0
2587 -2628 0
-2588 -2590 2630 0
2588 -2630 0
2590 -2630 0
-2592 -2594 2632 0
2592 -2632 0
2594 -2632 0
-2596 -2597 2634 0
2596 -2634 0
2597 -2634 0
-2598 -2600 2636 0
2598 -2636 0
2600 -2636 0
-2602 -2604 2638 0
2602 -2638 0
2604 -2638 0
-2606 -2608 2640 0
2606 -2640 0
2608 -2640 0
-2610 -2612 2642 0
2610 -2642 0
2612 -2642 0
-2563 -2614 2644 0
2563 -2644 0
2614 -2644 0
-2615 -2617 2646 0
2615 -2646 0
2617 -2646 0
-2619 -2620 2648 0
2619 -2648 0
2620 -2648 0
-2621 -2623 2650 0
2621 -2650 0
2623 -2650 0
-2625 -2626 2652 0
2625 -2652 0
2626 -2652 0
-2627 -2629 2654 0
2627 -2654 0
2629 -2654 0
-2631 -2633 2656 0
2631 -2656 0
2633 -2656 0
-2635 -2637 2658 0
2635 -2658 0
2637 -2658 0
-2639 -2641 2660 0
2639 -2660 0
2641 -2660 0
-2643 -2645 2662 0
2643 -2662 0
2645 -2662 0
-2647 -2649 2664 0
2647 -2664 0
2649 -2664 0
-2651 -2653 2666 0
2651 -2666 0
2653 -2666 0
-2655 -2657 2668 0
2655 -2668 0
2657 -2668 0
-2659 -2661 2670 0
2659 -2670 0
2661 -2670 0
-2663 -2665 2672 0
2663 -2672 0
2665 -2672 0
-2667 -2669 2673 0
2667 -2673 0
2669 -2673 0
-2571 -2573 2785 0
2571 -2785 0
2573 -2785 0
-2575 -2577 2679 0
2575 -2679 0
2577 -2679 0
-2579 -2581 2681 0
2579 -2681 0
2581 -2681 0
-2583 -2585 2787 0
2583 -2787 0
2585 -2787 0
-2589 -2591 2788 0
2589 -2788 0
2591 -2788 0
-2593 -2595 2789 0
2593 -2789 0
2595 -2789 0
-2599 -2601 2689 0
2599 -2689 0
2601 -2689 0
-2603 -2605 2691 0
2603 -2691 0
2605 -2691 0
-2607 -2609 2693 0
2607 -2693 0
2609 -2693 0
-2611 -2613 2695 0
2611 -2695 0
2613 -2695 0
-2616 -2618 2792 0
2616 -2792 0
2618 -2792 0
-2622 -2624 2793 0
2622 -2793 0
2624 -2793 0
-2628 -2630 2794 0
2628 -2794 0
2630 -2794 0
-2632 -2634 2703 0
2632 -2703 0
2634 -2703 0
-2636 -2638 2705 0
2636 -2705 0
2638 -2705 0
-2640 -2642 2707 0
2640 -2707 0
2642 -2707 0
-2644 -2646 2709 0
2644 -2709 0
2646 -2709 0
-2648 -2650 2711 0
2648 -2711 0
2650 -2711 0
-2652 -2654 2713 0
2652 -2713 0
2654 -2713 0
-2656 -2658 2715 0
2656 -2715 0
2658 -2715 0
-2660 -2662 2717 0
2660 -2717 0
2662 -2717 0
-2664 -2666 2719 0
2664 -2719 0
2666 -2719 0
-2668 -2670 2721 0
2668 -2721 0
2670 -2721 0
-2672 -2673 2804 0
2672 -2804 0
2673 -2804 0
-2675 -2676 2805 0
2675 -2805 0
2676 -2805 0
-2677 -2678 2725 0
2677 -2725 0
2678 -2725 0
-2680 -2682 2727 0
2680 -2727 0
2682 -2727 0
-2683 -2684 2729 0
2683 -2729 0
2684 -2729 0
-2685 -2686 2731 0
2685 -2731 0
2686 -2731 0
-2687 -2688 2733 0
2687 -2733 0
2688 -2733 0
-2690 -2692 2735 0
2690 -2735 0
2692 -2735 0
-2694 -2696 2737 0
2694 -2737 0
2696 -2737 0
-2697 -2698 2739 0
2697 -2739 0
2698 -2739 0
-2699 -2700 2741 0
2699 -2741 0
2700 -2741 0
-2701 -2702 2743 0
2701 -2743 0
2702 -2743 0
-2704 -2706 2745 0
2704 -2745 0
2706 -2745 0
-2708 -2710 2747 0
2708 -2747 0
2710 -2747 0
-2712 -2714 2749 0
2712 -2749 0
2714 -2749 0
-2716 -2718 2751 0
2716 -2751 0
2718 -2751 0
-2720 -2722 2753 0
2720 -2753 0
2722 -2753 0
-2671 -2674 2755 0
2671 -2755 0
2674 -2755 0
-2723 -2724 2757 0
2723 -2757 0
2724 -2757 0
-2726 -2728 2759 0
2726 -2759 0
2728 -2759 0
-2730 -2732 2761 0
2730 -2761 0
2732 -2761 0
-2734 -2736 2763 0
2734 -2763 0
2736 -2763 0
-2738 -2740 2765 0
2738 -2765 0
2740 -2765 0
-2742 -2744 2767 0
2742 -2767 0
2744 -2767 0
-2746 -2748 2769 0
2746 -2769 0
2748 -2769 0
-2750 -2752 2771 0
2750 -2771 0
2752 -2771 0
-2754 -2756 2773 0
2754 -2773 0
2756 -2773 0
-2758 -2760 2775 0
2758 -2775 0
2760 -2775 0
-2762 -2764 2777 0
2762 -2777 0
2764 -2777 0
-2766 -2768 2779 0
2766 -2779 0
2768 -2779 0
-2770 -2772 2781 0
2770 -2781 0
2772 -2781 0
-2774 -2776 2783 0
2774 -2783 0
2776 -2783 0
-2778 -2780 2784 0
2778 -2784 0
2780 -2784 0
-2679 -2681 2896 0
2679 -2896 0
2681 -2896 0
-2689 -2691 2897 0
2689 -2897 0
2691 -2897 0
-2693 -2695 2898 0
2693 -2898 0
2695 -2898 0
-2703 -2705 2796 0
2703 -2796 0
2705 -2796 0
-2707 -2709 2798 0
2707 -2798 0
2709 -2798 0
-2711 -2713 2800 0
2711 -2800 0
2713 -2800 0
-2715 -2717 2802 0
2715 -2802 0
2717 -2802 0
-2719 -2721 2902 0
2719 -2902 0
2721 -2902 0
-2725 -2727 2903 0
2725 -2903 0
2727 -2903 0
-2729 -2731 2808 0
2729 -2808 0
2731 -2808 0
-2733 -2735 2810 0
2733 -2810 0
2735 -2810 0
-2737 -2739 2812 0
2737 -2812 0
2739 -2812 0
-2741 -2743 2814 0
2741 -2814 0
2743 -2814 0
-2745 -2747 2816 0
2745 -2816 0
2747 -2816 0
-2749 -2751 2818 0
2749 -2818 0
2751 -2818 0
-2753 -2755 2820 0
2753 -2820 0
2755 -2820 0
-2757 -2759 2822 0
2757 -2822 0
2759 -2822 0
-2761 -2763 2824 0
2761 -2824 0
2763 -2824 0
-2765 -2767 2826 0
2765 -2826 0
2767 -2826 0
-2769 -2771 2828 0
2769 -2828 0
2771 -2828 0
-2773 -2775 2830 0
2773 -2830 0
2775 -2830 0
-2777 -2779 2832 0
2777 -2832 0
2779 -2832 0
-2781 -2783 2834 0
2781 -2834 0
2783 -2834 0
-2782 -2784 2917 0
2784 -2917 0
2782 -2917 0
-2785 -2786 2836 0
2785 -2836 0
2786 -2836 0
-2787 -2788 2838 0
2787 -2838 0
2788 -2838 0
-2789 -2790 2840 0
2789 -2840 0
2790 -2840 0
-2791 -2792 2842 0
2791 -2842 0
2792 -2842 0
-2793 -2794 2844 0
2793 -2844 0
2794 -2844 0
-2795 -2797 2846 0
2795 -2846 0
2797 -2846 0
-2799 -2801 2848 0
2799 -2848 0
2801 -2848 0
-2803 -2804 2850 0
2803 -2850 0
2804 -2850 0
-2805 -2806 2852 0
2805 -2852 0
2806 -2852 0
-2807 -2809 2854 0
2807 -2854 0
2809 -2854 0
-2811 -2813 2856 0
2811 -2856 0
2813 -2856 0
-2815 -2817 2858 0
2815 -2858 0
2817 -2858 0
-2819 -2821 2860 0
2819 -2860 0
2821 -2860 0
-2823 -2825 2862 0
2823 -2862 0
2825 -2862 0
-2827 -2829 2864 0
2827 -2864 0
2829 -2864 0
-2831 -2833 2866 0
2831 -2866 0
2833 -2866 0
-2835 -2837 2934 0
2835 -2934 0
2837 -2934 0
-2839 -2841 2870 0
2839 -2870 0
2841 -2870 0
-2843 -2845 2872 0
2843 -2872 0
2845 -2872 0
-2847 -2849 2874 0
2847 -2874 0
2849 -2874 0
-2851 -2853 2876 0
2851 -2876 0
2853 -2876 0
-2855 -2857 2878 0
2855 -2878 0
2857 -2878 0
-2859 -2861 2880 0
2859 -2880 0
2861 -2880 0
-2863 -2865 2882 0
2863 -2882 0
2865 -2882 0
-2867 -2868 2884 0
2867 -2884 0
2868 -2884 0
-2869 -2871 2886 0
2869 -2886 0
2871 -2886 0
-2873 -2875 2888 0
2873 -2888 0
2875 -2888 0
-2877 -2879 2890 0
2877 -2890 0
2879 -2890 0
-2881 -2883 2892 0
2881 -2892 0
2883 -2892 0
-2885 -2887 2894 0
2885 -2894 0
2887 -2894 0
-2889 -2891 2895 0
2889 -2895 0
2891 -2895 0
-2796 -2798 2899 0
2796 -2899 0
2798 -2899 0
-2800 -2802 2901 0
2800 -2901 0
2802 -2901 0
-2808 -2810 2905 0
2808 -2905 0
2810 -2905 0
-2812 -2814 2907 0
2812 -2907 0
2814 -2907 0
-2816 -2818 2909 0
2816 -2909 0
2818 -2909 0
-2820 -2822 2911 0
2820 -2911 0
2822 -2911 0
-2824 -2826 2913 0
2824 -2913 0
2826 -2913 0
-2828 -2830 2915 0
2828 -2915 0
2830 -2915 0
-2832 -2834 3011 0
2832 -3011 0
2834 -3011 0
-2836 -2838 2919 0
2836 -2919 0
2838 -2919 0
-2840 -2842 2921 0
2840 -2921 0
2842 -2921 0
-2844 -2846 2923 0
2844 -2923 0
2846 -2923 0
-2848 -2850 2925 0
2848 -2925 0
2850 -2925 0
-2852 -2854 2927 0
2852 -2927 0
2854 -2927 0
-2856 -2858 2929 0
2856 -2929 0
2858 -2929 0
-2860 -2862 2931 0
2860 -2931 0
2862 -2931 0
-2864 -2866 2933 0
2864 -2933 0
2866 -2933 0
-2870 -2872 3018 0
2870 -3018 0
2872 -3018 0
-2874 -2876 2937 0
2874 -2937 0
2876 -2937 0
-2878 -2880 2939 0
2878 -2939 0
2880 -2939 0
-2882 -2884 2941 0
2882 -2941 0
2884 -2941 0
-2886 -2888 2943 0
2886 -2943 0
2888 -2943 0
-2890 -2892 2945 0
2890 -2945 0
2892 -2945 0
-2894 -2895 2947 0
2894 -2947 0
2895 -2947 0
-2897 -2898 3023 0
2897 -3023 0
2898 -3023 0
-2900 -2902 2951 0
2900 -2951 0
2902 -2951 0
-2903 -2904 2953 0
2903 -2953 0
2904 -2953 0
-2906 -2908 2955 0
2906 -2955 0
2908 -2955 0
-2910 -2912 2957 0
2910 -2957 0
2912 -2957 0
-2914 -2916 2959 0
2914 -2959 0
2916 -2959 0
-2917 -2918 2961 0
2917 -2961 0
2918 -2961 0
-2920 -2922 2963 0
2920 -2963 0
2922 -2963 0
-2924 -2926 2965 0
2924 -2965 0
2926 -2965 0
-2928 -2930 2967 0
2928 -2967 0
2930 -2967 0
-2932 -2934 2969 0
2932 -2969 0
2934 -2969 0
-2935 -2936 2971 0
2935 -2971 0
2936 -2971 0
-2938 -2940 2973 0
2938 -2973 0
2940 -2973 0
-2942 -2944 2975 0
2942 -2975 0
2944 -2975 0
-2893 -2946 2977 0
2946 -2977 0
2893 -2977 0
-2896 -2948 2979 0
2896 -2979 0
2948 -2979 0
-2949 -2950 2981 0
2949 -2981 0
2950 -2981 0
-2952 -2954 2983 0
2952 -2983 0
2954 -2983 0
-2956 -2958 2985 0
2956 -2985 0
2958 -2985 0
-2960 -2962 2987 0
2960 -2987 0
2962 -2987 0
-2964 -2966 2989 0
2964 -2989 0
2966 -2989 0
-2968 -2970 2991 0
2968 -2991 0
2970 -2991 0
-2972 -2974 2993 0
2972 -2993 0
2974 -2993 0
-2976 -2978 2995 0
2976 -2995 0
2978 -2995 0
-2980 -2982 2997 0
2980 -2997 0
2982 -2997 0
-2984 -2986 2999 0
2984 -2999 0
2986 -2999 0
-2988 -2990 3001 0
2988 -3001 0
2990 -3001 0
-2992 -2994 3003 0
2992 -3003 0
2994 -3003 0
-2996 -2998 3005 0
2996 -3005 0
2998 -3005 0
-3000 -3002 3006 0
3000 -3006 0
3002 -3006 0
-2899 -2901 3106 0
2899 -3106 0
2901 -3106 0
-2905 -2907 3107 0
2905 -3107 0
2907 -3107 0
-2909 -2911 3008 0
2909 -3008 0
2911 -3008 0
-2913 -2915 3010 0
2913 -3010 0
2915 -3010 0
-2919 -2921 3109 0
2919 -3109 0
2921 -3109 0
-2923 -2925 3014 0
2923 -3014 0
2925 -3014 0
-2927 -2929 3016 0
2927 -3016 0
2929 -3016 0
-2931 -2933 3111 0
2931 -3111 0
2933 -3111 0
-2937 -2939 3020 0
2937 -3020 0
2939 -3020 0
-2941 -2943 3022 0
2941 -3022 0
2943 -3022 0
-2945 -2947 3113 0
2945 -3113 0
2947 -3113 0
-2951 -2953 3114 0
2951 -3114 0
2953 -3114 0
-2955 -2957 3026 0
2955 -3026 0
2957 -3026 0
-2959 -2961 3028 0
2959 -3028 0
2961 -3028 0
-2963 -2965 3030 0
2963 -3030 0
2965 -3030 0
-2967 -2969 3032 0
2967 -3032 0
2969 -3032 0
-2971 -2973 3034 0
2971 -3034 0
2973 -3034 0
-2975 -2977 3036 0
2975 -3036 0
2977 -3036 0
-2979 -2981 3038 0
2979 -3038 0
2981 -3038 0
-2983 -2985 3040 0
2983 -3040 0
2985 -3040 0
-2987 -2989 3042 0
2987 -3042 0
2989 -3042 0
-2991 -2993 3044 0
2991 -3044 0
2993 -3044 0
-2995 -2997 3046 0
2995 -3046 0
2997 -3046 0
-2999 -3001 3048 0
2999 -3048 0
3001 -3048 0
-3003 -3005 3050 0
3003 -3050 0
3005 -3050 0
-3004 -3006 3052 0
3006 -3052 0
3004 -3052 0
-3007 -3009 3166 0
3007 -3166 0
3009 -3166 0
-3011 -3012 3057 0
3011 -3057 0
3012 -3057 0
-3013 -3015 3059 0
3013 -3059 0
3015 -3059 0
-3017 -3018 3061 0
3017 -3061 0
3018 -3061 0
-3019 -3021 3063 0
3019 -3063 0
3021 -3063 0
-3023 -3024 3130 0
3023 -3130 0
3024 -3130 0
-3025 -3027 3067 0
3025 -3067 0
3027 -3067 0
-3029 -3031 3069 0
3029 -3069 0
3031 -3069 0
-3033 -3035 3071 0
3033 -3071 0
3035 -3071 0
-3037 -3039 3073 0
3037 -3073 0
3039 -3073 0
-3041 -3043 3075 0
3041 -3075 0
3043 -3075 0
-3045 -3047 3077 0
3045 -3077 0
3047 -3077 0
-3049 -3051 3136 0
3049 -3136 0
3051 -3136 0
-3054 -3055 3080 0
3054 -3080 0
3055 -3080 0
-3056 -3058 3082 0
3056 -3082 0
3058 -3082 0
-3060 -3062 3084 0
3060 -3084 0
3062 -3084 0
-3064 -3065 3086 0
3064 -3086 0
3065 -3086 0
-3066 -3068 3088 0
3066 -3088 0
3068 -3088 0
-3070 -3072 3090 0
3070 -3090 0
3072 -3090 0
-3074 -3076 3092 0
3074 -3092 0
3076 -3092 0
-3053 -3078 3094 0
3078 -3094 0
3053 -3094 0
-3079 -3081 3096 0
3079 -3096 0
3081 -3096 0
-3083 -3085 3098 0
3083 -3098 0
3085 -3098 0
-3087 -3089 3100 0
3087 -3100 0
3089 -3100 0
-3091 -3093 3102 0
3091 -3102 0
3093 -3102 0
-3095 -3097 3104 0
3095 -3104 0
3097 -3104 0
-3099 -3101 3105 0
3099 -3105 0
3101 -3105 0
-3008 -3010 3209 0
3008 -3209 0
3010 -3209 0
-3014 -3016 3210 0
3014 -3210 0
3016 -3210 0
-3020 -3022 3211 0
3020 -3211 0
3022 -3211 0
-3026 -3028 3116 0
3026 -3116 0
3028 -3116 0
-3030 -3032 3118 0
3030 -3118 0
3032 -3118 0
-3034 -3036 3120 0
3034 -3120 0
3036 -3120 0
-3038 -3040 3122 0
3038 -3122 0
3040 -3122 0
-3042 -3044 3124 0
3042 -3124 0
3044 -3124 0
-3046 -3048 3126 0
3046 -3126 0
3048 -3126 0
-3050 -3052 3216 0
3050 -3216 0
3052 -3216 0
-3057 -3059 3217 0
3057 -3217 0
3059 -3217 0
-3061 -3063 3218 0
3061 -3218 0
3063 -3218 0
-3067 -3069 3132 0
3067 -3132 0
3069 -3132 0
-3071 -3073 3134 0
3071 -3134 0
3073 -3134 0
-3075 -3077 3220 0
3075 -3220 0
3077 -3220 0
-3080 -3082 3138 0
3080 -3138 0
3082 -3138 0
-3084 -3086 3140 0
3084 -3140 0
3086 -3140 0
-3088 -3090 3142 0
3088 -3142 0
3090 -3142 0
-3092 -3094 3144 0
3092 -3144 0
3094 -3144 0
-3096 -3098 3146 0
3096 -3146 0
3098 -3146 0
-3100 -3102 3148 0
3100 -3148 0
3102 -3148 0
-3104 -3105 3226 0
3104 -3226 0
3105 -3226 0
-3106 -3107 3151 0
3106 -3151 0
3107 -3151 0
-3108 -3109 3153 0
3108 -3153 0
3109 -3153 0
-3110 -3111 3155 0
3110 -3155 0
3111 -3155 0
-3112 -3113 3157 0
3112 -3157 0
3113 -3157 0
-3114 -3115 3159 0
3114 -3159 0
3115 -3159 0
-3117 -3119 3161 0
3117 -3161 0
3119 -3161 0
-3121 -3123 3163 0
3121 -3163 0
3123 -3163 0
-3125 -3127 3165 0
3125 -3165 0
3127 -3165 0
-3128 -3129 3233 0
3128 -3233 0
3129 -3233 0
-3130 -3131 3169 0
3130 -3169 0
3131 -3169 0
-3133 -3135 3171 0
3133 -3171 0
3135 -3171 0
-3136 -3137 3173 0
3136 -3173 0
3137 -3173 0
-3139 -3141 3175 0
3139 -3175 0
3141 -3175 0
-3143 -3145 3177 0
3143 -3177 0
3145 -3177 0
-3147 -3149 3179 0
3147 -3179 0
3149 -3179 0
-3103 -3150 3181 0
3103 -3181 0
3150 -3181 0
-3152 -3154 3183 0
3152 -3183 0
3154 -3183 0
-3156 -3158 3185 0
3156 -3185 0
3158 -3185 0
-3160 -3162 3187 0
3160 -3187 0
3162 -3187 0
-3164 -3166 3189 0
3164 -3189 0
3166 -3189 0
-3167 -3168 3191 0
3167 -3191 0
3168 -3191 0
-3170 -3172 3193 0
3170 -3193 0
3172 -3193 0
-3174 -3176 3195 0
3174 -3195 0
3176 -3195 0
-3178 -3180 3197 0
3178 -3197 0
3180 -3197 0
-3182 -3184 3199 0
3182 -3199 0
3184 -3199 0
-3186 -3188 3201 0
3186 -3201 0
3188 -3201 0
-3190 -3192 3203 0
3190 -3203 0
3192 -3203 0
-3194 -3196 3205 0
3194 -3205 0
3196 -3205 0
-3198 -3200 3207 0
3198 -3207 0
3200 -3207 0
-3202 -3204 3208 0
3202 -3208 0
3204 -3208 0
-3116 -3118 3312 0
3116 -3312 0
3118 -3312 0
-3120 -3122 3213 0
3120 -3213 0
3122 -3213 0
-3124 -3126 3215 0
3124 -3215 0
3126 -3215 0
-3132 -3134 3313 0
3132 -3313 0
3134 -3313 0
-3138 -3140 3314 0
3138 -3314 0
3140 -3314 0
-3142 -3144 3223 0
3142 -3223 0
3144 -3223 0
-3146 -3148 3225 0
3146 -3225 0
3148 -3225 0
-3151 -3153 3316 0
3151 -3316 0
3153 -3316 0
-3155 -3157 3229 0
3155 -3229 0
3157 -3229 0
-3159 -3161 3231 0
3159 -3231 0
3161 -3231 0
-3163 -3165 3318 0
3163 -3318 0
3165 -3318 0
-3169 -3171 3235 0
3169 -3235 0
3171 -3235 0
-3173 -3175 3237 0
3173 -3237 0
3175 -3237 0
-3177 -3179 3239 0
3177 -3239 0
3179 -3239 0
-3181 -3183 3241 0
3181 -3241 0
3183 -3241 0
-3185 -3187 3243 0
3185 -3243 0
3187 -3243 0
-3189 -3191 3245 0
3189 -3245 0
3191 -3245 0
-3193 -3195 3247 0
3193 -3247 0
3195 -3247 0
-3197 -3199 3249 0
3197 -3249 0
3199 -3249 0
-3201 -3203 3251 0
3201 -3251 0
3203 -3251 0
-3205 -3207 3253 0
3205 -3253 0
3207 -3253 0
-3206 -3208 3328 0
3208 -3328 0
3206 -3328 0
-3210 -3211 3329 0
3210 -3329 0
3211 -3329 0
-3212 -3214 3258 0
3212 -3258 0
3214 -3258 0
-3216 -3217 3260 0
3216 -3260 0
3217 -3260 0
-3218 -3219 3262 0
3218 -3262 0
3219 -3262 0
-3220 -3221 3264 0
3220 -3264 0
3221 -3264 0
-3222 -3224 3266 0
3222 -3266 0
3224 -3266 0
-3226 -3227 3268 0
3226 -3268 0
3227 -3268 0
-3228 -3230 3270 0
3228 -3270 0
3230 -3270 0
-3232 -3233 3272 0
3232 -3272 0
3233 -3272 0
-3234 -3236 3274 0
3234 -3274 0
3236 -3274 0
-3238 -3240 3276 0
3238 -3276 0
3240 -3276 0
-3242 -3244 3278 0
3242 -3278 0
3244 -3278 0
-3246 -3248 3280 0
3246 -3280 0
3248 -3280 0
-3250 -3252 3282 0
3250 -3282 0
3252 -3282 0
-3209 -3254 3284 0
3254 -3284 0
3209 -3284 0
-3255 -3256 3286 0
3255 -3286 0
3256 -3286 0
-3257 -3259 3288 0
3257 -3288 0
3259 -3288 0
-3261 -3263 3290 0
3261 -3290 0
3263 -3290 0
-3265 -3267 3292 0
3265 -3292 0
3267 -3292 0
-3269 -3271 3294 0
3269 -3294 0
3271 -3294 0
-3273 -3275 3296 0
3273 -3296 0
3275 -3296 0
-3277 -3279 3298 0
3277 -3298 0
3279 -3298 0
-3281 -3283 3300 0
3281 -3300 0
3283 -3300 0
-3285 -3287 3302 0
3285 -3302 0
3287 -3302 0
-3289 -3291 3304 0
3289 -3304 0
3291 -3304 0
-3293 -3295 3306 0
3293 -3306 0
3295 -3306 0
-3297 -3299 3308 0
3297 -3308 0
3299 -3308 0
-3301 -3303 3310 0
3301 -3310 0
3303 -3310 0
-3305 -3307 3311 0
3305 -3311 0
3307 -3311 0
-3213 -3215 3413 0
3213 -3413 0
3215 -3413 0
-3223 -3225 3460 0
3223 -3460 0
3225 -3460 0
-3229 -3231 3414 0
3229 -3414 0
3231 -3414 0
-3235 -3237 3415 0
3235 -3415 0
3237 -3415 0
-3239 -3241 3321 0
3239 -3321 0
3241 -3321 0
-3243 -3245 3323 0
3243 -3323 0
3245 -3323 0
-3247 -3249 3325 0
3247 -3325 0
3249 -3325 0
-3251 -3253 3327 0
3251 -3327 0
3253 -3327 0
-3258 -3260 3331 0
3258 -3331 0
3260 -3331 0
-3262 -3264 3333 0
3262 -3333 0
3264 -3333 0
-3266 -3268 3335 0
3266 -3335 0
3268 -3335 0
-3270 -3272 3337 0
3270 -3337 0
3272 -3337 0
-3274 -3276 3339 0
3274 -3339 0
3276 -3339 0
-3278 -3280 3341 0
3278 -3341 0
3280 -3341 0
-3282 -3284 3343 0
3282 -3343 0
3284 -3343 0
-3286 -3288 3345 0
3286 -3345 0
3288 -3345 0
-3290 -3292 3347 0
3290 -3347 0
3292 -3347 0
-3294 -3296 3349 0
3294 -3349 0
3296 -3349 0
-3298 -3300 3351 0
3298 -3351 0
3300 -3351 0
-3302 -3304 3353 0
3302 -3353 0
3304 -3353 0
-3306 -3308 3355 0
3306 -3355 0
3308 -3355 0
-3310 -3311 3357 0
3310 -3357 0
3311 -3357 0
-3313 -3314 3471 0
3313 -3471 0
3314 -3471 0
-3315 -3316 3361 0
3315 -3361 0
3316 -3361 0
-3317 -3318 3363 0
3317 -3363 0
3318 -3363 0
-3319 -3320 3365 0
3319 -3365 0
3320 -3365 0
-3322 -3324 3367 0
3322 -3367 0
3324 -3367 0
-3326 -3328 3369 0
3326 -3369 0
3328 -3369 0
-3329 -3330 3371 0
3329 -3371 0
3330 -3371 0
-3332 -3334 3373 0
3332 -3373 0
3334 -3373 0
-3336 -3338 3375 0
3336 -3375 0
3338 -3375 0
-3340 -3342 3377 0
3340 -3377 0
3342 -3377 0
-3344 -3346 3379 0
3344 -3379 0
3346 -3379 0
-3348 -3350 3381 0
3348 -3381 0
3350 -3381 0
-3352 -3354 3383 0
3352 -3383 0
3354 -3383 0
-3309 -3356 3385 0
3356 -3385 0
3309 -3385 0
-3312 -3358 3387 0
3312 -3387 0
3358 -3387 0
-3359 -3360 3389 0
3359 -3389 0
3360 -3389 0
-3362 -3364 3391 0
3362 -3391 0
3364 -3391 0
-3366 -3368 3393 0
3366 -3393 0
3368 -3393 0
-3370 -3372 3395 0
3370 -3395 0
3372 -3395 0
-3374 -3376 3397 0
3374 -3397 0
3376 -3397 0
-3378 -3380 3399 0
3378 -3399 0
3380 -3399 0
-3382 -3384 3401 0
3382 -3401 0
3384 -3401 0
-3386 -3388 3403 0
3386 -3403 0
3388 -3403 0
-3390 -3392 3405 0
3390 -3405 0
3392 -3405 0
-3394 -3396 3407 0
3394 -3407 0
3396 -3407 0
-3398 -3400 3409 0
3398 -3409 0
3400 -3409 0
-3402 -3404 3411 0
3402 -3411 0
3404 -3411 0
-3406 -3408 3412 0
3406 -3412 0
3408 -3412 0
-3321 -3323 3417 0
3321 -3417 0
3323 -3417 0
-3325 -3327 3419 0
3325 -3419 0
3327 -3419 0
-3331 -3333 3513 0
3331 -3513 0
3333 -3513 0
-3335 -3337 3421 0
3335 -3421 0
3337 -3421 0
-3339 -3341 3423 0
3339 -3423 0
3341 -3423 0
-3343 -3345 3425 0
3343 -3425 0
3345 -3425 0
-3347 -3349 3427 0
3347 -3427 0
3349 -3427 0
-3351 -3353 3429 0
3351 -3429 0
3353 -3429 0
-3355 -3357 3431 0
3355 -3431 0
3357 -3431 0
-3361 -3363 3433 0
3361 -3433 0
3363 -3433 0
-3365 -3367 3435 0
3365 -3435 0
3367 -3435 0
-3369 -3371 3437 0
3369 -3437 0
3371 -3437 0
-3373 -3375 3439 0
3373 -3439 0
3375 -3439 0
-3377 -3379 3441 0
3377 -3441 0
3379 -3441 0
-3381 -3383 3443 0
3381 -3443 0
3383 -3443 0
-3385 -3387 3445 0
3385 -3445 0
3387 -3445 0
-3389 -3391 3447 0
3389 -3447 0
3391 -3447 0
-3393 -3395 3449 0
3393 -3449 0
3395 -3449 0
-3397 -3399 3451 0
3397 -3451 0
3399 -3451 0
-3401 -3403 3453 0
3401 -3453 0
3403 -3453 0
-3405 -3407 3455 0
3405 -3455 0
3407 -3455 0
-3409 -3411 3457 0
3409 -3457 0
3411 -3457 0
-3410 -3412 3459 0
3412 -3459 0
3410 -3459 0
-3414 -3415 3462 0
3414 -3462 0
3415 -3462 0
-3416 -3418 3464 0
3416 -3464 0
3418 -3464 0
-3420 -3422 3531 0
3420 -3531 0
3422 -3531 0
-3424 -3426 3468 0
3424 -3468 0
3426 -3468 0
-3428 -3430 3470 0
3428 -3470 0
3430 -3470 0
-3432 -3434 3533 0
3432 -3533 0
3434 -3533 0
-3436 -3438 3474 0
3436 -3474 0
3438 -3474 0
-3440 -3442 3476 0
3440 -3476 0
3442 -3476 0
-3444 -3446 3478 0
3444 -3478 0
3446 -3478 0
-3448 -3450 3480 0
3448 -3480 0
3450 -3480 0
-3452 -3454 3482 0
3452 -3482 0
3454 -3482 0
-3456 -3458 3484 0
3456 -3484 0
3458 -3484 0
-3413 -3460 3486 0
3413 -3486 0
3460 -3486 0
-3461 -3463 3488 0
3461 -3488 0
3463 -3488 0
-3465 -3466 3490 0
3465 -3490 0
3466 -3490 0
-3467 -3469 3492 0
3467 -3492 0
3469 -3492 0
-3471 -3472 3494 0
3471 -3494 0
3472 -3494 0
-3473 -3475 3496 0
3473 -3496 0
3475 -3496 0
-3477 -3479 3498 0
3477 -3498 0
3479 -3498 0
-3481 -3483 3500 0
3481 -3500 0
3483 -3500 0
-3485 -3487 3502 0
3485 -3502 0
3487 -3502 0
-3489 -3491 3504 0
3489 -3504 0
3491 -3504 0
-3493 -3495 3506 0
3493 -3506 0
3495 -3506 0
-3497 -3499 3508 0
3497 -3508 0
3499 -3508 0
-3501 -3503 3510 0
3501 -3510 0
3503 -3510 0
-3505 -3507 3511 0
3505 -3511 0
3507 -3511 0
-3417 -3419 3599 0
3417 -3599 0
3419 -3599 0
-3421 -3423 3600 0
3421 -3600 0
3423 -3600 0
-3425 -3427 3516 0
3425 -3516 0
3427 -3516 0
-3429 -3431 3517 0
3429 -3517 0
3431 -3517 0
-3433 -3435 3602 0
3433 -3602 0
3435 -3602 0
-3437 -3439 3520 0
3437 -3520 0
3439 -3520 0
-3441 -3443 3522 0
3441 -3522 0
3443 -3522 0
-3445 -3447 3524 0
3445 -3524 0
3447 -3524 0
-3449 -3451 3526 0
3449 -3526 0
3451 -3526 0
-3453 -3455 3528 0
3453 -3528 0
3455 -3528 0
-3457 -3459 3529 0
3457 -3529 0
3459 -3529 0
-3462 -3464 3608 0
3462 -3608 0
3464 -3608 0
-3468 -3470 3609 0
3468 -3609 0
3470 -3609 0
-3474 -3476 3610 0
3474 -3610 0
3476 -3610 0
-3478 -3480 3536 0
3478 -3536 0
3480 -3536 0
-3482 -3484 3538 0
3482 -3538 0
3484 -3538 0
-3486 -3488 3540 0
3486 -3540 0
3488 -3540 0
-3490 -3492 3542 0
3490 -3542 0
3492 -3542 0
-3494 -3496 3544 0
3494 -3544 0
3496 -3544 0
-3498 -3500 3546 0
3498 -3546 0
3500 -3546 0
-3502 -3504 3548 0
3502 -3548 0
3504 -3548 0
-3506 -3508 3550 0
3506 -3550 0
3508 -3550 0
-3510 -3511 3617 0
3510 -3617 0
3511 -3617 0
-3512 -3513 3618 0
3512 -3618 0
3513 -3618 0
-3514 -3515 3619 0
3514 -3619 0
3515 -3619 0
-3518 -3519 3556 0
3518 -3556 0
3519 -3556 0
-3521 -3523 3558 0
3521 -3558 0
3523 -3558 0
-3525 -3527 3621 0
3525 -3621 0
3527 -3621 0
-3530 -3531 3562 0
3530 -3562 0
3531 -3562 0
-3532 -3533 3564 0
3532 -3564 0
3533 -3564 0
-3534 -3535 3566 0
3534 -3566 0
3535 -3566 0
-3537 -3539 3568 0
3537 -3568 0
3539 -3568 0
-3541 -3543 3570 0
3541 -3570 0
3543 -3570 0
-3545 -3547 3572 0
3545 -3572 0
3547 -3572 0
-3549 -3551 3627 0
3549 -3627 0
3551 -3627 0
-3552 -3553 3575 0
3552 -3575 0
3553 -3575 0
-3554 -3555 3577 0
3554 -3577 0
3555 -3577 0
-3557 -3559 3579 0
3557 -3579 0
3559 -3579 0
-3560 -3561 3581 0
3560 -3581 0
3561 -3581 0
-3563 -3565 3583 0
3563 -3583 0
3565 -3583 0
-3567 -3569 3585 0
3567 -3585 0
3569 -3585 0
-3571 -3573 3587 0
3571 -3587 0
3573 -3587 0
-3509 -3574 3589 0
3509 -3589 0
3574 -3589 0
-3576 -3578 3591 0
3576 -3591 0
3578 -3591 0
-3580 -3582 3593 0
3580 -3593 0
3582 -3593 0
-3584 -3586 3595 0
3584 -3595 0
3586 -3595 0
-3588 -3590 3597 0
3588 -3597 0
3590 -3597 0
-3592 -3594 3598 0
3592 -3598 0
3594 -3598 0
-3516 -3517 3696 0
3516 -3696 0
3517 -3696 0
-3520 -3522 3697 0
3520 -3697 0
3522 -3697 0
-3524 -3526 3605 0
3524 -3605 0
3526 -3605 0
-3528 -3529 3607 0
3528 -3607 0
3529 -3607 0
-3536 -3538 3698 0
3536 -3698 0
3538 -3698 0
-3540 -3542 3613 0
3540 -3613 0
3542 -3613 0
-3544 -3546 3615 0
3544 -3615 0
3546 -3615 0
-3548 -3550 3700 0
3548 -3700 0
3550 -3700 0
-3556 -3558 3701 0
3556 -3701 0
3558 -3701 0
-3562 -3564 3623 0
3562 -3623 0
3564 -3623 0
-3566 -3568 3625 0
3566 -3625 0
3568 -3625 0
-3570 -3572 3703 0
3570 -3703 0
3572 -3703 0
-3575 -3577 3629 0
3575 -3629 0
3577 -3629 0
-3579 -3581 3631 0
3579 -3631 0
3581 -3631 0
-3583 -3585 3633 0
3583 -3633 0
3585 -3633 0
-3587 -3589 3635 0
3587 -3635 0
3589 -3635 0
-3591 -3593 3637 0
3591 -3637 0
3593 -3637 0
-3595 -3597 3639 0
3595 -3639 0
3597 -3639 0
-3596 -3598 3709 0
3598 -3709 0
3596 -3709 0
-3600 -3601 3642 0
3600 -3642 0
3601 -3642 0
-3602 -3603 3644 0
3602 -3644 0
3603 -3644 0
-3604 -3606 3646 0
3604 -3646 0
3606 -3646 0
-3608 -3609 3648 0
3608 -3648 0
3609 -3648 0
-3610 -3611 3650 0
3610 -3650 0
3611 -3650 0
-3612 -3614 3652 0
3612 -3652 0
3614 -3652 0
-3616 -3617 3654 0
3616 -3654 0
3617 -3654 0
-3618 -3619 3656 0
3618 -3656 0
3619 -3656 0
-3620 -3621 3658 0
3620 -3658 0
3621 -3658 0
-3622 -3624 3660 0
3622 -3660 0
3624 -3660 0
-3626 -3627 3662 0
3626 -3662 0
3627 -3662 0
-3628 -3630 3664 0
3628 -3664 0
3630 -3664 0
-3632 -3634 3666 0
3632 -3666 0
3634 -3666 0
-3636 -3638 3668 0
3636 -3668 0
3638 -3668 0
-3599 -3640 3670 0
3640 -3670 0
3599 -3670 0
-3641 -3643 3672 0
3641 -3672 0
3643 -3672 0
-3645 -3647 3674 0
3645 -3674 0
3647 -3674 0
-3649 -3651 3676 0
3649 -3676 0
3651 -3676 0
-3653 -3655 3678 0
3653 -3678 0
3655 -3678 0
-3657 -3659 3680 0
3657 -3680 0
3659 -3680 0
-3661 -3663 3682 0
3661 -3682 0
3663 -3682 0
-3665 -3667 3684 0
3665 -3684 0
3667 -3684 0
-3669 -3671 3686 0
3669 -3686 0
3671 -3686 0
-3673 -3675 3688 0
3673 -3688 0
3675 -3688 0
-3677 -3679 3690 0
3677 -3690 0
3679 -3690 0
-3681 -3683 3692 0
3681 -3692 0
3683 -3692 0
-3685 -3687 3694 0
3685 -3694 0
3687 -3694 0
-3689 -3691 3695 0
3689 -3695 0
3691 -3695 0
-3605 -3607 3787 0
3605 -3787 0
3607 -3787 0
-3613 -3615 3788 0
3613 -3788 0
3615 -3788 0
-3623 -3625 3831 0
3623 -3831 0
3625 -3831 0
-3629 -3631 3705 0
3629 -3705 0
3631 -3705 0
-3633 -3635 3707 0
3633 -3707 0
3635 -3707 0
-3637 -3639 3790 0
3637 -3790 0
3639 -3790 0
-3642 -3644 3711 0
3642 -3711 0
3644 -3711 0
-3646 -3648 3713 0
3646 -3713 0
3648 -3713 0
-3650 -3652 3715 0
3650 -3715 0
3652 -3715 0
-3654 -3656 3717 0
3654 -3717 0
3656 -3717 0
-3658 -3660 3719 0
3658 -3719 0
3660 -3719 0
-3662 -3664 3721 0
3662 -3721 0
3664 -3721 0
-3666 -3668 3723 0
3666 -3723 0
3668 -3723 0
-3670 -3672 3725 0
3670 -3725 0
3672 -3725 0
-3674 -3676 3727 0
3674 -3727 0
3676 -3727 0
-3678 -3680 3729 0
3678 -3729 0
3680 -3729 0
-3682 -3684 3731 0
3682 -3731 0
3684 -3731 0
-3686 -3688 3733 0
3686 -3733 0
3688 -3733 0
-3690 -3692 3735 0
3690 -3735 0
3692 -3735 0
-3694 -3695 3737 0
3694 -3737 0
3695 -3737 0
-3696 -3697 3804 0
3696 -3804 0
3697 -3804 0
-3698 -3699 3805 0
3698 -3805 0
3699 -3805 0
-3701 -3702 3806 0
3701 -3806 0
3702 -3806 0
-3703 -3704 3743 0
3703 -3743 0
3704 -3743 0
-3706 -3708 3745 0
3706 -3745 0
3708 -3745 0
-3709 -3710 3747 0
3709 -3747 0
3710 -3747 0
-3712 -3714 3749 0
3712 -3749 0
3714 -3749 0
-3716 -3718 3751 0
3716 -3751 0
3718 -3751 0
-3720 -3722 3753 0
3720 -3753 0
3722 -3753 0
-3724 -3726 3755 0
3724 -3755 0
3726 -3755 0
-3728 -3730 3757 0
3728 -3757 0
3730 -3757 0
-3732 -3734 3759 0
3732 -3759 0
3734 -3759 0
-3693 -3736 3761 0
3736 -3761 0
3693 -3761 0
-3738 -3739 3763 0
3738 -3763 0
3739 -3763 0
-3700 -3740 3765 0
3740 -3765 0
3700 -3765 0
-3741 -3742 3767 0
3741 -3767 0
3742 -3767 0
-3744 -3746 3769 0
3744 -3769 0
3746 -3769 0
-3748 -3750 3771 0
3748 -3771 0
3750 -3771 0
-3752 -3754 3773 0
3752 -3773 0
3754 -3773 0
-3756 -3758 3775 0
3756 -3775 0
3758 -3775 0
-3760 -3762 3777 0
3760 -3777 0
3762 -3777 0
-3764 -3766 3779 0
3764 -3779 0
3766 -3779 0
-3768 -3770 3781 0
3768 -3781 0
3770 -3781 0
-3772 -3774 3783 0
3772 -3783 0
3774 -3783 0
-3776 -3778 3785 0
3776 -3785 0
3778 -3785 0
-3780 -3782 3786 0
3780 -3786 0
3782 -3786 0
-3705 -3707 3880 0
3705 -3880 0
3707 -3880 0
-3711 -3713 3792 0
3711 -3792 0
3713 -3792 0
-3715 -3717 3794 0
3715 -3794 0
3717 -3794 0
-3719 -3721 3796 0
3719 -3796 0
3721 -3796 0
-3723 -3725 3798 0
3723 -3798 0
3725 -3798 0
-3727 -3729 3800 0
3727 -3800 0
3729 -3800 0
-3731 -3733 3802 0
3731 -3802 0
3733 -3802 0
-3735 -3737 3886 0
3735 -3886 0
3737 -3886 0
-3743 -3745 3808 0
3743 -3808 0
3745 -3808 0
-3747 -3749 3810 0
3747 -3810 0
3749 -3810 0
-3751 -3753 3812 0
3751 -3812 0
3753 -3812 0
-3755 -3757 3814 0
3755 -3814 0
3757 -3814 0
-3759 -3761 3816 0
3759 -3816 0
3761 -3816 0
-3763 -3765 3818 0
3763 -3818 0
3765 -3818 0
-3767 -3769 3820 0
3767 -3820 0
3769 -3820 0
-3771 -3773 3822 0
3771 -3822 0
3773 -3822 0
-3775 -3777 3824 0
3775 -3824 0
3777 -3824 0
-3779 -3781 3826 0
3779 -3826 0
3781 -3826 0
-3783 -3785 3828 0
3783 -3828 0
3785 -3828 0
-3784 -3786 3830 0
3786 -3830 0
3784 -3830 0
-3789 -3790 3926 0
3789 -3926 0
3790 -3926 0
-3791 -3793 3834 0
3791 -3834 0
3793 -3834 0
-3795 -3797 3836 0
3795 -3836 0
3797 -3836 0
-3799 -3801 3838 0
3799 -3838 0
3801 -3838 0
-3803 -3804 3840 0
3803 -3840 0
3804 -3840 0
-3805 -3806 3842 0
3805 -3842 0
3806 -3842 0
-3807 -3809 3844 0
3807 -3844 0
3809 -3844 0
-3811 -3813 3846 0
3811 -3846 0
3813 -3846 0
-3815 -3817 3848 0
3815 -3848 0
3817 -3848 0
-3819 -3821 3850 0
3819 -3850 0
3821 -3850 0
-3823 -3825 3852 0
3823 -3852 0
3825 -3852 0
-3827 -3829 3854 0
3827 -3854 0
3829 -3854 0
-3787 -3788 3856 0
3787 -3856 0
3788 -3856 0
-3831 -3832 3858 0
3831 -3858 0
3832 -3858 0
-3833 -3835 3860 0
3833 -3860 0
3835 -3860 0
-3837 -3839 3862 0
3837 -3862 0
3839 -3862 0
-3841 -3843 3864 0
3841 -3864 0
3843 -3864 0
-3845 -3847 3866 0
3845 -3866 0
3847 -3866 0
-3849 -3851 3868 0
3849 -3868 0
3851 -3868 0
-3853 -3855 3870 0
3853 -3870 0
3855 -3870 0
-3857 -3859 3872 0
3857 -3872 0
3859 -3872 0
-3861 -3863 3874 0
3861 -3874 0
3863 -3874 0
-3865 -3867 3876 0
3865 -3876 0
3867 -3876 0
-3869 -3871 3878 0
3869 -3878 0
3871 -3878 0
-3873 -3875 3879 0
3873 -3879 0
3875 -3879 0
-3792 -3794 3882 0
3792 -3882 0
3794 -3882 0
-3796 -3798 3884 0
3796 -3884 0
3798 -3884 0
-3800 -3802 3962 0
3800 -3962 0
3802 -3962 0
-3808 -3810 3963 0
3808 -3963 0
3810 -3963 0
-3812 -3814 3889 0
3812 -3889 0
3814 -3889 0
-3816 -3818 3891 0
3816 -3891 0
3818 -3891 0
-3820 -3822 3893 0
3820 -3893 0
3822 -3893 0
-3824 -3826 3895 0
3824 -3895 0
3826 -3895 0
-3828 -3830 3966 0
3828 -3966 0
3830 -3966 0
-3834 -3836 3967 0
3834 -3967 0
3836 -3967 0
-3838 -3840 3899 0
3838 -3899 0
3840 -3899 0
-3842 -3844 3901 0
3842 -3901 0
3844 -3901 0
-3846 -3848 3903 0
3846 -3903 0
3848 -3903 0
-3850 -3852 3905 0
3850 -3905 0
3852 -3905 0
-3854 -3856 3907 0
3854 -3907 0
3856 -3907 0
-3858 -3860 3909 0
3858 -3909 0
3860 -3909 0
-3862 -3864 3911 0
3862 -3911 0
3864 -3911 0
-3866 -3868 3913 0
3866 -3913 0
3868 -3913 0
-3870 -3872 3915 0
3870 -3915 0
3872 -3915 0
-3874 -3876 3917 0
3874 -3917 0
3876 -3917 0
-3878 -3879 3977 0
3878 -3977 0
3879 -3977 0
-3880 -3881 3978 0
3880 -3978 0
3881 -3978 0
-3883 -3885 3979 0
3883 -3979 0
3885 -3979 0
-3887 -3888 3922 0
3887 -3922 0
3888 -3922 0
-3890 -3892 3924 0
3890 -3924 0
3892 -3924 0
-3894 -3896 3981 0
3894 -3981 0
3896 -3981 0
-3897 -3898 3928 0
3897 -3928 0
3898 -3928 0
-3900 -3902 3930 0
3900 -3930 0
3902 -3930 0
-3904 -3906 3932 0
3904 -3932 0
3906 -3932 0
-3908 -3910 3934 0
3908 -3934 0
3910 -3934 0
-3912 -3914 3936 0
3912 -3936 0
3914 -3936 0
-3916 -3918 3938 0
3916 -3938 0
3918 -3938 0
-3919 -3920 3987 0
3919 -3987 0
3920 -3987 0
-3886 -3921 3941 0
3886 -3941 0
3921 -3941 0
-3923 -3925 3943 0
3923 -3943 0
3925 -3943 0
-3926 -3927 3945 0
3926 -3945 0
3927 -3945 0
-3929 -3931 3947 0
3929 -3947 0
3931 -3947 0
-3933 -3935 3949 0
3933 -3949 0
3935 -3949 0
-3877 -3937 3951 0
3937 -3951 0
3877 -3951 0
-3939 -3940 3953 0
3939 -3953 0
3940 -3953 0
-3942 -3944 3955 0
3942 -3955 0
3944 -3955 0
-3946 -3948 3957 0
3946 -3957 0
3948 -3957 0
-3950 -3952 3959 0
3950 -3959 0
3952 -3959 0
-3954 -3956 3960 0
3954 -3960 0
3956 -3960 0
-3882 -3884 4046 0
3882 -4046 0
3884 -4046 0
-3889 -3891 4047 0
3889 -4047 0
3891 -4047 0
-3893 -3895 4048 0
3893 -4048 0
3895 -4048 0
-3899 -3901 4049 0
3899 -4049 0
3901 -4049 0
-3903 -3905 3970 0
3903 -3970 0
3905 -3970 0
-3907 -3909 3972 0
3907 -3972 0
3909 -3972 0
-3911 -3913 3974 0
3911 -3974 0
3913 -3974 0
-3915 -3917 3976 0
3915 -3976 0
3917 -3976 0
-3922 -3924 4088 0
3922 -4088 0
3924 -4088 0
-3928 -3930 4052 0
3928 -4052 0
3930 -4052 0
-3932 -3934 3984 0
3932 -3984 0
3934 -3984 0
-3936 -3938 3986 0
3936 -3986 0
3938 -3986 0
-3941 -3943 4054 0
3941 -4054 0
3943 -4054 0
-3945 -3947 3990 0
3945 -3990 0
3947 -3990 0
-3949 -3951 3992 0
3949 -3992 0
3951 -3992 0
-3953 -3955 3994 0
3953 -3994 0
3955 -3994 0
-3957 -3959 3996 0
3957 -3996 0
3959 -3996 0
-3958 -3960 4059 0
3960 -4059 0
3958 -4059 0
-3961 -3962 3998 0
3961 -3998 0
3962 -3998 0
-3963 -3964 4000 0
3963 -4000 0
3964 -4000 0
-3965 -3966 4002 0
3965 -4002 0
3966 -4002 0
-3967 -3968 4004 0
3967 -4004 0
3968 -4004 0
-3969 -3971 4006 0
3969 -4006 0
3971 -4006 0
-3973 -3975 4008 0
3973 -4008 0
3975 -4008 0
-3977 -3978 4010 0
3977 -4010 0
3978 -4010 0
-3979 -3980 4012 0
3979 -4012 0
3980 -4012 0
-3981 -3982 4014 0
3981 -4014 0
3982 -4014 0
-3983 -3985 4016 0
3983 -4016 0
3985 -4016 0
-3987 -3988 4018 0
3987 -4018 0
3988 -4018 0
-3989 -3991 4020 0
3989 -4020 0
3991 -4020 0
-3993 -3995 4070 0
3993 -4070 0
3995 -4070 0
-3997 -3999 4024 0
3997 -4024 0
3999 -4024 0
-4001 -4003 4026 0
4001 -4026 0
4003 -4026 0
-4005 -4007 4028 0
4005 -4028 0
4007 -4028 0
-4009 -4011 4030 0
4009 -4030 0
4011 -4030 0
-4013 -4015 4032 0
4013 -4032 0
4015 -4032 0
-4017 -4019 4034 0
4017 -4034 0
4019 -4034 0
-4021 -4022 4036 0
4021 -4036 0
4022 -4036 0
-4023 -4025 4038 0
4023 -4038 0
4025 -4038 0
-4027 -4029 4040 0
4027 -4040 0
4029 -4040 0
-4031 -4033 4042 0
4031 -4042 0
4033 -4042 0
-4035 -4037 4044 0
4035 -4044 0
4037 -4044 0
-4039 -4041 4045 0
4039 -4045 0
4041 -4045 0
-3970 -3972 4131 0
3970 -4131 0
3972 -4131 0
-3974 -3976 4132 0
3974 -4132 0
3976 -4132 0
-3984 -3986 4133 0
3984 -4133 0
3986 -4133 0
-3990 -3992 4056 0
3990 -4056 0
3992 -4056 0
-3994 -3996 4058 0
3994 -4058 0
3996 -4058 0
-3998 -4000 4135 0
3998 -4135 0
4000 -4135 0
-4002 -4004 4062 0
4002 -4062 0
4004 -4062 0
-4006 -4008 4064 0
4006 -4064 0
4008 -4064 0
-4010 -4012 4066 0
4010 -4066 0
4012 -4066 0
-4014 -4016 4068 0
4014 -4068 0
4016 -4068 0
-4018 -4020 4140 0
4018 -4140 0
4020 -4140 0
-4024 -4026 4072 0
4024 -4072 0
4026 -4072 0
-4028 -4030 4074 0
4028 -4074 0
4030 -4074 0
-4032 -4034 4076 0
4032 -4076 0
4034 -4076 0
-4036 -4038 4078 0
4036 -4078 0
4038 -4078 0
-4040 -4042 4080 0
4040 -4080 0
4042 -4080 0
-4044 -4045 4082 0
4044 -4082 0
4045 -4082 0
-4046 -4047 4146 0
4046 -4146 0
4047 -4146 0
-4048 -4049 4085 0
4048 -4085 0
4049 -4085 0
-4050 -4051 4087 0
4050 -4087 0
4051 -4087 0
-4052 -4053 4148 0
4052 -4148 0
4053 -4148 0
-4054 -4055 4091 0
4054 -4091 0
4055 -4091 0
-4057 -4059 4093 0
4057 -4093 0
4059 -4093 0
-4060 -4061 4095 0
4060 -4095 0
4061 -4095 0
-4063 -4065 4097 0
4063 -4097 0
4065 -4097 0
-4067 -4069 4099 0
4067 -4099 0
4069 -4099 0
-4070 -4071 4101 0
4070 -4101 0
4071 -4101 0
-4073 -4075 4103 0
4073 -4103 0
4075 -4103 0
-4077 -4079 4105 0
4077 -4105 0
4079 -4105 0
-4043 -4081 4107 0
4081 -4107 0
4043 -4107 0
-4083 -4084 4109 0
4083 -4109 0
4084 -4109 0
-4086 -4088 4111 0
4086 -4111 0
4088 -4111 0
-4089 -4090 4113 0
4089 -4113 0
4090 -4113 0
-4092 -4094 4115 0
4092 -4115 0
4094 -4115 0
-4096 -4098 4117 0
4096 -4117 0
4098 -4117 0
-4100 -4102 4119 0
4100 -4119 0
4102 -4119 0
-4104 -4106 4121 0
4104 -4121 0
4106 -4121 0
-4108 -4110 4123 0
4108 -4123 0
4110 -4123 0
-4112 -4114 4125 0
4112 -4125 0
4114 -4125 0
-4116 -4118 4127 0
4116 -4127 0
4118 -4127 0
-4120 -4122 4129 0
4120 -4129 0
4122 -4129 0
-4124 -4126 4130 0
4124 -4130 0
4126 -4130 0
-4056 -4058 4212 0
4056 -4212 0
4058 -4212 0
-4062 -4064 4137 0
4062 -4137 0
4064 -4137 0
-4066 -4068 4139 0
4066 -4139 0
4068 -4139 0
-4072 -4074 4214 0
4072 -4214 0
4074 -4214 0
-4076 -4078 4143 0
4076 -4143 0
4078 -4143 0
-4080 -4082 4145 0
4080 -4145 0
4082 -4145 0
-4085 -4087 4216 0
4085 -4216 0
4087 -4216 0
-4091 -4093 4217 0
4091 -4217 0
4093 -4217 0
-4095 -4097 4151 0
4095 -4151 0
4097 -4151 0
-4099 -4101 4153 0
4099 -4153 0
4101 -4153 0
-4103 -4105 4155 0
4103 -4155 0
4105 -4155 0
-4107 -4109 4157 0
4107 -4157 0
4109 -4157 0
-4111 -4113 4159 0
4111 -4159 0
4113 -4159 0
-4115 -4117 4161 0
4115 -4161 0
4117 -4161 0
-4119 -4121 4163 0
4119 -4163 0
4121 -4163 0
-4123 -4125 4165 0
4123 -4165 0
4125 -4165 0
-4127 -4129 4167 0
4127 -4167 0
4129 -4167 0
-4128 -4130 4169 0
4130 -4169 0
4128 -4169 0
-4131 -4132 4227 0
4131 -4227 0
4132 -4227 0
-4134 -4135 4228 0
4134 -4228 0
4135 -4228 0
-4136 -4138 4172 0
4136 -4172 0
4138 -4172 0
-4140 -4141 4174 0
4140 -4174 0
4141 -4174 0
-4142 -4144 4176 0
4142 -4176 0
4144 -4176 0
-4146 -4147 4178 0
4146 -4178 0
4147 -4178 0
-4148 -4149 4180 0
4148 -4180 0
4149 -4180 0
-4150 -4152 4182 0
4150 -4182 0
4152 -4182 0
-4154 -4156 4184 0
4154 -4184 0
4156 -4184 0
-4158 -4160 4186 0
4158 -4186 0
4160 -4186 0
-4162 -4164 4188 0
4162 -4188 0
4164 -4188 0
-4166 -4168 4190 0
4166 -4190 0
4168 -4190 0
-4133 -4170 4238 0
4133 -4238 0
4170 -4238 0
-4171 -4173 4194 0
4171 -4194 0
4173 -4194 0
-4175 -4177 4196 0
4175 -4196 0
4177 -4196 0
-4179 -4181 4198 0
4179 -4198 0
4181 -4198 0
-4183 -4185 4200 0
4183 -4200 0
4185 -4200 0
-4187 -4189 4202 0
4187 -4202 0
4189 -4202 0
-4191 -4192 4204 0
4191 -4204 0
4192 -4204 0
-4193 -4195 4206 0
4193 -4206 0
4195 -4206 0
-4197 -4199 4208 0
4197 -4208 0
4199 -4208 0
-4201 -4203 4210 0
4201 -4210 0
4203 -4210 0
-4205 -4207 4211 0
4205 -4211 0
4207 -4211 0
-4137 -4139 4291 0
4137 -4291 0
4139 -4291 0
-4143 -4145 4292 0
4143 -4292 0
4145 -4292 0
-4151 -4153 4293 0
4151 -4293 0
4153 -4293 0
-4155 -4157 4220 0
4155 -4220 0
4157 -4220 0
-4159 -4161 4222 0
4159 -4222 0
4161 -4222 0
-4163 -4165 4224 0
4163 -4224 0
4165 -4224 0
-4167 -4169 4226 0
4167 -4226 0
4169 -4226 0
-4172 -4174 4230 0
4172 -4230 0
4174 -4230 0
-4176 -4178 4232 0
4176 -4232 0
4178 -4232 0
-4180 -4182 4234 0
4180 -4234 0
4182 -4234 0
-4184 -4186 4236 0
4184 -4236 0
4186 -4236 0
-4188 -4190 4299 0
4188 -4299 0
4190 -4299 0
-4194 -4196 4240 0
4194 -4240 0
4196 -4240 0
-4198 -4200 4242 0
4198 -4242 0
4200 -4242 0
-4202 -4204 4244 0
4202 -4244 0
4204 -4244 0
-4206 -4208 4246 0
4206 -4246 0
4208 -4246 0
-4210 -4211 4302 0
4210 -4302 0
4211 -4302 0
-4212 -4213 4303 0
4212 -4303 0
4213 -4303 0
-4214 -4215 4250 0
4214 -4250 0
4215 -4250 0
-4216 -4217 4252 0
4216 -4252 0
4217 -4252 0
-4218 -4219 4254 0
4218 -4254 0
4219 -4254 0
-4221 -4223 4256 0
4221 -4256 0
4223 -4256 0
-4225 -4227 4258 0
4225 -4258 0
4227 -4258 0
-4228 -4229 4260 0
4228 -4260 0
4229 -4260 0
-4231 -4233 4262 0
4231 -4262 0
4233 -4262 0
-4235 -4237 4264 0
4235 -4264 0
4237 -4264 0
-4238 -4239 4266 0
4238 -4266 0
4239 -4266 0
-4241 -4243 4268 0
4241 -4268 0
4243 -4268 0
-4245 -4247 4313 0
4245 -4313 0
4247 -4313 0
-4248 -4249 4271 0
4248 -4271 0
4249 -4271 0
-4251 -4253 4273 0
4251 -4273 0
4253 -4273 0
-4255 -4257 4275 0
4255 -4275 0
4257 -4275 0
-4259 -4261 4277 0
4259 -4277 0
4261 -4277 0
-4263 -4265 4279 0
4263 -4279 0
4265 -4279 0
-4267 -4269 4281 0
4267 -4281 0
4269 -4281 0
-4209 -4270 4283 0
4209 -4283 0
4270 -4283 0
-4272 -4274 4285 0
4272 -4285 0
4274 -4285 0
-4276 -4278 4287 0
4276 -4287 0
4278 -4287 0
-4280 -4282 4289 0
4280 -4289 0
4282 -4289 0
-4284 -4286 4290 0
4284 -4290 0
4286 -4290 0
-4220 -4222 4366 0
4220 -4366 0
4222 -4366 0
-4224 -4226 4367 0
4224 -4367 0
4226 -4367 0
-4230 -4232 4296 0
4230 -4296 0
4232 -4296 0
-4234 -4236 4298 0
4234 -4298 0
4236 -4298 0
-4240 -4242 4369 0
4240 -4369 0
4242 -4369 0
-4244 -4246 4370 0
4244 -4370 0
4246 -4370 0
-4250 -4252 4371 0
4250 -4371 0
4252 -4371 0
-4254 -4256 4306 0
4254 -4306 0
4256 -4306 0
-4258 -4260 4308 0
4258 -4308 0
4260 -4308 0
-4262 -4264 4310 0
4262 -4310 0
4264 -4310 0
-4266 -4268 4312 0
4266 -4312 0
4268 -4312 0
-4271 -4273 4376 0
4271 -4376 0
4273 -4376 0
-4275 -4277 4316 0
4275 -4316 0
4277 -4316 0
-4279 -4281 4318 0
4279 -4318 0
4281 -4318 0
-4283 -4285 4320 0
4283 -4320 0
4285 -4320 0
-4287 -4289 4322 0
4287 -4322 0
4289 -4322 0
-4288 -4290 4379 0
4290 -4379 0
4288 -4379 0
-4291 -4292 4324 0
4291 -4324 0
4292 -4324 0
-4293 -4294 4326 0
4293 -4326 0
4294 -4326 0
-4295 -4297 4381 0
4295 -4381 0
4297 -4381 0
-4299 -4300 4330 0
4299 -4330 0
4300 -4330 0
-4301 -4302 4332 0
4301 -4332 0
4302 -4332 0
-4303 -4304 4334 0
4303 -4334 0
4304 -4334 0
-4305 -4307 4336 0
4305 -4336 0
4307 -4336 0
-4309 -4311 4338 0
4309 -4338 0
4311 -4338 0
-4313 -4314 4340 0
4313 -4340 0
4314 -4340 0
-4315 -4317 4342 0
4315 -4342 0
4317 -4342 0
-4319 -4321 4344 0
4319 -4344 0
4321 -4344 0
-4323 -4325 4390 0
4323 -4390 0
4325 -4390 0
-4327 -4328 4348 0
4327 -4348 0
4328 -4348 0
-4329 -4331 4350 0
4329 -4350 0
4331 -4350 0
-4333 -4335 4352 0
4333 -4352 0
4335 -4352 0
-4337 -4339 4354 0
4337 -4354 0
4339 -4354 0
-4341 -4343 4356 0
4341 -4356 0
4343 -4356 0
-4345 -4346 4358 0
4345 -4358 0
4346 -4358 0
-4347 -4349 4360 0
4347 -4360 0
4349 -4360 0
-4351 -4353 4362 0
4351 -4362 0
4353 -4362 0
-4355 -4357 4364 0
4355 -4364 0
4357 -4364 0
-4359 -4361 4365 0
4359 -4365 0
4361 -4365 0
-4296 -4298 4498 0
4296 -4498 0
4298 -4498 0
-4306 -4308 4373 0
4306 -4373 0
4308 -4373 0
-4310 -4312 4375 0
4310 -4375 0
4312 -4375 0
-4316 -4318 4446 0
4316 -4446 0
4318 -4446 0
-4320 -4322 4447 0
4320 -4447 0
4322 -4447 0
-4324 -4326 4448 0
4324 -4448 0
4326 -4448 0
-4330 -4332 4383 0
4330 -4383 0
4332 -4383 0
-4334 -4336 4385 0
4334 -4385 0
4336 -4385 0
-4338 -4340 4387 0
4338 -4387 0
4340 -4387 0
-4342 -4344 4389 0
4342 -4389 0
4344 -4389 0
-4348 -4350 4453 0
4348 -4453 0
4350 -4453 0
-4352 -4354 4393 0
4352 -4393 0
4354 -4393 0
-4356 -4358 4395 0
4356 -4395 0
4358 -4395 0
-4360 -4362 4397 0
4360 -4397 0
4362 -4397 0
-4364 -4365 4399 0
4364 -4399 0
4365 -4399 0
-4367 -4368 4401 0
4367 -4401 0
4368 -4401 0
-4369 -4370 4403 0
4369 -4403 0
4370 -4403 0
-4371 -4372 4405 0
4371 -4405 0
4372 -4405 0
-4374 -4376 4407 0
4374 -4407 0
4376 -4407 0
-4377 -4378 4409 0
4377 -4409 0
4378 -4409 0
-4379 -4380 4411 0
4379 -4411 0
4380 -4411 0
-4381 -4382 4413 0
4381 -4413 0
4382 -4413 0
-4384 -4386 4415 0
4384 -4415 0
4386 -4415 0
-4388 -4390 4417 0
4388 -4417 0
4390 -4417 0
-4391 -4392 4419 0
4391 -4419 0
4392 -4419 0
-4394 -4396 4421 0
4394 -4421 0
4396 -4421 0
-4363 -4398 4423 0
4398 -4423 0
4363 -4423 0
-4366 -4400 4425 0
4366 -4425 0
4400 -4425 0
-4402 -4404 4427 0
4402 -4427 0
4404 -4427 0
-4406 -4408 4429 0
4406 -4429 0
4408 -4429 0
-4410 -4412 4431 0
4410 -4431 0
4412 -4431 0
-4414 -4416 4433 0
4414 -4433 0
4416 -4433 0
-4418 -4420 4435 0
4418 -4435 0
4420 -4435 0
-4422 -4424 4437 0
4422 -4437 0
4424 -4437 0
-4426 -4428 4439 0
4426 -4439 0
4428 -4439 0
-4430 -4432 4441 0
4430 -4441 0
4432 -4441 0
-4434 -4436 4443 0
4434 -4443 0
4436 -4443 0
-4438 -4440 4444 0
4438 -4444 0
4440 -4444 0
-4373 -4375 4546 0
4373 -4546 0
4375 -4546 0
-4383 -4385 4450 0
4383 -4450 0
4385 -4450 0
-4387 -4389 4452 0
4387 -4452 0
4389 -4452 0
-4393 -4395 4518 0
4393 -4518 0
4395 -4518 0
-4397 -4399 4519 0
4397 -4519 0
4399 -4519 0
-4401 -4403 4456 0
4401 -4456 0
4403 -4456 0
-4405 -4407 4458 0
4405 -4458 0
4407 -4458 0
-4409 -4411 4460 0
4409 -4460 0
4411 -4460 0
-4413 -4415 4462 0
4413 -4462 0
4415 -4462 0
-4417 -4419 4464 0
4417 -4464 0
4419 -4464 0
-4421 -4423 4466 0
4421 -4466 0
4423 -4466 0
-4425 -4427 4468 0
4425 -4468 0
4427 -4468 0
-4429 -4431 4470 0
4429 -4470 0
4431 -4470 0
-4433 -4435 4472 0
4433 -4472 0
4435 -4472 0
-4437 -4439 4474 0
4437 -4474 0
4439 -4474 0
-4441 -4443 4476 0
4441 -4476 0
4443 -4476 0
-4442 -4444 4478 0
4444 -4478 0
4442 -4478 0
-4445 -4446 4480 0
4445 -4480 0
4446 -4480 0
-4447 -4448 4482 0
4447 -4482 0
4448 -4482 0
-4449 -4451 4484 0
4449 -4484 0
4451 -4484 0
-4453 -4454 4486 0
4453 -4486 0
4454 -4486 0
-4455 -4457 4533 0
4455 -4533 0
4457 -4533 0
-4459 -4461 4490 0
4459 -4490 0
4461 -4490 0
-4463 -4465 4492 0
4463 -4492 0
4465 -4492 0
-4467 -4469 4494 0
4467 -4494 0
4469 -4494 0
-4471 -4473 4496 0
4471 -4496 0
4473 -4496 0
-4475 -4477 4536 0
4475 -4536 0
4477 -4536 0
-4479 -4481 4500 0
4479 -4500 0
4481 -4500 0
-4483 -4485 4502 0
4483 -4502 0
4485 -4502 0
-4487 -4488 4504 0
4487 -4504 0
4488 -4504 0
-4489 -4491 4506 0
4489 -4506 0
4491 -4506 0
-4493 -4495 4508 0
4493 -4508 0
4495 -4508 0
-4497 -4498 4510 0
4497 -4510 0
4498 -4510 0
-4499 -4501 4512 0
4499 -4512 0
4501 -4512 0
-4503 -4505 4514 0
4503 -4514 0
4505 -4514 0
-4507 -4509 4516 0
4507 -4516 0
4509 -4516 0
-4511 -4513 4517 0
4511 -4517 0
4513 -4517 0
-4450 -4452 4587 0
4450 -4587 0
4452 -4587 0
-4456 -4458 4588 0
4456 -4588 0
4458 -4588 0
-4460 -4462 4522 0
4460 -4522 0
4462 -4522 0
-4464 -4466 4524 0
4464 -4524 0
4466 -4524 0
-4468 -4470 4526 0
4468 -4526 0
4470 -4526 0
-4472 -4474 4528 0
4472 -4528 0
4474 -4528 0
-4476 -4478 4593 0
4476 -4593 0
4478 -4593 0
-4480 -4482 4530 0
4480 -4530 0
4482 -4530 0
-4484 -4486 4532 0
4484 -4532 0
4486 -4532 0
-4490 -4492 4595 0
4490 -4595 0
4492 -4595 0
-4494 -4496 4596 0
4494 -4596 0
4496 -4596 0
-4500 -4502 4538 0
4500 -4538 0
4502 -4538 0
-4504 -4506 4540 0
4504 -4540 0
4506 -4540 0
-4508 -4510 4542 0
4508 -4542 0
4510 -4542 0
-4512 -4514 4544 0
4512 -4544 0
4514 -4544 0
-4516 -4517 4601 0
4516 -4601 0
4517 -4601 0
-4518 -4519 4549 0
4518 -4549 0
4519 -4549 0
-4520 -4521 4551 0
4520 -4551 0
4521 -4551 0
-4523 -4525 4553 0
4523 -4553 0
4525 -4553 0
-4527 -4529 4555 0
4527 -4555 0
4529 -4555 0
-4531 -4533 4606 0
4531 -4606 0
4533 -4606 0
-4534 -4535 4559 0
4534 -4559 0
4535 -4559 0
-4536 -4537 4561 0
4536 -4561 0
4537 -4561 0
-4539 -4541 4563 0
4539 -4563 0
4541 -4563 0
-4543 -4545 4565 0
4543 -4565 0
4545 -4565 0
-4515 -4546 4567 0
4515 -4567 0
4546 -4567 0
-4547 -4548 4569 0
4547 -4569 0
4548 -4569 0
-4550 -4552 4571 0
4550 -4571 0
4552 -4571 0
-4554 -4556 4573 0
4554 -4573 0
4556 -4573 0
-4557 -4558 4575 0
4557 -4575 0
4558 -4575 0
-4560 -4562 4577 0
4560 -4577 0
4562 -4577 0
-4564 -4566 4579 0
4564 -4579 0
4566 -4579 0
-4568 -4570 4581 0
4568 -4581 0
4570 -4581 0
-4572 -4574 4583 0
4572 -4583 0
4574 -4583 0
-4576 -4578 4585 0
4576 -4585 0
4578 -4585 0
-4580 -4582 4586 0
4580 -4586 0
4582 -4586 0
-4522 -4524 4590 0
4522 -4590 0
4524 -4590 0
-4526 -4528 4592 0
4526 -4592 0
4528 -4592 0
-4530 -4532 4658 0
4530 -4658 0
4532 -4658 0
-4538 -4540 4598 0
4538 -4598 0
4540 -4598 0
-4542 -4544 4600 0
4542 -4600 0
4544 -4600 0
-4549 -4551 4603 0
4549 -4603 0
4551 -4603 0
-4553 -4555 4605 0
4553 -4605 0
4555 -4605 0
-4559 -4561 4660 0
4559 -4660 0
4561 -4660 0
-4563 -4565 4609 0
4563 -4609 0
4565 -4609 0
-4567 -4569 4611 0
4567 -4611 0
4569 -4611 0
-4571 -4573 4613 0
4571 -4613 0
4573 -4613 0
-4575 -4577 4615 0
4575 -4615 0
4577 -4615 0
-4579 -4581 4617 0
4579 -4617 0
4581 -4617 0
-4583 -4585 4619 0
4583 -4619 0
4585 -4619 0
-4584 -4586 4666 0
4586 -4666 0
4584 -4666 0
-4587 -4588 4621 0
4587 -4621 0
4588 -4621 0
-4589 -4591 4623 0
4589 -4623 0
4591 -4623 0
-4593 -4594 4625 0
4593 -4625 0
4594 -4625 0
-4595 -4596 4627 0
4595 -4627 0
4596 -4627 0
-4597 -4599 4669 0
4597 -4669 0
4599 -4669 0
-4602 -4604 4630 0
4602 -4630 0
4604 -4630 0
-4606 -4607 4632 0
4606 -4632 0
4607 -4632 0
-4608 -4610 4634 0
4608 -4634 0
4610 -4634 0
-4612 -4614 4636 0
4612 -4636 0
4614 -4636 0
-4616 -4618 4674 0
4616 -4674 0
4618 -4674 0
-4620 -4622 4640 0
4620 -4640 0
4622 -4640 0
-4624 -4626 4642 0
4624 -4642 0
4626 -4642 0
-4601 -4628 4644 0
4628 -4644 0
4601 -4644 0
-4629 -4631 4646 0
4629 -4646 0
4631 -4646 0
-4633 -4635 4648 0
4633 -4648 0
4635 -4648 0
-4637 -4638 4650 0
4637 -4650 0
4638 -4650 0
-4639 -4641 4652 0
4639 -4652 0
4641 -4652 0
-4643 -4645 4654 0
4643 -4654 0
4645 -4654 0
-4647 -4649 4656 0
4647 -4656 0
4649 -4656 0
-4651 -4653 4657 0
4651 -4657 0
4653 -4657 0
-4590 -4592 4723 0
4590 -4723 0
4592 -4723 0
-4598 -4600 4724 0
4598 -4724 0
4600 -4724 0
-4603 -4605 4725 0
4603 -4725 0
4605 -4725 0
-4609 -4611 4726 0
4609 -4726 0
4611 -4726 0
-4613 -4615 4663 0
4613 -4663 0
4615 -4663 0
-4617 -4619 4665 0
4617 -4665 0
4619 -4665 0
-4621 -4623 4728 0
4621 -4728 0
4623 -4728 0
-4625 -4627 4729 0
4625 -4729 0
4627 -4729 0
-4630 -4632 4671 0
4630 -4671 0
4632 -4671 0
-4634 -4636 4673 0
4634 -4673 0
4636 -4673 0
-4640 -4642 4731 0
4640 -4731 0
4642 -4731 0
-4644 -4646 4677 0
4644 -4677 0
4646 -4677 0
-4648 -4650 4679 0
4648 -4679 0
4650 -4679 0
-4652 -4654 4681 0
4652 -4681 0
4654 -4681 0
-4656 -4657 4683 0
4656 -4683 0
4657 -4683 0
-4659 -4660 4687 0
4659 -4687 0
4660 -4687 0
-4661 -4662 4689 0
4661 -4689 0
4662 -4689 0
-4664 -4666 4691 0
4664 -4691 0
4666 -4691 0
-4667 -4668 4693 0
4667 -4693 0
4668 -4693 0
-4669 -4670 4695 0
4669 -4695 0
4670 -4695 0
-4672 -4674 4697 0
4672 -4697 0
4674 -4697 0
-4675 -4676 4699 0
4675 -4699 0
4676 -4699 0
-4678 -4680 4701 0
4678 -4701 0
4680 -4701 0
-4655 -4682 4703 0
4682 -4703 0
4655 -4703 0
-4658 -4684 4705 0
4684 -4705 0
4658 -4705 0
-4685 -4686 4707 0
4685 -4707 0
4686 -4707 0
-4688 -4690 4709 0
4688 -4709 0
4690 -4709 0
-4692 -4694 4711 0
4692 -4711 0
4694 -4711 0
-4696 -4698 4713 0
4696 -4713 0
4698 -4713 0
-4700 -4702 4715 0
4700 -4715 0
4702 -4715 0
-4704 -4706 4717 0
4704 -4717 0
4706 -4717 0
-4708 -4710 4719 0
4708 -4719 0
4710 -4719 0
-4712 -4714 4721 0
4712 -4721 0
4714 -4721 0
-4716 -4718 4722 0
4716 -4722 0
4718 -4722 0
-4663 -4665 4815 0
4663 -4815 0
4665 -4815 0
-4671 -4673 4790 0
4671 -4790 0
4673 -4790 0
-4677 -4679 4733 0
4677 -4733 0
4679 -4733 0
-4681 -4683 4735 0
4681 -4735 0
4683 -4735 0
-4687 -4689 4737 0
4687 -4737 0
4689 -4737 0
-4691 -4693 4739 0
4691 -4739 0
4693 -4739 0
-4695 -4697 4741 0
4695 -4741 0
4697 -4741 0
-4699 -4701 4743 0
4699 -4743 0
4701 -4743 0
-4703 -4705 4745 0
4703 -4745 0
4705 -4745 0
-4707 -4709 4747 0
4707 -4747 0
4709 -4747 0
-4711 -4713 4749 0
4711 -4749 0
4713 -4749 0
-4715 -4717 4751 0
4715 -4751 0
4717 -4751 0
-4719 -4721 4753 0
4719 -4753 0
4721 -4753 0
-4720 -4722 4755 0
4722 -4755 0
4720 -4755 0
-4724 -4725 4800 0
4724 -4800 0
4725 -4800 0
-4726 -4727 4758 0
4726 -4758 0
4727 -4758 0
-4728 -4729 4760 0
4728 -4760 0
4729 -4760 0
-4730 -4731 4762 0
4730 -4762 0
4731 -4762 0
-4732 -4734 4764 0
4732 -4764 0
4734 -4764 0
-4736 -4738 4803 0
4736 -4803 0
4738 -4803 0
-4740 -4742 4766 0
4740 -4766 0
4742 -4766 0
-4744 -4746 4768 0
4744 -4768 0
4746 -4768 0
-4748 -4750 4770 0
4748 -4770 0
4750 -4770 0
-4752 -4754 4772 0
4752 -4772 0
4754 -4772 0
-4723 -4756 4774 0
4723 -4774 0
4756 -4774 0
-4757 -4759 4776 0
4757 -4776 0
4759 -4776 0
-4761 -4763 4809 0
4761 -4809 0
4763 -4809 0
-4765 -4767 4780 0
4765 -4780 0
4767 -4780 0
-4769 -4771 4782 0
4769 -4782 0
4771 -4782 0
-4773 -4775 4784 0
4773 -4784 0
4775 -4784 0
-4777 -4778 4786 0
4777 -4786 0
4778 -4786 0
-4779 -4781 4788 0
4779 -4788 0
4781 -4788 0
-4783 -4785 4789 0
4783 -4789 0
4785 -4789 0
-4733 -4735 4851 0
4733 -4851 0
4735 -4851 0
-4737 -4739 4852 0
4737 -4852 0
4739 -4852 0
-4741 -4743 4793 0
4741 -4793 0
4743 -4793 0
-4745 -4747 4795 0
4745 -4795 0
4747 -4795 0
-4749 -4751 4797 0
4749 -4797 0
4751 -4797 0
-4753 -4755 4799 0
4753 -4799 0
4755 -4799 0
-4758 -4760 4857 0
4758 -4857 0
4760 -4857 0
-4762 -4764 4858 0
4762 -4858 0
4764 -4858 0
-4766 -4768 4805 0
4766 -4805 0
4768 -4805 0
-4770 -4772 4807 0
4770 -4807 0
4772 -4807 0
-4774 -4776 4860 0
4774 -4860 0
4776 -4860 0
-4780 -4782 4811 0
4780 -4811 0
4782 -4811 0
-4784 -4786 4813 0
4784 -4813 0
4786 -4813 0
-4788 -4789 4862 0
4788 -4862 0
4789 -4862 0
-4791 -4792 4863 0
4791 -4863 0
4792 -4863 0
-4794 -4796 4819 0
4794 -4819 0
4796 -4819 0
-4798 -4800 4821 0
4798 -4821 0
4800 -4821 0
-4801 -4802 4823 0
4801 -4823 0
4802 -4823 0
-4803 -4804 4825 0
4803 -4825 0
4804 -4825 0
-4806 -4808 4827 0
4806 -4827 0
4808 -4827 0
-4809 -4810 4829 0
4809 -4829 0
4810 -4829 0
-4812 -4814 4831 0
4812 -4831 0
4814 -4831 0
-4787 -4815 4833 0
4787 -4833 0
4815 -4833 0
-4790 -4816 4835 0
4790 -4835 0
4816 -4835 0
-4817 -4818 4837 0
4817 -4837 0
4818 -4837 0
-4820 -4822 4839 0
4820 -4839 0
4822 -4839 0
-4824 -4826 4841 0
4824 -4841 0
4826 -4841 0
-4828 -4830 4843 0
4828 -4843 0
4830 -4843 0
-4832 -4834 4845 0
4832 -4845 0
4834 -4845 0
-4836 -4838 4847 0
4836 -4847 0
4838 -4847 0
-4840 -4842 4849 0
4840 -4849 0
4842 -4849 0
-4844 -4846 4850 0
4844 -4850 0
4846 -4850 0
-4793 -4795 4854 0
4793 -4854 0
4795 -4854 0
-4797 -4799 4856 0
4797 -4856 0
4799 -4856 0
-4805 -4807 4939 0
4805 -4939 0
4807 -4939 0
-4811 -4813 4914 0
4811 -4914 0
4813 -4914 0
-4819 -4821 4865 0
4819 -4865 0
4821 -4865 0
-4823 -4825 4867 0
4823 -4867 0
4825 -4867 0
-4827 -4829 4869 0
4827 -4869 0
4829 -4869 0
-4831 -4833 4871 0
4831 -4871 0
4833 -4871 0
-4835 -4837 4873 0
4835 -4873 0
4837 -4873 0
-4839 -4841 4875 0
4839 -4875 0
4841 -4875 0
-4843 -4845 4877 0
4843 -4877 0
4845 -4877 0
-4847 -4849 4879 0
4847 -4879 0
4849 -4879 0
-4848 -4850 4921 0
4850 -4921 0
4848 -4921 0
-4851 -4852 4881 0
4851 -4881 0
4852 -4881 0
-4853 -4855 4883 0
4853 -4883 0
4855 -4883 0
-4857 -4858 4885 0
4857 -4885 0
4858 -4885 0
-4859 -4860 4887 0
4859 -4887 0
4860 -4887 0
-4861 -4862 4926 0
4861 -4926 0
4862 -4926 0
-4864 -4866 4890 0
4864 -4890 0
4866 -4890 0
-4868 -4870 4892 0
4868 -4892 0
4870 -4892 0
-4872 -4874 4894 0
4872 -4894 0
4874 -4894 0
-4876 -4878 4896 0
4876 -4896 0
4878 -4896 0
-4880 -4882 4929 0
4880 -4929 0
4882 -4929 0
-4884 -4886 4900 0
4884 -4900 0
4886 -4900 0
-4863 -4888 4902 0
4888 -4902 0
4863 -4902 0
-4889 -4891 4904 0
4889 -4904 0
4891 -4904 0
-4893 -4895 4906 0
4893 -4906 0
4895 -4906 0
-4897 -4898 4908 0
4897 -4908 0
4898 -4908 0
-4899 -4901 4910 0
4899 -4910 0
4901 -4910 0
-4903 -4905 4912 0
4903 -4912 0
4905 -4912 0
-4907 -4909 4913 0
4907 -4913 0
4909 -4913 0
-4854 -4856 4973 0
4854 -4973 0
4856 -4973 0
-4865 -4867 4974 0
4865 -4974 0
4867 -4974 0
-4869 -4871 4917 0
4869 -4917 0
4871 -4917 0
-4873 -4875 4919 0
4873 -4919 0
4875 -4919 0
-4877 -4879 4976 0
4877 -4976 0
4879 -4976 0
-4881 -4883 4923 0
4881 -4923 0
4883 -4923 0
-4885 -4887 4925 0
4885 -4925 0
4887 -4925 0
-4890 -4892 4978 0
4890 -4978 0
4892 -4978 0
-4894 -4896 4979 0
4894 -4979 0
4896 -4979 0
-4900 -4902 4931 0
4900 -4931 0
4902 -4931 0
-4904 -4906 4933 0
4904 -4933 0
4906 -4933 0
-4908 -4910 4935 0
4908 -4935 0
4910 -4935 0
-4912 -4913 4937 0
4912 -4937 0
4913 -4937 0
-4915 -4916 4941 0
4915 -4941 0
4916 -4941 0
-4918 -4920 4943 0
4918 -4943 0
4920 -4943 0
-4921 -4922 4945 0
4921 -4945 0
4922 -4945 0
-4924 -4926 4947 0
4924 -4947 0
4926 -4947 0
-4927 -4928 4949 0
4927 -4949 0
4928 -4949 0
-4929 -4930 4951 0
4929 -4951 0
4930 -4951 0
-4932 -4934 4953 0
4932 -4953 0
4934 -4953 0
-4911 -4936 4955 0
4936 -4955 0
4911 -4955 0
-4938 -4939 4957 0
4938 -4957 0
4939 -4957 0
-4914 -4940 4959 0
4914 -4959 0
4940 -4959 0
-4942 -4944 4961 0
4942 -4961 0
4944 -4961 0
-4946 -4948 4963 0
4946 -4963 0
4948 -4963 0
-4950 -4952 4965 0
4950 -4965 0
4952 -4965 0
-4954 -4956 4967 0
4954 -4967 0
4956 -4967 0
-4958 -4960 4969 0
4958 -4969 0
4960 -4969 0
-4962 -4964 4971 0
4962 -4971 0
4964 -4971 0
-4966 -4968 4972 0
4966 -4972 0
4968 -4972 0
-4917 -4919 5028 0
4917 -5028 0
4919 -5028 0
-4923 -4925 5029 0
4923 -5029 0
4925 -5029 0
-4931 -4933 5030 0
4931 -5030 0
4933 -5030 0
-4935 -4937 5031 0
4935 -5031 0
4937 -5031 0
-4941 -4943 5032 0
4941 -5032 0
4943 -5032 0
-4945 -4947 4982 0
4945 -4982 0
4947 -4982 0
-4949 -4951 4984 0
4949 -4984 0
4951 -4984 0
-4953 -4955 4986 0
4953 -4986 0
4955 -4986 0
-4957 -4959 4988 0
4957 -4988 0
4959 -4988 0
-4961 -4963 4990 0
4961 -4990 0
4963 -4990 0
-4965 -4967 4992 0
4965 -4992 0
4967 -4992 0
-4969 -4971 4994 0
4969 -4994 0
4971 -4994 0
-4970 -4972 4996 0
4972 -4996 0
4970 -4996 0
-4975 -4976 4998 0
4975 -4998 0
4976 -4998 0
-4977 -4978 5000 0
4977 -5000 0
4978 -5000 0
-4979 -4980 5039 0
4979 -5039 0
4980 -5039 0
-4981 -4983 5040 0
4981 -5040 0
4983 -5040 0
-4985 -4987 5006 0
4985 -5006 0
4987 -5006 0
-4989 -4991 5008 0
4989 -5008 0
4991 -5008 0
-4993 -4995 5010 0
4993 -5010 0
4995 -5010 0
-4973 -4974 5012 0
4973 -5012 0
4974 -5012 0
-4997 -4999 5014 0
4997 -5014 0
4999 -5014 0
-5001 -5002 5016 0
5001 -5016 0
5002 -5016 0
-5003 -5004 5018 0
5003 -5018 0
5004 -5018 0
-5005 -5007 5020 0
5005 -5020 0
5007 -5020 0
-5009 -5011 5022 0
5009 -5022 0
5011 -5022 0
-5013 -5015 5024 0
5013 -5024 0
5015 -5024 0
-5017 -5019 5026 0
5017 -5026 0
5019 -5026 0
-5021 -5023 5027 0
5021 -5027 0
5023 -5027 0
-4982 -4984 5083 0
4982 -5083 0
4984 -5083 0
-4986 -4988 5035 0
4986 -5035 0
4988 -5035 0
-4990 -4992 5037 0
4990 -5037 0
4992 -5037 0
-4994 -4996 5085 0
4994 -5085 0
4996 -5085 0
-4998 -5000 5086 0
4998 -5086 0
5000 -5086 0
-5006 -5008 5087 0
5006 -5087 0
5008 -5087 0
-5010 -5012 5043 0
5010 -5043 0
5012 -5043 0
-5014 -5016 5045 0
5014 -5045 0
5016 -5045 0
-5018 -5020 5047 0
5018 -5047 0
5020 -5047 0
-5022 -5024 5049 0
5022 -5049 0
5024 -5049 0
-5026 -5027 5092 0
5026 -5092 0
5027 -5092 0
-5029 -5030 5093 0
5029 -5093 0
5030 -5093 0
-5031 -5032 5053 0
5031 -5053 0
5032 -5053 0
-5033 -5034 5055 0
5033 -5055 0
5034 -5055 0
-5036 -5038 5095 0
5036 -5095 0
5038 -5095 0
-5039 -5040 5059 0
5039 -5059 0
5040 -5059 0
-5041 -5042 5061 0
5041 -5061 0
5042 -5061 0
-5044 -5046 5063 0
5044 -5063 0
5046 -5063 0
-5048 -5050 5065 0
5048 -5065 0
5050 -5065 0
-5025 -5028 5067 0
5025 -5067 0
5028 -5067 0
-5051 -5052 5069 0
5051 -5069 0
5052 -5069 0
-5054 -5056 5071 0
5054 -5071 0
5056 -5071 0
-5057 -5058 5073 0
5057 -5073 0
5058 -5073 0
-5060 -5062 5075 0
5060 -5075 0
5062 -5075 0
-5064 -5066 5077 0
5064 -5077 0
5066 -5077 0
-5068 -5070 5079 0
5068 -5079 0
5070 -5079 0
-5072 -5074 5081 0
5072 -5081 0
5074 -5081 0
-5076 -5078 5082 0
5076 -5082 0
5078 -5082 0
-5035 -5037 5138 0
5035 -5138 0
5037 -5138 0
-5043 -5045 5089 0
5043 -5089 0
5045 -5089 0
-5047 -5049 5091 0
5047 -5091 0
5049 -5091 0
-5053 -5055 5161 0
5053 -5161 0
5055 -5161 0
-5059 -5061 5097 0
5059 -5097 0
5061 -5097 0
-5063 -5065 5099 0
5063 -5099 0
5065 -5099 0
-5067 -5069 5101 0
5067 -5101 0
5069 -5101 0
-5071 -5073 5103 0
5071 -5103 0
5073 -5103 0
-5075 -5077 5105 0
5075 -5105 0
5077 -5105 0
-5079 -5081 5107 0
5079 -5107 0
5081 -5107 0
-5080 -5082 5144 0
5082 -5144 0
5080 -5144 0
-5084 -5085 5145 0
5084 -5145 0
5085 -5145 0
-5086 -5087 5110 0
5086 -5110 0
5087 -5110 0
-5088 -5090 5112 0
5088 -5112 0
5090 -5112 0
-5092 -5093 5114 0
5092 -5114 0
5093 -5114 0
-5094 -5095 5116 0
5094 -5116 0
5095 -5116 0
-5096 -5098 5118 0
5096 -5118 0
5098 -5118 0
-5100 -5102 5120 0
5100 -5120 0
5102 -5120 0
-5104 -5106 5151 0
5104 -5151 0
5106 -5151 0
-5083 -5108 5124 0
5083 -5124 0
5108 -5124 0
-5109 -5111 5126 0
5109 -5126 0
5111 -5126 0
-5113 -5115 5128 0
5113 -5128 0
5115 -5128 0
-5117 -5119 5130 0
5117 -5130 0
5119 -5130 0
-5121 -5122 5132 0
5121 -5132 0
5122 -5132 0
-5123 -5125 5134 0
5123 -5134 0
5125 -5134 0
-5127 -5129 5136 0
5127 -5136 0
5129 -5136 0
-5131 -5133 5137 0
5131 -5137 0
5133 -5137 0
-5089 -5091 5191 0
5089 -5191 0
5091 -5191 0
-5097 -5099 5192 0
5097 -5192 0
5099 -5192 0
-5101 -5103 5141 0
5101 -5141 0
5103 -5141 0
-5105 -5107 5143 0
5105 -5143 0
5107 -5143 0
-5110 -5112 5147 0
5110 -5147 0
5112 -5147 0
-5114 -5116 5149 0
5114 -5149 0
5116 -5149 0
-5118 -5120 5194 0
5118 -5194 0
5120 -5194 0
-5124 -5126 5153 0
5124 -5153 0
5126 -5153 0
-5128 -5130 5155 0
5128 -5155 0
5130 -5155 0
-5132 -5134 5157 0
5132 -5157 0
5134 -5157 0
-5136 -5137 5159 0
5136 -5159 0
5137 -5159 0
-5139 -5140 5163 0
5139 -5163 0
5140 -5163 0
-5142 -5144 5165 0
5142 -5165 0
5144 -5165 0
-5145 -5146 5167 0
5145 -5167 0
5146 -5167 0
-5148 -5150 5169 0
5148 -5169 0
5150 -5169 0
-5151 -5152 5171 0
5151 -5171 0
5152 -5171 0
-5154 -5156 5173 0
5154 -5173 0
5156 -5173 0
-5135 -5158 5175 0
5158 -5175 0
5135 -5175 0
-5138 -5160 5177 0
5138 -5177 0
5160 -5177 0
-5161 -5162 5179 0
5161 -5179 0
5162 -5179 0
-5164 -5166 5181 0
5164 -5181 0
5166 -5181 0
-5168 -5170 5183 0
5168 -5183 0
5170 -5183 0
-5172 -5174 5185 0
5172 -5185 0
5174 -5185 0
-5176 -5178 5187 0
5176 -5187 0
5178 -5187 0
-5180 -5182 5189 0
5180 -5189 0
5182 -5189 0
-5184 -5186 5190 0
5184 -5190 0
5186 -5190 0
-5141 -5143 5236 0
5141 -5236 0
5143 -5236 0
-5147 -5149 5237 0
5147 -5237 0
5149 -5237 0
-5153 -5155 5196 0
5153 -5196 0
5155 -5196 0
-5157 -5159 5198 0
5157 -5198 0
5159 -5198 0
-5163 -5165 5200 0
5163 -5200 0
5165 -5200 0
-5167 -5169 5202 0
5167 -5202 0
5169 -5202 0
-5171 -5173 5204 0
5171 -5204 0
5173 -5204 0
-5175 -5177 5206 0
5175 -5206 0
5177 -5206 0
-5179 -5181 5208 0
5179 -5208 0
5181 -5208 0
-5183 -5185 5210 0
5183 -5210 0
5185 -5210 0
-5187 -5189 5212 0
5187 -5212 0
5189 -5212 0
-5188 -5190 5214 0
5190 -5214 0
5188 -5214 0
-5191 -5192 5246 0
5191 -5246 0
5192 -5246 0
-5193 -5194 5247 0
5193 -5247 0
5194 -5247 0
-5195 -5197 5248 0
5195 -5248 0
5197 -5248 0
-5199 -5201 5218 0
5199 -5218 0
5201 -5218 0
-5203 -5205 5220 0
5203 -5220 0
5205 -5220 0
-5207 -5209 5222 0
5207 -5222 0
5209 -5222 0
-5211 -5213 5224 0
5211 -5224 0
5213 -5224 0
-5215 -5216 5251 0
5215 -5251 0
5216 -5251 0
-5217 -5219 5252 0
5217 -5252 0
5219 -5252 0
-5221 -5223 5230 0
5221 -5230 0
5223 -5230 0
-5225 -5226 5232 0
5225 -5232 0
5226 -5232 0
-5227 -5228 5234 0
5227 -5234 0
5228 -5234 0
-5229 -5231 5235 0
5229 -5235 0
5231 -5235 0
-5196 -5198 5283 0
5196 -5283 0
5198 -5283 0
-5200 -5202 5239 0
5200 -5239 0
5202 -5239 0
-5204 -5206 5241 0
5204 -5241 0
5206 -5241 0
-5208 -5210 5243 0
5208 -5243 0
5210 -5243 0
-5212 -5214 5245 0
5212 -5245 0
5214 -5245 0
-5218 -5220 5285 0
5218 -5285 0
5220 -5285 0
-5222 -5224 5286 0
5222 -5286 0
5224 -5286 0
-5230 -5232 5287 0
5230 -5287 0
5232 -5287 0
-5234 -5235 5288 0
5234 -5288 0
5235 -5288 0
-5237 -5238 5289 0
5237 -5289 0
5238 -5289 0
-5240 -5242 5290 0
5240 -5290 0
5242 -5290 0
-5244 -5246 5259 0
5244 -5259 0
5246 -5259 0
-5247 -5248 5261 0
5247 -5261 0
5248 -5261 0
-5249 -5250 5263 0
5249 -5263 0
5250 -5263 0
-5251 -5252 5265 0
5251 -5265 0
5252 -5265 0
-5253 -5254 5267 0
5253 -5267 0
5254 -5267 0
-5233 -5236 5269 0
5233 -5269 0
5236 -5269 0
-5255 -5256 5271 0
5255 -5271 0
5256 -5271 0
-5257 -5258 5273 0
5257 -5273 0
5258 -5273 0
-5260 -5262 5275 0
5260 -5275 0
5262 -5275 0
-5264 -5266 5277 0
5264 -5277 0
5266 -5277 0
-5268 -5270 5279 0
5268 -5279 0
5270 -5279 0
-5272 -5274 5281 0
5272 -5281 0
5274 -5281 0
-5276 -5278 5282 0
5276 -5282 0
5278 -5282 0
-5239 -5241 5330 0
5239 -5330 0
5241 -5330 0
-5243 -5245 5331 0
5243 -5331 0
5245 -5331 0
-5259 -5261 5292 0
5259 -5292 0
5261 -5292 0
-5263 -5265 5294 0
5263 -5294 0
5265 -5294 0
-5267 -5269 5296 0
5267 -5296 0
5269 -5296 0
-5271 -5273 5298 0
5271 -5298 0
5273 -5298 0
-5275 -5277 5300 0
5275 -5300 0
5277 -5300 0
-5279 -5281 5302 0
5279 -5302 0
5281 -5302 0
-5280 -5282 5336 0
5282 -5336 0
5280 -5336 0
-5283 -5284 5337 0
5283 -5337 0
5284 -5337 0
-5285 -5286 5306 0
5285 -5306 0
5286 -5306 0
-5287 -5288 5308 0
5287 -5308 0
5288 -5308 0
-5289 -5290 5310 0
5289 -5310 0
5290 -5310 0
-5291 -5293 5312 0
5291 -5312 0
5293 -5312 0
-5295 -5297 5314 0
5295 -5314 0
5297 -5314 0
-5299 -5301 5316 0
5299 -5316 0
5301 -5316 0
-5303 -5304 5343 0
5303 -5343 0
5304 -5343 0
-5305 -5307 5320 0
5305 -5320 0
5307 -5320 0
-5309 -5311 5322 0
5309 -5322 0
5311 -5322 0
-5313 -5315 5324 0
5313 -5324 0
5315 -5324 0
-5317 -5318 5326 0
5317 -5326 0
5318 -5326 0
-5319 -5321 5328 0
5319 -5328 0
5321 -5328 0
-5323 -5325 5329 0
5323 -5329 0
5325 -5329 0
-5292 -5294 5332 0
5292 -5332 0
5294 -5332 0
-5296 -5298 5334 0
5296 -5334 0
5298 -5334 0
-5300 -5302 5373 0
5300 -5373 0
5302 -5373 0
-5306 -5308 5374 0
5306 -5374 0
5308 -5374 0
-5310 -5312 5340 0
5310 -5340 0
5312 -5340 0
-5314 -5316 5342 0
5314 -5342 0
5316 -5342 0
-5320 -5322 5376 0
5320 -5376 0
5322 -5376 0
-5324 -5326 5346 0
5324 -5346 0
5326 -5346 0
-5328 -5329 5348 0
5328 -5348 0
5329 -5348 0
-5330 -5331 5378 0
5330 -5378 0
5331 -5378 0
-5333 -5335 5351 0
5333 -5351 0
5335 -5351 0
-5336 -5337 5353 0
5336 -5353 0
5337 -5353 0
-5338 -5339 5355 0
5338 -5355 0
5339 -5355 0
-5341 -5343 5357 0
5341 -5357 0
5343 -5357 0
-5344 -5345 5359 0
5344 -5359 0
5345 -5359 0
-5327 -5347 5361 0
5347 -5361 0
5327 -5361 0
-5349 -5350 5383 0
5349 -5383 0
5350 -5383 0
-5352 -5354 5365 0
5352 -5365 0
5354 -5365 0
-5356 -5358 5367 0
5356 -5367 0
5358 -5367 0
-5360 -5362 5369 0
5360 -5369 0
5362 -5369 0
-5363 -5364 5371 0
5363 -5371 0
5364 -5371 0
-5366 -5368 5372 0
5366 -5372 0
5368 -5372 0
-5332 -5334 5412 0
5332 -5412 0
5334 -5412 0
-5340 -5342 5413 0
5340 -5413 0
5342 -5413 0
-5346 -5348 5414 0
5346 -5414 0
5348 -5414 0
-5351 -5353 5415 0
5351 -5415 0
5353 -5415 0
-5355 -5357 5380 0
5355 -5380 0
5357 -5380 0
-5359 -5361 5382 0
5359 -5382 0
5361 -5382 0
-5365 -5367 5417 0
5365 -5417 0
5367 -5417 0
-5369 -5371 5386 0
5369 -5386 0
5371 -5386 0
-5370 -5372 5388 0
5372 -5388 0
5370 -5388 0
-5373 -5374 5391 0
5373 -5391 0
5374 -5391 0
-5375 -5376 5393 0
5375 -5393 0
5376 -5393 0
-5377 -5378 5419 0
5377 -5419 0
5378 -5419 0
-5379 -5381 5397 0
5379 -5397 0
5381 -5397 0
-5383 -5384 5399 0
5383 -5399 0
5384 -5399 0
-5385 -5387 5421 0
5385 -5421 0
5387 -5421 0
-5390 -5392 5402 0
5390 -5402 0
5392 -5402 0
-5394 -5395 5404 0
5394 -5404 0
5395 -5404 0
-5396 -5398 5406 0
5396 -5406 0
5398 -5406 0
-5389 -5400 5408 0
5400 -5408 0
5389 -5408 0
-5401 -5403 5410 0
5401 -5410 0
5403 -5410 0
-5405 -5407 5411 0
5405 -5411 0
5407 -5411 0
-5380 -5382 5467 0
5380 -5467 0
5382 -5467 0
-5386 -5388 5451 0
5386 -5451 0
5388 -5451 0
-5391 -5393 5452 0
5391 -5452 0
5393 -5452 0
-5397 -5399 5453 0
5397 -5453 0
5399 -5453 0
-5402 -5404 5423 0
5402 -5423 0
5404 -5423 0
-5406 -5408 5425 0
5406 -5425 0
5408 -5425 0
-5410 -5411 5455 0
5410 -5455 0
5411 -5455 0
-5413 -5414 5456 0
5413 -5456 0
5414 -5456 0
-5415 -5416 5429 0
5415 -5429 0
5416 -5429 0
-5417 -5418 5431 0
5417 -5431 0
5418 -5431 0
-5419 -5420 5458 0
5419 -5458 0
5420 -5458 0
-5421 -5422 5435 0
5421 -5435 0
5422 -5435 0
-5424 -5426 5437 0
5424 -5437 0
5426 -5437 0
-5409 -5412 5439 0
5409 -5439 0
5412 -5439 0
-5427 -5428 5441 0
5427 -5441 0
5428 -5441 0
-5430 -5432 5443 0
5430 -5443 0
5432 -5443 0
-5433 -5434 5445 0
5433 -5445 0
5434 -5445 0
-5436 -5438 5447 0
5436 -5447 0
5438 -5447 0
-5440 -5442 5449 0
5440 -5449 0
5442 -5449 0
-5444 -5446 5450 0
5444 -5450 0
5446 -5450 0
-5423 -5425 5490 0
5423 -5490 0
5425 -5490 0
-5429 -5431 5491 0
5429 -5491 0
5431 -5491 0
-5435 -5437 5460 0
5435 -5460 0
5437 -5460 0
-5439 -5441 5462 0
5439 -5462 0
5441 -5462 0
-5443 -5445 5464 0
5443 -5464 0
5445 -5464 0
-5447 -5449 5466 0
5447 -5466 0
5449 -5466 0
-5448 -5450 5496 0
5450 -5496 0
5448 -5496 0
-5451 -5452 5497 0
5451 -5497 0
5452 -5497 0
-5453 -5454 5470 0
5453 -5470 0
5454 -5470 0
-5455 -5456 5472 0
5455 -5472 0
5456 -5472 0
-5457 -5458 5474 0
5457 -5474 0
5458 -5474 0
-5459 -5461 5476 0
5459 -5476 0
5461 -5476 0
-5463 -5465 5502 0
5463 -5502 0
5465 -5502 0
-5467 -5468 5480 0
5467 -5480 0
5468 -5480 0
-5469 -5471 5482 0
5469 -5482 0
5471 -5482 0
-5473 -5475 5484 0
5473 -5484 0
5475 -5484 0
-5477 -5478 5486 0
5477 -5486 0
5478 -5486 0
-5479 -5481 5488 0
5479 -5488 0
5481 -5488 0
-5483 -5485 5489 0
5483 -5489 0
5485 -5489 0
-5460 -5462 5493 0
5460 -5493 0
5462 -5493 0
-5464 -5466 5495 0
5464 -5495 0
5466 -5495 0
-5470 -5472 5499 0
5470 -5499 0
5472 -5499 0
-5474 -5476 5501 0
5474 -5501 0
5476 -5501 0
-5480 -5482 5527 0
5480 -5527 0
5482 -5527 0
-5484 -5486 5505 0
5484 -5505 0
5486 -5505 0
-5488 -5489 5507 0
5488 -5507 0
5489 -5507 0
-5491 -5492 5529 0
5491 -5529 0
5492 -5529 0
-5494 -5496 5510 0
5494 -5510 0
5496 -5510 0
-5497 -5498 5512 0
5497 -5512 0
5498 -5512 0
-5500 -5502 5514 0
5500 -5514 0
5502 -5514 0
-5503 -5504 5516 0
5503 -5516 0
5504 -5516 0
-5487 -5506 5534 0
5506 -5534 0
5487 -5534 0
-5508 -5509 5519 0
5508 -5519 0
5509 -5519 0
-5511 -5513 5521 0
5511 -5521 0
5513 -5521 0
-5515 -5517 5523 0
5515 -5523 0
5517 -5523 0
-5490 -5518 5525 0
5490 -5525 0
5518 -5525 0
-5520 -5522 5526 0
5520 -5526 0
5522 -5526 0
-5493 -5495 5556 0
5493 -5556 0
5495 -5556 0
-5499 -5501 5557 0
5499 -5557 0
5501 -5557 0
-5505 -5507 5567 0
5505 -5567 0
5507 -5567 0
-5510 -5512 5531 0
5510 -5531 0
5512 -5531 0
-5514 -5516 5533 0
5514 -5533 0
5516 -5533 0
-5519 -5521 5559 0
5519 -5559 0
5521 -5559 0
-5523 -5525 5537 0
5523 -5537 0
5525 -5537 0
-5524 -5526 5539 0
5526 -5539 0
5524 -5539 0
-5527 -5528 5560 0
5527 -5560 0
5528 -5560 0
-5530 -5532 5561 0
5530 -5561 0
5532 -5561 0
-5534 -5535 5545 0
5534 -5545 0
5535 -5545 0
-5536 -5538 5547 0
5536 -5547 0
5538 -5547 0
-5541 -5542 5563 0
5541 -5563 0
5542 -5563 0
-5529 -5543 5550 0
5529 -5550 0
5543 -5550 0
-5544 -5546 5552 0
5544 -5552 0
5546 -5552 0
-5540 -5548 5554 0
5540 -5554 0
5548 -5554 0
-5549 -5551 5555 0
5549 -5555 0
5551 -5555 0
-5531 -5533 5587 0
5531 -5587 0
5533 -5587 0
-5537 -5539 5588 0
5537 -5588 0
5539 -5588 0
-5545 -5547 5602 0
5545 -5602 0
5547 -5602 0
-5550 -5552 5589 0
5550 -5589 0
5552 -5589 0
-5554 -5555 5590 0
5554 -5590 0
5555 -5590 0
-5556 -5557 5591 0
5556 -5591 0
5557 -5591 0
-5558 -5559 5592 0
5558 -5592 0
5559 -5592 0
-5560 -5561 5571 0
5560 -5571 0
5561 -5571 0
-5562 -5563 5573 0
5562 -5573 0
5563 -5573 0
-5564 -5565 5575 0
5564 -5575 0
5565 -5575 0
-5553 -5566 5577 0
5553 -5577 0
5566 -5577 0
-5567 -5568 5579 0
5567 -5579 0
5568 -5579 0
-5569 -5570 5581 0
5569 -5581 0
5570 -5581 0
-5572 -5574 5583 0
5572 -5583 0
5574 -5583 0
-5576 -5578 5585 0
5576 -5585 0
5578 -5585 0
-5580 -5582 5586 0
5580 -5586 0
5582 -5586 0
-5571 -5573 5594 0
5571 -5594 0
5573 -5594 0
-5575 -5577 5596 0
5575 -5596 0
5577 -5596 0
-5579 -5581 5598 0
5579 -5598 0
5581 -5598 0
-5583 -5585 5600 0
5583 -5600 0
5585 -5600 0
-5584 -5586 5622 0
5586 -5622 0
5584 -5622 0
-5587 -5588 5623 0
5587 -5623 0
5588 -5623 0
-5589 -5590 5604 0
5589 -5604 0
5590 -5604 0
-5591 -5592 5606 0
5591 -5606 0
5592 -5606 0
-5593 -5595 5608 0
5593 -5608 0
5595 -5608 0
-5597 -5599 5610 0
5597 -5610 0
5599 -5610 0
-5601 -5602 5626 0
5601 -5626 0
5602 -5626 0
-5603 -5605 5614 0
5603 -5614 0
5605 -5614 0
-5607 -5609 5616 0
5607 -5616 0
5609 -5616 0
-5611 -5612 5618 0
5611 -5618 0
5612 -5618 0
-5613 -5615 5619 0
5613 -5619 0
5615 -5619 0
-5594 -5596 5643 0
5594 -5643 0
5596 -5643 0
-5598 -5600 5644 0
5598 -5644 0
5600 -5644 0
-5604 -5606 5645 0
5604 -5645 0
5606 -5645 0
-5608 -5610 5646 0
5608 -5646 0
5610 -5646 0
-5614 -5616 5628 0
5614 -5628 0
5616 -5628 0
-5618 -5619 5630 0
5618 -5630 0
5619 -5630 0
-5620 -5621 5647 0
5620 -5647 0
5621 -5647 0
-5622 -5623 5633 0
5622 -5633 0
5623 -5633 0
-5624 -5625 5635 0
5624 -5635 0
5625 -5635 0
-5626 -5627 5637 0
5626 -5637 0
5627 -5637 0
-5617 -5629 5638 0
5629 -5638 0
5617 -5638 0
-5631 -5632 5650 0
5631 -5650 0
5632 -5650 0
-5634 -5636 5651 0
5634 -5651 0
5636 -5651 0
-5639 -5640 5642 0
5639 -5642 0
5640 -5642 0
-5628 -5630 5668 0
5628 -5668 0
5630 -5668 0
-5633 -5635 5669 0
5633 -5669 0
5635 -5669 0
-5637 -5638 5670 0
5637 -5670 0
5638 -5670 0
-5641 -5642 5671 0
5642 -5671 0
5641 -5671 0
-5643 -5644 5672 0
5643 -5672 0
5644 -5672 0
-5645 -5646 5673 0
5645 -5673 0
5646 -5673 0
-5647 -5648 5656 0
5647 -5656 0
5648 -5656 0
-5649 -5650 5658 0
5649 -5658 0
5650 -5658 0
-5651 -5652 5675 0
5651 -5675 0
5652 -5675 0
-5653 -5654 5662 0
5653 -5662 0
5654 -5662 0
-5655 -5657 5664 0
5655 -5664 0
5657 -5664 0
-5659 -5660 5666 0
5659 -5666 0
5660 -5666 0
-5661 -5663 5667 0
5661 -5667 0
5663 -5667 0
-5656 -5658 5693 0
5656 -5693 0
5658 -5693 0
-5662 -5664 5694 0
5662 -5694 0
5664 -5694 0
-5666 -5667 5695 0
5666 -5695 0
5667 -5695 0
-5668 -5669 5696 0
5668 -5696 0
5669 -5696 0
-5670 -5671 5680 0
5670 -5680 0
5671 -5680 0
-5672 -5673 5682 0
5672 -5682 0
5673 -5682 0
-5674 -5675 5684 0
5674 -5684 0
5675 -5684 0
-5676 -5677 5686 0
5676 -5686 0
5677 -5686 0
-5678 -5679 5701 0
5678 -5701 0
5679 -5701 0
-5681 -5683 5689 0
5681 -5689 0
5683 -5689 0
-5665 -5685 5691 0
5685 -5691 0
5665 -5691 0
-5687 -5688 5692 0
5687 -5692 0
5688 -5692 0
-5680 -5682 5698 0
5680 -5698 0
5682 -5698 0
-5684 -5686 5700 0
5684 -5700 0
5686 -5700 0
-5689 -5691 5714 0
5689 -5714 0
5691 -5714 0
-5690 -5692 5715 0
5692 -5715 0
5690 -5715 0
-5693 -5694 5716 0
5693 -5716 0
5694 -5716 0
-5695 -5696 5704 0
5695 -5704 0
5696 -5704 0
-5697 -5699 5706 0
5697 -5706 0
5699 -5706 0
-5701 -5702 5718 0
5701 -5718 0
5702 -5718 0
-5703 -5705 5719 0
5703 -5719 0
5705 -5719 0
-5707 -5708 5712 0
5707 -5712 0
5708 -5712 0
-5709 -5710 5713 0
5709 -5713 0
5710 -5713 0
-5698 -5700 5747 0
5698 -5747 0
5700 -5747 0
-5704 -5706 5733 0
5704 -5733 0
5706 -5733 0
-5712 -5713 5734 0
5712 -5734 0
5713 -5734 0
-5714 -5715 5735 0
5714 -5735 0
5715 -5735 0
-5716 -5717 5724 0
5716 -5724 0
5717 -5724 0
-5718 -5719 5726 0
5718 -5726 0
5719 -5726 0
-5711 -5720 5737 0
5720 -5737 0
5711 -5737 0
-5722 -5723 5729 0
5722 -5729 0
5723 -5729 0
-5725 -5727 5731 0
5725 -5731 0
5727 -5731 0
-5721 -5728 5732 0
5721 -5732 0
5728 -5732 0
-5724 -5726 5756 0
5724 -5756 0
5726 -5756 0
-5729 -5731 5739 0
5729 -5739 0
5731 -5739 0
-5730 -5732 5741 0
5732 -5741 0
5730 -5741 0
-5733 -5734 5752 0
5733 -5752 0
5734 -5752 0
-5736 -5737 5744 0
5736 -5744 0
5737 -5744 0
-5738 -5740 5746 0
5738 -5746 0
5740 -5746 0
-5735 -5742 5754 0
5742 -5754 0
5735 -5754 0
-5743 -5745 5750 0
5743 -5750 0
5745 -5750 0
-5747 -5748 5751 0
5747 -5751 0
5748 -5751 0
-5739 -5741 5770 0
5739 -5770 0
5741 -5770 0
-5744 -5746 5765 0
5744 -5765 0
5746 -5765 0
-5750 -5751 5766 0
5750 -5766 0
5751 -5766 0
-5752 -5753 5767 0
5752 -5767 0
5753 -5767 0
-5754 -5755 5768 0
5754 -5768 0
5755 -5768 0
-5756 -5757 5761 0
5756 -5761 0
5757 -5761 0
-5758 -5759 5763 0
5758 -5763 0
5759 -5763 0
-5749 -5760 5764 0
5749 -5764 0
5760 -5764 0
-5761 -5763 5783 0
5761 -5783 0
5763 -5783 0
-5762 -5764 5778 0
5764 -5778 0
5762 -5778 0
-5765 -5766 5779 0
5765 -5779 0
5766 -5779 0
-5768 -5769 5780 0
5768 -5780 0
5769 -5780 0
-5770 -5771 5781 0
5770 -5781 0
5771 -5781 0
-5767 -5772 5776 0
5767 -5776 0
5772 -5776 0
-5773 -5774 5777 0
5773 -5777 0
5774 -5777 0
-5776 -5777 5795 0
5776 -5795 0
5777 -5795 0
-5778 -5779 5791 0
5778 -5791 0
5779 -5791 0
-5780 -5781 5786 0
5780 -5786 0
5781 -5786 0
-5775 -5782 5788 0
5782 -5788 0
5775 -5788 0
-5784 -5785 5793 0
5784 -5793 0
5785 -5793 0
-5783 -5787 5790 0
5787 -5790 0
5783 -5790 0
-5786 -5788 5798 0
5786 -5798 0
5788 -5798 0
-5789 -5790 5799 0
5790 -5799 0
5789 -5799 0
-5791 -5792 5800 0
5791 -5800 0
5792 -5800 0
-5793 -5794 5801 0
5793 -5801 0
5794 -5801 0
-5795 -5796 5802 0
5795 -5802 0
5796 -5802 0
-5798 -5799 5811 0
5798 -5811 0
5799 -5811 0
-5801 -5802 5807 0
5801 -5807 0
5802 -5807 0
-5800 -5803 5808 0
5803 -5808 0
5800 -5808 0
-5797 -5804 5806 0
5804 -5806 0
5797 -5806 0
-5805 -5806 5815 0
5806 -5815 0
5805 -5815 0
-5807 -5808 5812 0
5807 -5812 0
5808 -5812 0
-5809 -5810 5813 0
5809 -5813 0
5810 -5813 0
-5811 -5813 5817 0
-5812 -5814 5816 0
5812 -5816 0
5814 -5816 0
-5815 -5816 5817 0
-5817 0
-1 -2 -98 0
1 2 -98 0
1 -2 98 0
-1 2 98 0
-1 -18 98 0
1 18 98 0
1 -18 -98 0
-1 18 -98 0
-3 -10 -106 0
3 10 -106 0
-3 10 106 0
3 -10 106 0
-19 -28 -102 0
19 28 -102 0
-19 28 102 0
19 -28 102 0
-99 -100 -104 0
99 100 -104 0
-99 100 104 0
99 -100 104 0
-102 -104 106 0
102 104 106 0
-102 104 -106 0
102 -104 -106 0
-4 -11 -115 0
4 11 -115 0
-4 11 115 0
4 -11 115 0
-20 -29 -108 0
20 29 -108 0
-20 29 108 0
20 -29 108 0
-38 -101 -110 0
38 101 -110 0
-38 101 110 0
38 -101 110 0
-103 -105 -112 0
103 105 -112 0
-103 105 112 0
103 -105 112 0
-108 -110 -116 0
108 110 -116 0
-108 110 116 0
108 -110 116 0
-112 -114 -118 0
112 114 -118 0
-112 114 118 0
112 -114 118 0
-115 -116 118 0
115 116 118 0
-115 116 -118 0
115 -116 -118 0
-5 -12 -120 0
5 12 -120 0
-5 12 120 0
5 -12 120 0
-21 -30 -122 0
21 30 -122 0
-21 30 122 0
21 -30 122 0
-39 -48 -124 0
39 48 -124 0
-39 48 124 0
39 -48 124 0
-107 -109 -126 0
107 109 -126 0
-107 109 126 0
107 -109 126 0
-111 -113 -133 0
111 113 -133 0
-111 113 133 0
111 -113 133 0
-117 -119 -129 0
117 119 -129 0
-117 119 129 0
117 -119 129 0
-120 -122 -131 0
120 122 -131 0
-120 122 131 0
120 -122 131 0
-124 -126 -132 0
124 126 -132 0
-124 126 132 0
124 -126 132 0
-129 -130 -134 0
129 130 -134 0
-129 130 134 0
129 -130 134 0
-131 -132 -136 0
131 132 -136 0
-131 132 136 0
131 -132 136 0
-133 -134 136 0
133 134 136 0
-133 134 -136 0
133 -134 -136 0
-6 -13 -138 0
6 13 -138 0
-6 13 138 0
6 -13 138 0
-22 -31 -140 0
22 31 -140 0
-22 31 140 0
22 -31 140 0
-40 -49 -142 0
40 49 -142 0
-40 49 142 0
40 -49 142 0
-58 -121 -144 0
58 121 -144 0
-58 121 144 0
58 -121 144 0
-123 -125 -146 0
123 125 -146 0
-123 125 146 0
123 -125 146 0
-127 -128 -148 0
127 128 -148 0
-127 128 148 0
127 -128 148 0
-135 -137 -153 0
135 137 -153 0
-135 137 153 0
135 -137 153 0
-138 -140 -155 0
138 140 -155 0
-138 140 155 0
138 -140 155 0
-142 -144 -156 0
142 144 -156 0
-142 144 156 0
142 -144 156 0
-146 -148 -158 0
146 148 -158 0
-146 148 158 0
146 -148 158 0
-150 -151 -160 0
150 151 -160 0
-150 151 160 0
150 -151 160 0
-152 -153 -162 0
152 153 -162 0
-152 153 162 0
152 -153 162 0
-154 -155 -164 0
154 155 -164 0
-154 155 164 0
154 -155 164 0
-156 -158 -166 0
156 158 -166 0
-156 158 166 0
156 -158 166 0
-160 -162 -168 0
160 162 -168 0
-160 162 168 0
160 -162 168 0
-164 -166 168 0
164 166 168 0
-164 166 -168 0
164 -166 -168 0
-7 -14 -191 0
7 14 -191 0
-7 14 191 0
7 -14 191 0
-23 -32 -172 0
23 32 -172 0
-23 32 172 0
23 -32 172 0
-41 -50 -174 0
41 50 -174 0
-41 50 174 0
41 -50 174 0
-59 -68 -176 0
59 68 -176 0
-59 68 176 0
59 -68 176 0
-139 -141 -178 0
139 141 -178 0
-139 141 178 0
139 -141 178 0
-143 -145 -180 0
143 145 -180 0
-143 145 180 0
143 -145 180 0
-147 -149 -182 0
147 149 -182 0
-147 149 182 0
147 -149 182 0
-157 -159 -185 0
157 159 -185 0
-157 159 185 0
157 -159 185 0
-161 -163 -186 0
161 163 -186 0
-161 163 186 0
161 -163 186 0
-165 -167 -188 0
165 167 -188 0
-165 167 188 0
165 -167 188 0
-169 -170 -190 0
169 170 -190 0
-169 170 190 0
169 -170 190 0
-172 -174 -192 0
172 174 -192 0
-172 174 192 0
172 -174 192 0
-176 -178 -194 0
176 178 -194 0
-176 178 194 0
176 -178 194 0
-180 -182 -196 0
180 182 -196 0
-180 182 196 0
180 -182 196 0
-184 -185 -198 0
184 185 -198 0
-184 185 198 0
184 -185 198 0
-186 -188 -200 0
186 188 -200 0
-186 188 200 0
186 -188 200 0
-190 -191 -202 0
190 191 -202 0
-190 191 202 0
190 -191 202 0
-192 -194 -204 0
192 194 -204 0
-192 194 204 0
192 -194 204 0
-196 -197 -206 0
196 197 -206 0
-196 197 206 0
196 -197 206 0
-198 -200 -208 0
198 200 -208 0
-198 200 208 0
198 -200 208 0
-202 -204 -210 0
202 204 -210 0
-202 204 210 0
202 -204 210 0
-206 -208 -210 0
206 208 -210 0
-206 208 210 0
206 -208 210 0
-8 -15 -213 0
8 15 -213 0
-8 15 213 0
8 -15 213 0
-24 -33 -215 0
24 33 -215 0
-24 33 215 0
24 -33 215 0
-42 -51 -217 0
42 51 -217 0
-42 51 217 0
42 -51 217 0
-60 -69 -219 0
60 69 -219 0
-60 69 219 0
60 -69 219 0
-78 -171 -221 0
78 171 -221 0
-78 171 221 0
78 -171 221 0
-173 -175 -223 0
173 175 -223 0
-173 175 223 0
173 -175 223 0
-177 -179 -225 0
177 179 -225 0
-177 179 225 0
177 -179 225 0
-181 -183 -249 0
181 183 -249 0
-181 183 249 0
181 -183 249 0
-187 -189 -229 0
187 189 -229 0
-187 189 229 0
187 -189 229 0
-193 -195 -231 0
193 195 -231 0
-193 195 231 0
193 -195 231 0
-199 -201 -233 0
199 201 -233 0
-199 201 233 0
199 -201 233 0
-203 -205 -235 0
203 205 -235 0
-203 205 235 0
203 -205 235 0
-207 -209 -237 0
207 209 -237 0
-207 209 237 0
207 -209 237 0
-211 -212 -239 0
211 212 -239 0
-211 212 239 0
211 -212 239 0
-210 -213 -241 0
210 213 -241 0
-210 213 241 0
210 -213 241 0
-215 -217 -243 0
215 217 -243 0
-215 217 243 0
215 -217 243 0
-219 -221 -245 0
219 221 -245 0
-219 221 245 0
219 -221 245 0
-223 -225 -247 0
223 225 -247 0
-223 225 247 0
223 -225 247 0
-228 -229 -250 0
228 229 -250 0
-228 229 250 0
228 -229 250 0
-230 -231 -251 0
230 231 -251 0
-230 231 251 0
230 -231 251 0
-232 -233 -253 0
232 233 -253 0
-232 233 253 0
232 -233 253 0
-235 -237 -255 0
235 237 -255 0
-235 237 255 0
235 -237 255 0
-239 -241 -257 0
239 241 -257 0
-239 241 257 0
239 -241 257 0
-243 -245 -259 0
243 245 -259 0
-243 245 259 0
243 -245 259 0
-247 -249 -261 0
247 249 -261 0
-247 249 261 0
247 -249 261 0
-250 -251 -263 0
250 251 -263 0
-250 251 263 0
250 -251 263 0
-253 -255 -265 0
253 255 -265 0
-253 255 265 0
253 -255 265 0
-257 -259 -267 0
257 259 -267 0
-257 259 267 0
257 -259 267 0
-261 -263 -269 0
261 263 -269 0
-261 263 269 0
261 -263 269 0
-265 -267 -269 0
265 267 -269 0
-265 267 269 0
265 -267 269 0
-9 -16 -272 0
9 16 -272 0
-9 16 272 0
9 -16 272 0
-25 -34 -274 0
25 34 -274 0
-25 34 274 0
25 -34 274 0
-43 -52 -276 0
43 52 -276 0
-43 52 276 0
43 -52 276 0
-61 -70 -278 0
61 70 -278 0
-61 70 278 0
61 -70 278 0
-79 -88 -280 0
79 88 -280 0
-79 88 280 0
79 -88 280 0
-214 -216 -282 0
214 216 -282 0
-214 216 282 0
214 -216 282 0
-218 -220 -284 0
218 220 -284 0
-218 220 284 0
218 -220 284 0
-222 -224 -286 0
222 224 -286 0
-222 224 286 0
222 -224 286 0
-226 -227 -318 0
226 227 -318 0
-226 227 318 0
226 -227 318 0
-234 -236 -291 0
234 236 -291 0
-234 236 291 0
234 -236 291 0
-238 -240 -292 0
238 240 -292 0
-238 240 292 0
238 -240 292 0
-242 -244 -294 0
242 244 -294 0
-242 244 294 0
242 -244 294 0
-246 -248 -296 0
246 248 -296 0
-246 248 296 0
246 -248 296 0
-252 -254 -298 0
252 254 -298 0
-252 254 298 0
252 -254 298 0
-256 -258 -300 0
256 258 -300 0
-256 258 300 0
256 -258 300 0
-260 -262 -302 0
260 262 -302 0
-260 262 302 0
260 -262 302 0
-264 -266 -304 0
264 266 -304 0
-264 266 304 0
264 -266 304 0
-268 -270 -306 0
268 270 -306 0
-268 270 306 0
268 -270 306 0
-269 -271 -308 0
269 271 -308 0
269 -271 308 0
-269 271 308 0
-272 -274 -310 0
272 274 -310 0
-272 274 310 0
272 -274 310 0
-276 -278 -312 0
276 278 -312 0
-276 278 312 0
276 -278 312 0
-280 -282 -314 0
280 282 -314 0
-280 282 314 0
280 -282 314 0
-284 -286 -316 0
284 286 -316 0
-284 286 316 0
284 -286 316 0
-289 -290 -319 0
289 290 -319 0
-289 290 319 0
289 -290 319 0
-291 -292 -320 0
291 292 -320 0
-291 292 320 0
291 -292 320 0
-294 -296 -322 0
294 296 -322 0
-294 296 322 0
294 -296 322 0
-297 -298 -324 0
297 298 -324 0
-297 298 324 0
297 -298 324 0
-300 -302 -326 0
300 302 -326 0
-300 302 326 0
300 -302 326 0
-304 -306 -328 0
304 306 -328 0
-304 306 328 0
304 -306 328 0
-308 -310 -330 0
308 310 -330 0
-308 310 330 0
308 -310 330 0
-312 -314 -332 0
312 314 -332 0
-312 314 332 0
312 -314 332 0
-316 -318 -334 0
316 318 -334 0
-316 318 334 0
316 -318 334 0
-319 -320 -336 0
319 320 -336 0
-319 320 336 0
319 -320 336 0
-322 -324 -338 0
322 324 -338 0
-322 324 338 0
322 -324 338 0
-326 -328 -340 0
326 328 -340 0
-326 328 340 0
326 -328 340 0
-330 -332 -342 0
330 332 -342 0
-330 332 342 0
330 -332 342 0
-334 -336 -344 0
334 336 -344 0
-334 336 344 0
334 -336 344 0
-338 -340 -346 0
338 340 -346 0
-338 340 346 0
338 -340 346 0
-342 -344 -346 0
342 344 -346 0
-342 344 346 0
342 -344 346 0
-17 -26 -349 0
17 26 -349 0
-17 26 349 0
17 -26 349 0
-35 -44 -351 0
35 44 -351 0
-35 44 351 0
35 -44 351 0
-53 -62 -353 0
53 62 -353 0
-53 62 353 0
53 -62 353 0
-71 -80 -355 0
71 80 -355 0
-71 80 355 0
71 -80 355 0
-89 -273 -357 0
89 273 -357 0
-89 273 357 0
89 -273 357 0
-275 -277 -359 0
275 277 -359 0
-275 277 359 0
275 -277 359 0
-279 -281 -361 0
279 281 -361 0
-279 281 361 0
279 -281 361 0
-283 -285 -363 0
283 285 -363 0
-283 285 363 0
283 -285 363 0
-287 -288 -400 0
287 288 -400 0
-287 288 400 0
287 -288 400 0
-293 -295 -366 0
293 295 -366 0
-293 295 366 0
293 -295 366 0
-299 -301 -368 0
299 301 -368 0
-299 301 368 0
299 -301 368 0
-303 -305 -369 0
303 305 -369 0
-303 305 369 0
303 -305 369 0
-307 -309 -371 0
307 309 -371 0
-307 309 371 0
307 -309 371 0
-311 -313 -373 0
311 313 -373 0
-311 313 373 0
311 -313 373 0
-315 -317 -375 0
315 317 -375 0
-315 317 375 0
315 -317 375 0
-321 -323 -378 0
321 323 -378 0
-321 323 378 0
321 -323 378 0
-325 -327 -379 0
325 327 -379 0
-325 327 379 0
325 -327 379 0
-329 -331 -381 0
329 331 -381 0
-329 331 381 0
329 -331 381 0
-333 -335 -383 0
333 335 -383 0
-333 335 383 0
333 -335 383 0
-337 -339 -385 0
337 339 -385 0
-337 339 385 0
337 -339 385 0
-341 -343 -387 0
341 343 -387 0
-341 343 387 0
341 -343 387 0
-345 -347 -389 0
345 347 -389 0
-345 347 389 0
345 -347 389 0
-346 -348 -391 0
346 348 -391 0
346 -348 391 0
-346 348 391 0
-349 -351 -393 0
349 351 -393 0
-349 351 393 0
349 -351 393 0
-353 -355 -395 0
353 355 -395 0
-353 355 395 0
353 -355 395 0
-357 -359 -397 0
357 359 -397 0
-357 359 397 0
357 -359 397 0
-361 -363 -399 0
361 363 -399 0
-361 363 399 0
361 -363 399 0
-365 -366 -401 0
365 366 -401 0
-365 366 401 0
365 -366 401 0
-367 -368 -403 0
367 368 -403 0
-367 368 403 0
367 -368 403 0
-369 -371 -405 0
369 371 -405 0
-369 371 405 0
369 -371 405 0
-373 -375 -407 0
373 375 -407 0
-373 375 407 0
373 -375 407 0
-377 -378 -409 0
377 378 -409 0
-377 378 409 0
377 -378 409 0
-379 -381 -411 0
379 381 -411 0
-379 381 411 0
379 -381 411 0
-383 -385 -413 0
383 385 -413 0
-383 385 413 0
383 -385 413 0
-387 -389 -415 0
387 389 -415 0
-387 389 415 0
387 -389 415 0
-391 -393 -417 0
391 393 -417 0
-391 393 417 0
391 -393 417 0
-395 -397 -419 0
395 397 -419 0
-395 397 419 0
395 -397 419 0
-399 -400 -421 0
399 400 -421 0
-399 400 421 0
399 -400 421 0
-401 -403 -423 0
401 403 -423 0
-401 403 423 0
401 -403 423 0
-405 -407 -425 0
405 407 -425 0
-405 407 425 0
405 -407 425 0
-409 -411 -427 0
409 411 -427 0
-409 411 427 0
409 -411 427 0
-413 -415 -429 0
413 415 -429 0
-413 415 429 0
413 -415 429 0
-417 -419 -431 0
417 419 -431 0
-417 419 431 0
417 -419 431 0
-421 -423 -433 0
421 423 -433 0
-421 423 433 0
421 -423 433 0
-425 -427 -435 0
425 427 -435 0
-425 427 435 0
425 -427 435 0
-429 -431 -437 0
429 431 -437 0
-429 431 437 0
429 -431 437 0
-433 -435 437 0
433 435 437 0
-433 435 -437 0
433 -435 -437 0
-27 -36 -490 0
27 36 -490 0
-27 36 490 0
27 -36 490 0
-45 -54 -441 0
45 54 -441 0
-45 54 441 0
45 -54 441 0
-63 -72 -443 0
63 72 -443 0
-63 72 443 0
63 -72 443 0
-81 -90 -445 0
81 90 -445 0
-81 90 445 0
81 -90 445 0
-350 -352 -447 0
350 352 -447 0
-350 352 447 0
350 -352 447 0
-354 -356 -449 0
354 356 -449 0
-354 356 449 0
354 -356 449 0
-358 -360 -451 0
358 360 -451 0
-358 360 451 0
358 -360 451 0
-362 -364 -453 0
362 364 -453 0
-362 364 453 0
362 -364 453 0
-370 -372 -457 0
370 372 -457 0
-370 372 457 0
370 -372 457 0
-374 -376 -459 0
374 376 -459 0
-374 376 459 0
374 -376 459 0
-380 -382 -462 0
380 382 -462 0
-380 382 462 0
380 -382 462 0
-384 -386 -463 0
384 386 -463 0
-384 386 463 0
384 -386 463 0
-388 -390 -465 0
388 390 -465 0
-388 390 465 0
388 -390 465 0
-392 -394 -467 0
392 394 -467 0
-392 394 467 0
392 -394 467 0
-396 -398 -469 0
396 398 -469 0
-396 398 469 0
396 -398 469 0
-402 -404 -472 0
402 404 -472 0
-402 404 472 0
402 -404 472 0
-406 -408 -473 0
406 408 -473 0
-406 408 473 0
406 -408 473 0
-410 -412 -475 0
410 412 -475 0
-410 412 475 0
410 -412 475 0
-414 -416 -477 0
414 416 -477 0
-414 416 477 0
414 -416 477 0
-418 -420 -479 0
418 420 -479 0
-418 420 479 0
418 -420 479 0
-422 -424 -481 0
422 424 -481 0
-422 424 481 0
422 -424 481 0
-426 -428 -483 0
426 428 -483 0
-426 428 483 0
426 -428 483 0
-430 -432 -485 0
430 432 -485 0
-430 432 485 0
430 -432 485 0
-434 -436 -487 0
434 436 -487 0
-434 436 487 0
434 -436 487 0
-438 -439 -489 0
438 439 -489 0
-438 439 489 0
438 -439 489 0
-441 -443 -491 0
441 443 -491 0
-441 443 491 0
441 -443 491 0
-445 -447 -493 0
445 447 -493 0
-445 447 493 0
445 -447 493 0
-449 -451 -495 0
449 451 -495 0
-449 451 495 0
449 -451 495 0
-453 -454 -497 0
453 454 -497 0
-453 454 497 0
453 -454 497 0
-455 -456 -499 0
455 456 -499 0
-455 456 499 0
455 -456 499 0
-457 -459 -501 0
457 459 -501 0
-457 459 501 0
457 -459 501 0
-461 -462 -503 0
461 462 -503 0
-461 462 503 0
461 -462 503 0
-463 -465 -505 0
463 465 -505 0
-463 465 505 0
463 -465 505 0
-467 -469 -507 0
467 469 -507 0
-467 469 507 0
467 -469 507 0
-471 -472 -509 0
471 472 -509 0
-471 472 509 0
471 -472 509 0
-473 -475 -511 0
473 475 -511 0
-473 475 511 0
473 -475 511 0
-477 -479 -513 0
477 479 -513 0
-477 479 513 0
477 -479 513 0
-481 -483 -515 0
481 483 -515 0
-481 483 515 0
481 -483 515 0
-485 -487 -517 0
485 487 -517 0
-485 487 517 0
485 -487 517 0
-489 -490 -519 0
489 490 -519 0
-489 490 519 0
489 -490 519 0
-491 -493 -521 0
491 493 -521 0
-491 493 521 0
491 -493 521 0
-495 -497 -523 0
495 497 -523 0
-495 497 523 0
495 -497 523 0
-499 -501 -525 0
499 501 -525 0
-499 501 525 0
499 -501 525 0
-503 -505 -527 0
503 505 -527 0
-503 505 527 0
503 -505 527 0
-507 -509 -529 0
507 509 -529 0
-507 509 529 0
507 -509 529 0
-511 -513 -531 0
511 513 -531 0
-511 513 531 0
511 -513 531 0
-515 -517 -533 0
515 517 -533 0
-515 517 533 0
515 -517 533 0
-519 -521 -535 0
519 521 -535 0
-519 521 535 0
519 -521 535 0
-523 -525 -537 0
523 525 -537 0
-523 525 537 0
523 -525 537 0
-527 -529 -539 0
527 529 -539 0
-527 529 539 0
527 -529 539 0
-531 -533 -541 0
531 533 -541 0
-531 533 541 0
531 -533 541 0
-535 -537 -543 0
535 537 -543 0
-535 537 543 0
535 -537 543 0
-539 -541 543 0
539 541 543 0
-539 541 -543 0
539 -541 -543 0
-37 -46 -599 0
37 46 -599 0
-37 46 599 0
37 -46 599 0
-55 -64 -547 0
55 64 -547 0
-55 64 547 0
55 -64 547 0
-73 -82 -549 0
73 82 -549 0
-73 82 549 0
73 -82 549 0
-91 -440 -551 0
91 440 -551 0
-91 440 551 0
91 -440 551 0
-442 -444 -553 0
442 444 -553 0
-442 444 553 0
442 -444 553 0
-446 -448 -555 0
446 448 -555 0
-446 448 555 0
446 -448 555 0
-450 -452 -557 0
450 452 -557 0
-450 452 557 0
450 -452 557 0
-458 -460 -559 0
458 460 -559 0
-458 460 559 0
458 -460 559 0
-464 -466 -561 0
464 466 -561 0
-464 466 561 0
464 -466 561 0
-468 -470 -562 0
468 470 -562 0
-468 470 562 0
468 -470 562 0
-474 -476 -564 0
474 476 -564 0
-474 476 564 0
474 -476 564 0
-478 -480 -566 0
478 480 -566 0
-478 480 566 0
478 -480 566 0
-482 -484 -568 0
482 484 -568 0
-482 484 568 0
482 -484 568 0
-486 -488 -570 0
486 488 -570 0
-486 488 570 0
486 -488 570 0
-492 -494 -573 0
492 494 -573 0
-492 494 573 0
492 -494 573 0
-496 -498 -574 0
496 498 -574 0
-496 498 574 0
496 -498 574 0
-500 -502 -576 0
500 502 -576 0
-500 502 576 0
500 -502 576 0
-504 -506 -578 0
504 506 -578 0
-504 506 578 0
504 -506 578 0
-508 -510 -580 0
508 510 -580 0
-508 510 580 0
508 -510 580 0
-512 -514 -582 0
512 514 -582 0
-512 514 582 0
512 -514 582 0
-516 -518 -584 0
516 518 -584 0
-516 518 584 0
516 -518 584 0
-520 -522 -586 0
520 522 -586 0
-520 522 586 0
520 -522 586 0
-524 -526 -588 0
524 526 -588 0
-524 526 588 0
524 -526 588 0
-528 -530 -590 0
528 530 -590 0
-528 530 590 0
528 -530 590 0
-532 -534 -592 0
532 534 -592 0
-532 534 592 0
532 -534 592 0
-536 -538 -594 0
536 538 -594 0
-536 538 594 0
536 -538 594 0
-540 -542 -596 0
540 542 -596 0
-540 542 596 0
540 -542 596 0
-544 -545 -598 0
544 545 -598 0
-544 545 598 0
544 -545 598 0
-547 -549 -600 0
547 549 -600 0
-547 549 600 0
547 -549 600 0
-551 -553 -602 0
551 553 -602 0
-551 553 602 0
551 -553 602 0
-555 -557 -604 0
555 557 -604 0
-555 557 604 0
555 -557 604 0
-559 -560 -605 0
559 560 -605 0
-559 560 605 0
559 -560 605 0
-561 -562 -607 0
561 562 -607 0
-561 562 607 0
561 -562 607 0
-563 -564 -609 0
563 564 -609 0
-563 564 609 0
563 -564 609 0
-566 -568 -611 0
566 568 -611 0
-566 568 611 0
566 -568 611 0
-570 -572 -613 0
570 572 -613 0
-570 572 613 0
570 -572 613 0
-573 -574 -615 0
573 574 -615 0
-573 574 615 0
573 -574 615 0
-576 -578 -617 0
576 578 -617 0
-576 578 617 0
576 -578 617 0
-580 -582 -619 0
580 582 -619 0
-580 582 619 0
580 -582 619 0
-584 -586 -621 0
584 586 -621 0
-584 586 621 0
584 -586 621 0
-588 -590 -623 0
588 590 -623 0
-588 590 623 0
588 -590 623 0
-592 -594 -625 0
592 594 -625 0
-592 594 625 0
592 -594 625 0
-596 -598 -627 0
596 598 -627 0
-596 598 627 0
596 -598 627 0
-599 -600 -629 0
599 600 -629 0
-599 600 629 0
599 -600 629 0
-602 -604 -631 0
602 604 -631 0
-602 604 631 0
602 -604 631 0
-558 -605 -633 0
558 605 -633 0
-558 605 633 0
558 -605 633 0
-607 -609 -635 0
607 609 -635 0
-607 609 635 0
607 -609 635 0
-611 -613 -637 0
611 613 -637 0
-611 613 637 0
611 -613 637 0
-615 -617 -639 0
615 617 -639 0
-615 617 639 0
615 -617 639 0
-619 -621 -641 0
619 621 -641 0
-619 621 641 0
619 -621 641 0
-623 -625 -643 0
623 625 -643 0
-623 625 643 0
623 -625 643 0
-627 -629 -645 0
627 629 -645 0
-627 629 645 0
627 -629 645 0
-631 -633 -647 0
631 633 -647 0
-631 633 647 0
631 -633 647 0
-635 -637 -649 0
635 637 -649 0
-635 637 649 0
635 -637 649 0
-639 -641 -651 0
639 641 -651 0
-639 641 651 0
639 -641 651 0
-643 -645 -653 0
643 645 -653 0
-643 645 653 0
643 -645 653 0
-647 -649 -655 0
647 649 -655 0
-647 649 655 0
647 -649 655 0
-651 -653 655 0
651 653 655 0
-651 653 -655 0
651 -653 -655 0
-47 -56 -657 0
47 56 -657 0
-47 56 657 0
47 -56 657 0
-65 -74 -659 0
65 74 -659 0
-65 74 659 0
65 -74 659 0
-83 -92 -661 0
83 92 -661 0
-83 92 661 0
83 -92 661 0
-546 -548 -663 0
546 548 -663 0
-546 548 663 0
546 -548 663 0
-550 -552 -665 0
550 552 -665 0
-550 552 665 0
550 -552 665 0
-554 -556 -667 0
554 556 -667 0
-554 556 667 0
554 -556 667 0
-565 -567 -672 0
565 567 -672 0
-565 567 672 0
565 -567 672 0
-569 -571 -673 0
569 571 -673 0
-569 571 673 0
569 -571 673 0
-575 -577 -675 0
575 577 -675 0
-575 577 675 0
575 -577 675 0
-579 -581 -677 0
579 581 -677 0
-579 581 677 0
579 -581 677 0
-583 -585 -679 0
583 585 -679 0
-583 585 679 0
583 -585 679 0
-587 -589 -681 0
587 589 -681 0
-587 589 681 0
587 -589 681 0
-591 -593 -683 0
591 593 -683 0
-591 593 683 0
591 -593 683 0
-595 -597 -685 0
595 597 -685 0
-595 597 685 0
595 -597 685 0
-601 -603 -688 0
601 603 -688 0
-601 603 688 0
601 -603 688 0
-606 -608 -690 0
606 608 -690 0
-606 608 690 0
606 -608 690 0
-610 -612 -691 0
610 612 -691 0
-610 612 691 0
610 -612 691 0
-614 -616 -693 0
614 616 -693 0
-614 616 693 0
614 -616 693 0
-618 -620 -695 0
618 620 -695 0
-618 620 695 0
618 -620 695 0
-622 -624 -697 0
622 624 -697 0
-622 624 697 0
622 -624 697 0
-626 -628 -699 0
626 628 -699 0
-626 628 699 0
626 -628 699 0
-630 -632 -701 0
630 632 -701 0
-630 632 701 0
630 -632 701 0
-634 -636 -703 0
634 636 -703 0
-634 636 703 0
634 -636 703 0
-638 -640 -705 0
638 640 -705 0
-638 640 705 0
638 -640 705 0
-642 -644 -707 0
642 644 -707 0
-642 644 707 0
642 -644 707 0
-646 -648 -709 0
646 648 -709 0
-646 648 709 0
646 -648 709 0
-650 -652 -711 0
650 652 -711 0
-650 652 711 0
650 -652 711 0
-654 -656 -713 0
654 656 -713 0
-654 656 713 0
654 -656 713 0
-657 -659 -716 0
657 659 -716 0
-657 659 716 0
657 -659 716 0
-661 -663 -717 0
661 663 -717 0
-661 663 717 0
661 -663 717 0
-665 -667 -719 0
665 667 -719 0
-665 667 719 0
665 -667 719 0
-668 -669 -721 0
668 669 -721 0
-668 669 721 0
668 -669 721 0
-670 -671 -723 0
670 671 -723 0
-670 671 723 0
670 -671 723 0
-672 -673 -725 0
672 673 -725 0
-672 673 725 0
672 -673 725 0
-674 -675 -727 0
674 675 -727 0
-674 675 727 0
674 -675 727 0
-677 -679 -729 0
677 679 -729 0
-677 679 729 0
677 -679 729 0
-681 -683 -731 0
681 683 -731 0
-681 683 731 0
681 -683 731 0
-685 -687 -733 0
685 687 -733 0
-685 687 733 0
685 -687 733 0
-688 -689 -735 0
688 689 -735 0
-688 689 735 0
688 -689 735 0
-690 -691 -737 0
690 691 -737 0
-690 691 737 0
690 -691 737 0
-693 -695 -739 0
693 695 -739 0
-693 695 739 0
693 -695 739 0
-697 -699 -741 0
697 699 -741 0
-697 699 741 0
697 -699 741 0
-701 -703 -743 0
701 703 -743 0
-701 703 743 0
701 -703 743 0
-705 -707 -745 0
705 707 -745 0
-705 707 745 0
705 -707 745 0
-709 -711 -747 0
709 711 -747 0
-709 711 747 0
709 -711 747 0
-713 -715 -749 0
713 715 -749 0
-713 715 749 0
713 -715 749 0
-716 -717 -751 0
716 717 -751 0
-716 717 751 0
716 -717 751 0
-719 -721 -753 0
719 721 -753 0
-719 721 753 0
719 -721 753 0
-723 -725 -755 0
723 725 -755 0
-723 725 755 0
723 -725 755 0
-727 -729 -757 0
727 729 -757 0
-727 729 757 0
727 -729 757 0
-731 -733 -759 0
731 733 -759 0
-731 733 759 0
731 -733 759 0
-735 -737 -761 0
735 737 -761 0
-735 737 761 0
735 -737 761 0
-739 -741 -763 0
739 741 -763 0
-739 741 763 0
739 -741 763 0
-743 -745 -765 0
743 745 -765 0
-743 745 765 0
743 -745 765 0
-747 -749 -767 0
747 749 -767 0
-747 749 767 0
747 -749 767 0
-751 -753 -769 0
751 753 -769 0
-751 753 769 0
751 -753 769 0
-755 -757 -771 0
755 757 -771 0
-755 757 771 0
755 -757 771 0
-759 -761 -773 0
759 761 -773 0
-759 761 773 0
759 -761 773 0
-763 -765 -775 0
763 765 -775 0
-763 765 775 0
763 -765 775 0
-767 -769 -777 0
767 769 -777 0
-767 769 777 0
767 -769 777 0
-771 -773 -779 0
771 773 -779 0
-771 773 779 0
771 -773 779 0
-775 -777 -779 0
775 777 -779 0
-775 777 779 0
775 -777 779 0
-57 -66 -782 0
57 66 -782 0
-57 66 782 0
57 -66 782 0
-75 -84 -784 0
75 84 -784 0
-75 84 784 0
75 -84 784 0
-93 -658 -786 0
93 658 -786 0
-93 658 786 0
93 -658 786 0
-660 -662 -788 0
660 662 -788 0
-660 662 788 0
660 -662 788 0
-664 -666 -790 0
664 666 -790 0
-664 666 790 0
664 -666 790 0
-676 -678 -794 0
676 678 -794 0
-676 678 794 0
676 -678 794 0
-680 -682 -795 0
680 682 -795 0
-680 682 795 0
680 -682 795 0
-684 -686 -797 0
684 686 -797 0
-684 686 797 0
684 -686 797 0
-692 -694 -801 0
692 694 -801 0
-692 694 801 0
692 -694 801 0
-696 -698 -803 0
696 698 -803 0
-696 698 803 0
696 -698 803 0
-700 -702 -805 0
700 702 -805 0
-700 702 805 0
700 -702 805 0
-704 -706 -807 0
704 706 -807 0
-704 706 807 0
704 -706 807 0
-708 -710 -809 0
708 710 -809 0
-708 710 809 0
708 -710 809 0
-712 -714 -811 0
712 714 -811 0
-712 714 811 0
712 -714 811 0
-718 -720 -814 0
718 720 -814 0
-718 720 814 0
718 -720 814 0
-722 -724 -815 0
722 724 -815 0
-722 724 815 0
722 -724 815 0
-726 -728 -817 0
726 728 -817 0
-726 728 817 0
726 -728 817 0
-730 -732 -819 0
730 732 -819 0
-730 732 819 0
730 -732 819 0
-734 -736 -821 0
734 736 -821 0
-734 736 821 0
734 -736 821 0
-738 -740 -823 0
738 740 -823 0
-738 740 823 0
738 -740 823 0
-742 -744 -825 0
742 744 -825 0
-742 744 825 0
742 -744 825 0
-746 -748 -827 0
746 748 -827 0
-746 748 827 0
746 -748 827 0
-750 -752 -829 0
750 752 -829 0
-750 752 829 0
750 -752 829 0
-754 -756 -831 0
754 756 -831 0
-754 756 831 0
754 -756 831 0
-758 -760 -833 0
758 760 -833 0
-758 760 833 0
758 -760 833 0
-762 -764 -835 0
762 764 -835 0
-762 764 835 0
762 -764 835 0
-766 -768 -837 0
766 768 -837 0
-766 768 837 0
766 -768 837 0
-770 -772 -839 0
770 772 -839 0
-770 772 839 0
770 -772 839 0
-774 -776 -841 0
774 776 -841 0
-774 776 841 0
774 -776 841 0
-778 -780 -843 0
778 780 -843 0
-778 780 843 0
778 -780 843 0
-779 -781 -845 0
779 781 -845 0
779 -781 845 0
-779 781 845 0
-782 -784 -847 0
782 784 -847 0
-782 784 847 0
782 -784 847 0
-786 -788 -849 0
786 788 -849 0
-786 788 849 0
786 -788 849 0
-790 -791 -851 0
790 791 -851 0
-790 791 851 0
790 -791 851 0
-793 -794 -852 0
793 794 -852 0
-793 794 852 0
793 -794 852 0
-795 -797 -854 0
795 797 -854 0
-795 797 854 0
795 -797 854 0
-799 -800 -856 0
799 800 -856 0
-799 800 856 0
799 -800 856 0
-801 -803 -858 0
801 803 -858 0
-801 803 858 0
801 -803 858 0
-805 -807 -860 0
805 807 -860 0
-805 807 860 0
805 -807 860 0
-809 -811 -862 0
809 811 -862 0
-809 811 862 0
809 -811 862 0
-813 -814 -864 0
813 814 -864 0
-813 814 864 0
813 -814 864 0
-815 -817 -866 0
815 817 -866 0
-815 817 866 0
815 -817 866 0
-819 -821 -868 0
819 821 -868 0
-819 821 868 0
819 -821 868 0
-823 -825 -870 0
823 825 -870 0
-823 825 870 0
823 -825 870 0
-827 -829 -872 0
827 829 -872 0
-827 829 872 0
827 -829 872 0
-831 -833 -874 0
831 833 -874 0
-831 833 874 0
831 -833 874 0
-835 -837 -876 0
835 837 -876 0
-835 837 876 0
835 -837 876 0
-839 -841 -878 0
839 841 -878 0
-839 841 878 0
839 -841 878 0
-843 -845 -880 0
843 845 -880 0
-843 845 880 0
843 -845 880 0
-847 -849 -882 0
847 849 -882 0
-847 849 882 0
847 -849 882 0
-792 -851 -884 0
792 851 -884 0
792 -851 884 0
-792 851 884 0
-852 -854 -886 0
852 854 -886 0
-852 854 886 0
852 -854 886 0
-856 -858 -888 0
856 858 -888 0
-856 858 888 0
856 -858 888 0
-860 -862 -890 0
860 862 -890 0
-860 862 890 0
860 -862 890 0
-864 -866 -892 0
864 866 -892 0
-864 866 892 0
864 -866 892 0
-868 -870 -894 0
868 870 -894 0
-868 870 894 0
868 -870 894 0
-872 -874 -896 0
872 874 -896 0
-872 874 896 0
872 -874 896 0
-876 -878 -898 0
876 878 -898 0
-876 878 898 0
876 -878 898 0
-880 -882 -900 0
880 882 -900 0
-880 882 900 0
880 -882 900 0
-884 -886 -902 0
884 886 -902 0
-884 886 902 0
884 -886 902 0
-888 -890 -904 0
888 890 -904 0
-888 890 904 0
888 -890 904 0
-892 -894 -906 0
892 894 -906 0
-892 894 906 0
892 -894 906 0
-896 -898 -908 0
896 898 -908 0
-896 898 908 0
896 -898 908 0
-900 -902 -910 0
900 902 -910 0
-900 902 910 0
900 -902 910 0
-904 -906 -912 0
904 906 -912 0
-904 906 912 0
904 -906 912 0
-908 -910 912 0
908 910 912 0
-908 910 -912 0
908 -910 -912 0
-67 -76 -979 0
67 76 -979 0
-67 76 979 0
67 -76 979 0
-85 -94 -916 0
85 94 -916 0
-85 94 916 0
85 -94 916 0
-783 -785 -918 0
783 785 -918 0
-783 785 918 0
783 -785 918 0
-787 -789 -920 0
787 789 -920 0
-787 789 920 0
787 -789 920 0
-796 -798 -982 0
796 798 -982 0
-796 798 982 0
796 -798 982 0
-802 -804 -923 0
802 804 -923 0
-802 804 923 0
802 -804 923 0
-806 -808 -925 0
806 808 -925 0
-806 808 925 0
806 -808 925 0
-810 -812 -927 0
810 812 -927 0
-810 812 927 0
810 -812 927 0
-816 -818 -929 0
816 818 -929 0
-816 818 929 0
816 -818 929 0
-820 -822 -931 0
820 822 -931 0
-820 822 931 0
820 -822 931 0
-824 -826 -933 0
824 826 -933 0
-824 826 933 0
824 -826 933 0
-828 -830 -935 0
828 830 -935 0
-828 830 935 0
828 -830 935 0
-832 -834 -937 0
832 834 -937 0
-832 834 937 0
832 -834 937 0
-836 -838 -939 0
836 838 -939 0
-836 838 939 0
836 -838 939 0
-840 -842 -941 0
840 842 -941 0
-840 842 941 0
840 -842 941 0
-844 -846 -943 0
844 846 -943 0
-844 846 943 0
844 -846 943 0
-848 -850 -945 0
848 850 -945 0
-848 850 945 0
848 -850 945 0
-853 -855 -947 0
853 855 -947 0
-853 855 947 0
853 -855 947 0
-857 -859 -949 0
857 859 -949 0
-857 859 949 0
857 -859 949 0
-861 -863 -951 0
861 863 -951 0
-861 863 951 0
861 -863 951 0
-865 -867 -953 0
865 867 -953 0
-865 867 953 0
865 -867 953 0
-869 -871 -955 0
869 871 -955 0
-869 871 955 0
869 -871 955 0
-873 -875 -957 0
873 875 -957 0
-873 875 957 0
873 -875 957 0
-877 -879 -959 0
877 879 -959 0
-877 879 959 0
877 -879 959 0
-881 -883 -961 0
881 883 -961 0
-881 883 961 0
881 -883 961 0
-885 -887 -963 0
885 887 -963 0
-885 887 963 0
885 -887 963 0
-889 -891 -965 0
889 891 -965 0
-889 891 965 0
889 -891 965 0
-893 -895 -967 0
893 895 -967 0
-893 895 967 0
893 -895 967 0
-897 -899 -969 0
897 899 -969 0
-897 899 969 0
897 -899 969 0
-901 -903 -971 0
901 903 -971 0
-901 903 971 0
901 -903 971 0
-905 -907 -973 0
905 907 -973 0
-905 907 973 0
905 -907 973 0
-909 -911 -975 0
909 911 -975 0
-909 911 975 0
909 -911 975 0
-913 -914 -977 0
913 914 -977 0
-913 914 977 0
913 -914 977 0
-916 -918 -980 0
916 918 -980 0
-916 918 980 0
916 -918 980 0
-920 -921 -981 0
920 921 -981 0
-920 921 981 0
920 -921 981 0
-923 -925 -983 0
923 925 -983 0
-923 925 983 0
923 -925 983 0
-927 -928 -984 0
927 928 -984 0
-927 928 984 0
927 -928 984 0
-929 -931 -986 0
929 931 -986 0
-929 931 986 0
929 -931 986 0
-933 -935 -988 0
933 935 -988 0
-933 935 988 0
933 -935 988 0
-937 -939 -990 0
937 939 -990 0
-937 939 990 0
937 -939 990 0
-941 -943 -992 0
941 943 -992 0
-941 943 992 0
941 -943 992 0
-945 -946 -994 0
945 946 -994 0
-945 946 994 0
945 -946 994 0
-947 -949 -996 0
947 949 -996 0
-947 949 996 0
947 -949 996 0
-951 -953 -998 0
951 953 -998 0
-951 953 998 0
951 -953 998 0
-955 -957 -1000 0
955 957 -1000 0
-955 957 1000 0
955 -957 1000 0
-959 -961 -1002 0
959 961 -1002 0
-959 961 1002 0
959 -961 1002 0
-963 -965 -1004 0
963 965 -1004 0
-963 965 1004 0
963 -965 1004 0
-967 -969 -1006 0
967 969 -1006 0
-967 969 1006 0
967 -969 1006 0
-971 -973 -1008 0
971 973 -1008 0
-971 973 1008 0
971 -973 1008 0
-975 -977 -1010 0
975 977 -1010 0
-975 977 1010 0
975 -977 1010 0
-979 -980 -1012 0
979 980 -1012 0
-979 980 1012 0
979 -980 1012 0
-922 -981 -1014 0
922 981 -1014 0
922 -981 1014 0
-922 981 1014 0
-982 -983 -1016 0
982 983 -1016 0
-982 983 1016 0
982 -983 1016 0
-984 -986 -1018 0
984 986 -1018 0
-984 986 1018 0
984 -986 1018 0
-988 -990 -1020 0
988 990 -1020 0
-988 990 1020 0
988 -990 1020 0
-992 -994 -1022 0
992 994 -1022 0
-992 994 1022 0
992 -994 1022 0
-996 -998 -1024 0
996 998 -1024 0
-996 998 1024 0
996 -998 1024 0
-1000 -1002 -1026 0
1000 1002 -1026 0
-1000 1002 1026 0
1000 -1002 1026 0
-1004 -1006 -1028 0
1004 1006 -1028 0
-1004 1006 1028 0
1004 -1006 1028 0
-1008 -1010 -1030 0
1008 1010 -1030 0
-1008 1010 1030 0
1008 -1010 1030 0
-1012 -1014 -1032 0
1012 1014 -1032 0
-1012 1014 1032 0
1012 -1014 1032 0
-1016 -1018 -1034 0
1016 1018 -1034 0
-1016 1018 1034 0
1016 -1018 1034 0
-1020 -1022 -1036 0
1020 1022 -1036 0
-1020 1022 1036 0
1020 -1022 1036 0
-1024 -1026 -1038 0
1024 1026 -1038 0
-1024 1026 1038 0
1024 -1026 1038 0
-1028 -1030 -1040 0
1028 1030 -1040 0
-1028 1030 1040 0
1028 -1030 1040 0
-1032 -1034 -1042 0
1032 1034 -1042 0
-1032 1034 1042 0
1032 -1034 1042 0
-1036 -1038 -1044 0
1036 1038 -1044 0
-1036 1038 1044 0
1036 -1038 1044 0
-1040 -1042 1044 0
1040 1042 1044 0
-1040 1042 -1044 0
1040 -1042 -1044 0
-77 -86 -1113 0
77 86 -1113 0
-77 86 1113 0
77 -86 1113 0
-95 -915 -1048 0
95 915 -1048 0
-95 915 1048 0
95 -915 1048 0
-917 -919 -1050 0
917 919 -1050 0
-917 919 1050 0
917 -919 1050 0
-924 -926 -1053 0
924 926 -1053 0
-924 926 1053 0
924 -926 1053 0
-930 -932 -1055 0
930 932 -1055 0
-930 932 1055 0
930 -932 1055 0
-934 -936 -1057 0
934 936 -1057 0
-934 936 1057 0
934 -936 1057 0
-938 -940 -1059 0
938 940 -1059 0
-938 940 1059 0
938 -940 1059 0
-942 -944 -1061 0
942 944 -1061 0
-942 944 1061 0
942 -944 1061 0
-948 -950 -1064 0
948 950 -1064 0
-948 950 1064 0
948 -950 1064 0
-952 -954 -1065 0
952 954 -1065 0
-952 954 1065 0
952 -954 1065 0
-956 -958 -1067 0
956 958 -1067 0
-956 958 1067 0
956 -958 1067 0
-960 -962 -1069 0
960 962 -1069 0
-960 962 1069 0
960 -962 1069 0
-964 -966 -1071 0
964 966 -1071 0
-964 966 1071 0
964 -966 1071 0
-968 -970 -1073 0
968 970 -1073 0
-968 970 1073 0
968 -970 1073 0
-972 -974 -1075 0
972 974 -1075 0
-972 974 1075 0
972 -974 1075 0
-976 -978 -1077 0
976 978 -1077 0
-976 978 1077 0
976 -978 1077 0
-985 -987 -1081 0
985 987 -1081 0
-985 987 1081 0
985 -987 1081 0
-989 -991 -1083 0
989 991 -1083 0
-989 991 1083 0
989 -991 1083 0
-993 -995 -1085 0
993 995 -1085 0
-993 995 1085 0
993 -995 1085 0
-997 -999 -1087 0
997 999 -1087 0
-997 999 1087 0
997 -999 1087 0
-1001 -1003 -1089 0
1001 1003 -1089 0
-1001 1003 1089 0
1001 -1003 1089 0
-1005 -1007 -1091 0
1005 1007 -1091 0
-1005 1007 1091 0
1005 -1007 1091 0
-1009 -1011 -1093 0
1009 1011 -1093 0
-1009 1011 1093 0
1009 -1011 1093 0
-1013 -1015 -1095 0
1013 1015 -1095 0
-1013 1015 1095 0
1013 -1015 1095 0
-1017 -1019 -1097 0
1017 1019 -1097 0
-1017 1019 1097 0
1017 -1019 1097 0
-1021 -1023 -1099 0
1021 1023 -1099 0
-1021 1023 1099 0
1021 -1023 1099 0
-1025 -1027 -1101 0
1025 1027 -1101 0
-1025 1027 1101 0
1025 -1027 1101 0
-1029 -1031 -1103 0
1029 1031 -1103 0
-1029 1031 1103 0
1029 -1031 1103 0
-1033 -1035 -1105 0
1033 1035 -1105 0
-1033 1035 1105 0
1033 -1035 1105 0
-1037 -1039 -1107 0
1037 1039 -1107 0
-1037 1039 1107 0
1037 -1039 1107 0
-1041 -1043 -1109 0
1041 1043 -1109 0
-1041 1043 1109 0
1041 -1043 1109 0
-1045 -1046 -1111 0
1045 1046 -1111 0
-1045 1046 1111 0
1045 -1046 1111 0
-1048 -1050 -1114 0
1048 1050 -1114 0
-1048 1050 1114 0
1048 -1050 1114 0
-1052 -1053 -1115 0
1052 1053 -1115 0
-1052 1053 1115 0
1052 -1053 1115 0
-1054 -1055 -1116 0
1054 1055 -1116 0
-1054 1055 1116 0
1054 -1055 1116 0
-1057 -1059 -1118 0
1057 1059 -1118 0
-1057 1059 1118 0
1057 -1059 1118 0
-1061 -1063 -1120 0
1061 1063 -1120 0
-1061 1063 1120 0
1061 -1063 1120 0
-1064 -1065 -1122 0
1064 1065 -1122 0
-1064 1065 1122 0
1064 -1065 1122 0
-1067 -1069 -1124 0
1067 1069 -1124 0
-1067 1069 1124 0
1067 -1069 1124 0
-1071 -1073 -1126 0
1071 1073 -1126 0
-1071 1073 1126 0
1071 -1073 1126 0
-1075 -1077 -1128 0
1075 1077 -1128 0
-1075 1077 1128 0
1075 -1077 1128 0
-1078 -1079 -1130 0
1078 1079 -1130 0
-1078 1079 1130 0
1078 -1079 1130 0
-1080 -1081 -1132 0
1080 1081 -1132 0
-1080 1081 1132 0
1080 -1081 1132 0
-1083 -1085 -1134 0
1083 1085 -1134 0
-1083 1085 1134 0
1083 -1085 1134 0
-1087 -1089 -1136 0
1087 1089 -1136 0
-1087 1089 1136 0
1087 -1089 1136 0
-1091 -1093 -1138 0
1091 1093 -1138 0
-1091 1093 1138 0
1091 -1093 1138 0
-1095 -1097 -1140 0
1095 1097 -1140 0
-1095 1097 1140 0
1095 -1097 1140 0
-1099 -1101 -1142 0
1099 1101 -1142 0
-1099 1101 1142 0
1099 -1101 1142 0
-1103 -1105 -1144 0
1103 1105 -1144 0
-1103 1105 1144 0
1103 -1105 1144 0
-1107 -1109 -1146 0
1107 1109 -1146 0
-1107 1109 1146 0
1107 -1109 1146 0
-1111 -1113 -1148 0
1111 1113 -1148 0
-1111 1113 1148 0
1111 -1113 1148 0
-1051 -1114 -1150 0
1051 1114 -1150 0
1051 -1114 1150 0
-1051 1114 1150 0
-1115 -1116 -1152 0
1115 1116 -1152 0
-1115 1116 1152 0
1115 -1116 1152 0
-1118 -1120 -1154 0
1118 1120 -1154 0
-1118 1120 1154 0
1118 -1120 1154 0
-1122 -1124 -1156 0
1122 1124 -1156 0
-1122 1124 1156 0
1122 -1124 1156 0
-1126 -1128 -1158 0
1126 1128 -1158 0
-1126 1128 1158 0
1126 -1128 1158 0
-1130 -1132 -1160 0
1130 1132 -1160 0
-1130 1132 1160 0
1130 -1132 1160 0
-1134 -1136 -1162 0
1134 1136 -1162 0
-1134 1136 1162 0
1134 -1136 1162 0
-1138 -1140 -1164 0
1138 1140 -1164 0
-1138 1140 1164 0
1138 -1140 1164 0
-1142 -1144 -1166 0
1142 1144 -1166 0
-1142 1144 1166 0
1142 -1144 1166 0
-1146 -1148 -1168 0
1146 1148 -1168 0
-1146 1148 1168 0
1146 -1148 1168 0
-1150 -1152 -1170 0
1150 1152 -1170 0
-1150 1152 1170 0
1150 -1152 1170 0
-1154 -1156 -1172 0
1154 1156 -1172 0
-1154 1156 1172 0
1154 -1156 1172 0
-1158 -1160 -1174 0
1158 1160 -1174 0
-1158 1160 1174 0
1158 -1160 1174 0
-1162 -1164 -1176 0
1162 1164 -1176 0
-1162 1164 1176 0
1162 -1164 1176 0
-1166 -1168 -1178 0
1166 1168 -1178 0
-1166 1168 1178 0
1166 -1168 1178 0
-1170 -1172 -1180 0
1170 1172 -1180 0
-1170 1172 1180 0
1170 -1172 1180 0
-1174 -1176 -1182 0
1174 1176 -1182 0
-1174 1176 1182 0
1174 -1176 1182 0
-1178 -1180 1182 0
1178 1180 1182 0
-1178 1180 -1182 0
1178 -1180 -1182 0
-87 -96 -1184 0
87 96 -1184 0
-87 96 1184 0
87 -96 1184 0
-1047 -1049 -1186 0
1047 1049 -1186 0
-1047 1049 1186 0
1047 -1049 1186 0
-1056 -1058 -1189 0
1056 1058 -1189 0
-1056 1058 1189 0
1056 -1058 1189 0
-1060 -1062 -1191 0
1060 1062 -1191 0
-1060 1062 1191 0
1060 -1062 1191 0
-1066 -1068 -1194 0
1066 1068 -1194 0
-1066 1068 1194 0
1066 -1068 1194 0
-1070 -1072 -1195 0
1070 1072 -1195 0
-1070 1072 1195 0
1070 -1072 1195 0
-1074 -1076 -1197 0
1074 1076 -1197 0
-1074 1076 1197 0
1074 -1076 1197 0
-1082 -1084 -1260 0
1082 1084 -1260 0
-1082 1084 1260 0
1082 -1084 1260 0
-1086 -1088 -1201 0
1086 1088 -1201 0
-1086 1088 1201 0
1086 -1088 1201 0
-1090 -1092 -1203 0
1090 1092 -1203 0
-1090 1092 1203 0
1090 -1092 1203 0
-1094 -1096 -1205 0
1094 1096 -1205 0
-1094 1096 1205 0
1094 -1096 1205 0
-1098 -1100 -1207 0
1098 1100 -1207 0
-1098 1100 1207 0
1098 -1100 1207 0
-1102 -1104 -1209 0
1102 1104 -1209 0
-1102 1104 1209 0
1102 -1104 1209 0
-1106 -1108 -1211 0
1106 1108 -1211 0
-1106 1108 1211 0
1106 -1108 1211 0
-1110 -1112 -1213 0
1110 1112 -1213 0
-1110 1112 1213 0
1110 -1112 1213 0
-1117 -1119 -1217 0
1117 1119 -1217 0
-1117 1119 1217 0
1117 -1119 1217 0
-1121 -1123 -1219 0
1121 1123 -1219 0
-1121 1123 1219 0
1121 -1123 1219 0
-1125 -1127 -1221 0
1125 1127 -1221 0
-1125 1127 1221 0
1125 -1127 1221 0
-1129 -1131 -1223 0
1129 1131 -1223 0
-1129 1131 1223 0
1129 -1131 1223 0
-1133 -1135 -1225 0
1133 1135 -1225 0
-1133 1135 1225 0
1133 -1135 1225 0
-1137 -1139 -1227 0
1137 1139 -1227 0
-1137 1139 1227 0
1137 -1139 1227 0
-1141 -1143 -1229 0
1141 1143 -1229 0
-1141 1143 1229 0
1141 -1143 1229 0
-1145 -1147 -1231 0
1145 1147 -1231 0
-1145 1147 1231 0
1145 -1147 1231 0
-1149 -1151 -1233 0
1149 1151 -1233 0
-1149 1151 1233 0
1149 -1151 1233 0
-1153 -1155 -1235 0
1153 1155 -1235 0
-1153 1155 1235 0
1153 -1155 1235 0
-1157 -1159 -1237 0
1157 1159 -1237 0
-1157 1159 1237 0
1157 -1159 1237 0
-1161 -1163 -1239 0
1161 1163 -1239 0
-1161 1163 1239 0
1161 -1163 1239 0
-1165 -1167 -1241 0
1165 1167 -1241 0
-1165 1167 1241 0
1165 -1167 1241 0
-1169 -1171 -1243 0
1169 1171 -1243 0
-1169 1171 1243 0
1169 -1171 1243 0
-1173 -1175 -1245 0
1173 1175 -1245 0
-1173 1175 1245 0
1173 -1175 1245 0
-1177 -1179 -1247 0
1177 1179 -1247 0
-1177 1179 1247 0
1177 -1179 1247 0
-1181 -1183 -1249 0
1181 1183 -1249 0
-1181 1183 1249 0
1181 -1183 1249 0
-1184 -1186 -1251 0
1184 1186 -1251 0
-1184 1186 1251 0
1184 -1186 1251 0
-1188 -1189 -1252 0
1188 1189 -1252 0
-1188 1189 1252 0
1188 -1189 1252 0
-1191 -1193 -1254 0
1191 1193 -1254 0
-1191 1193 1254 0
1191 -1193 1254 0
-1194 -1195 -1256 0
1194 1195 -1256 0
-1194 1195 1256 0
1194 -1195 1256 0
-1197 -1199 -1258 0
1197 1199 -1258 0
-1197 1199 1258 0
1197 -1199 1258 0
-1201 -1203 -1261 0
1201 1203 -1261 0
-1201 1203 1261 0
1201 -1203 1261 0
-1205 -1207 -1262 0
1205 1207 -1262 0
-1205 1207 1262 0
1205 -1207 1262 0
-1209 -1211 -1264 0
1209 1211 -1264 0
-1209 1211 1264 0
1209 -1211 1264 0
-1213 -1215 -1266 0
1213 1215 -1266 0
-1213 1215 1266 0
1213 -1215 1266 0
-1216 -1217 -1268 0
1216 1217 -1268 0
-1216 1217 1268 0
1216 -1217 1268 0
-1219 -1221 -1270 0
1219 1221 -1270 0
-1219 1221 1270 0
1219 -1221 1270 0
-1223 -1225 -1272 0
1223 1225 -1272 0
-1223 1225 1272 0
1223 -1225 1272 0
-1227 -1229 -1274 0
1227 1229 -1274 0
-1227 1229 1274 0
1227 -1229 1274 0
-1231 -1233 -1276 0
1231 1233 -1276 0
-1231 1233 1276 0
1231 -1233 1276 0
-1235 -1237 -1278 0
1235 1237 -1278 0
-1235 1237 1278 0
1235 -1237 1278 0
-1239 -1241 -1280 0
1239 1241 -1280 0
-1239 1241 1280 0
1239 -1241 1280 0
-1243 -1245 -1282 0
1243 1245 -1282 0
-1243 1245 1282 0
1243 -1245 1282 0
-1247 -1249 -1284 0
1247 1249 -1284 0
-1247 1249 1284 0
1247 -1249 1284 0
-1250 -1251 -1286 0
1250 1251 -1286 0
-1250 1251 1286 0
1250 -1251 1286 0
-1187 -1252 -1288 0
1187 1252 -1288 0
-1187 1252 1288 0
1187 -1252 1288 0
-1254 -1256 -1290 0
1254 1256 -1290 0
-1254 1256 1290 0
1254 -1256 1290 0
-1258 -1260 -1292 0
1258 1260 -1292 0
-1258 1260 1292 0
1258 -1260 1292 0
-1261 -1262 -1294 0
1261 1262 -1294 0
-1261 1262 1294 0
1261 -1262 1294 0
-1264 -1266 -1296 0
1264 1266 -1296 0
-1264 1266 1296 0
1264 -1266 1296 0
-1268 -1270 -1298 0
1268 1270 -1298 0
-1268 1270 1298 0
1268 -1270 1298 0
-1272 -1274 -1300 0
1272 1274 -1300 0
-1272 1274 1300 0
1272 -1274 1300 0
-1276 -1278 -1302 0
1276 1278 -1302 0
-1276 1278 1302 0
1276 -1278 1302 0
-1280 -1282 -1304 0
1280 1282 -1304 0
-1280 1282 1304 0
1280 -1282 1304 0
-1284 -1286 -1306 0
1284 1286 -1306 0
-1284 1286 1306 0
1284 -1286 1306 0
-1288 -1290 -1308 0
1288 1290 -1308 0
-1288 1290 1308 0
1288 -1290 1308 0
-1292 -1294 -1310 0
1292 1294 -1310 0
-1292 1294 1310 0
1292 -1294 1310 0
-1296 -1298 -1312 0
1296 1298 -1312 0
-1296 1298 1312 0
1296 -1298 1312 0
-1300 -1302 -1314 0
1300 1302 -1314 0
-1300 1302 1314 0
1300 -1302 1314 0
-1304 -1306 -1316 0
1304 1306 -1316 0
-1304 1306 1316 0
1304 -1306 1316 0
-1308 -1310 -1318 0
1308 1310 -1318 0
-1308 1310 1318 0
1308 -1310 1318 0
-1312 -1314 -1320 0
1312 1314 -1320 0
-1312 1314 1320 0
1312 -1314 1320 0
-1316 -1318 1320 0
1316 1318 1320 0
-1316 1318 -1320 0
1316 -1318 -1320 0
-97 -1185 -1322 0
97 1185 -1322 0
-97 1185 1322 0
97 -1185 1322 0
-1190 -1192 -1384 0
1190 1192 -1384 0
-1190 1192 1384 0
1190 -1192 1384 0
-1196 -1198 -1325 0
1196 1198 -1325 0
-1196 1198 1325 0
1196 -1198 1325 0
-1200 -1202 -1386 0
1200 1202 -1386 0
-1200 1202 1386 0
1200 -1202 1386 0
-1204 -1206 -1326 0
1204 1206 -1326 0
-1204 1206 1326 0
1204 -1206 1326 0
-1208 -1210 -1328 0
1208 1210 -1328 0
-1208 1210 1328 0
1208 -1210 1328 0
-1212 -1214 -1388 0
1212 1214 -1388 0
-1212 1214 1388 0
1212 -1214 1388 0
-1218 -1220 -1330 0
1218 1220 -1330 0
-1218 1220 1330 0
1218 -1220 1330 0
-1222 -1224 -1332 0
1222 1224 -1332 0
-1222 1224 1332 0
1222 -1224 1332 0
-1226 -1228 -1334 0
1226 1228 -1334 0
-1226 1228 1334 0
1226 -1228 1334 0
-1230 -1232 -1336 0
1230 1232 -1336 0
-1230 1232 1336 0
1230 -1232 1336 0
-1234 -1236 -1338 0
1234 1236 -1338 0
-1234 1236 1338 0
1234 -1236 1338 0
-1238 -1240 -1340 0
1238 1240 -1340 0
-1238 1240 1340 0
1238 -1240 1340 0
-1242 -1244 -1342 0
1242 1244 -1342 0
-1242 1244 1342 0
1242 -1244 1342 0
-1246 -1248 -1344 0
1246 1248 -1344 0
-1246 1248 1344 0
1246 -1248 1344 0
-1253 -1255 -1348 0
1253 1255 -1348 0
-1253 1255 1348 0
1253 -1255 1348 0
-1257 -1259 -1350 0
1257 1259 -1350 0
-1257 1259 1350 0
1257 -1259 1350 0
-1263 -1265 -1353 0
1263 1265 -1353 0
-1263 1265 1353 0
1263 -1265 1353 0
-1267 -1269 -1354 0
1267 1269 -1354 0
-1267 1269 1354 0
1267 -1269 1354 0
-1271 -1273 -1356 0
1271 1273 -1356 0
-1271 1273 1356 0
1271 -1273 1356 0
-1275 -1277 -1358 0
1275 1277 -1358 0
-1275 1277 1358 0
1275 -1277 1358 0
-1279 -1281 -1360 0
1279 1281 -1360 0
-1279 1281 1360 0
1279 -1281 1360 0
-1283 -1285 -1362 0
1283 1285 -1362 0
-1283 1285 1362 0
1283 -1285 1362 0
-1287 -1289 -1364 0
1287 1289 -1364 0
-1287 1289 1364 0
1287 -1289 1364 0
-1291 -1293 -1366 0
1291 1293 -1366 0
-1291 1293 1366 0
1291 -1293 1366 0
-1295 -1297 -1368 0
1295 1297 -1368 0
-1295 1297 1368 0
1295 -1297 1368 0
-1299 -1301 -1370 0
1299 1301 -1370 0
-1299 1301 1370 0
1299 -1301 1370 0
-1303 -1305 -1372 0
1303 1305 -1372 0
-1303 1305 1372 0
1303 -1305 1372 0
-1307 -1309 -1374 0
1307 1309 -1374 0
-1307 1309 1374 0
1307 -1309 1374 0
-1311 -1313 -1376 0
1311 1313 -1376 0
-1311 1313 1376 0
1311 -1313 1376 0
-1315 -1317 -1378 0
1315 1317 -1378 0
-1315 1317 1378 0
1315 -1317 1378 0
-1319 -1321 -1380 0
1319 1321 -1380 0
-1319 1321 1380 0
1319 -1321 1380 0
-1322 -1323 -1383 0
1322 1323 -1383 0
-1322 1323 1383 0
1322 -1323 1383 0
-1324 -1325 -1385 0
1324 1325 -1385 0
-1324 1325 1385 0
1324 -1325 1385 0
-1326 -1328 -1387 0
1326 1328 -1387 0
-1326 1328 1387 0
1326 -1328 1387 0
-1330 -1332 -1389 0
1330 1332 -1389 0
-1330 1332 1389 0
1330 -1332 1389 0
-1334 -1336 -1390 0
1334 1336 -1390 0
-1334 1336 1390 0
1334 -1336 1390 0
-1338 -1340 -1392 0
1338 1340 -1392 0
-1338 1340 1392 0
1338 -1340 1392 0
-1342 -1344 -1394 0
1342 1344 -1394 0
-1342 1344 1394 0
1342 -1344 1394 0
-1346 -1347 -1396 0
1346 1347 -1396 0
-1346 1347 1396 0
1346 -1347 1396 0
-1348 -1350 -1398 0
1348 1350 -1398 0
-1348 1350 1398 0
1348 -1350 1398 0
-1352 -1353 -1400 0
1352 1353 -1400 0
-1352 1353 1400 0
1352 -1353 1400 0
-1354 -1356 -1402 0
1354 1356 -1402 0
-1354 1356 1402 0
1354 -1356 1402 0
-1358 -1360 -1404 0
1358 1360 -1404 0
-1358 1360 1404 0
1358 -1360 1404 0
-1362 -1364 -1406 0
1362 1364 -1406 0
-1362 1364 1406 0
1362 -1364 1406 0
-1366 -1368 -1408 0
1366 1368 -1408 0
-1366 1368 1408 0
1366 -1368 1408 0
-1370 -1372 -1410 0
1370 1372 -1410 0
-1370 1372 1410 0
1370 -1372 1410 0
-1374 -1376 -1412 0
1374 1376 -1412 0
-1374 1376 1412 0
1374 -1376 1412 0
-1378 -1380 -1414 0
1378 1380 -1414 0
-1378 1380 1414 0
1378 -1380 1414 0
-1382 -1383 -1416 0
1382 1383 -1416 0
-1382 1383 1416 0
1382 -1383 1416 0
-1384 -1385 -1418 0
1384 1385 -1418 0
-1384 1385 1418 0
1384 -1385 1418 0
-1386 -1387 -1420 0
1386 1387 -1420 0
-1386 1387 1420 0
1386 -1387 1420 0
-1388 -1389 -1422 0
1388 1389 -1422 0
-1388 1389 1422 0
1388 -1389 1422 0
-1390 -1392 -1424 0
1390 1392 -1424 0
-1390 1392 1424 0
1390 -1392 1424 0
-1394 -1396 -1426 0
1394 1396 -1426 0
-1394 1396 1426 0
1394 -1396 1426 0
-1398 -1400 -1428 0
1398 1400 -1428 0
-1398 1400 1428 0
1398 -1400 1428 0
-1402 -1404 -1430 0
1402 1404 -1430 0
-1402 1404 1430 0
1402 -1404 1430 0
-1406 -1408 -1432 0
1406 1408 -1432 0
-1406 1408 1432 0
1406 -1408 1432 0
-1410 -1412 -1434 0
1410 1412 -1434 0
-1410 1412 1434 0
1410 -1412 1434 0
-1414 -1416 -1436 0
1414 1416 -1436 0
-1414 1416 1436 0
1414 -1416 1436 0
-1418 -1420 -1438 0
1418 1420 -1438 0
-1418 1420 1438 0
1418 -1420 1438 0
-1422 -1424 -1440 0
1422 1424 -1440 0
-1422 1424 1440 0
1422 -1424 1440 0
-1426 -1428 -1442 0
1426 1428 -1442 0
-1426 1428 1442 0
1426 -1428 1442 0
-1430 -1432 -1444 0
1430 1432 -1444 0
-1430 1432 1444 0
1430 -1432 1444 0
-1434 -1436 -1446 0
1434 1436 -1446 0
-1434 1436 1446 0
1434 -1436 1446 0
-1438 -1440 -1448 0
1438 1440 -1448 0
-1438 1440 1448 0
1438 -1440 1448 0
-1442 -1444 -1450 0
1442 1444 -1450 0
-1442 1444 1450 0
1442 -1444 1450 0
-1446 -1448 1450 0
1446 1448 1450 0
-1446 1448 -1450 0
1446 -1448 -1450 0
-1327 -1329 -1457 0
1327 1329 -1457 0
-1327 1329 1457 0
1327 -1329 1457 0
-1331 -1333 -1459 0
1331 1333 -1459 0
-1331 1333 1459 0
1331 -1333 1459 0
-1335 -1337 -1461 0
1335 1337 -1461 0
-1335 1337 1461 0
1335 -1337 1461 0
-1339 -1341 -1463 0
1339 1341 -1463 0
-1339 1341 1463 0
1339 -1341 1463 0
-1343 -1345 -1523 0
1343 1345 -1523 0
-1343 1345 1523 0
1343 -1345 1523 0
-1349 -1351 -1466 0
1349 1351 -1466 0
-1349 1351 1466 0
1349 -1351 1466 0
-1355 -1357 -1468 0
1355 1357 -1468 0
-1355 1357 1468 0
1355 -1357 1468 0
-1359 -1361 -1469 0
1359 1361 -1469 0
-1359 1361 1469 0
1359 -1361 1469 0
-1363 -1365 -1471 0
1363 1365 -1471 0
-1363 1365 1471 0
1363 -1365 1471 0
-1367 -1369 -1473 0
1367 1369 -1473 0
-1367 1369 1473 0
1367 -1369 1473 0
-1371 -1373 -1475 0
1371 1373 -1475 0
-1371 1373 1475 0
1371 -1373 1475 0
-1375 -1377 -1477 0
1375 1377 -1477 0
-1375 1377 1477 0
1375 -1377 1477 0
-1379 -1381 -1479 0
1379 1381 -1479 0
-1379 1381 1479 0
1379 -1381 1479 0
-1391 -1393 -1485 0
1391 1393 -1485 0
-1391 1393 1485 0
1391 -1393 1485 0
-1395 -1397 -1487 0
1395 1397 -1487 0
-1395 1397 1487 0
1395 -1397 1487 0
-1399 -1401 -1489 0
1399 1401 -1489 0
-1399 1401 1489 0
1399 -1401 1489 0
-1403 -1405 -1491 0
1403 1405 -1491 0
-1403 1405 1491 0
1403 -1405 1491 0
-1407 -1409 -1493 0
1407 1409 -1493 0
-1407 1409 1493 0
1407 -1409 1493 0
-1411 -1413 -1495 0
1411 1413 -1495 0
-1411 1413 1495 0
1411 -1413 1495 0
-1415 -1417 -1497 0
1415 1417 -1497 0
-1415 1417 1497 0
1415 -1417 1497 0
-1419 -1421 -1499 0
1419 1421 -1499 0
-1419 1421 1499 0
1419 -1421 1499 0
-1423 -1425 -1501 0
1423 1425 -1501 0
-1423 1425 1501 0
1423 -1425 1501 0
-1427 -1429 -1503 0
1427 1429 -1503 0
-1427 1429 1503 0
1427 -1429 1503 0
-1431 -1433 -1505 0
1431 1433 -1505 0
-1431 1433 1505 0
1431 -1433 1505 0
-1435 -1437 -1507 0
1435 1437 -1507 0
-1435 1437 1507 0
1435 -1437 1507 0
-1439 -1441 -1509 0
1439 1441 -1509 0
-1439 1441 1509 0
1439 -1441 1509 0
-1443 -1445 -1511 0
1443 1445 -1511 0
-1443 1445 1511 0
1443 -1445 1511 0
-1447 -1449 -1513 0
1447 1449 -1513 0
-1447 1449 1513 0
1447 -1449 1513 0
-1451 -1452 -1515 0
1451 1452 -1515 0
-1451 1452 1515 0
1451 -1452 1515 0
-1454 -1455 -1517 0
1454 1455 -1517 0
-1454 1455 1517 0
1454 -1455 1517 0
-1456 -1457 -1518 0
1456 1457 -1518 0
-1456 1457 1518 0
1456 -1457 1518 0
-1458 -1459 -1520 0
1458 1459 -1520 0
-1458 1459 1520 0
1458 -1459 1520 0
-1461 -1463 -1522 0
1461 1463 -1522 0
-1461 1463 1522 0
1461 -1463 1522 0
-1466 -1467 -1524 0
1466 1467 -1524 0
-1466 1467 1524 0
1466 -1467 1524 0
-1468 -1469 -1526 0
1468 1469 -1526 0
-1468 1469 1526 0
1468 -1469 1526 0
-1471 -1473 -1528 0
1471 1473 -1528 0
-1471 1473 1528 0
1471 -1473 1528 0
-1475 -1477 -1530 0
1475 1477 -1530 0
-1475 1477 1530 0
1475 -1477 1530 0
-1479 -1481 -1532 0
1479 1481 -1532 0
-1479 1481 1532 0
1479 -1481 1532 0
-1482 -1483 -1534 0
1482 1483 -1534 0
-1482 1483 1534 0
1482 -1483 1534 0
-1484 -1485 -1536 0
1484 1485 -1536 0
-1484 1485 1536 0
1484 -1485 1536 0
-1487 -1489 -1538 0
1487 1489 -1538 0
-1487 1489 1538 0
1487 -1489 1538 0
-1491 -1493 -1540 0
1491 1493 -1540 0
-1491 1493 1540 0
1491 -1493 1540 0
-1495 -1497 -1542 0
1495 1497 -1542 0
-1495 1497 1542 0
1495 -1497 1542 0
-1499 -1501 -1544 0
1499 1501 -1544 0
-1499 1501 1544 0
1499 -1501 1544 0
-1503 -1505 -1546 0
1503 1505 -1546 0
-1503 1505 1546 0
1503 -1505 1546 0
-1507 -1509 -1548 0
1507 1509 -1548 0
-1507 1509 1548 0
1507 -1509 1548 0
-1511 -1513 -1550 0
1511 1513 -1550 0
-1511 1513 1550 0
1511 -1513 1550 0
-1453 -1515 -1552 0
1453 1515 -1552 0
1453 -1515 1552 0
-1453 1515 1552 0
-1517 -1518 -1554 0
1517 1518 -1554 0
-1517 1518 1554 0
1517 -1518 1554 0
-1520 -1522 -1556 0
1520 1522 -1556 0
-1520 1522 1556 0
1520 -1522 1556 0
-1523 -1524 -1558 0
1523 1524 -1558 0
-1523 1524 1558 0
1523 -1524 1558 0
-1526 -1528 -1560 0
1526 1528 -1560 0
-1526 1528 1560 0
1526 -1528 1560 0
-1530 -1532 -1562 0
1530 1532 -1562 0
-1530 1532 1562 0
1530 -1532 1562 0
-1534 -1536 -1564 0
1534 1536 -1564 0
-1534 1536 1564 0
1534 -1536 1564 0
-1538 -1540 -1566 0
1538 1540 -1566 0
-1538 1540 1566 0
1538 -1540 1566 0
-1542 -1544 -1568 0
1542 1544 -1568 0
-1542 1544 1568 0
1542 -1544 1568 0
-1546 -1548 -1570 0
1546 1548 -1570 0
-1546 1548 1570 0
1546 -1548 1570 0
-1550 -1552 -1572 0
1550 1552 -1572 0
-1550 1552 1572 0
1550 -1552 1572 0
-1554 -1556 -1574 0
1554 1556 -1574 0
-1554 1556 1574 0
1554 -1556 1574 0
-1558 -1560 -1576 0
1558 1560 -1576 0
-1558 1560 1576 0
1558 -1560 1576 0
-1562 -1564 -1578 0
1562 1564 -1578 0
-1562 1564 1578 0
1562 -1564 1578 0
-1566 -1568 -1580 0
1566 1568 -1580 0
-1566 1568 1580 0
1566 -1568 1580 0
-1570 -1572 -1582 0
1570 1572 -1582 0
-1570 1572 1582 0
1570 -1572 1582 0
-1574 -1576 -1584 0
1574 1576 -1584 0
-1574 1576 1584 0
1574 -1576 1584 0
-1578 -1580 -1586 0
1578 1580 -1586 0
-1578 1580 1586 0
1578 -1580 1586 0
-1582 -1584 -1586 0
1582 1584 -1586 0
-1582 1584 1586 0
1582 -1584 1586 0
-1460 -1462 -1590 0
1460 1462 -1590 0
-1460 1462 1590 0
1460 -1462 1590 0
-1464 -1465 -1591 0
1464 1465 -1591 0
-1464 1465 1591 0
1464 -1465 1591 0
-1470 -1472 -1594 0
1470 1472 -1594 0
-1470 1472 1594 0
1470 -1472 1594 0
-1474 -1476 -1595 0
1474 1476 -1595 0
-1474 1476 1595 0
1474 -1476 1595 0
-1478 -1480 -1597 0
1478 1480 -1597 0
-1478 1480 1597 0
1478 -1480 1597 0
-1486 -1488 -1599 0
1486 1488 -1599 0
-1486 1488 1599 0
1486 -1488 1599 0
-1490 -1492 -1601 0
1490 1492 -1601 0
-1490 1492 1601 0
1490 -1492 1601 0
-1494 -1496 -1603 0
1494 1496 -1603 0
-1494 1496 1603 0
1494 -1496 1603 0
-1498 -1500 -1605 0
1498 1500 -1605 0
-1498 1500 1605 0
1498 -1500 1605 0
-1502 -1504 -1607 0
1502 1504 -1607 0
-1502 1504 1607 0
1502 -1504 1607 0
-1506 -1508 -1609 0
1506 1508 -1609 0
-1506 1508 1609 0
1506 -1508 1609 0
-1510 -1512 -1611 0
1510 1512 -1611 0
-1510 1512 1611 0
1510 -1512 1611 0
-1514 -1516 -1613 0
1514 1516 -1613 0
-1514 1516 1613 0
1514 -1516 1613 0
-1519 -1521 -1616 0
1519 1521 -1616 0
-1519 1521 1616 0
1519 -1521 1616 0
-1525 -1527 -1618 0
1525 1527 -1618 0
-1525 1527 1618 0
1525 -1527 1618 0
-1529 -1531 -1619 0
1529 1531 -1619 0
-1529 1531 1619 0
1529 -1531 1619 0
-1533 -1535 -1621 0
1533 1535 -1621 0
-1533 1535 1621 0
1533 -1535 1621 0
-1537 -1539 -1623 0
1537 1539 -1623 0
-1537 1539 1623 0
1537 -1539 1623 0
-1541 -1543 -1625 0
1541 1543 -1625 0
-1541 1543 1625 0
1541 -1543 1625 0
-1545 -1547 -1627 0
1545 1547 -1627 0
-1545 1547 1627 0
1545 -1547 1627 0
-1549 -1551 -1629 0
1549 1551 -1629 0
-1549 1551 1629 0
1549 -1551 1629 0
-1553 -1555 -1631 0
1553 1555 -1631 0
-1553 1555 1631 0
1553 -1555 1631 0
-1557 -1559 -1633 0
1557 1559 -1633 0
-1557 1559 1633 0
1557 -1559 1633 0
-1561 -1563 -1635 0
1561 1563 -1635 0
-1561 1563 1635 0
1561 -1563 1635 0
-1565 -1567 -1637 0
1565 1567 -1637 0
-1565 1567 1637 0
1565 -1567 1637 0
-1569 -1571 -1639 0
1569 1571 -1639 0
-1569 1571 1639 0
1569 -1571 1639 0
-1573 -1575 -1641 0
1573 1575 -1641 0
-1573 1575 1641 0
1573 -1575 1641 0
-1577 -1579 -1643 0
1577 1579 -1643 0
-1577 1579 1643 0
1577 -1579 1643 0
-1581 -1583 -1645 0
1581 1583 -1645 0
-1581 1583 1645 0
1581 -1583 1645 0
-1585 -1587 -1647 0
1585 1587 -1647 0
-1585 1587 1647 0
1585 -1587 1647 0
-1586 -1588 -1649 0
1586 1588 -1649 0
1586 -1588 1649 0
-1586 1588 1649 0
-1589 -1590 -1683 0
1589 1590 -1683 0
-1589 1590 1683 0
1589 -1590 1683 0
-1591 -1592 -1651 0
1591 1592 -1651 0
-1591 1592 1651 0
1591 -1592 1651 0
-1593 -1594 -1653 0
1593 1594 -1653 0
-1593 1594 1653 0
1593 -1594 1653 0
-1595 -1597 -1685 0
1595 1597 -1685 0
-1595 1597 1685 0
1595 -1597 1685 0
-1599 -1601 -1655 0
1599 1601 -1655 0
-1599 1601 1655 0
1599 -1601 1655 0
-1603 -1605 -1657 0
1603 1605 -1657 0
-1603 1605 1657 0
1603 -1605 1657 0
-1607 -1609 -1659 0
1607 1609 -1659 0
-1607 1609 1659 0
1607 -1609 1659 0
-1611 -1613 -1661 0
1611 1613 -1661 0
-1611 1613 1661 0
1611 -1613 1661 0
-1615 -1616 -1663 0
1615 1616 -1663 0
-1615 1616 1663 0
1615 -1616 1663 0
-1617 -1618 -1665 0
1617 1618 -1665 0
-1617 1618 1665 0
1617 -1618 1665 0
-1619 -1621 -1667 0
1619 1621 -1667 0
-1619 1621 1667 0
1619 -1621 1667 0
-1623 -1625 -1669 0
1623 1625 -1669 0
-1623 1625 1669 0
1623 -1625 1669 0
-1627 -1629 -1671 0
1627 1629 -1671 0
-1627 1629 1671 0
1627 -1629 1671 0
-1631 -1633 -1673 0
1631 1633 -1673 0
-1631 1633 1673 0
1631 -1633 1673 0
-1635 -1637 -1675 0
1635 1637 -1675 0
-1635 1637 1675 0
1635 -1637 1675 0
-1639 -1641 -1677 0
1639 1641 -1677 0
-1639 1641 1677 0
1639 -1641 1677 0
-1643 -1645 -1679 0
1643 1645 -1679 0
-1643 1645 1679 0
1643 -1645 1679 0
-1647 -1649 -1681 0
1647 1649 -1681 0
-1647 1649 1681 0
1647 -1649 1681 0
-1651 -1653 -1684 0
1651 1653 -1684 0
-1651 1653 1684 0
1651 -1653 1684 0
-1655 -1657 -1686 0
1655 1657 -1686 0
-1655 1657 1686 0
1655 -1657 1686 0
-1659 -1661 -1687 0
1659 1661 -1687 0
-1659 1661 1687 0
1659 -1661 1687 0
-1663 -1665 -1689 0
1663 1665 -1689 0
-1663 1665 1689 0
1663 -1665 1689 0
-1667 -1669 -1691 0
1667 1669 -1691 0
-1667 1669 1691 0
1667 -1669 1691 0
-1671 -1673 -1693 0
1671 1673 -1693 0
-1671 1673 1693 0
1671 -1673 1693 0
-1675 -1677 -1695 0
1675 1677 -1695 0
-1675 1677 1695 0
1675 -1677 1695 0
-1679 -1681 -1697 0
1679 1681 -1697 0
-1679 1681 1697 0
1679 -1681 1697 0
-1683 -1684 -1699 0
1683 1684 -1699 0
-1683 1684 1699 0
1683 -1684 1699 0
-1685 -1686 -1701 0
1685 1686 -1701 0
-1685 1686 1701 0
1685 -1686 1701 0
-1687 -1689 -1703 0
1687 1689 -1703 0
-1687 1689 1703 0
1687 -1689 1703 0
-1691 -1693 -1705 0
1691 1693 -1705 0
-1691 1693 1705 0
1691 -1693 1705 0
-1695 -1697 -1707 0
1695 1697 -1707 0
-1695 1697 1707 0
1695 -1697 1707 0
-1699 -1701 -1709 0
1699 1701 -1709 0
-1699 1701 1709 0
1699 -1701 1709 0
-1703 -1705 -1711 0
1703 1705 -1711 0
-1703 1705 1711 0
1703 -1705 1711 0
-1707 -1709 -1711 0
1707 1709 -1711 0
-1707 1709 1711 0
1707 -1709 1711 0
-1596 -1598 -1717 0
1596 1598 -1717 0
-1596 1598 1717 0
1596 -1598 1717 0
-1600 -1602 -1778 0
1600 1602 -1778 0
-1600 1602 1778 0
1600 -1602 1778 0
-1604 -1606 -1719 0
1604 1606 -1719 0
-1604 1606 1719 0
1604 -1606 1719 0
-1608 -1610 -1721 0
1608 1610 -1721 0
-1608 1610 1721 0
1608 -1610 1721 0
-1612 -1614 -1723 0
1612 1614 -1723 0
-1612 1614 1723 0
1612 -1614 1723 0
-1620 -1622 -1727 0
1620 1622 -1727 0
-1620 1622 1727 0
1620 -1622 1727 0
-1624 -1626 -1729 0
1624 1626 -1729 0
-1624 1626 1729 0
1624 -1626 1729 0
-1628 -1630 -1731 0
1628 1630 -1731 0
-1628 1630 1731 0
1628 -1630 1731 0
-1632 -1634 -1733 0
1632 1634 -1733 0
-1632 1634 1733 0
1632 -1634 1733 0
-1636 -1638 -1735 0
1636 1638 -1735 0
-1636 1638 1735 0
1636 -1638 1735 0
-1640 -1642 -1737 0
1640 1642 -1737 0
-1640 1642 1737 0
1640 -1642 1737 0
-1644 -1646 -1739 0
1644 1646 -1739 0
-1644 1646 1739 0
1644 -1646 1739 0
-1648 -1650 -1741 0
1648 1650 -1741 0
-1648 1650 1741 0
1648 -1650 1741 0
-1652 -1654 -1744 0
1652 1654 -1744 0
-1652 1654 1744 0
1652 -1654 1744 0
-1656 -1658 -1746 0
1656 1658 -1746 0
-1656 1658 1746 0
1656 -1658 1746 0
-1660 -1662 -1747 0
1660 1662 -1747 0
-1660 1662 1747 0
1660 -1662 1747 0
-1664 -1666 -1749 0
1664 1666 -1749 0
-1664 1666 1749 0
1664 -1666 1749 0
-1668 -1670 -1751 0
1668 1670 -1751 0
-1668 1670 1751 0
1668 -1670 1751 0
-1672 -1674 -1753 0
1672 1674 -1753 0
-1672 1674 1753 0
1672 -1674 1753 0
-1676 -1678 -1755 0
1676 1678 -1755 0
-1676 1678 1755 0
1676 -1678 1755 0
-1680 -1682 -1757 0
1680 1682 -1757 0
-1680 1682 1757 0
1680 -1682 1757 0
-1688 -1690 -1761 0
1688 1690 -1761 0
-1688 1690 1761 0
1688 -1690 1761 0
-1692 -1694 -1763 0
1692 1694 -1763 0
-1692 1694 1763 0
1692 -1694 1763 0
-1696 -1698 -1765 0
1696 1698 -1765 0
-1696 1698 1765 0
1696 -1698 1765 0
-1700 -1702 -1767 0
1700 1702 -1767 0
-1700 1702 1767 0
1700 -1702 1767 0
-1704 -1706 -1769 0
1704 1706 -1769 0
-1704 1706 1769 0
1704 -1706 1769 0
-1708 -1710 -1771 0
1708 1710 -1771 0
-1708 1710 1771 0
1708 -1710 1771 0
-1712 -1713 -1773 0
1712 1713 -1773 0
-1712 1713 1773 0
1712 -1713 1773 0
-1714 -1715 -1774 0
1714 1715 -1774 0
-1714 1715 1774 0
1714 -1715 1774 0
-1716 -1717 -1776 0
1716 1717 -1776 0
-1716 1717 1776 0
1716 -1717 1776 0
-1719 -1721 -1779 0
1719 1721 -1779 0
-1719 1721 1779 0
1719 -1721 1779 0
-1723 -1725 -1780 0
1723 1725 -1780 0
-1723 1725 1780 0
1723 -1725 1780 0
-1726 -1727 -1782 0
1726 1727 -1782 0
-1726 1727 1782 0
1726 -1727 1782 0
-1729 -1731 -1784 0
1729 1731 -1784 0
-1729 1731 1784 0
1729 -1731 1784 0
-1733 -1735 -1786 0
1733 1735 -1786 0
-1733 1735 1786 0
1733 -1735 1786 0
-1737 -1739 -1788 0
1737 1739 -1788 0
-1737 1739 1788 0
1737 -1739 1788 0
-1741 -1743 -1790 0
1741 1743 -1790 0
-1741 1743 1790 0
1741 -1743 1790 0
-1744 -1745 -1792 0
1744 1745 -1792 0
-1744 1745 1792 0
1744 -1745 1792 0
-1746 -1747 -1794 0
1746 1747 -1794 0
-1746 1747 1794 0
1746 -1747 1794 0
-1749 -1751 -1796 0
1749 1751 -1796 0
-1749 1751 1796 0
1749 -1751 1796 0
-1753 -1755 -1798 0
1753 1755 -1798 0
-1753 1755 1798 0
1753 -1755 1798 0
-1757 -1759 -1800 0
1757 1759 -1800 0
-1757 1759 1800 0
1757 -1759 1800 0
-1760 -1761 -1802 0
1760 1761 -1802 0
-1760 1761 1802 0
1760 -1761 1802 0
-1763 -1765 -1804 0
1763 1765 -1804 0
-1763 1765 1804 0
1763 -1765 1804 0
-1767 -1769 -1806 0
1767 1769 -1806 0
-1767 1769 1806 0
1767 -1769 1806 0
-1771 -1773 -1808 0
1771 1773 -1808 0
-1771 1773 1808 0
1771 -1773 1808 0
-1711 -1774 -1810 0
1711 1774 -1810 0
-1711 1774 1810 0
1711 -1774 1810 0
-1776 -1778 -1812 0
1776 1778 -1812 0
-1776 1778 1812 0
1776 -1778 1812 0
-1779 -1780 -1814 0
1779 1780 -1814 0
-1779 1780 1814 0
1779 -1780 1814 0
-1782 -1784 -1816 0
1782 1784 -1816 0
-1782 1784 1816 0
1782 -1784 1816 0
-1786 -1788 -1818 0
1786 1788 -1818 0
-1786 1788 1818 0
1786 -1788 1818 0
-1790 -1792 -1820 0
1790 1792 -1820 0
-1790 1792 1820 0
1790 -1792 1820 0
-1794 -1796 -1822 0
1794 1796 -1822 0
-1794 1796 1822 0
1794 -1796 1822 0
-1798 -1800 -1824 0
1798 1800 -1824 0
-1798 1800 1824 0
1798 -1800 1824 0
-1802 -1804 -1826 0
1802 1804 -1826 0
-1802 1804 1826 0
1802 -1804 1826 0
-1806 -1808 -1828 0
1806 1808 -1828 0
-1806 1808 1828 0
1806 -1808 1828 0
-1810 -1812 -1830 0
1810 1812 -1830 0
-1810 1812 1830 0
1810 -1812 1830 0
-1814 -1816 -1832 0
1814 1816 -1832 0
-1814 1816 1832 0
1814 -1816 1832 0
-1818 -1820 -1834 0
1818 1820 -1834 0
-1818 1820 1834 0
1818 -1820 1834 0
-1822 -1824 -1836 0
1822 1824 -1836 0
-1822 1824 1836 0
1822 -1824 1836 0
-1826 -1828 -1838 0
1826 1828 -1838 0
-1826 1828 1838 0
1826 -1828 1838 0
-1830 -1832 -1840 0
1830 1832 -1840 0
-1830 1832 1840 0
1830 -1832 1840 0
-1834 -1836 -1842 0
1834 1836 -1842 0
-1834 1836 1842 0
1834 -1836 1842 0
-1838 -1840 -1842 0
1838 1840 -1842 0
-1838 1840 1842 0
1838 -1840 1842 0
-1718 -1720 -1846 0
1718 1720 -1846 0
-1718 1720 1846 0
1718 -1720 1846 0
-1722 -1724 -1902 0
1722 1724 -1902 0
-1722 1724 1902 0
1722 -1724 1902 0
-1728 -1730 -1847 0
1728 1730 -1847 0
-1728 1730 1847 0
1728 -1730 1847 0
-1732 -1734 -1849 0
1732 1734 -1849 0
-1732 1734 1849 0
1732 -1734 1849 0
-1736 -1738 -1851 0
1736 1738 -1851 0
-1736 1738 1851 0
1736 -1738 1851 0
-1740 -1742 -1853 0
1740 1742 -1853 0
-1740 1742 1853 0
1740 -1742 1853 0
-1748 -1750 -1857 0
1748 1750 -1857 0
-1748 1750 1857 0
1748 -1750 1857 0
-1752 -1754 -1859 0
1752 1754 -1859 0
-1752 1754 1859 0
1752 -1754 1859 0
-1756 -1758 -1911 0
1756 1758 -1911 0
-1756 1758 1911 0
1756 -1758 1911 0
-1762 -1764 -1861 0
1762 1764 -1861 0
-1762 1764 1861 0
1762 -1764 1861 0
-1766 -1768 -1863 0
1766 1768 -1863 0
-1766 1768 1863 0
1766 -1768 1863 0
-1770 -1772 -1865 0
1770 1772 -1865 0
-1770 1772 1865 0
1770 -1772 1865 0
-1775 -1777 -1867 0
1775 1777 -1867 0
-1775 1777 1867 0
1775 -1777 1867 0
-1781 -1783 -1869 0
1781 1783 -1869 0
-1781 1783 1869 0
1781 -1783 1869 0
-1785 -1787 -1871 0
1785 1787 -1871 0
-1785 1787 1871 0
1785 -1787 1871 0
-1789 -1791 -1873 0
1789 1791 -1873 0
-1789 1791 1873 0
1789 -1791 1873 0
-1793 -1795 -1875 0
1793 1795 -1875 0
-1793 1795 1875 0
1793 -1795 1875 0
-1797 -1799 -1877 0
1797 1799 -1877 0
-1797 1799 1877 0
1797 -1799 1877 0
-1801 -1803 -1879 0
1801 1803 -1879 0
-1801 1803 1879 0
1801 -1803 1879 0
-1805 -1807 -1881 0
1805 1807 -1881 0
-1805 1807 1881 0
1805 -1807 1881 0
-1809 -1811 -1883 0
1809 1811 -1883 0
-1809 1811 1883 0
1809 -1811 1883 0
-1813 -1815 -1885 0
1813 1815 -1885 0
-1813 1815 1885 0
1813 -1815 1885 0
-1817 -1819 -1887 0
1817 1819 -1887 0
-1817 1819 1887 0
1817 -1819 1887 0
-1821 -1823 -1889 0
1821 1823 -1889 0
-1821 1823 1889 0
1821 -1823 1889 0
-1825 -1827 -1891 0
1825 1827 -1891 0
-1825 1827 1891 0
1825 -1827 1891 0
-1829 -1831 -1893 0
1829 1831 -1893 0
-1829 1831 1893 0
1829 -1831 1893 0
-1833 -1835 -1895 0
1833 1835 -1895 0
-1833 1835 1895 0
1833 -1835 1895 0
-1837 -1839 -1897 0
1837 1839 -1897 0
-1837 1839 1897 0
1837 -1839 1897 0
-1841 -1843 -1899 0
1841 1843 -1899 0
-1841 1843 1899 0
1841 -1843 1899 0
-1842 -1844 -1933 0
1842 1844 -1933 0
1842 -1844 1933 0
-1842 1844 1933 0
-1845 -1846 -1901 0
1845 1846 -1901 0
-1845 1846 1901 0
1845 -1846 1901 0
-1847 -1849 -1903 0
1847 1849 -1903 0
-1847 1849 1903 0
1847 -1849 1903 0
-1851 -1853 -1905 0
1851 1853 -1905 0
-1851 1853 1905 0
1851 -1853 1905 0
-1855 -1856 -1907 0
1855 1856 -1907 0
-1855 1856 1907 0
1855 -1856 1907 0
-1857 -1859 -1909 0
1857 1859 -1909 0
-1857 1859 1909 0
1857 -1859 1909 0
-1861 -1863 -1912 0
1861 1863 -1912 0
-1861 1863 1912 0
1861 -1863 1912 0
-1865 -1866 -1913 0
1865 1866 -1913 0
-1865 1866 1913 0
1865 -1866 1913 0
-1867 -1868 -1915 0
1867 1868 -1915 0
-1867 1868 1915 0
1867 -1868 1915 0
-1869 -1871 -1917 0
1869 1871 -1917 0
-1869 1871 1917 0
1869 -1871 1917 0
-1873 -1875 -1919 0
1873 1875 -1919 0
-1873 1875 1919 0
1873 -1875 1919 0
-1877 -1879 -1921 0
1877 1879 -1921 0
-1877 1879 1921 0
1877 -1879 1921 0
-1881 -1883 -1923 0
1881 1883 -1923 0
-1881 1883 1923 0
1881 -1883 1923 0
-1885 -1887 -1925 0
1885 1887 -1925 0
-1885 1887 1925 0
1885 -1887 1925 0
-1889 -1891 -1927 0
1889 1891 -1927 0
-1889 1891 1927 0
1889 -1891 1927 0
-1893 -1895 -1929 0
1893 1895 -1929 0
-1893 1895 1929 0
1893 -1895 1929 0
-1897 -1899 -1931 0
1897 1899 -1931 0
-1897 1899 1931 0
1897 -1899 1931 0
-1901 -1902 -1934 0
1901 1902 -1934 0
-1901 1902 1934 0
1901 -1902 1934 0
-1903 -1905 -1935 0
1903 1905 -1935 0
-1903 1905 1935 0
1903 -1905 1935 0
-1907 -1909 -1937 0
1907 1909 -1937 0
-1907 1909 1937 0
1907 -1909 1937 0
-1911 -1912 -1939 0
1911 1912 -1939 0
-1911 1912 1939 0
1911 -1912 1939 0
-1913 -1915 -1941 0
1913 1915 -1941 0
-1913 1915 1941 0
1913 -1915 1941 0
-1917 -1919 -1943 0
1917 1919 -1943 0
-1917 1919 1943 0
1917 -1919 1943 0
-1921 -1923 -1945 0
1921 1923 -1945 0
-1921 1923 1945 0
1921 -1923 1945 0
-1925 -1927 -1947 0
1925 1927 -1947 0
-1925 1927 1947 0
1925 -1927 1947 0
-1929 -1931 -1949 0
1929 1931 -1949 0
-1929 1931 1949 0
1929 -1931 1949 0
-1933 -1934 -1951 0
1933 1934 -1951 0
-1933 1934 1951 0
1933 -1934 1951 0
-1935 -1937 -1953 0
1935 1937 -1953 0
-1935 1937 1953 0
1935 -1937 1953 0
-1939 -1941 -1955 0
1939 1941 -1955 0
-1939 1941 1955 0
1939 -1941 1955 0
-1943 -1945 -1957 0
1943 1945 -1957 0
-1943 1945 1957 0
1943 -1945 1957 0
-1947 -1949 -1959 0
1947 1949 -1959 0
-1947 1949 1959 0
1947 -1949 1959 0
-1951 -1953 -1961 0
1951 1953 -1961 0
-1951 1953 1961 0
1951 -1953 1961 0
-1955 -1957 -1963 0
1955 1957 -1963 0
-1955 1957 1963 0
1955 -1957 1963 0
-1959 -1961 -1963 0
1959 1961 -1963 0
-1959 1961 1963 0
1959 -1961 1963 0
-1848 -1850 -1968 0
1848 1850 -1968 0
-1848 1850 1968 0
1848 -1850 1968 0
-1852 -1854 -1969 0
1852 1854 -1969 0
-1852 1854 1969 0
1852 -1854 1969 0
-1858 -1860 -2021 0
1858 1860 -2021 0
-1858 1860 2021 0
1858 -1860 2021 0
-1862 -1864 -1971 0
1862 1864 -1971 0
-1862 1864 1971 0
1862 -1864 1971 0
-1870 -1872 -1974 0
1870 1872 -1974 0
-1870 1872 1974 0
1870 -1872 1974 0
-1874 -1876 -1975 0
1874 1876 -1975 0
-1874 1876 1975 0
1874 -1876 1975 0
-1878 -1880 -1977 0
1878 1880 -1977 0
-1878 1880 1977 0
1878 -1880 1977 0
-1882 -1884 -1979 0
1882 1884 -1979 0
-1882 1884 1979 0
1882 -1884 1979 0
-1886 -1888 -1981 0
1886 1888 -1981 0
-1886 1888 1981 0
1886 -1888 1981 0
-1890 -1892 -1983 0
1890 1892 -1983 0
-1890 1892 1983 0
1890 -1892 1983 0
-1894 -1896 -1985 0
1894 1896 -1985 0
-1894 1896 1985 0
1894 -1896 1985 0
-1898 -1900 -1987 0
1898 1900 -1987 0
-1898 1900 1987 0
1898 -1900 1987 0
-1904 -1906 -1990 0
1904 1906 -1990 0
-1904 1906 1990 0
1904 -1906 1990 0
-1908 -1910 -1991 0
1908 1910 -1991 0
-1908 1910 1991 0
1908 -1910 1991 0
-1914 -1916 -1993 0
1914 1916 -1993 0
-1914 1916 1993 0
1914 -1916 1993 0
-1918 -1920 -1995 0
1918 1920 -1995 0
-1918 1920 1995 0
1918 -1920 1995 0
-1922 -1924 -1997 0
1922 1924 -1997 0
-1922 1924 1997 0
1922 -1924 1997 0
-1926 -1928 -1999 0
1926 1928 -1999 0
-1926 1928 1999 0
1926 -1928 1999 0
-1930 -1932 -2001 0
1930 1932 -2001 0
-1930 1932 2001 0
1930 -1932 2001 0
-1936 -1938 -2003 0
1936 1938 -2003 0
-1936 1938 2003 0
1936 -1938 2003 0
-1940 -1942 -2005 0
1940 1942 -2005 0
-1940 1942 2005 0
1940 -1942 2005 0
-1944 -1946 -2007 0
1944 1946 -2007 0
-1944 1946 2007 0
1944 -1946 2007 0
-1948 -1950 -2009 0
1948 1950 -2009 0
-1948 1950 2009 0
1948 -1950 2009 0
-1952 -1954 -2011 0
1952 1954 -2011 0
-1952 1954 2011 0
1952 -1954 2011 0
-1956 -1958 -2013 0
1956 1958 -2013 0
-1956 1958 2013 0
1956 -1958 2013 0
-1960 -1962 -2015 0
1960 1962 -2015 0
-1960 1962 2015 0
1960 -1962 2015 0
-1964 -1965 -2017 0
1964 1965 -2017 0
-1964 1965 2017 0
1964 -1965 2017 0
-1966 -1967 -2019 0
1966 1967 -2019 0
-1966 1967 2019 0
1966 -1967 2019 0
-1968 -1969 -2020 0
1968 1969 -2020 0
-1968 1969 2020 0
1968 -1969 2020 0
-1970 -1971 -2022 0
1970 1971 -2022 0
-1970 1971 2022 0
1970 -1971 2022 0
-1972 -1973 -2024 0
1972 1973 -2024 0
-1972 1973 2024 0
1972 -1973 2024 0
-1974 -1975 -2026 0
1974 1975 -2026 0
-1974 1975 2026 0
1974 -1975 2026 0
-1977 -1979 -2028 0
1977 1979 -2028 0
-1977 1979 2028 0
1977 -1979 2028 0
-1981 -1983 -2030 0
1981 1983 -2030 0
-1981 1983 2030 0
1981 -1983 2030 0
-1985 -1987 -2032 0
1985 1987 -2032 0
-1985 1987 2032 0
1985 -1987 2032 0
-1988 -1989 -2034 0
1988 1989 -2034 0
-1988 1989 2034 0
1988 -1989 2034 0
-1990 -1991 -2036 0
1990 1991 -2036 0
-1990 1991 2036 0
1990 -1991 2036 0
-1992 -1993 -2038 0
1992 1993 -2038 0
-1992 1993 2038 0
1992 -1993 2038 0
-1995 -1997 -2040 0
1995 1997 -2040 0
-1995 1997 2040 0
1995 -1997 2040 0
-1999 -2001 -2042 0
1999 2001 -2042 0
-1999 2001 2042 0
1999 -2001 2042 0
-2002 -2003 -2044 0
2002 2003 -2044 0
-2002 2003 2044 0
2002 -2003 2044 0
-2005 -2007 -2046 0
2005 2007 -2046 0
-2005 2007 2046 0
2005 -2007 2046 0
-2009 -2011 -2048 0
2009 2011 -2048 0
-2009 2011 2048 0
2009 -2011 2048 0
-2013 -2015 -2050 0
2013 2015 -2050 0
-2013 2015 2050 0
2013 -2015 2050 0
-1963 -2017 -2052 0
1963 2017 -2052 0
1963 -2017 2052 0
-1963 2017 2052 0
-2019 -2020 -2054 0
2019 2020 -2054 0
-2019 2020 2054 0
2019 -2020 2054 0
-2021 -2022 -2056 0
2021 2022 -2056 0
-2021 2022 2056 0
2021 -2022 2056 0
-2024 -2026 -2058 0
2024 2026 -2058 0
-2024 2026 2058 0
2024 -2026 2058 0
-2028 -2030 -2060 0
2028 2030 -2060 0
-2028 2030 2060 0
2028 -2030 2060 0
-2032 -2034 -2062 0
2032 2034 -2062 0
-2032 2034 2062 0
2032 -2034 2062 0
-2036 -2038 -2064 0
2036 2038 -2064 0
-2036 2038 2064 0
2036 -2038 2064 0
-2040 -2042 -2066 0
2040 2042 -2066 0
-2040 2042 2066 0
2040 -2042 2066 0
-2044 -2046 -2068 0
2044 2046 -2068 0
-2044 2046 2068 0
2044 -2046 2068 0
-2048 -2050 -2070 0
2048 2050 -2070 0
-2048 2050 2070 0
2048 -2050 2070 0
-2052 -2054 -2072 0
2052 2054 -2072 0
-2052 2054 2072 0
2052 -2054 2072 0
-2056 -2058 -2074 0
2056 2058 -2074 0
-2056 2058 2074 0
2056 -2058 2074 0
-2060 -2062 -2076 0
2060 2062 -2076 0
-2060 2062 2076 0
2060 -2062 2076 0
-2064 -2066 -2078 0
2064 2066 -2078 0
-2064 2066 2078 0
2064 -2066 2078 0
-2068 -2070 -2080 0
2068 2070 -2080 0
-2068 2070 2080 0
2068 -2070 2080 0
-2072 -2074 -2082 0
2072 2074 -2082 0
-2072 2074 2082 0
2072 -2074 2082 0
-2076 -2078 -2084 0
2076 2078 -2084 0
-2076 2078 2084 0
2076 -2078 2084 0
-2080 -2082 -2084 0
2080 2082 -2084 0
-2080 2082 2084 0
2080 -2082 2084 0
-1976 -1978 -2092 0
1976 1978 -2092 0
-1976 1978 2092 0
1976 -1978 2092 0
-1980 -1982 -2094 0
1980 1982 -2094 0
-1980 1982 2094 0
1980 -1982 2094 0
-1984 -1986 -2096 0
1984 1986 -2096 0
-1984 1986 2096 0
1984 -1986 2096 0
-1994 -1996 -2100 0
1994 1996 -2100 0
-1994 1996 2100 0
1994 -1996 2100 0
-1998 -2000 -2102 0
1998 2000 -2102 0
-1998 2000 2102 0
1998 -2000 2102 0
-2004 -2006 -2105 0
2004 2006 -2105 0
-2004 2006 2105 0
2004 -2006 2105 0
-2008 -2010 -2106 0
2008 2010 -2106 0
-2008 2010 2106 0
2008 -2010 2106 0
-2012 -2014 -2108 0
2012 2014 -2108 0
-2012 2014 2108 0
2012 -2014 2108 0
-2016 -2018 -2110 0
2016 2018 -2110 0
-2016 2018 2110 0
2016 -2018 2110 0
-2023 -2025 -2113 0
2023 2025 -2113 0
-2023 2025 2113 0
2023 -2025 2113 0
-2027 -2029 -2114 0
2027 2029 -2114 0
-2027 2029 2114 0
2027 -2029 2114 0
-2031 -2033 -2116 0
2031 2033 -2116 0
-2031 2033 2116 0
2031 -2033 2116 0
-2035 -2037 -2118 0
2035 2037 -2118 0
-2035 2037 2118 0
2035 -2037 2118 0
-2039 -2041 -2120 0
2039 2041 -2120 0
-2039 2041 2120 0
2039 -2041 2120 0
-2043 -2045 -2122 0
2043 2045 -2122 0
-2043 2045 2122 0
2043 -2045 2122 0
-2047 -2049 -2124 0
2047 2049 -2124 0
-2047 2049 2124 0
2047 -2049 2124 0
-2051 -2053 -2126 0
2051 2053 -2126 0
-2051 2053 2126 0
2051 -2053 2126 0
-2055 -2057 -2128 0
2055 2057 -2128 0
-2055 2057 2128 0
2055 -2057 2128 0
-2059 -2061 -2130 0
2059 2061 -2130 0
-2059 2061 2130 0
2059 -2061 2130 0
-2063 -2065 -2132 0
2063 2065 -2132 0
-2063 2065 2132 0
2063 -2065 2132 0
-2067 -2069 -2134 0
2067 2069 -2134 0
-2067 2069 2134 0
2067 -2069 2134 0
-2071 -2073 -2136 0
2071 2073 -2136 0
-2071 2073 2136 0
2071 -2073 2136 0
-2075 -2077 -2138 0
2075 2077 -2138 0
-2075 2077 2138 0
2075 -2077 2138 0
-2079 -2081 -2140 0
2079 2081 -2140 0
-2079 2081 2140 0
2079 -2081 2140 0
-2083 -2085 -2142 0
2083 2085 -2142 0
-2083 2085 2142 0
2083 -2085 2142 0
-2084 -2086 -2144 0
2084 2086 -2144 0
2084 -2086 2144 0
-2084 2086 2144 0
-2088 -2089 -2146 0
2088 2089 -2146 0
-2088 2089 2146 0
2088 -2089 2146 0
-2090 -2091 -2147 0
2090 2091 -2147 0
-2090 2091 2147 0
2090 -2091 2147 0
-2092 -2094 -2149 0
2092 2094 -2149 0
-2092 2094 2149 0
2092 -2094 2149 0
-2096 -2097 -2151 0
2096 2097 -2151 0
-2096 2097 2151 0
2096 -2097 2151 0
-2098 -2099 -2153 0
2098 2099 -2153 0
-2098 2099 2153 0
2098 -2099 2153 0
-2100 -2102 -2155 0
2100 2102 -2155 0
-2100 2102 2155 0
2100 -2102 2155 0
-2104 -2105 -2157 0
2104 2105 -2157 0
-2104 2105 2157 0
2104 -2105 2157 0
-2106 -2108 -2159 0
2106 2108 -2159 0
-2106 2108 2159 0
2106 -2108 2159 0
-2110 -2111 -2161 0
2110 2111 -2161 0
-2110 2111 2161 0
2110 -2111 2161 0
-2112 -2113 -2163 0
2112 2113 -2163 0
-2112 2113 2163 0
2112 -2113 2163 0
-2114 -2116 -2165 0
2114 2116 -2165 0
-2114 2116 2165 0
2114 -2116 2165 0
-2118 -2120 -2167 0
2118 2120 -2167 0
-2118 2120 2167 0
2118 -2120 2167 0
-2122 -2124 -2169 0
2122 2124 -2169 0
-2122 2124 2169 0
2122 -2124 2169 0
-2126 -2128 -2171 0
2126 2128 -2171 0
-2126 2128 2171 0
2126 -2128 2171 0
-2130 -2132 -2173 0
2130 2132 -2173 0
-2130 2132 2173 0
2130 -2132 2173 0
-2134 -2136 -2175 0
2134 2136 -2175 0
-2134 2136 2175 0
2134 -2136 2175 0
-2138 -2140 -2177 0
2138 2140 -2177 0
-2138 2140 2177 0
2138 -2140 2177 0
-2142 -2144 -2179 0
2142 2144 -2179 0
-2142 2144 2179 0
2142 -2144 2179 0
-2087 -2146 -2181 0
2087 2146 -2181 0
-2087 2146 2181 0
2087 -2146 2181 0
-2147 -2149 -2183 0
2147 2149 -2183 0
-2147 2149 2183 0
2147 -2149 2183 0
-2151 -2153 -2185 0
2151 2153 -2185 0
-2151 2153 2185 0
2151 -2153 2185 0
-2155 -2157 -2187 0
2155 2157 -2187 0
-2155 2157 2187 0
2155 -2157 2187 0
-2159 -2161 -2189 0
2159 2161 -2189 0
-2159 2161 2189 0
2159 -2161 2189 0
-2163 -2165 -2191 0
2163 2165 -2191 0
-2163 2165 2191 0
2163 -2165 2191 0
-2167 -2169 -2193 0
2167 2169 -2193 0
-2167 2169 2193 0
2167 -2169 2193 0
-2171 -2173 -2195 0
2171 2173 -2195 0
-2171 2173 2195 0
2171 -2173 2195 0
-2175 -2177 -2197 0
2175 2177 -2197 0
-2175 2177 2197 0
2175 -2177 2197 0
-2179 -2181 -2199 0
2179 2181 -2199 0
-2179 2181 2199 0
2179 -2181 2199 0
-2183 -2185 -2201 0
2183 2185 -2201 0
-2183 2185 2201 0
2183 -2185 2201 0
-2187 -2189 -2203 0
2187 2189 -2203 0
-2187 2189 2203 0
2187 -2189 2203 0
-2191 -2193 -2205 0
2191 2193 -2205 0
-2191 2193 2205 0
2191 -2193 2205 0
-2195 -2197 -2207 0
2195 2197 -2207 0
-2195 2197 2207 0
2195 -2197 2207 0
-2199 -2201 -2209 0
2199 2201 -2209 0
-2199 2201 2209 0
2199 -2201 2209 0
-2203 -2205 -2211 0
2203 2205 -2211 0
-2203 2205 2211 0
2203 -2205 2211 0
-2207 -2209 -2211 0
2207 2209 -2211 0
-2207 2209 2211 0
2207 -2209 2211 0
-2093 -2095 -2214 0
2093 2095 -2214 0
-2093 2095 2214 0
2093 -2095 2214 0
-2101 -2103 -2269 0
2101 2103 -2269 0
-2101 2103 2269 0
2101 -2103 2269 0
-2107 -2109 -2217 0
2107 2109 -2217 0
-2107 2109 2217 0
2107 -2109 2217 0
-2115 -2117 -2220 0
2115 2117 -2220 0
-2115 2117 2220 0
2115 -2117 2220 0
-2119 -2121 -2221 0
2119 2121 -2221 0
-2119 2121 2221 0
2119 -2121 2221 0
-2123 -2125 -2223 0
2123 2125 -2223 0
-2123 2125 2223 0
2123 -2125 2223 0
-2127 -2129 -2225 0
2127 2129 -2225 0
-2127 2129 2225 0
2127 -2129 2225 0
-2131 -2133 -2227 0
2131 2133 -2227 0
-2131 2133 2227 0
2131 -2133 2227 0
-2135 -2137 -2229 0
2135 2137 -2229 0
-2135 2137 2229 0
2135 -2137 2229 0
-2139 -2141 -2231 0
2139 2141 -2231 0
-2139 2141 2231 0
2139 -2141 2231 0
-2143 -2145 -2233 0
2143 2145 -2233 0
-2143 2145 2233 0
2143 -2145 2233 0
-2148 -2150 -2235 0
2148 2150 -2235 0
-2148 2150 2235 0
2148 -2150 2235 0
-2152 -2154 -2237 0
2152 2154 -2237 0
-2152 2154 2237 0
2152 -2154 2237 0
-2156 -2158 -2239 0
2156 2158 -2239 0
-2156 2158 2239 0
2156 -2158 2239 0
-2160 -2162 -2241 0
2160 2162 -2241 0
-2160 2162 2241 0
2160 -2162 2241 0
-2164 -2166 -2243 0
2164 2166 -2243 0
-2164 2166 2243 0
2164 -2166 2243 0
-2168 -2170 -2245 0
2168 2170 -2245 0
-2168 2170 2245 0
2168 -2170 2245 0
-2172 -2174 -2247 0
2172 2174 -2247 0
-2172 2174 2247 0
2172 -2174 2247 0
-2176 -2178 -2249 0
2176 2178 -2249 0
-2176 2178 2249 0
2176 -2178 2249 0
-2180 -2182 -2251 0
2180 2182 -2251 0
-2180 2182 2251 0
2180 -2182 2251 0
-2184 -2186 -2253 0
2184 2186 -2253 0
-2184 2186 2253 0
2184 -2186 2253 0
-2188 -2190 -2255 0
2188 2190 -2255 0
-2188 2190 2255 0
2188 -2190 2255 0
-2192 -2194 -2257 0
2192 2194 -2257 0
-2192 2194 2257 0
2192 -2194 2257 0
-2196 -2198 -2259 0
2196 2198 -2259 0
-2196 2198 2259 0
2196 -2198 2259 0
-2200 -2202 -2261 0
2200 2202 -2261 0
-2200 2202 2261 0
2200 -2202 2261 0
-2204 -2206 -2263 0
2204 2206 -2263 0
-2204 2206 2263 0
2204 -2206 2263 0
-2208 -2210 -2265 0
2208 2210 -2265 0
-2208 2210 2265 0
2208 -2210 2265 0
-2212 -2213 -2267 0
2212 2213 -2267 0
-2212 2213 2267 0
2212 -2213 2267 0
-2214 -2215 -2268 0
2214 2215 -2268 0
-2214 2215 2268 0
2214 -2215 2268 0
-2216 -2217 -2270 0
2216 2217 -2270 0
-2216 2217 2270 0
2216 -2217 2270 0
-2218 -2219 -2271 0
2218 2219 -2271 0
-2218 2219 2271 0
2218 -2219 2271 0
-2220 -2221 -2273 0
2220 2221 -2273 0
-2220 2221 2273 0
2220 -2221 2273 0
-2223 -2225 -2275 0
2223 2225 -2275 0
-2223 2225 2275 0
2223 -2225 2275 0
-2227 -2229 -2277 0
2227 2229 -2277 0
-2227 2229 2277 0
2227 -2229 2277 0
-2231 -2233 -2279 0
2231 2233 -2279 0
-2231 2233 2279 0
2231 -2233 2279 0
-2234 -2235 -2281 0
2234 2235 -2281 0
-2234 2235 2281 0
2234 -2235 2281 0
-2237 -2239 -2283 0
2237 2239 -2283 0
-2237 2239 2283 0
2237 -2239 2283 0
-2241 -2243 -2285 0
2241 2243 -2285 0
-2241 2243 2285 0
2241 -2243 2285 0
-2245 -2247 -2287 0
2245 2247 -2287 0
-2245 2247 2287 0
2245 -2247 2287 0
-2249 -2251 -2289 0
2249 2251 -2289 0
-2249 2251 2289 0
2249 -2251 2289 0
-2253 -2255 -2291 0
2253 2255 -2291 0
-2253 2255 2291 0
2253 -2255 2291 0
-2257 -2259 -2293 0
2257 2259 -2293 0
-2257 2259 2293 0
2257 -2259 2293 0
-2261 -2263 -2295 0
2261 2263 -2295 0
-2261 2263 2295 0
2261 -2263 2295 0
-2265 -2267 -2297 0
2265 2267 -2297 0
-2265 2267 2297 0
2265 -2267 2297 0
-2268 -2269 -2299 0
2268 2269 -2299 0
-2268 2269 2299 0
2268 -2269 2299 0
-2270 -2271 -2300 0
2270 2271 -2300 0
-2270 2271 2300 0
2270 -2271 2300 0
-2273 -2275 -2302 0
2273 2275 -2302 0
-2273 2275 2302 0
2273 -2275 2302 0
-2277 -2279 -2304 0
2277 2279 -2304 0
-2277 2279 2304 0
2277 -2279 2304 0
-2281 -2283 -2306 0
2281 2283 -2306 0
-2281 2283 2306 0
2281 -2283 2306 0
-2285 -2287 -2308 0
2285 2287 -2308 0
-2285 2287 2308 0
2285 -2287 2308 0
-2289 -2291 -2310 0
2289 2291 -2310 0
-2289 2291 2310 0
2289 -2291 2310 0
-2293 -2295 -2312 0
2293 2295 -2312 0
-2293 2295 2312 0
2293 -2295 2312 0
-2211 -2297 -2314 0
2211 2297 -2314 0
2211 -2297 2314 0
-2211 2297 2314 0
-2299 -2300 -2316 0
2299 2300 -2316 0
-2299 2300 2316 0
2299 -2300 2316 0
-2302 -2304 -2318 0
2302 2304 -2318 0
-2302 2304 2318 0
2302 -2304 2318 0
-2306 -2308 -2320 0
2306 2308 -2320 0
-2306 2308 2320 0
2306 -2308 2320 0
-2310 -2312 -2322 0
2310 2312 -2322 0
-2310 2312 2322 0
2310 -2312 2322 0
-2314 -2316 -2324 0
2314 2316 -2324 0
-2314 2316 2324 0
2314 -2316 2324 0
-2318 -2320 -2326 0
2318 2320 -2326 0
-2318 2320 2326 0
2318 -2320 2326 0
-2322 -2324 -2326 0
2322 2324 -2326 0
-2322 2324 2326 0
2322 -2324 2326 0
-2222 -2224 -2332 0
2222 2224 -2332 0
-2222 2224 2332 0
2222 -2224 2332 0
-2226 -2228 -2334 0
2226 2228 -2334 0
-2226 2228 2334 0
2226 -2228 2334 0
-2230 -2232 -2336 0
2230 2232 -2336 0
-2230 2232 2336 0
2230 -2232 2336 0
-2236 -2238 -2338 0
2236 2238 -2338 0
-2236 2238 2338 0
2236 -2238 2338 0
-2240 -2242 -2340 0
2240 2242 -2340 0
-2240 2242 2340 0
2240 -2242 2340 0
-2244 -2246 -2342 0
2244 2246 -2342 0
-2244 2246 2342 0
2244 -2246 2342 0
-2248 -2250 -2344 0
2248 2250 -2344 0
-2248 2250 2344 0
2248 -2250 2344 0
-2252 -2254 -2346 0
2252 2254 -2346 0
-2252 2254 2346 0
2252 -2254 2346 0
-2256 -2258 -2348 0
2256 2258 -2348 0
-2256 2258 2348 0
2256 -2258 2348 0
-2260 -2262 -2350 0
2260 2262 -2350 0
-2260 2262 2350 0
2260 -2262 2350 0
-2264 -2266 -2352 0
2264 2266 -2352 0
-2264 2266 2352 0
2264 -2266 2352 0
-2272 -2274 -2357 0
2272 2274 -2357 0
-2272 2274 2357 0
2272 -2274 2357 0
-2276 -2278 -2358 0
2276 2278 -2358 0
-2276 2278 2358 0
2276 -2278 2358 0
-2280 -2282 -2360 0
2280 2282 -2360 0
-2280 2282 2360 0
2280 -2282 2360 0
-2284 -2286 -2362 0
2284 2286 -2362 0
-2284 2286 2362 0
2284 -2286 2362 0
-2288 -2290 -2364 0
2288 2290 -2364 0
-2288 2290 2364 0
2288 -2290 2364 0
-2292 -2294 -2366 0
2292 2294 -2366 0
-2292 2294 2366 0
2292 -2294 2366 0
-2296 -2298 -2368 0
2296 2298 -2368 0
-2296 2298 2368 0
2296 -2298 2368 0
-2301 -2303 -2371 0
2301 2303 -2371 0
-2301 2303 2371 0
2301 -2303 2371 0
-2305 -2307 -2372 0
2305 2307 -2372 0
-2305 2307 2372 0
2305 -2307 2372 0
-2309 -2311 -2374 0
2309 2311 -2374 0
-2309 2311 2374 0
2309 -2311 2374 0
-2313 -2315 -2376 0
2313 2315 -2376 0
-2313 2315 2376 0
2313 -2315 2376 0
-2317 -2319 -2378 0
2317 2319 -2378 0
-2317 2319 2378 0
2317 -2319 2378 0
-2321 -2323 -2380 0
2321 2323 -2380 0
-2321 2323 2380 0
2321 -2323 2380 0
-2325 -2327 -2382 0
2325 2327 -2382 0
-2325 2327 2382 0
2325 -2327 2382 0
-2326 -2328 -2384 0
2326 2328 -2384 0
2326 -2328 2384 0
-2326 2328 2384 0
-2330 -2331 -2386 0
2330 2331 -2386 0
-2330 2331 2386 0
2330 -2331 2386 0
-2332 -2334 -2387 0
2332 2334 -2387 0
-2332 2334 2387 0
2332 -2334 2387 0
-2336 -2337 -2389 0
2336 2337 -2389 0
-2336 2337 2389 0
2336 -2337 2389 0
-2338 -2340 -2391 0
2338 2340 -2391 0
-2338 2340 2391 0
2338 -2340 2391 0
-2342 -2344 -2393 0
2342 2344 -2393 0
-2342 2344 2393 0
2342 -2344 2393 0
-2346 -2348 -2395 0
2346 2348 -2395 0
-2346 2348 2395 0
2346 -2348 2395 0
-2350 -2352 -2397 0
2350 2352 -2397 0
-2350 2352 2397 0
2350 -2352 2397 0
-2354 -2355 -2399 0
2354 2355 -2399 0
-2354 2355 2399 0
2354 -2355 2399 0
-2356 -2357 -2401 0
2356 2357 -2401 0
-2356 2357 2401 0
2356 -2357 2401 0
-2358 -2360 -2403 0
2358 2360 -2403 0
-2358 2360 2403 0
2358 -2360 2403 0
-2362 -2364 -2405 0
2362 2364 -2405 0
-2362 2364 2405 0
2362 -2364 2405 0
-2366 -2368 -2407 0
2366 2368 -2407 0
-2366 2368 2407 0
2366 -2368 2407 0
-2370 -2371 -2409 0
2370 2371 -2409 0
-2370 2371 2409 0
2370 -2371 2409 0
-2372 -2374 -2411 0
2372 2374 -2411 0
-2372 2374 2411 0
2372 -2374 2411 0
-2376 -2378 -2413 0
2376 2378 -2413 0
-2376 2378 2413 0
2376 -2378 2413 0
-2380 -2382 -2415 0
2380 2382 -2415 0
-2380 2382 2415 0
2380 -2382 2415 0
-2329 -2384 -2417 0
2329 2384 -2417 0
2329 -2384 2417 0
-2329 2384 2417 0
-2385 -2386 -2419 0
2385 2386 -2419 0
-2385 2386 2419 0
2385 -2386 2419 0
-2387 -2389 -2421 0
2387 2389 -2421 0
-2387 2389 2421 0
2387 -2389 2421 0
-2391 -2393 -2423 0
2391 2393 -2423 0
-2391 2393 2423 0
2391 -2393 2423 0
-2395 -2397 -2425 0
2395 2397 -2425 0
-2395 2397 2425 0
2395 -2397 2425 0
-2399 -2401 -2427 0
2399 2401 -2427 0
-2399 2401 2427 0
2399 -2401 2427 0
-2403 -2405 -2429 0
2403 2405 -2429 0
-2403 2405 2429 0
2403 -2405 2429 0
-2407 -2409 -2431 0
2407 2409 -2431 0
-2407 2409 2431 0
2407 -2409 2431 0
-2411 -2413 -2433 0
2411 2413 -2433 0
-2411 2413 2433 0
2411 -2413 2433 0
-2415 -2417 -2435 0
2415 2417 -2435 0
-2415 2417 2435 0
2415 -2417 2435 0
-2419 -2421 -2437 0
2419 2421 -2437 0
-2419 2421 2437 0
2419 -2421 2437 0
-2423 -2425 -2439 0
2423 2425 -2439 0
-2423 2425 2439 0
2423 -2425 2439 0
-2427 -2429 -2441 0
2427 2429 -2441 0
-2427 2429 2441 0
2427 -2429 2441 0
-2431 -2433 -2443 0
2431 2433 -2443 0
-2431 2433 2443 0
2431 -2433 2443 0
-2435 -2437 -2445 0
2435 2437 -2445 0
-2435 2437 2445 0
2435 -2437 2445 0
-2439 -2441 -2447 0
2439 2441 -2447 0
-2439 2441 2447 0
2439 -2441 2447 0
-2443 -2445 -2447 0
2443 2445 -2447 0
-2443 2445 2447 0
2443 -2445 2447 0
-2333 -2335 -2450 0
2333 2335 -2450 0
-2333 2335 2450 0
2333 -2335 2450 0
-2339 -2341 -2452 0
2339 2341 -2452 0
-2339 2341 2452 0
2339 -2341 2452 0
-2343 -2345 -2453 0
2343 2345 -2453 0
-2343 2345 2453 0
2343 -2345 2453 0
-2347 -2349 -2455 0
2347 2349 -2455 0
-2347 2349 2455 0
2347 -2349 2455 0
-2351 -2353 -2457 0
2351 2353 -2457 0
-2351 2353 2457 0
2351 -2353 2457 0
-2359 -2361 -2458 0
2359 2361 -2458 0
-2359 2361 2458 0
2359 -2361 2458 0
-2363 -2365 -2459 0
2363 2365 -2459 0
-2363 2365 2459 0
2363 -2365 2459 0
-2367 -2369 -2461 0
2367 2369 -2461 0
-2367 2369 2461 0
2367 -2369 2461 0
-2373 -2375 -2464 0
2373 2375 -2464 0
-2373 2375 2464 0
2373 -2375 2464 0
-2377 -2379 -2465 0
2377 2379 -2465 0
-2377 2379 2465 0
2377 -2379 2465 0
-2381 -2383 -2467 0
2381 2383 -2467 0
-2381 2383 2467 0
2381 -2383 2467 0
-2388 -2390 -2471 0
2388 2390 -2471 0
-2388 2390 2471 0
2388 -2390 2471 0
-2392 -2394 -2473 0
2392 2394 -2473 0
-2392 2394 2473 0
2392 -2394 2473 0
-2396 -2398 -2475 0
2396 2398 -2475 0
-2396 2398 2475 0
2396 -2398 2475 0
-2400 -2402 -2477 0
2400 2402 -2477 0
-2400 2402 2477 0
2400 -2402 2477 0
-2404 -2406 -2479 0
2404 2406 -2479 0
-2404 2406 2479 0
2404 -2406 2479 0
-2408 -2410 -2481 0
2408 2410 -2481 0
-2408 2410 2481 0
2408 -2410 2481 0
-2412 -2414 -2483 0
2412 2414 -2483 0
-2412 2414 2483 0
2412 -2414 2483 0
-2416 -2418 -2485 0
2416 2418 -2485 0
-2416 2418 2485 0
2416 -2418 2485 0
-2420 -2422 -2487 0
2420 2422 -2487 0
-2420 2422 2487 0
2420 -2422 2487 0
-2424 -2426 -2489 0
2424 2426 -2489 0
-2424 2426 2489 0
2424 -2426 2489 0
-2428 -2430 -2491 0
2428 2430 -2491 0
-2428 2430 2491 0
2428 -2430 2491 0
-2432 -2434 -2493 0
2432 2434 -2493 0
-2432 2434 2493 0
2432 -2434 2493 0
-2436 -2438 -2495 0
2436 2438 -2495 0
-2436 2438 2495 0
2436 -2438 2495 0
-2440 -2442 -2497 0
2440 2442 -2497 0
-2440 2442 2497 0
2440 -2442 2497 0
-2444 -2446 -2499 0
2444 2446 -2499 0
-2444 2446 2499 0
2444 -2446 2499 0
-2448 -2449 -2501 0
2448 2449 -2501 0
-2448 2449 2501 0
2448 -2449 2501 0
-2450 -2451 -2533 0
2450 2451 -2533 0
-2450 2451 2533 0
2450 -2451 2533 0
-2452 -2453 -2504 0
2452 2453 -2504 0
-2452 2453 2504 0
2452 -2453 2504 0
-2455 -2457 -2506 0
2455 2457 -2506 0
-2455 2457 2506 0
2455 -2457 2506 0
-2458 -2459 -2508 0
2458 2459 -2508 0
-2458 2459 2508 0
2458 -2459 2508 0
-2461 -2463 -2510 0
2461 2463 -2510 0
-2461 2463 2510 0
2461 -2463 2510 0
-2464 -2465 -2512 0
2464 2465 -2512 0
-2464 2465 2512 0
2464 -2465 2512 0
-2467 -2469 -2514 0
2467 2469 -2514 0
-2467 2469 2514 0
2467 -2469 2514 0
-2470 -2471 -2516 0
2470 2471 -2516 0
-2470 2471 2516 0
2470 -2471 2516 0
-2473 -2475 -2518 0
2473 2475 -2518 0
-2473 2475 2518 0
2473 -2475 2518 0
-2477 -2479 -2520 0
2477 2479 -2520 0
-2477 2479 2520 0
2477 -2479 2520 0
-2481 -2483 -2522 0
2481 2483 -2522 0
-2481 2483 2522 0
2481 -2483 2522 0
-2485 -2487 -2524 0
2485 2487 -2524 0
-2485 2487 2524 0
2485 -2487 2524 0
-2489 -2491 -2526 0
2489 2491 -2526 0
-2489 2491 2526 0
2489 -2491 2526 0
-2493 -2495 -2528 0
2493 2495 -2528 0
-2493 2495 2528 0
2493 -2495 2528 0
-2497 -2499 -2530 0
2497 2499 -2530 0
-2497 2499 2530 0
2497 -2499 2530 0
-2447 -2501 -2532 0
2447 2501 -2532 0
2447 -2501 2532 0
-2447 2501 2532 0
-2504 -2506 -2534 0
2504 2506 -2534 0
-2504 2506 2534 0
2504 -2506 2534 0
-2507 -2508 -2536 0
2507 2508 -2536 0
-2507 2508 2536 0
2507 -2508 2536 0
-2510 -2512 -2538 0
2510 2512 -2538 0
-2510 2512 2538 0
2510 -2512 2538 0
-2514 -2516 -2540 0
2514 2516 -2540 0
-2514 2516 2540 0
2514 -2516 2540 0
-2518 -2520 -2542 0
2518 2520 -2542 0
-2518 2520 2542 0
2518 -2520 2542 0
-2522 -2524 -2544 0
2522 2524 -2544 0
-2522 2524 2544 0
2522 -2524 2544 0
-2526 -2528 -2546 0
2526 2528 -2546 0
-2526 2528 2546 0
2526 -2528 2546 0
-2530 -2532 -2548 0
2530 2532 -2548 0
-2530 2532 2548 0
2530 -2532 2548 0
-2533 -2534 -2550 0
2533 2534 -2550 0
-2533 2534 2550 0
2533 -2534 2550 0
-2536 -2538 -2552 0
2536 2538 -2552 0
-2536 2538 2552 0
2536 -2538 2552 0
-2540 -2542 -2554 0
2540 2542 -2554 0
-2540 2542 2554 0
2540 -2542 2554 0
-2544 -2546 -2556 0
2544 2546 -2556 0
-2544 2546 2556 0
2544 -2546 2556 0
-2548 -2550 -2558 0
2548 2550 -2558 0
-2548 2550 2558 0
2548 -2550 2558 0
-2552 -2554 -2560 0
2552 2554 -2560 0
-2552 2554 2560 0
2552 -2554 2560 0
-2556 -2558 -2560 0
2556 2558 -2560 0
-2556 2558 2560 0
2556 -2558 2560 0
-2454 -2456 -2565 0
2454 2456 -2565 0
-2454 2456 2565 0
2454 -2456 2565 0
-2460 -2462 -2568 0
2460 2462 -2568 0
-2460 2462 2568 0
2460 -2462 2568 0
-2466 -2468 -2619 0
2466 2468 -2619 0
-2466 2468 2619 0
2466 -2468 2619 0
-2472 -2474 -2570 0
2472 2474 -2570 0
-2472 2474 2570 0
2472 -2474 2570 0
-2476 -2478 -2572 0
2476 2478 -2572 0
-2476 2478 2572 0
2476 -2478 2572 0
-2480 -2482 -2574 0
2480 2482 -2574 0
-2480 2482 2574 0
2480 -2482 2574 0
-2484 -2486 -2576 0
2484 2486 -2576 0
-2484 2486 2576 0
2484 -2486 2576 0
-2488 -2490 -2578 0
2488 2490 -2578 0
-2488 2490 2578 0
2488 -2490 2578 0
-2492 -2494 -2580 0
2492 2494 -2580 0
-2492 2494 2580 0
2492 -2494 2580 0
-2496 -2498 -2582 0
2496 2498 -2582 0
-2496 2498 2582 0
2496 -2498 2582 0
-2500 -2502 -2584 0
2500 2502 -2584 0
-2500 2502 2584 0
2500 -2502 2584 0
-2503 -2505 -2626 0
2503 2505 -2626 0
-2503 2505 2626 0
2503 -2505 2626 0
-2509 -2511 -2587 0
2509 2511 -2587 0
-2509 2511 2587 0
2509 -2511 2587 0
-2513 -2515 -2588 0
2513 2515 -2588 0
-2513 2515 2588 0
2513 -2515 2588 0
-2517 -2519 -2590 0
2517 2519 -2590 0
-2517 2519 2590 0
2517 -2519 2590 0
-2521 -2523 -2592 0
2521 2523 -2592 0
-2521 2523 2592 0
2521 -2523 2592 0
-2525 -2527 -2594 0
2525 2527 -2594 0
-2525 2527 2594 0
2525 -2527 2594 0
-2529 -2531 -2596 0
2529 2531 -2596 0
-2529 2531 2596 0
2529 -2531 2596 0
-2535 -2537 -2598 0
2535 2537 -2598 0
-2535 2537 2598 0
2535 -2537 2598 0
-2539 -2541 -2600 0
2539 2541 -2600 0
-2539 2541 2600 0
2539 -2541 2600 0
-2543 -2545 -2602 0
2543 2545 -2602 0
-2543 2545 2602 0
2543 -2545 2602 0
-2547 -2549 -2604 0
2547 2549 -2604 0
-2547 2549 2604 0
2547 -2549 2604 0
-2551 -2553 -2606 0
2551 2553 -2606 0
-2551 2553 2606 0
2551 -2553 2606 0
-2555 -2557 -2608 0
2555 2557 -2608 0
-2555 2557 2608 0
2555 -2557 2608 0
-2559 -2561 -2610 0
2559 2561 -2610 0
-2559 2561 2610 0
2559 -2561 2610 0
-2560 -2562 -2612 0
2560 2562 -2612 0
2560 -2562 2612 0
-2560 2562 2612 0
-2564 -2565 -2614 0
2564 2565 -2614 0
-2564 2565 2614 0
2564 -2565 2614 0
-2566 -2567 -2615 0
2566 2567 -2615 0
-2566 2567 2615 0
2566 -2567 2615 0
-2568 -2569 -2617 0
2568 2569 -2617 0
-2568 2569 2617 0
2568 -2569 2617 0
-2570 -2572 -2620 0
2570 2572 -2620 0
-2570 2572 2620 0
2570 -2572 2620 0
-2574 -2576 -2621 0
2574 2576 -2621 0
-2574 2576 2621 0
2574 -2576 2621 0
-2578 -2580 -2623 0
2578 2580 -2623 0
-2578 2580 2623 0
2578 -2580 2623 0
-2582 -2584 -2625 0
2582 2584 -2625 0
-2582 2584 2625 0
2582 -2584 2625 0
-2586 -2587 -2627 0
2586 2587 -2627 0
-2586 2587 2627 0
2586 -2587 2627 0
-2588 -2590 -2629 0
2588 2590 -2629 0
-2588 2590 2629 0
2588 -2590 2629 0
-2592 -2594 -2631 0
2592 2594 -2631 0
-2592 2594 2631 0
2592 -2594 2631 0
-2596 -2597 -2633 0
2596 2597 -2633 0
-2596 2597 2633 0
2596 -2597 2633 0
-2598 -2600 -2635 0
2598 2600 -2635 0
-2598 2600 2635 0
2598 -2600 2635 0
-2602 -2604 -2637 0
2602 2604 -2637 0
-2602 2604 2637 0
2602 -2604 2637 0
-2606 -2608 -2639 0
2606 2608 -2639 0
-2606 2608 2639 0
2606 -2608 2639 0
-2610 -2612 -2641 0
2610 2612 -2641 0
-2610 2612 2641 0
2610 -2612 2641 0
-2563 -2614 -2643 0
2563 2614 -2643 0
-2563 2614 2643 0
2563 -2614 2643 0
-2615 -2617 -2645 0
2615 2617 -2645 0
-2615 2617 2645 0
2615 -2617 2645 0
-2619 -2620 -2647 0
2619 2620 -2647 0
-2619 2620 2647 0
2619 -2620 2647 0
-2621 -2623 -2649 0
2621 2623 -2649 0
-2621 2623 2649 0
2621 -2623 2649 0
-2625 -2626 -2651 0
2625 2626 -2651 0
-2625 2626 2651 0
2625 -2626 2651 0
-2627 -2629 -2653 0
2627 2629 -2653 0
-2627 2629 2653 0
2627 -2629 2653 0
-2631 -2633 -2655 0
2631 2633 -2655 0
-2631 2633 2655 0
2631 -2633 2655 0
-2635 -2637 -2657 0
2635 2637 -2657 0
-2635 2637 2657 0
2635 -2637 2657 0
-2639 -2641 -2659 0
2639 2641 -2659 0
-2639 2641 2659 0
2639 -2641 2659 0
-2643 -2645 -2661 0
2643 2645 -2661 0
-2643 2645 2661 0
2643 -2645 2661 0
-2647 -2649 -2663 0
2647 2649 -2663 0
-2647 2649 2663 0
2647 -2649 2663 0
-2651 -2653 -2665 0
2651 2653 -2665 0
-2651 2653 2665 0
2651 -2653 2665 0
-2655 -2657 -2667 0
2655 2657 -2667 0
-2655 2657 2667 0
2655 -2657 2667 0
-2659 -2661 -2669 0
2659 2661 -2669 0
-2659 2661 2669 0
2659 -2661 2669 0
-2663 -2665 -2671 0
2663 2665 -2671 0
-2663 2665 2671 0
2663 -2665 2671 0
-2667 -2669 -2671 0
2667 2669 -2671 0
-2667 2669 2671 0
2667 -2669 2671 0
-2571 -2573 -2677 0
2571 2573 -2677 0
-2571 2573 2677 0
2571 -2573 2677 0
-2575 -2577 -2678 0
2575 2577 -2678 0
-2575 2577 2678 0
2575 -2577 2678 0
-2579 -2581 -2680 0
2579 2581 -2680 0
-2579 2581 2680 0
2579 -2581 2680 0
-2583 -2585 -2682 0
2583 2585 -2682 0
-2583 2585 2682 0
2583 -2585 2682 0
-2589 -2591 -2685 0
2589 2591 -2685 0
-2589 2591 2685 0
2589 -2591 2685 0
-2593 -2595 -2686 0
2593 2595 -2686 0
-2593 2595 2686 0
2593 -2595 2686 0
-2599 -2601 -2688 0
2599 2601 -2688 0
-2599 2601 2688 0
2599 -2601 2688 0
-2603 -2605 -2690 0
2603 2605 -2690 0
-2603 2605 2690 0
2603 -2605 2690 0
-2607 -2609 -2692 0
2607 2609 -2692 0
-2607 2609 2692 0
2607 -2609 2692 0
-2611 -2613 -2694 0
2611 2613 -2694 0
-2611 2613 2694 0
2611 -2613 2694 0
-2616 -2618 -2697 0
2616 2618 -2697 0
-2616 2618 2697 0
2616 -2618 2697 0
-2622 -2624 -2699 0
2622 2624 -2699 0
-2622 2624 2699 0
2622 -2624 2699 0
-2628 -2630 -2701 0
2628 2630 -2701 0
-2628 2630 2701 0
2628 -2630 2701 0
-2632 -2634 -2702 0
2632 2634 -2702 0
-2632 2634 2702 0
2632 -2634 2702 0
-2636 -2638 -2704 0
2636 2638 -2704 0
-2636 2638 2704 0
2636 -2638 2704 0
-2640 -2642 -2706 0
2640 2642 -2706 0
-2640 2642 2706 0
2640 -2642 2706 0
-2644 -2646 -2708 0
2644 2646 -2708 0
-2644 2646 2708 0
2644 -2646 2708 0
-2648 -2650 -2710 0
2648 2650 -2710 0
-2648 2650 2710 0
2648 -2650 2710 0
-2652 -2654 -2712 0
2652 2654 -2712 0
-2652 2654 2712 0
2652 -2654 2712 0
-2656 -2658 -2714 0
2656 2658 -2714 0
-2656 2658 2714 0
2656 -2658 2714 0
-2660 -2662 -2716 0
2660 2662 -2716 0
-2660 2662 2716 0
2660 -2662 2716 0
-2664 -2666 -2718 0
2664 2666 -2718 0
-2664 2666 2718 0
2664 -2666 2718 0
-2668 -2670 -2720 0
2668 2670 -2720 0
-2668 2670 2720 0
2668 -2670 2720 0
-2672 -2673 -2722 0
2672 2673 -2722 0
-2672 2673 2722 0
2672 -2673 2722 0
-2675 -2676 -2723 0
2675 2676 -2723 0
-2675 2676 2723 0
2675 -2676 2723 0
-2677 -2678 -2724 0
2677 2678 -2724 0
-2677 2678 2724 0
2677 -2678 2724 0
-2680 -2682 -2726 0
2680 2682 -2726 0
-2680 2682 2726 0
2680 -2682 2726 0
-2683 -2684 -2728 0
2683 2684 -2728 0
-2683 2684 2728 0
2683 -2684 2728 0
-2685 -2686 -2730 0
2685 2686 -2730 0
-2685 2686 2730 0
2685 -2686 2730 0
-2687 -2688 -2732 0
2687 2688 -2732 0
-2687 2688 2732 0
2687 -2688 2732 0
-2690 -2692 -2734 0
2690 2692 -2734 0
-2690 2692 2734 0
2690 -2692 2734 0
-2694 -2696 -2736 0
2694 2696 -2736 0
-2694 2696 2736 0
2694 -2696 2736 0
-2697 -2698 -2738 0
2697 2698 -2738 0
-2697 2698 2738 0
2697 -2698 2738 0
-2699 -2700 -2740 0
2699 2700 -2740 0
-2699 2700 2740 0
2699 -2700 2740 0
-2701 -2702 -2742 0
2701 2702 -2742 0
-2701 2702 2742 0
2701 -2702 2742 0
-2704 -2706 -2744 0
2704 2706 -2744 0
-2704 2706 2744 0
2704 -2706 2744 0
-2708 -2710 -2746 0
2708 2710 -2746 0
-2708 2710 2746 0
2708 -2710 2746 0
-2712 -2714 -2748 0
2712 2714 -2748 0
-2712 2714 2748 0
2712 -2714 2748 0
-2716 -2718 -2750 0
2716 2718 -2750 0
-2716 2718 2750 0
2716 -2718 2750 0
-2720 -2722 -2752 0
2720 2722 -2752 0
-2720 2722 2752 0
2720 -2722 2752 0
-2671 -2674 -2754 0
2671 2674 -2754 0
-2671 2674 2754 0
2671 -2674 2754 0
-2723 -2724 -2756 0
2723 2724 -2756 0
-2723 2724 2756 0
2723 -2724 2756 0
-2726 -2728 -2758 0
2726 2728 -2758 0
-2726 2728 2758 0
2726 -2728 2758 0
-2730 -2732 -2760 0
2730 2732 -2760 0
-2730 2732 2760 0
2730 -2732 2760 0
-2734 -2736 -2762 0
2734 2736 -2762 0
-2734 2736 2762 0
2734 -2736 2762 0
-2738 -2740 -2764 0
2738 2740 -2764 0
-2738 2740 2764 0
2738 -2740 2764 0
-2742 -2744 -2766 0
2742 2744 -2766 0
-2742 2744 2766 0
2742 -2744 2766 0
-2746 -2748 -2768 0
2746 2748 -2768 0
-2746 2748 2768 0
2746 -2748 2768 0
-2750 -2752 -2770 0
2750 2752 -2770 0
-2750 2752 2770 0
2750 -2752 2770 0
-2754 -2756 -2772 0
2754 2756 -2772 0
-2754 2756 2772 0
2754 -2756 2772 0
-2758 -2760 -2774 0
2758 2760 -2774 0
-2758 2760 2774 0
2758 -2760 2774 0
-2762 -2764 -2776 0
2762 2764 -2776 0
-2762 2764 2776 0
2762 -2764 2776 0
-2766 -2768 -2778 0
2766 2768 -2778 0
-2766 2768 2778 0
2766 -2768 2778 0
-2770 -2772 -2780 0
2770 2772 -2780 0
-2770 2772 2780 0
2770 -2772 2780 0
-2774 -2776 -2782 0
2774 2776 -2782 0
-2774 2776 2782 0
2774 -2776 2782 0
-2778 -2780 -2782 0
2778 2780 -2782 0
-2778 2780 2782 0
2778 -2780 2782 0
-2679 -2681 -2786 0
2679 2681 -2786 0
-2679 2681 2786 0
2679 -2681 2786 0
-2689 -2691 -2790 0
2689 2691 -2790 0
-2689 2691 2790 0
2689 -2691 2790 0
-2693 -2695 -2791 0
2693 2695 -2791 0
-2693 2695 2791 0
2693 -2695 2791 0
-2703 -2705 -2795 0
2703 2705 -2795 0
-2703 2705 2795 0
2703 -2705 2795 0
-2707 -2709 -2797 0
2707 2709 -2797 0
-2707 2709 2797 0
2707 -2709 2797 0
-2711 -2713 -2799 0
2711 2713 -2799 0
-2711 2713 2799 0
2711 -2713 2799 0
-2715 -2717 -2801 0
2715 2717 -2801 0
-2715 2717 2801 0
2715 -2717 2801 0
-2719 -2721 -2803 0
2719 2721 -2803 0
-2719 2721 2803 0
2719 -2721 2803 0
-2725 -2727 -2806 0
2725 2727 -2806 0
-2725 2727 2806 0
2725 -2727 2806 0
-2729 -2731 -2807 0
2729 2731 -2807 0
-2729 2731 2807 0
2729 -2731 2807 0
-2733 -2735 -2809 0
2733 2735 -2809 0
-2733 2735 2809 0
2733 -2735 2809 0
-2737 -2739 -2811 0
2737 2739 -2811 0
-2737 2739 2811 0
2737 -2739 2811 0
-2741 -2743 -2813 0
2741 2743 -2813 0
-2741 2743 2813 0
2741 -2743 2813 0
-2745 -2747 -2815 0
2745 2747 -2815 0
-2745 2747 2815 0
2745 -2747 2815 0
-2749 -2751 -2817 0
2749 2751 -2817 0
-2749 2751 2817 0
2749 -2751 2817 0
-2753 -2755 -2819 0
2753 2755 -2819 0
-2753 2755 2819 0
2753 -2755 2819 0
-2757 -2759 -2821 0
2757 2759 -2821 0
-2757 2759 2821 0
2757 -2759 2821 0
-2761 -2763 -2823 0
2761 2763 -2823 0
-2761 2763 2823 0
2761 -2763 2823 0
-2765 -2767 -2825 0
2765 2767 -2825 0
-2765 2767 2825 0
2765 -2767 2825 0
-2769 -2771 -2827 0
2769 2771 -2827 0
-2769 2771 2827 0
2769 -2771 2827 0
-2773 -2775 -2829 0
2773 2775 -2829 0
-2773 2775 2829 0
2773 -2775 2829 0
-2777 -2779 -2831 0
2777 2779 -2831 0
-2777 2779 2831 0
2777 -2779 2831 0
-2781 -2783 -2833 0
2781 2783 -2833 0
-2781 2783 2833 0
2781 -2783 2833 0
-2782 -2784 -2867 0
2782 2784 -2867 0
2782 -2784 2867 0
-2782 2784 2867 0
-2785 -2786 -2835 0
2785 2786 -2835 0
-2785 2786 2835 0
2785 -2786 2835 0
-2787 -2788 -2837 0
2787 2788 -2837 0
-2787 2788 2837 0
2787 -2788 2837 0
-2789 -2790 -2839 0
2789 2790 -2839 0
-2789 2790 2839 0
2789 -2790 2839 0
-2791 -2792 -2841 0
2791 2792 -2841 0
-2791 2792 2841 0
2791 -2792 2841 0
-2793 -2794 -2843 0
2793 2794 -2843 0
-2793 2794 2843 0
2793 -2794 2843 0
-2795 -2797 -2845 0
2795 2797 -2845 0
-2795 2797 2845 0
2795 -2797 2845 0
-2799 -2801 -2847 0
2799 2801 -2847 0
-2799 2801 2847 0
2799 -2801 2847 0
-2803 -2804 -2849 0
2803 2804 -2849 0
-2803 2804 2849 0
2803 -2804 2849 0
-2805 -2806 -2851 0
2805 2806 -2851 0
-2805 2806 2851 0
2805 -2806 2851 0
-2807 -2809 -2853 0
2807 2809 -2853 0
-2807 2809 2853 0
2807 -2809 2853 0
-2811 -2813 -2855 0
2811 2813 -2855 0
-2811 2813 2855 0
2811 -2813 2855 0
-2815 -2817 -2857 0
2815 2817 -2857 0
-2815 2817 2857 0
2815 -2817 2857 0
-2819 -2821 -2859 0
2819 2821 -2859 0
-2819 2821 2859 0
2819 -2821 2859 0
-2823 -2825 -2861 0
2823 2825 -2861 0
-2823 2825 2861 0
2823 -2825 2861 0
-2827 -2829 -2863 0
2827 2829 -2863 0
-2827 2829 2863 0
2827 -2829 2863 0
-2831 -2833 -2865 0
2831 2833 -2865 0
-2831 2833 2865 0
2831 -2833 2865 0
-2835 -2837 -2868 0
2835 2837 -2868 0
-2835 2837 2868 0
2835 -2837 2868 0
-2839 -2841 -2869 0
2839 2841 -2869 0
-2839 2841 2869 0
2839 -2841 2869 0
-2843 -2845 -2871 0
2843 2845 -2871 0
-2843 2845 2871 0
2843 -2845 2871 0
-2847 -2849 -2873 0
2847 2849 -2873 0
-2847 2849 2873 0
2847 -2849 2873 0
-2851 -2853 -2875 0
2851 2853 -2875 0
-2851 2853 2875 0
2851 -2853 2875 0
-2855 -2857 -2877 0
2855 2857 -2877 0
-2855 2857 2877 0
2855 -2857 2877 0
-2859 -2861 -2879 0
2859 2861 -2879 0
-2859 2861 2879 0
2859 -2861 2879 0
-2863 -2865 -2881 0
2863 2865 -2881 0
-2863 2865 2881 0
2863 -2865 2881 0
-2867 -2868 -2883 0
2867 2868 -2883 0
-2867 2868 2883 0
2867 -2868 2883 0
-2869 -2871 -2885 0
2869 2871 -2885 0
-2869 2871 2885 0
2869 -2871 2885 0
-2873 -2875 -2887 0
2873 2875 -2887 0
-2873 2875 2887 0
2873 -2875 2887 0
-2877 -2879 -2889 0
2877 2879 -2889 0
-2877 2879 2889 0
2877 -2879 2889 0
-2881 -2883 -2891 0
2881 2883 -2891 0
-2881 2883 2891 0
2881 -2883 2891 0
-2885 -2887 -2893 0
2885 2887 -2893 0
-2885 2887 2893 0
2885 -2887 2893 0
-2889 -2891 -2893 0
2889 2891 -2893 0
-2889 2891 2893 0
2889 -2891 2893 0
-2796 -2798 -2949 0
2796 2798 -2949 0
-2796 2798 2949 0
2796 -2798 2949 0
-2800 -2802 -2900 0
2800 2802 -2900 0
-2800 2802 2900 0
2800 -2802 2900 0
-2808 -2810 -2904 0
2808 2810 -2904 0
-2808 2810 2904 0
2808 -2810 2904 0
-2812 -2814 -2906 0
2812 2814 -2906 0
-2812 2814 2906 0
2812 -2814 2906 0
-2816 -2818 -2908 0
2816 2818 -2908 0
-2816 2818 2908 0
2816 -2818 2908 0
-2820 -2822 -2910 0
2820 2822 -2910 0
-2820 2822 2910 0
2820 -2822 2910 0
-2824 -2826 -2912 0
2824 2826 -2912 0
-2824 2826 2912 0
2824 -2826 2912 0
-2828 -2830 -2914 0
2828 2830 -2914 0
-2828 2830 2914 0
2828 -2830 2914 0
-2832 -2834 -2916 0
2832 2834 -2916 0
-2832 2834 2916 0
2832 -2834 2916 0
-2836 -2838 -2918 0
2836 2838 -2918 0
-2836 2838 2918 0
2836 -2838 2918 0
-2840 -2842 -2920 0
2840 2842 -2920 0
-2840 2842 2920 0
2840 -2842 2920 0
-2844 -2846 -2922 0
2844 2846 -2922 0
-2844 2846 2922 0
2844 -2846 2922 0
-2848 -2850 -2924 0
2848 2850 -2924 0
-2848 2850 2924 0
2848 -2850 2924 0
-2852 -2854 -2926 0
2852 2854 -2926 0
-2852 2854 2926 0
2852 -2854 2926 0
-2856 -2858 -2928 0
2856 2858 -2928 0
-2856 2858 2928 0
2856 -2858 2928 0
-2860 -2862 -2930 0
2860 2862 -2930 0
-2860 2862 2930 0
2860 -2862 2930 0
-2864 -2866 -2932 0
2864 2866 -2932 0
-2864 2866 2932 0
2864 -2866 2932 0
-2870 -2872 -2935 0
2870 2872 -2935 0
-2870 2872 2935 0
2870 -2872 2935 0
-2874 -2876 -2936 0
2874 2876 -2936 0
-2874 2876 2936 0
2874 -2876 2936 0
-2878 -2880 -2938 0
2878 2880 -2938 0
-2878 2880 2938 0
2878 -2880 2938 0
-2882 -2884 -2940 0
2882 2884 -2940 0
-2882 2884 2940 0
2882 -2884 2940 0
-2886 -2888 -2942 0
2886 2888 -2942 0
-2886 2888 2942 0
2886 -2888 2942 0
-2890 -2892 -2944 0
2890 2892 -2944 0
-2890 2892 2944 0
2890 -2892 2944 0
-2894 -2895 -2946 0
2894 2895 -2946 0
-2894 2895 2946 0
2894 -2895 2946 0
-2897 -2898 -2948 0
2897 2898 -2948 0
-2897 2898 2948 0
2897 -2898 2948 0
-2900 -2902 -2950 0
2900 2902 -2950 0
-2900 2902 2950 0
2900 -2902 2950 0
-2903 -2904 -2952 0
2903 2904 -2952 0
-2903 2904 2952 0
2903 -2904 2952 0
-2906 -2908 -2954 0
2906 2908 -2954 0
-2906 2908 2954 0
2906 -2908 2954 0
-2910 -2912 -2956 0
2910 2912 -2956 0
-2910 2912 2956 0
2910 -2912 2956 0
-2914 -2916 -2958 0
2914 2916 -2958 0
-2914 2916 2958 0
2914 -2916 2958 0
-2917 -2918 -2960 0
2917 2918 -2960 0
-2917 2918 2960 0
2917 -2918 2960 0
-2920 -2922 -2962 0
2920 2922 -2962 0
-2920 2922 2962 0
2920 -2922 2962 0
-2924 -2926 -2964 0
2924 2926 -2964 0
-2924 2926 2964 0
2924 -2926 2964 0
-2928 -2930 -2966 0
2928 2930 -2966 0
-2928 2930 2966 0
2928 -2930 2966 0
-2932 -2934 -2968 0
2932 2934 -2968 0
-2932 2934 2968 0
2932 -2934 2968 0
-2935 -2936 -2970 0
2935 2936 -2970 0
-2935 2936 2970 0
2935 -2936 2970 0
-2938 -2940 -2972 0
2938 2940 -2972 0
-2938 2940 2972 0
2938 -2940 2972 0
-2942 -2944 -2974 0
2942 2944 -2974 0
-2942 2944 2974 0
2942 -2944 2974 0
-2893 -2946 -2976 0
2893 2946 -2976 0
2893 -2946 2976 0
-2893 2946 2976 0
-2896 -2948 -2978 0
2896 2948 -2978 0
-2896 2948 2978 0
2896 -2948 2978 0
-2949 -2950 -2980 0
2949 2950 -2980 0
-2949 2950 2980 0
2949 -2950 2980 0
-2952 -2954 -2982 0
2952 2954 -2982 0
-2952 2954 2982 0
2952 -2954 2982 0
-2956 -2958 -2984 0
2956 2958 -2984 0
-2956 2958 2984 0
2956 -2958 2984 0
-2960 -2962 -2986 0
2960 2962 -2986 0
-2960 2962 2986 0
2960 -2962 2986 0
-2964 -2966 -2988 0
2964 2966 -2988 0
-2964 2966 2988 0
2964 -2966 2988 0
-2968 -2970 -2990 0
2968 2970 -2990 0
-2968 2970 2990 0
2968 -2970 2990 0
-2972 -2974 -2992 0
2972 2974 -2992 0
-2972 2974 2992 0
2972 -2974 2992 0
-2976 -2978 -2994 0
2976 2978 -2994 0
-2976 2978 2994 0
2976 -2978 2994 0
-2980 -2982 -2996 0
2980 2982 -2996 0
-2980 2982 2996 0
2980 -2982 2996 0
-2984 -2986 -2998 0
2984 2986 -2998 0
-2984 2986 2998 0
2984 -2986 2998 0
-2988 -2990 -3000 0
2988 2990 -3000 0
-2988 2990 3000 0
2988 -2990 3000 0
-2992 -2994 -3002 0
2992 2994 -3002 0
-2992 2994 3002 0
2992 -2994 3002 0
-2996 -2998 -3004 0
2996 2998 -3004 0
-2996 2998 3004 0
2996 -2998 3004 0
-3000 -3002 -3004 0
3000 3002 -3004 0
-3000 3002 3004 0
3000 -3002 3004 0
-2899 -2901 -3053 0
2899 2901 -3053 0
-2899 2901 3053 0
2899 -2901 3053 0
-2905 -2907 -3054 0
2905 2907 -3054 0
-2905 2907 3054 0
2905 -2907 3054 0
-2909 -2911 -3007 0
2909 2911 -3007 0
-2909 2911 3007 0
2909 -2911 3007 0
-2913 -2915 -3009 0
2913 2915 -3009 0
-2913 2915 3009 0
2913 -2915 3009 0
-2919 -2921 -3012 0
2919 2921 -3012 0
-2919 2921 3012 0
2919 -2921 3012 0
-2923 -2925 -3013 0
2923 2925 -3013 0
-2923 2925 3013 0
2923 -2925 3013 0
-2927 -2929 -3015 0
2927 2929 -3015 0
-2927 2929 3015 0
2927 -2929 3015 0
-2931 -2933 -3017 0
2931 2933 -3017 0
-2931 2933 3017 0
2931 -2933 3017 0
-2937 -2939 -3019 0
2937 2939 -3019 0
-2937 2939 3019 0
2937 -2939 3019 0
-2941 -2943 -3021 0
2941 2943 -3021 0
-2941 2943 3021 0
2941 -2943 3021 0
-2945 -2947 -3064 0
2945 2947 -3064 0
-2945 2947 3064 0
2945 -2947 3064 0
-2951 -2953 -3024 0
2951 2953 -3024 0
-2951 2953 3024 0
2951 -2953 3024 0
-2955 -2957 -3025 0
2955 2957 -3025 0
-2955 2957 3025 0
2955 -2957 3025 0
-2959 -2961 -3027 0
2959 2961 -3027 0
-2959 2961 3027 0
2959 -2961 3027 0
-2963 -2965 -3029 0
2963 2965 -3029 0
-2963 2965 3029 0
2963 -2965 3029 0
-2967 -2969 -3031 0
2967 2969 -3031 0
-2967 2969 3031 0
2967 -2969 3031 0
-2971 -2973 -3033 0
2971 2973 -3033 0
-2971 2973 3033 0
2971 -2973 3033 0
-2975 -2977 -3035 0
2975 2977 -3035 0
-2975 2977 3035 0
2975 -2977 3035 0
-2979 -2981 -3037 0
2979 2981 -3037 0
-2979 2981 3037 0
2979 -2981 3037 0
-2983 -2985 -3039 0
2983 2985 -3039 0
-2983 2985 3039 0
2983 -2985 3039 0
-2987 -2989 -3041 0
2987 2989 -3041 0
-2987 2989 3041 0
2987 -2989 3041 0
-2991 -2993 -3043 0
2991 2993 -3043 0
-2991 2993 3043 0
2991 -2993 3043 0
-2995 -2997 -3045 0
2995 2997 -3045 0
-2995 2997 3045 0
2995 -2997 3045 0
-2999 -3001 -3047 0
2999 3001 -3047 0
-2999 3001 3047 0
2999 -3001 3047 0
-3003 -3005 -3049 0
3003 3005 -3049 0
-3003 3005 3049 0
3003 -3005 3049 0
-3004 -3006 -3051 0
3004 3006 -3051 0
3004 -3006 3051 0
-3004 3006 3051 0
-3007 -3009 -3055 0
3007 3009 -3055 0
-3007 3009 3055 0
3007 -3009 3055 0
-3011 -3012 -3056 0
3011 3012 -3056 0
-3011 3012 3056 0
3011 -3012 3056 0
-3013 -3015 -3058 0
3013 3015 -3058 0
-3013 3015 3058 0
3013 -3015 3058 0
-3017 -3018 -3060 0
3017 3018 -3060 0
-3017 3018 3060 0
3017 -3018 3060 0
-3019 -3021 -3062 0
3019 3021 -3062 0
-3019 3021 3062 0
3019 -3021 3062 0
-3023 -3024 -3065 0
3023 3024 -3065 0
-3023 3024 3065 0
3023 -3024 3065 0
-3025 -3027 -3066 0
3025 3027 -3066 0
-3025 3027 3066 0
3025 -3027 3066 0
-3029 -3031 -3068 0
3029 3031 -3068 0
-3029 3031 3068 0
3029 -3031 3068 0
-3033 -3035 -3070 0
3033 3035 -3070 0
-3033 3035 3070 0
3033 -3035 3070 0
-3037 -3039 -3072 0
3037 3039 -3072 0
-3037 3039 3072 0
3037 -3039 3072 0
-3041 -3043 -3074 0
3041 3043 -3074 0
-3041 3043 3074 0
3041 -3043 3074 0
-3045 -3047 -3076 0
3045 3047 -3076 0
-3045 3047 3076 0
3045 -3047 3076 0
-3049 -3051 -3078 0
3049 3051 -3078 0
-3049 3051 3078 0
3049 -3051 3078 0
-3054 -3055 -3079 0
3054 3055 -3079 0
-3054 3055 3079 0
3054 -3055 3079 0
-3056 -3058 -3081 0
3056 3058 -3081 0
-3056 3058 3081 0
3056 -3058 3081 0
-3060 -3062 -3083 0
3060 3062 -3083 0
-3060 3062 3083 0
3060 -3062 3083 0
-3064 -3065 -3085 0
3064 3065 -3085 0
-3064 3065 3085 0
3064 -3065 3085 0
-3066 -3068 -3087 0
3066 3068 -3087 0
-3066 3068 3087 0
3066 -3068 3087 0
-3070 -3072 -3089 0
3070 3072 -3089 0
-3070 3072 3089 0
3070 -3072 3089 0
-3074 -3076 -3091 0
3074 3076 -3091 0
-3074 3076 3091 0
3074 -3076 3091 0
-3053 -3078 -3093 0
3053 3078 -3093 0
3053 -3078 3093 0
-3053 3078 3093 0
-3079 -3081 -3095 0
3079 3081 -3095 0
-3079 3081 3095 0
3079 -3081 3095 0
-3083 -3085 -3097 0
3083 3085 -3097 0
-3083 3085 3097 0
3083 -3085 3097 0
-3087 -3089 -3099 0
3087 3089 -3099 0
-3087 3089 3099 0
3087 -3089 3099 0
-3091 -3093 -3101 0
3091 3093 -3101 0
-3091 3093 3101 0
3091 -3093 3101 0
-3095 -3097 -3103 0
3095 3097 -3103 0
-3095 3097 3103 0
3095 -3097 3103 0
-3099 -3101 -3103 0
3099 3101 -3103 0
-3099 3101 3103 0
3099 -3101 3103 0
-3008 -3010 -3108 0
3008 3010 -3108 0
-3008 3010 3108 0
3008 -3010 3108 0
-3014 -3016 -3110 0
3014 3016 -3110 0
-3014 3016 3110 0
3014 -3016 3110 0
-3020 -3022 -3112 0
3020 3022 -3112 0
-3020 3022 3112 0
3020 -3022 3112 0
-3026 -3028 -3115 0
3026 3028 -3115 0
-3026 3028 3115 0
3026 -3028 3115 0
-3030 -3032 -3117 0
3030 3032 -3117 0
-3030 3032 3117 0
3030 -3032 3117 0
-3034 -3036 -3119 0
3034 3036 -3119 0
-3034 3036 3119 0
3034 -3036 3119 0
-3038 -3040 -3121 0
3038 3040 -3121 0
-3038 3040 3121 0
3038 -3040 3121 0
-3042 -3044 -3123 0
3042 3044 -3123 0
-3042 3044 3123 0
3042 -3044 3123 0
-3046 -3048 -3125 0
3046 3048 -3125 0
-3046 3048 3125 0
3046 -3048 3125 0
-3050 -3052 -3127 0
3050 3052 -3127 0
-3050 3052 3127 0
3050 -3052 3127 0
-3057 -3059 -3128 0
3057 3059 -3128 0
-3057 3059 3128 0
3057 -3059 3128 0
-3061 -3063 -3129 0
3061 3063 -3129 0
-3061 3063 3129 0
3061 -3063 3129 0
-3067 -3069 -3131 0
3067 3069 -3131 0
-3067 3069 3131 0
3067 -3069 3131 0
-3071 -3073 -3133 0
3071 3073 -3133 0
-3071 3073 3133 0
3071 -3073 3133 0
-3075 -3077 -3135 0
3075 3077 -3135 0
-3075 3077 3135 0
3075 -3077 3135 0
-3080 -3082 -3137 0
3080 3082 -3137 0
-3080 3082 3137 0
3080 -3082 3137 0
-3084 -3086 -3139 0
3084 3086 -3139 0
-3084 3086 3139 0
3084 -3086 3139 0
-3088 -3090 -3141 0
3088 3090 -3141 0
-3088 3090 3141 0
3088 -3090 3141 0
-3092 -3094 -3143 0
3092 3094 -3143 0
-3092 3094 3143 0
3092 -3094 3143 0
-3096 -3098 -3145 0
3096 3098 -3145 0
-3096 3098 3145 0
3096 -3098 3145 0
-3100 -3102 -3147 0
3100 3102 -3147 0
-3100 3102 3147 0
3100 -3102 3147 0
-3104 -3105 -3149 0
3104 3105 -3149 0
-3104 3105 3149 0
3104 -3105 3149 0
-3106 -3107 -3150 0
3106 3107 -3150 0
-3106 3107 3150 0
3106 -3107 3150 0
-3108 -3109 -3152 0
3108 3109 -3152 0
-3108 3109 3152 0
3108 -3109 3152 0
-3110 -3111 -3154 0
3110 3111 -3154 0
-3110 3111 3154 0
3110 -3111 3154 0
-3112 -3113 -3156 0
3112 3113 -3156 0
-3112 3113 3156 0
3112 -3113 3156 0
-3114 -3115 -3158 0
3114 3115 -3158 0
-3114 3115 3158 0
3114 -3115 3158 0
-3117 -3119 -3160 0
3117 3119 -3160 0
-3117 3119 3160 0
3117 -3119 3160 0
-3121 -3123 -3162 0
3121 3123 -3162 0
-3121 3123 3162 0
3121 -3123 3162 0
-3125 -3127 -3164 0
3125 3127 -3164 0
-3125 3127 3164 0
3125 -3127 3164 0
-3128 -3129 -3167 0
3128 3129 -3167 0
-3128 3129 3167 0
3128 -3129 3167 0
-3130 -3131 -3168 0
3130 3131 -3168 0
-3130 3131 3168 0
3130 -3131 3168 0
-3133 -3135 -3170 0
3133 3135 -3170 0
-3133 3135 3170 0
3133 -3135 3170 0
-3136 -3137 -3172 0
3136 3137 -3172 0
-3136 3137 3172 0
3136 -3137 3172 0
-3139 -3141 -3174 0
3139 3141 -3174 0
-3139 3141 3174 0
3139 -3141 3174 0
-3143 -3145 -3176 0
3143 3145 -3176 0
-3143 3145 3176 0
3143 -3145 3176 0
-3147 -3149 -3178 0
3147 3149 -3178 0
-3147 3149 3178 0
3147 -3149 3178 0
-3103 -3150 -3180 0
3103 3150 -3180 0
-3103 3150 3180 0
3103 -3150 3180 0
-3152 -3154 -3182 0
3152 3154 -3182 0
-3152 3154 3182 0
3152 -3154 3182 0
-3156 -3158 -3184 0
3156 3158 -3184 0
-3156 3158 3184 0
3156 -3158 3184 0
-3160 -3162 -3186 0
3160 3162 -3186 0
-3160 3162 3186 0
3160 -3162 3186 0
-3164 -3166 -3188 0
3164 3166 -3188 0
-3164 3166 3188 0
3164 -3166 3188 0
-3167 -3168 -3190 0
3167 3168 -3190 0
-3167 3168 3190 0
3167 -3168 3190 0
-3170 -3172 -3192 0
3170 3172 -3192 0
-3170 3172 3192 0
3170 -3172 3192 0
-3174 -3176 -3194 0
3174 3176 -3194 0
-3174 3176 3194 0
3174 -3176 3194 0
-3178 -3180 -3196 0
3178 3180 -3196 0
-3178 3180 3196 0
3178 -3180 3196 0
-3182 -3184 -3198 0
3182 3184 -3198 0
-3182 3184 3198 0
3182 -3184 3198 0
-3186 -3188 -3200 0
3186 3188 -3200 0
-3186 3188 3200 0
3186 -3188 3200 0
-3190 -3192 -3202 0
3190 3192 -3202 0
-3190 3192 3202 0
3190 -3192 3202 0
-3194 -3196 -3204 0
3194 3196 -3204 0
-3194 3196 3204 0
3194 -3196 3204 0
-3198 -3200 -3206 0
3198 3200 -3206 0
-3198 3200 3206 0
3198 -3200 3206 0
-3202 -3204 -3206 0
3202 3204 -3206 0
-3202 3204 3206 0
3202 -3204 3206 0
-3116 -3118 -3256 0
3116 3118 -3256 0
-3116 3118 3256 0
3116 -3118 3256 0
-3120 -3122 -3212 0
3120 3122 -3212 0
-3120 3122 3212 0
3120 -3122 3212 0
-3124 -3126 -3214 0
3124 3126 -3214 0
-3124 3126 3214 0
3124 -3126 3214 0
-3132 -3134 -3219 0
3132 3134 -3219 0
-3132 3134 3219 0
3132 -3134 3219 0
-3138 -3140 -3221 0
3138 3140 -3221 0
-3138 3140 3221 0
3138 -3140 3221 0
-3142 -3144 -3222 0
3142 3144 -3222 0
-3142 3144 3222 0
3142 -3144 3222 0
-3146 -3148 -3224 0
3146 3148 -3224 0
-3146 3148 3224 0
3146 -3148 3224 0
-3151 -3153 -3227 0
3151 3153 -3227 0
-3151 3153 3227 0
3151 -3153 3227 0
-3155 -3157 -3228 0
3155 3157 -3228 0
-3155 3157 3228 0
3155 -3157 3228 0
-3159 -3161 -3230 0
3159 3161 -3230 0
-3159 3161 3230 0
3159 -3161 3230 0
-3163 -3165 -3232 0
3163 3165 -3232 0
-3163 3165 3232 0
3163 -3165 3232 0
-3169 -3171 -3234 0
3169 3171 -3234 0
-3169 3171 3234 0
3169 -3171 3234 0
-3173 -3175 -3236 0
3173 3175 -3236 0
-3173 3175 3236 0
3173 -3175 3236 0
-3177 -3179 -3238 0
3177 3179 -3238 0
-3177 3179 3238 0
3177 -3179 3238 0
-3181 -3183 -3240 0
3181 3183 -3240 0
-3181 3183 3240 0
3181 -3183 3240 0
-3185 -3187 -3242 0
3185 3187 -3242 0
-3185 3187 3242 0
3185 -3187 3242 0
-3189 -3191 -3244 0
3189 3191 -3244 0
-3189 3191 3244 0
3189 -3191 3244 0
-3193 -3195 -3246 0
3193 3195 -3246 0
-3193 3195 3246 0
3193 -3195 3246 0
-3197 -3199 -3248 0
3197 3199 -3248 0
-3197 3199 3248 0
3197 -3199 3248 0
-3201 -3203 -3250 0
3201 3203 -3250 0
-3201 3203 3250 0
3201 -3203 3250 0
-3205 -3207 -3252 0
3205 3207 -3252 0
-3205 3207 3252 0
3205 -3207 3252 0
-3206 -3208 -3254 0
3206 3208 -3254 0
3206 -3208 3254 0
-3206 3208 3254 0
-3210 -3211 -3255 0
3210 3211 -3255 0
-3210 3211 3255 0
3210 -3211 3255 0
-3212 -3214 -3257 0
3212 3214 -3257 0
-3212 3214 3257 0
3212 -3214 3257 0
-3216 -3217 -3259 0
3216 3217 -3259 0
-3216 3217 3259 0
3216 -3217 3259 0
-3218 -3219 -3261 0
3218 3219 -3261 0
-3218 3219 3261 0
3218 -3219 3261 0
-3220 -3221 -3263 0
3220 3221 -3263 0
-3220 3221 3263 0
3220 -3221 3263 0
-3222 -3224 -3265 0
3222 3224 -3265 0
-3222 3224 3265 0
3222 -3224 3265 0
-3226 -3227 -3267 0
3226 3227 -3267 0
-3226 3227 3267 0
3226 -3227 3267 0
-3228 -3230 -3269 0
3228 3230 -3269 0
-3228 3230 3269 0
3228 -3230 3269 0
-3232 -3233 -3271 0
3232 3233 -3271 0
-3232 3233 3271 0
3232 -3233 3271 0
-3234 -3236 -3273 0
3234 3236 -3273 0
-3234 3236 3273 0
3234 -3236 3273 0
-3238 -3240 -3275 0
3238 3240 -3275 0
-3238 3240 3275 0
3238 -3240 3275 0
-3242 -3244 -3277 0
3242 3244 -3277 0
-3242 3244 3277 0
3242 -3244 3277 0
-3246 -3248 -3279 0
3246 3248 -3279 0
-3246 3248 3279 0
3246 -3248 3279 0
-3250 -3252 -3281 0
3250 3252 -3281 0
-3250 3252 3281 0
3250 -3252 3281 0
-3209 -3254 -3283 0
3209 3254 -3283 0
3209 -3254 3283 0
-3209 3254 3283 0
-3255 -3256 -3285 0
3255 3256 -3285 0
-3255 3256 3285 0
3255 -3256 3285 0
-3257 -3259 -3287 0
3257 3259 -3287 0
-3257 3259 3287 0
3257 -3259 3287 0
-3261 -3263 -3289 0
3261 3263 -3289 0
-3261 3263 3289 0
3261 -3263 3289 0
-3265 -3267 -3291 0
3265 3267 -3291 0
-3265 3267 3291 0
3265 -3267 3291 0
-3269 -3271 -3293 0
3269 3271 -3293 0
-3269 3271 3293 0
3269 -3271 3293 0
-3273 -3275 -3295 0
3273 3275 -3295 0
-3273 3275 3295 0
3273 -3275 3295 0
-3277 -3279 -3297 0
3277 3279 -3297 0
-3277 3279 3297 0
3277 -3279 3297 0
-3281 -3283 -3299 0
3281 3283 -3299 0
-3281 3283 3299 0
3281 -3283 3299 0
-3285 -3287 -3301 0
3285 3287 -3301 0
-3285 3287 3301 0
3285 -3287 3301 0
-3289 -3291 -3303 0
3289 3291 -3303 0
-3289 3291 3303 0
3289 -3291 3303 0
-3293 -3295 -3305 0
3293 3295 -3305 0
-3293 3295 3305 0
3293 -3295 3305 0
-3297 -3299 -3307 0
3297 3299 -3307 0
-3297 3299 3307 0
3297 -3299 3307 0
-3301 -3303 -3309 0
3301 3303 -3309 0
-3301 3303 3309 0
3301 -3303 3309 0
-3305 -3307 -3309 0
3305 3307 -3309 0
-3305 3307 3309 0
3305 -3307 3309 0
-3213 -3215 -3358 0
3213 3215 -3358 0
-3213 3215 3358 0
3213 -3215 3358 0
-3223 -3225 -3315 0
3223 3225 -3315 0
-3223 3225 3315 0
3223 -3225 3315 0
-3229 -3231 -3317 0
3229 3231 -3317 0
-3229 3231 3317 0
3229 -3231 3317 0
-3235 -3237 -3319 0
3235 3237 -3319 0
-3235 3237 3319 0
3235 -3237 3319 0
-3239 -3241 -3320 0
3239 3241 -3320 0
-3239 3241 3320 0
3239 -3241 3320 0
-3243 -3245 -3322 0
3243 3245 -3322 0
-3243 3245 3322 0
3243 -3245 3322 0
-3247 -3249 -3324 0
3247 3249 -3324 0
-3247 3249 3324 0
3247 -3249 3324 0
-3251 -3253 -3326 0
3251 3253 -3326 0
-3251 3253 3326 0
3251 -3253 3326 0
-3258 -3260 -3330 0
3258 3260 -3330 0
-3258 3260 3330 0
3258 -3260 3330 0
-3262 -3264 -3332 0
3262 3264 -3332 0
-3262 3264 3332 0
3262 -3264 3332 0
-3266 -3268 -3334 0
3266 3268 -3334 0
-3266 3268 3334 0
3266 -3268 3334 0
-3270 -3272 -3336 0
3270 3272 -3336 0
-3270 3272 3336 0
3270 -3272 3336 0
-3274 -3276 -3338 0
3274 3276 -3338 0
-3274 3276 3338 0
3274 -3276 3338 0
-3278 -3280 -3340 0
3278 3280 -3340 0
-3278 3280 3340 0
3278 -3280 3340 0
-3282 -3284 -3342 0
3282 3284 -3342 0
-3282 3284 3342 0
3282 -3284 3342 0
-3286 -3288 -3344 0
3286 3288 -3344 0
-3286 3288 3344 0
3286 -3288 3344 0
-3290 -3292 -3346 0
3290 3292 -3346 0
-3290 3292 3346 0
3290 -3292 3346 0
-3294 -3296 -3348 0
3294 3296 -3348 0
-3294 3296 3348 0
3294 -3296 3348 0
-3298 -3300 -3350 0
3298 3300 -3350 0
-3298 3300 3350 0
3298 -3300 3350 0
-3302 -3304 -3352 0
3302 3304 -3352 0
-3302 3304 3352 0
3302 -3304 3352 0
-3306 -3308 -3354 0
3306 3308 -3354 0
-3306 3308 3354 0
3306 -3308 3354 0
-3310 -3311 -3356 0
3310 3311 -3356 0
-3310 3311 3356 0
3310 -3311 3356 0
-3313 -3314 -3359 0
3313 3314 -3359 0
-3313 3314 3359 0
3313 -3314 3359 0
-3315 -3316 -3360 0
3315 3316 -3360 0
-3315 3316 3360 0
3315 -3316 3360 0
-3317 -3318 -3362 0
3317 3318 -3362 0
-3317 3318 3362 0
3317 -3318 3362 0
-3319 -3320 -3364 0
3319 3320 -3364 0
-3319 3320 3364 0
3319 -3320 3364 0
-3322 -3324 -3366 0
3322 3324 -3366 0
-3322 3324 3366 0
3322 -3324 3366 0
-3326 -3328 -3368 0
3326 3328 -3368 0
-3326 3328 3368 0
3326 -3328 3368 0
-3329 -3330 -3370 0
3329 3330 -3370 0
-3329 3330 3370 0
3329 -3330 3370 0
-3332 -3334 -3372 0
3332 3334 -3372 0
-3332 3334 3372 0
3332 -3334 3372 0
-3336 -3338 -3374 0
3336 3338 -3374 0
-3336 3338 3374 0
3336 -3338 3374 0
-3340 -3342 -3376 0
3340 3342 -3376 0
-3340 3342 3376 0
3340 -3342 3376 0
-3344 -3346 -3378 0
3344 3346 -3378 0
-3344 3346 3378 0
3344 -3346 3378 0
-3348 -3350 -3380 0
3348 3350 -3380 0
-3348 3350 3380 0
3348 -3350 3380 0
-3352 -3354 -3382 0
3352 3354 -3382 0
-3352 3354 3382 0
3352 -3354 3382 0
-3309 -3356 -3384 0
3309 3356 -3384 0
3309 -3356 3384 0
-3309 3356 3384 0
-3312 -3358 -3386 0
3312 3358 -3386 0
-3312 3358 3386 0
3312 -3358 3386 0
-3359 -3360 -3388 0
3359 3360 -3388 0
-3359 3360 3388 0
3359 -3360 3388 0
-3362 -3364 -3390 0
3362 3364 -3390 0
-3362 3364 3390 0
3362 -3364 3390 0
-3366 -3368 -3392 0
3366 3368 -3392 0
-3366 3368 3392 0
3366 -3368 3392 0
-3370 -3372 -3394 0
3370 3372 -3394 0
-3370 3372 3394 0
3370 -3372 3394 0
-3374 -3376 -3396 0
3374 3376 -3396 0
-3374 3376 3396 0
3374 -3376 3396 0
-3378 -3380 -3398 0
3378 3380 -3398 0
-3378 3380 3398 0
3378 -3380 3398 0
-3382 -3384 -3400 0
3382 3384 -3400 0
-3382 3384 3400 0
3382 -3384 3400 0
-3386 -3388 -3402 0
3386 3388 -3402 0
-3386 3388 3402 0
3386 -3388 3402 0
-3390 -3392 -3404 0
3390 3392 -3404 0
-3390 3392 3404 0
3390 -3392 3404 0
-3394 -3396 -3406 0
3394 3396 -3406 0
-3394 3396 3406 0
3394 -3396 3406 0
-3398 -3400 -3408 0
3398 3400 -3408 0
-3398 3400 3408 0
3398 -3400 3408 0
-3402 -3404 -3410 0
3402 3404 -3410 0
-3402 3404 3410 0
3402 -3404 3410 0
-3406 -3408 -3410 0
3406 3408 -3410 0
-3406 3408 3410 0
3406 -3408 3410 0
-3321 -3323 -3416 0
3321 3323 -3416 0
-3321 3323 3416 0
3321 -3323 3416 0
-3325 -3327 -3418 0
3325 3327 -3418 0
-3325 3327 3418 0
3325 -3327 3418 0
-3331 -3333 -3465 0
3331 3333 -3465 0
-3331 3333 3465 0
3331 -3333 3465 0
-3335 -3337 -3420 0
3335 3337 -3420 0
-3335 3337 3420 0
3335 -3337 3420 0
-3339 -3341 -3422 0
3339 3341 -3422 0
-3339 3341 3422 0
3339 -3341 3422 0
-3343 -3345 -3424 0
3343 3345 -3424 0
-3343 3345 3424 0
3343 -3345 3424 0
-3347 -3349 -3426 0
3347 3349 -3426 0
-3347 3349 3426 0
3347 -3349 3426 0
-3351 -3353 -3428 0
3351 3353 -3428 0
-3351 3353 3428 0
3351 -3353 3428 0
-3355 -3357 -3430 0
3355 3357 -3430 0
-3355 3357 3430 0
3355 -3357 3430 0
-3361 -3363 -3432 0
3361 3363 -3432 0
-3361 3363 3432 0
3361 -3363 3432 0
-3365 -3367 -3434 0
3365 3367 -3434 0
-3365 3367 3434 0
3365 -3367 3434 0
-3369 -3371 -3436 0
3369 3371 -3436 0
-3369 3371 3436 0
3369 -3371 3436 0
-3373 -3375 -3438 0
3373 3375 -3438 0
-3373 3375 3438 0
3373 -3375 3438 0
-3377 -3379 -3440 0
3377 3379 -3440 0
-3377 3379 3440 0
3377 -3379 3440 0
-3381 -3383 -3442 0
3381 3383 -3442 0
-3381 3383 3442 0
3381 -3383 3442 0
-3385 -3387 -3444 0
3385 3387 -3444 0
-3385 3387 3444 0
3385 -3387 3444 0
-3389 -3391 -3446 0
3389 3391 -3446 0
-3389 3391 3446 0
3389 -3391 3446 0
-3393 -3395 -3448 0
3393 3395 -3448 0
-3393 3395 3448 0
3393 -3395 3448 0
-3397 -3399 -3450 0
3397 3399 -3450 0
-3397 3399 3450 0
3397 -3399 3450 0
-3401 -3403 -3452 0
3401 3403 -3452 0
-3401 3403 3452 0
3401 -3403 3452 0
-3405 -3407 -3454 0
3405 3407 -3454 0
-3405 3407 3454 0
3405 -3407 3454 0
-3409 -3411 -3456 0
3409 3411 -3456 0
-3409 3411 3456 0
3409 -3411 3456 0
-3410 -3412 -3458 0
3410 3412 -3458 0
3410 -3412 3458 0
-3410 3412 3458 0
-3414 -3415 -3461 0
3414 3415 -3461 0
-3414 3415 3461 0
3414 -3415 3461 0
-3416 -3418 -3463 0
3416 3418 -3463 0
-3416 3418 3463 0
3416 -3418 3463 0
-3420 -3422 -3466 0
3420 3422 -3466 0
-3420 3422 3466 0
3420 -3422 3466 0
-3424 -3426 -3467 0
3424 3426 -3467 0
-3424 3426 3467 0
3424 -3426 3467 0
-3428 -3430 -3469 0
3428 3430 -3469 0
-3428 3430 3469 0
3428 -3430 3469 0
-3432 -3434 -3472 0
3432 3434 -3472 0
-3432 3434 3472 0
3432 -3434 3472 0
-3436 -3438 -3473 0
3436 3438 -3473 0
-3436 3438 3473 0
3436 -3438 3473 0
-3440 -3442 -3475 0
3440 3442 -3475 0
-3440 3442 3475 0
3440 -3442 3475 0
-3444 -3446 -3477 0
3444 3446 -3477 0
-3444 3446 3477 0
3444 -3446 3477 0
-3448 -3450 -3479 0
3448 3450 -3479 0
-3448 3450 3479 0
3448 -3450 3479 0
-3452 -3454 -3481 0
3452 3454 -3481 0
-3452 3454 3481 0
3452 -3454 3481 0
-3456 -3458 -3483 0
3456 3458 -3483 0
-3456 3458 3483 0
3456 -3458 3483 0
-3413 -3460 -3485 0
3413 3460 -3485 0
-3413 3460 3485 0
3413 -3460 3485 0
-3461 -3463 -3487 0
3461 3463 -3487 0
-3461 3463 3487 0
3461 -3463 3487 0
-3465 -3466 -3489 0
3465 3466 -3489 0
-3465 3466 3489 0
3465 -3466 3489 0
-3467 -3469 -3491 0
3467 3469 -3491 0
-3467 3469 3491 0
3467 -3469 3491 0
-3471 -3472 -3493 0
3471 3472 -3493 0
-3471 3472 3493 0
3471 -3472 3493 0
-3473 -3475 -3495 0
3473 3475 -3495 0
-3473 3475 3495 0
3473 -3475 3495 0
-3477 -3479 -3497 0
3477 3479 -3497 0
-3477 3479 3497 0
3477 -3479 3497 0
-3481 -3483 -3499 0
3481 3483 -3499 0
-3481 3483 3499 0
3481 -3483 3499 0
-3485 -3487 -3501 0
3485 3487 -3501 0
-3485 3487 3501 0
3485 -3487 3501 0
-3489 -3491 -3503 0
3489 3491 -3503 0
-3489 3491 3503 0
3489 -3491 3503 0
-3493 -3495 -3505 0
3493 3495 -3505 0
-3493 3495 3505 0
3493 -3495 3505 0
-3497 -3499 -3507 0
3497 3499 -3507 0
-3497 3499 3507 0
3497 -3499 3507 0
-3501 -3503 -3509 0
3501 3503 -3509 0
-3501 3503 3509 0
3501 -3503 3509 0
-3505 -3507 -3509 0
3505 3507 -3509 0
-3505 3507 3509 0
3505 -3507 3509 0
-3417 -3419 -3512 0
3417 3419 -3512 0
-3417 3419 3512 0
3417 -3419 3512 0
-3421 -3423 -3514 0
3421 3423 -3514 0
-3421 3423 3514 0
3421 -3423 3514 0
-3425 -3427 -3515 0
3425 3427 -3515 0
-3425 3427 3515 0
3425 -3427 3515 0
-3429 -3431 -3554 0
3429 3431 -3554 0
-3429 3431 3554 0
3429 -3431 3554 0
-3433 -3435 -3518 0
3433 3435 -3518 0
-3433 3435 3518 0
3433 -3435 3518 0
-3437 -3439 -3519 0
3437 3439 -3519 0
-3437 3439 3519 0
3437 -3439 3519 0
-3441 -3443 -3521 0
3441 3443 -3521 0
-3441 3443 3521 0
3441 -3443 3521 0
-3445 -3447 -3523 0
3445 3447 -3523 0
-3445 3447 3523 0
3445 -3447 3523 0
-3449 -3451 -3525 0
3449 3451 -3525 0
-3449 3451 3525 0
3449 -3451 3525 0
-3453 -3455 -3527 0
3453 3455 -3527 0
-3453 3455 3527 0
3453 -3455 3527 0
-3457 -3459 -3560 0
3457 3459 -3560 0
-3457 3459 3560 0
3457 -3459 3560 0
-3462 -3464 -3530 0
3462 3464 -3530 0
-3462 3464 3530 0
3462 -3464 3530 0
-3468 -3470 -3532 0
3468 3470 -3532 0
-3468 3470 3532 0
3468 -3470 3532 0
-3474 -3476 -3534 0
3474 3476 -3534 0
-3474 3476 3534 0
3474 -3476 3534 0
-3478 -3480 -3535 0
3478 3480 -3535 0
-3478 3480 3535 0
3478 -3480 3535 0
-3482 -3484 -3537 0
3482 3484 -3537 0
-3482 3484 3537 0
3482 -3484 3537 0
-3486 -3488 -3539 0
3486 3488 -3539 0
-3486 3488 3539 0
3486 -3488 3539 0
-3490 -3492 -3541 0
3490 3492 -3541 0
-3490 3492 3541 0
3490 -3492 3541 0
-3494 -3496 -3543 0
3494 3496 -3543 0
-3494 3496 3543 0
3494 -3496 3543 0
-3498 -3500 -3545 0
3498 3500 -3545 0
-3498 3500 3545 0
3498 -3500 3545 0
-3502 -3504 -3547 0
3502 3504 -3547 0
-3502 3504 3547 0
3502 -3504 3547 0
-3506 -3508 -3549 0
3506 3508 -3549 0
-3506 3508 3549 0
3506 -3508 3549 0
-3510 -3511 -3551 0
3510 3511 -3551 0
-3510 3511 3551 0
3510 -3511 3551 0
-3512 -3513 -3552 0
3512 3513 -3552 0
-3512 3513 3552 0
3512 -3513 3552 0
-3514 -3515 -3553 0
3514 3515 -3553 0
-3514 3515 3553 0
3514 -3515 3553 0
-3518 -3519 -3555 0
3518 3519 -3555 0
-3518 3519 3555 0
3518 -3519 3555 0
-3521 -3523 -3557 0
3521 3523 -3557 0
-3521 3523 3557 0
3521 -3523 3557 0
-3525 -3527 -3559 0
3525 3527 -3559 0
-3525 3527 3559 0
3525 -3527 3559 0
-3530 -3531 -3561 0
3530 3531 -3561 0
-3530 3531 3561 0
3530 -3531 3561 0
-3532 -3533 -3563 0
3532 3533 -3563 0
-3532 3533 3563 0
3532 -3533 3563 0
-3534 -3535 -3565 0
3534 3535 -3565 0
-3534 3535 3565 0
3534 -3535 3565 0
-3537 -3539 -3567 0
3537 3539 -3567 0
-3537 3539 3567 0
3537 -3539 3567 0
-3541 -3543 -3569 0
3541 3543 -3569 0
-3541 3543 3569 0
3541 -3543 3569 0
-3545 -3547 -3571 0
3545 3547 -3571 0
-3545 3547 3571 0
3545 -3547 3571 0
-3549 -3551 -3573 0
3549 3551 -3573 0
-3549 3551 3573 0
3549 -3551 3573 0
-3552 -3553 -3574 0
3552 3553 -3574 0
-3552 3553 3574 0
3552 -3553 3574 0
-3554 -3555 -3576 0
3554 3555 -3576 0
-3554 3555 3576 0
3554 -3555 3576 0
-3557 -3559 -3578 0
3557 3559 -3578 0
-3557 3559 3578 0
3557 -3559 3578 0
-3560 -3561 -3580 0
3560 3561 -3580 0
-3560 3561 3580 0
3560 -3561 3580 0
-3563 -3565 -3582 0
3563 3565 -3582 0
-3563 3565 3582 0
3563 -3565 3582 0
-3567 -3569 -3584 0
3567 3569 -3584 0
-3567 3569 3584 0
3567 -3569 3584 0
-3571 -3573 -3586 0
3571 3573 -3586 0
-3571 3573 3586 0
3571 -3573 3586 0
-3509 -3574 -3588 0
3509 3574 -3588 0
-3509 3574 3588 0
3509 -3574 3588 0
-3576 -3578 -3590 0
3576 3578 -3590 0
-3576 3578 3590 0
3576 -3578 3590 0
-3580 -3582 -3592 0
3580 3582 -3592 0
-3580 3582 3592 0
3580 -3582 3592 0
-3584 -3586 -3594 0
3584 3586 -3594 0
-3584 3586 3594 0
3584 -3586 3594 0
-3588 -3590 -3596 0
3588 3590 -3596 0
-3588 3590 3596 0
3588 -3590 3596 0
-3592 -3594 -3596 0
3592 3594 -3596 0
-3592 3594 3596 0
3592 -3594 3596 0
-3516 -3517 -3601 0
3516 3517 -3601 0
-3516 3517 3601 0
3516 -3517 3601 0
-3520 -3522 -3603 0
3520 3522 -3603 0
-3520 3522 3603 0
3520 -3522 3603 0
-3524 -3526 -3604 0
3524 3526 -3604 0
-3524 3526 3604 0
3524 -3526 3604 0
-3528 -3529 -3606 0
3528 3529 -3606 0
-3528 3529 3606 0
3528 -3529 3606 0
-3536 -3538 -3611 0
3536 3538 -3611 0
-3536 3538 3611 0
3536 -3538 3611 0
-3540 -3542 -3612 0
3540 3542 -3612 0
-3540 3542 3612 0
3540 -3542 3612 0
-3544 -3546 -3614 0
3544 3546 -3614 0
-3544 3546 3614 0
3544 -3546 3614 0
-3548 -3550 -3616 0
3548 3550 -3616 0
-3548 3550 3616 0
3548 -3550 3616 0
-3556 -3558 -3620 0
3556 3558 -3620 0
-3556 3558 3620 0
3556 -3558 3620 0
-3562 -3564 -3622 0
3562 3564 -3622 0
-3562 3564 3622 0
3562 -3564 3622 0
-3566 -3568 -3624 0
3566 3568 -3624 0
-3566 3568 3624 0
3566 -3568 3624 0
-3570 -3572 -3626 0
3570 3572 -3626 0
-3570 3572 3626 0
3570 -3572 3626 0
-3575 -3577 -3628 0
3575 3577 -3628 0
-3575 3577 3628 0
3575 -3577 3628 0
-3579 -3581 -3630 0
3579 3581 -3630 0
-3579 3581 3630 0
3579 -3581 3630 0
-3583 -3585 -3632 0
3583 3585 -3632 0
-3583 3585 3632 0
3583 -3585 3632 0
-3587 -3589 -3634 0
3587 3589 -3634 0
-3587 3589 3634 0
3587 -3589 3634 0
-3591 -3593 -3636 0
3591 3593 -3636 0
-3591 3593 3636 0
3591 -3593 3636 0
-3595 -3597 -3638 0
3595 3597 -3638 0
-3595 3597 3638 0
3595 -3597 3638 0
-3596 -3598 -3640 0
3596 3598 -3640 0
3596 -3598 3640 0
-3596 3598 3640 0
-3600 -3601 -3641 0
3600 3601 -3641 0
-3600 3601 3641 0
3600 -3601 3641 0
-3602 -3603 -3643 0
3602 3603 -3643 0
-3602 3603 3643 0
3602 -3603 3643 0
-3604 -3606 -3645 0
3604 3606 -3645 0
-3604 3606 3645 0
3604 -3606 3645 0
-3608 -3609 -3647 0
3608 3609 -3647 0
-3608 3609 3647 0
3608 -3609 3647 0
-3610 -3611 -3649 0
3610 3611 -3649 0
-3610 3611 3649 0
3610 -3611 3649 0
-3612 -3614 -3651 0
3612 3614 -3651 0
-3612 3614 3651 0
3612 -3614 3651 0
-3616 -3617 -3653 0
3616 3617 -3653 0
-3616 3617 3653 0
3616 -3617 3653 0
-3618 -3619 -3655 0
3618 3619 -3655 0
-3618 3619 3655 0
3618 -3619 3655 0
-3620 -3621 -3657 0
3620 3621 -3657 0
-3620 3621 3657 0
3620 -3621 3657 0
-3622 -3624 -3659 0
3622 3624 -3659 0
-3622 3624 3659 0
3622 -3624 3659 0
-3626 -3627 -3661 0
3626 3627 -3661 0
-3626 3627 3661 0
3626 -3627 3661 0
-3628 -3630 -3663 0
3628 3630 -3663 0
-3628 3630 3663 0
3628 -3630 3663 0
-3632 -3634 -3665 0
3632 3634 -3665 0
-3632 3634 3665 0
3632 -3634 3665 0
-3636 -3638 -3667 0
3636 3638 -3667 0
-3636 3638 3667 0
3636 -3638 3667 0
-3599 -3640 -3669 0
3599 3640 -3669 0
3599 -3640 3669 0
-3599 3640 3669 0
-3641 -3643 -3671 0
3641 3643 -3671 0
-3641 3643 3671 0
3641 -3643 3671 0
-3645 -3647 -3673 0
3645 3647 -3673 0
-3645 3647 3673 0
3645 -3647 3673 0
-3649 -3651 -3675 0
3649 3651 -3675 0
-3649 3651 3675 0
3649 -3651 3675 0
-3653 -3655 -3677 0
3653 3655 -3677 0
-3653 3655 3677 0
3653 -3655 3677 0
-3657 -3659 -3679 0
3657 3659 -3679 0
-3657 3659 3679 0
3657 -3659 3679 0
-3661 -3663 -3681 0
3661 3663 -3681 0
-3661 3663 3681 0
3661 -3663 3681 0
-3665 -3667 -3683 0
3665 3667 -3683 0
-3665 3667 3683 0
3665 -3667 3683 0
-3669 -3671 -3685 0
3669 3671 -3685 0
-3669 3671 3685 0
3669 -3671 3685 0
-3673 -3675 -3687 0
3673 3675 -3687 0
-3673 3675 3687 0
3673 -3675 3687 0
-3677 -3679 -3689 0
3677 3679 -3689 0
-3677 3679 3689 0
3677 -3679 3689 0
-3681 -3683 -3691 0
3681 3683 -3691 0
-3681 3683 3691 0
3681 -3683 3691 0
-3685 -3687 -3693 0
3685 3687 -3693 0
-3685 3687 3693 0
3685 -3687 3693 0
-3689 -3691 -3693 0
3689 3691 -3693 0
-3689 3691 3693 0
3689 -3691 3693 0
-3605 -3607 -3739 0
3605 3607 -3739 0
-3605 3607 3739 0
3605 -3607 3739 0
-3613 -3615 -3699 0
3613 3615 -3699 0
-3613 3615 3699 0
3613 -3615 3699 0
-3623 -3625 -3702 0
3623 3625 -3702 0
-3623 3625 3702 0
3623 -3625 3702 0
-3629 -3631 -3704 0
3629 3631 -3704 0
-3629 3631 3704 0
3629 -3631 3704 0
-3633 -3635 -3706 0
3633 3635 -3706 0
-3633 3635 3706 0
3633 -3635 3706 0
-3637 -3639 -3708 0
3637 3639 -3708 0
-3637 3639 3708 0
3637 -3639 3708 0
-3642 -3644 -3710 0
3642 3644 -3710 0
-3642 3644 3710 0
3642 -3644 3710 0
-3646 -3648 -3712 0
3646 3648 -3712 0
-3646 3648 3712 0
3646 -3648 3712 0
-3650 -3652 -3714 0
3650 3652 -3714 0
-3650 3652 3714 0
3650 -3652 3714 0
-3654 -3656 -3716 0
3654 3656 -3716 0
-3654 3656 3716 0
3654 -3656 3716 0
-3658 -3660 -3718 0
3658 3660 -3718 0
-3658 3660 3718 0
3658 -3660 3718 0
-3662 -3664 -3720 0
3662 3664 -3720 0
-3662 3664 3720 0
3662 -3664 3720 0
-3666 -3668 -3722 0
3666 3668 -3722 0
-3666 3668 3722 0
3666 -3668 3722 0
-3670 -3672 -3724 0
3670 3672 -3724 0
-3670 3672 3724 0
3670 -3672 3724 0
-3674 -3676 -3726 0
3674 3676 -3726 0
-3674 3676 3726 0
3674 -3676 3726 0
-3678 -3680 -3728 0
3678 3680 -3728 0
-3678 3680 3728 0
3678 -3680 3728 0
-3682 -3684 -3730 0
3682 3684 -3730 0
-3682 3684 3730 0
3682 -3684 3730 0
-3686 -3688 -3732 0
3686 3688 -3732 0
-3686 3688 3732 0
3686 -3688 3732 0
-3690 -3692 -3734 0
3690 3692 -3734 0
-3690 3692 3734 0
3690 -3692 3734 0
-3694 -3695 -3736 0
3694 3695 -3736 0
-3694 3695 3736 0
3694 -3695 3736 0
-3696 -3697 -3738 0
3696 3697 -3738 0
-3696 3697 3738 0
3696 -3697 3738 0
-3698 -3699 -3740 0
3698 3699 -3740 0
-3698 3699 3740 0
3698 -3699 3740 0
-3701 -3702 -3741 0
3701 3702 -3741 0
-3701 3702 3741 0
3701 -3702 3741 0
-3703 -3704 -3742 0
3703 3704 -3742 0
-3703 3704 3742 0
3703 -3704 3742 0
-3706 -3708 -3744 0
3706 3708 -3744 0
-3706 3708 3744 0
3706 -3708 3744 0
-3709 -3710 -3746 0
3709 3710 -3746 0
-3709 3710 3746 0
3709 -3710 3746 0
-3712 -3714 -3748 0
3712 3714 -3748 0
-3712 3714 3748 0
3712 -3714 3748 0
-3716 -3718 -3750 0
3716 3718 -3750 0
-3716 3718 3750 0
3716 -3718 3750 0
-3720 -3722 -3752 0
3720 3722 -3752 0
-3720 3722 3752 0
3720 -3722 3752 0
-3724 -3726 -3754 0
3724 3726 -3754 0
-3724 3726 3754 0
3724 -3726 3754 0
-3728 -3730 -3756 0
3728 3730 -3756 0
-3728 3730 3756 0
3728 -3730 3756 0
-3732 -3734 -3758 0
3732 3734 -3758 0
-3732 3734 3758 0
3732 -3734 3758 0
-3693 -3736 -3760 0
3693 3736 -3760 0
3693 -3736 3760 0
-3693 3736 3760 0
-3738 -3739 -3762 0
3738 3739 -3762 0
-3738 3739 3762 0
3738 -3739 3762 0
-3700 -3740 -3764 0
3700 3740 -3764 0
3700 -3740 3764 0
-3700 3740 3764 0
-3741 -3742 -3766 0
3741 3742 -3766 0
-3741 3742 3766 0
3741 -3742 3766 0
-3744 -3746 -3768 0
3744 3746 -3768 0
-3744 3746 3768 0
3744 -3746 3768 0
-3748 -3750 -3770 0
3748 3750 -3770 0
-3748 3750 3770 0
3748 -3750 3770 0
-3752 -3754 -3772 0
3752 3754 -3772 0
-3752 3754 3772 0
3752 -3754 3772 0
-3756 -3758 -3774 0
3756 3758 -3774 0
-3756 3758 3774 0
3756 -3758 3774 0
-3760 -3762 -3776 0
3760 3762 -3776 0
-3760 3762 3776 0
3760 -3762 3776 0
-3764 -3766 -3778 0
3764 3766 -3778 0
-3764 3766 3778 0
3764 -3766 3778 0
-3768 -3770 -3780 0
3768 3770 -3780 0
-3768 3770 3780 0
3768 -3770 3780 0
-3772 -3774 -3782 0
3772 3774 -3782 0
-3772 3774 3782 0
3772 -3774 3782 0
-3776 -3778 -3784 0
3776 3778 -3784 0
-3776 3778 3784 0
3776 -3778 3784 0
-3780 -3782 -3784 0
3780 3782 -3784 0
-3780 3782 3784 0
3780 -3782 3784 0
-3705 -3707 -3789 0
3705 3707 -3789 0
-3705 3707 3789 0
3705 -3707 3789 0
-3711 -3713 -3791 0
3711 3713 -3791 0
-3711 3713 3791 0
3711 -3713 3791 0
-3715 -3717 -3793 0
3715 3717 -3793 0
-3715 3717 3793 0
3715 -3717 3793 0
-3719 -3721 -3795 0
3719 3721 -3795 0
-3719 3721 3795 0
3719 -3721 3795 0
-3723 -3725 -3797 0
3723 3725 -3797 0
-3723 3725 3797 0
3723 -3725 3797 0
-3727 -3729 -3799 0
3727 3729 -3799 0
-3727 3729 3799 0
3727 -3729 3799 0
-3731 -3733 -3801 0
3731 3733 -3801 0
-3731 3733 3801 0
3731 -3733 3801 0
-3735 -3737 -3803 0
3735 3737 -3803 0
-3735 3737 3803 0
3735 -3737 3803 0
-3743 -3745 -3807 0
3743 3745 -3807 0
-3743 3745 3807 0
3743 -3745 3807 0
-3747 -3749 -3809 0
3747 3749 -3809 0
-3747 3749 3809 0
3747 -3749 3809 0
-3751 -3753 -3811 0
3751 3753 -3811 0
-3751 3753 3811 0
3751 -3753 3811 0
-3755 -3757 -3813 0
3755 3757 -3813 0
-3755 3757 3813 0
3755 -3757 3813 0
-3759 -3761 -3815 0
3759 3761 -3815 0
-3759 3761 3815 0
3759 -3761 3815 0
-3763 -3765 -3817 0
3763 3765 -3817 0
-3763 3765 3817 0
3763 -3765 3817 0
-3767 -3769 -3819 0
3767 3769 -3819 0
-3767 3769 3819 0
3767 -3769 3819 0
-3771 -3773 -3821 0
3771 3773 -3821 0
-3771 3773 3821 0
3771 -3773 3821 0
-3775 -3777 -3823 0
3775 3777 -3823 0
-3775 3777 3823 0
3775 -3777 3823 0
-3779 -3781 -3825 0
3779 3781 -3825 0
-3779 3781 3825 0
3779 -3781 3825 0
-3783 -3785 -3827 0
3783 3785 -3827 0
-3783 3785 3827 0
3783 -3785 3827 0
-3784 -3786 -3829 0
3784 3786 -3829 0
3784 -3786 3829 0
-3784 3786 3829 0
-3789 -3790 -3832 0
3789 3790 -3832 0
-3789 3790 3832 0
3789 -3790 3832 0
-3791 -3793 -3833 0
3791 3793 -3833 0
-3791 3793 3833 0
3791 -3793 3833 0
-3795 -3797 -3835 0
3795 3797 -3835 0
-3795 3797 3835 0
3795 -3797 3835 0
-3799 -3801 -3837 0
3799 3801 -3837 0
-3799 3801 3837 0
3799 -3801 3837 0
-3803 -3804 -3839 0
3803 3804 -3839 0
-3803 3804 3839 0
3803 -3804 3839 0
-3805 -3806 -3841 0
3805 3806 -3841 0
-3805 3806 3841 0
3805 -3806 3841 0
-3807 -3809 -3843 0
3807 3809 -3843 0
-3807 3809 3843 0
3807 -3809 3843 0
-3811 -3813 -3845 0
3811 3813 -3845 0
-3811 3813 3845 0
3811 -3813 3845 0
-3815 -3817 -3847 0
3815 3817 -3847 0
-3815 3817 3847 0
3815 -3817 3847 0
-3819 -3821 -3849 0
3819 3821 -3849 0
-3819 3821 3849 0
3819 -3821 3849 0
-3823 -3825 -3851 0
3823 3825 -3851 0
-3823 3825 3851 0
3823 -3825 3851 0
-3827 -3829 -3853 0
3827 3829 -3853 0
-3827 3829 3853 0
3827 -3829 3853 0
-3787 -3788 -3855 0
3787 3788 -3855 0
-3787 3788 3855 0
3787 -3788 3855 0
-3831 -3832 -3857 0
3831 3832 -3857 0
-3831 3832 3857 0
3831 -3832 3857 0
-3833 -3835 -3859 0
3833 3835 -3859 0
-3833 3835 3859 0
3833 -3835 3859 0
-3837 -3839 -3861 0
3837 3839 -3861 0
-3837 3839 3861 0
3837 -3839 3861 0
-3841 -3843 -3863 0
3841 3843 -3863 0
-3841 3843 3863 0
3841 -3843 3863 0
-3845 -3847 -3865 0
3845 3847 -3865 0
-3845 3847 3865 0
3845 -3847 3865 0
-3849 -3851 -3867 0
3849 3851 -3867 0
-3849 3851 3867 0
3849 -3851 3867 0
-3853 -3855 -3869 0
3853 3855 -3869 0
-3853 3855 3869 0
3853 -3855 3869 0
-3857 -3859 -3871 0
3857 3859 -3871 0
-3857 3859 3871 0
3857 -3859 3871 0
-3861 -3863 -3873 0
3861 3863 -3873 0
-3861 3863 3873 0
3861 -3863 3873 0
-3865 -3867 -3875 0
3865 3867 -3875 0
-3865 3867 3875 0
3865 -3867 3875 0
-3869 -3871 -3877 0
3869 3871 -3877 0
-3869 3871 3877 0
3869 -3871 3877 0
-3873 -3875 -3877 0
3873 3875 -3877 0
-3873 3875 3877 0
3873 -3875 3877 0
-3792 -3794 -3881 0
3792 3794 -3881 0
-3792 3794 3881 0
3792 -3794 3881 0
-3796 -3798 -3883 0
3796 3798 -3883 0
-3796 3798 3883 0
3796 -3798 3883 0
-3800 -3802 -3885 0
3800 3802 -3885 0
-3800 3802 3885 0
3800 -3802 3885 0
-3808 -3810 -3887 0
3808 3810 -3887 0
-3808 3810 3887 0
3808 -3810 3887 0
-3812 -3814 -3888 0
3812 3814 -3888 0
-3812 3814 3888 0
3812 -3814 3888 0
-3816 -3818 -3890 0
3816 3818 -3890 0
-3816 3818 3890 0
3816 -3818 3890 0
-3820 -3822 -3892 0
3820 3822 -3892 0
-3820 3822 3892 0
3820 -3822 3892 0
-3824 -3826 -3894 0
3824 3826 -3894 0
-3824 3826 3894 0
3824 -3826 3894 0
-3828 -3830 -3896 0
3828 3830 -3896 0
-3828 3830 3896 0
3828 -3830 3896 0
-3834 -3836 -3897 0
3834 3836 -3897 0
-3834 3836 3897 0
3834 -3836 3897 0
-3838 -3840 -3898 0
3838 3840 -3898 0
-3838 3840 3898 0
3838 -3840 3898 0
-3842 -3844 -3900 0
3842 3844 -3900 0
-3842 3844 3900 0
3842 -3844 3900 0
-3846 -3848 -3902 0
3846 3848 -3902 0
-3846 3848 3902 0
3846 -3848 3902 0
-3850 -3852 -3904 0
3850 3852 -3904 0
-3850 3852 3904 0
3850 -3852 3904 0
-3854 -3856 -3906 0
3854 3856 -3906 0
-3854 3856 3906 0
3854 -3856 3906 0
-3858 -3860 -3908 0
3858 3860 -3908 0
-3858 3860 3908 0
3858 -3860 3908 0
-3862 -3864 -3910 0
3862 3864 -3910 0
-3862 3864 3910 0
3862 -3864 3910 0
-3866 -3868 -3912 0
3866 3868 -3912 0
-3866 3868 3912 0
3866 -3868 3912 0
-3870 -3872 -3914 0
3870 3872 -3914 0
-3870 3872 3914 0
3870 -3872 3914 0
-3874 -3876 -3916 0
3874 3876 -3916 0
-3874 3876 3916 0
3874 -3876 3916 0
-3878 -3879 -3918 0
3878 3879 -3918 0
-3878 3879 3918 0
3878 -3879 3918 0
-3880 -3881 -3919 0
3880 3881 -3919 0
-3880 3881 3919 0
3880 -3881 3919 0
-3883 -3885 -3920 0
3883 3885 -3920 0
-3883 3885 3920 0
3883 -3885 3920 0
-3887 -3888 -3921 0
3887 3888 -3921 0
-3887 3888 3921 0
3887 -3888 3921 0
-3890 -3892 -3923 0
3890 3892 -3923 0
-3890 3892 3923 0
3890 -3892 3923 0
-3894 -3896 -3925 0
3894 3896 -3925 0
-3894 3896 3925 0
3894 -3896 3925 0
-3897 -3898 -3927 0
3897 3898 -3927 0
-3897 3898 3927 0
3897 -3898 3927 0
-3900 -3902 -3929 0
3900 3902 -3929 0
-3900 3902 3929 0
3900 -3902 3929 0
-3904 -3906 -3931 0
3904 3906 -3931 0
-3904 3906 3931 0
3904 -3906 3931 0
-3908 -3910 -3933 0
3908 3910 -3933 0
-3908 3910 3933 0
3908 -3910 3933 0
-3912 -3914 -3935 0
3912 3914 -3935 0
-3912 3914 3935 0
3912 -3914 3935 0
-3916 -3918 -3937 0
3916 3918 -3937 0
-3916 3918 3937 0
3916 -3918 3937 0
-3919 -3920 -3939 0
3919 3920 -3939 0
-3919 3920 3939 0
3919 -3920 3939 0
-3886 -3921 -3940 0
3886 3921 -3940 0
-3886 3921 3940 0
3886 -3921 3940 0
-3923 -3925 -3942 0
3923 3925 -3942 0
-3923 3925 3942 0
3923 -3925 3942 0
-3926 -3927 -3944 0
3926 3927 -3944 0
-3926 3927 3944 0
3926 -3927 3944 0
-3929 -3931 -3946 0
3929 3931 -3946 0
-3929 3931 3946 0
3929 -3931 3946 0
-3933 -3935 -3948 0
3933 3935 -3948 0
-3933 3935 3948 0
3933 -3935 3948 0
-3877 -3937 -3950 0
3877 3937 -3950 0
3877 -3937 3950 0
-3877 3937 3950 0
-3939 -3940 -3952 0
3939 3940 -3952 0
-3939 3940 3952 0
3939 -3940 3952 0
-3942 -3944 -3954 0
3942 3944 -3954 0
-3942 3944 3954 0
3942 -3944 3954 0
-3946 -3948 -3956 0
3946 3948 -3956 0
-3946 3948 3956 0
3946 -3948 3956 0
-3950 -3952 -3958 0
3950 3952 -3958 0
-3950 3952 3958 0
3950 -3952 3958 0
-3954 -3956 -3958 0
3954 3956 -3958 0
-3954 3956 3958 0
3954 -3956 3958 0
-3882 -3884 -3961 0
3882 3884 -3961 0
-3882 3884 3961 0
3882 -3884 3961 0
-3889 -3891 -3964 0
3889 3891 -3964 0
-3889 3891 3964 0
3889 -3891 3964 0
-3893 -3895 -3965 0
3893 3895 -3965 0
-3893 3895 3965 0
3893 -3895 3965 0
-3899 -3901 -3968 0
3899 3901 -3968 0
-3899 3901 3968 0
3899 -3901 3968 0
-3903 -3905 -3969 0
3903 3905 -3969 0
-3903 3905 3969 0
3903 -3905 3969 0
-3907 -3909 -3971 0
3907 3909 -3971 0
-3907 3909 3971 0
3907 -3909 3971 0
-3911 -3913 -3973 0
3911 3913 -3973 0
-3911 3913 3973 0
3911 -3913 3973 0
-3915 -3917 -3975 0
3915 3917 -3975 0
-3915 3917 3975 0
3915 -3917 3975 0
-3922 -3924 -3980 0
3922 3924 -3980 0
-3922 3924 3980 0
3922 -3924 3980 0
-3928 -3930 -3982 0
3928 3930 -3982 0
-3928 3930 3982 0
3928 -3930 3982 0
-3932 -3934 -3983 0
3932 3934 -3983 0
-3932 3934 3983 0
3932 -3934 3983 0
-3936 -3938 -3985 0
3936 3938 -3985 0
-3936 3938 3985 0
3936 -3938 3985 0
-3941 -3943 -3988 0
3941 3943 -3988 0
-3941 3943 3988 0
3941 -3943 3988 0
-3945 -3947 -3989 0
3945 3947 -3989 0
-3945 3947 3989 0
3945 -3947 3989 0
-3949 -3951 -3991 0
3949 3951 -3991 0
-3949 3951 3991 0
3949 -3951 3991 0
-3953 -3955 -3993 0
3953 3955 -3993 0
-3953 3955 3993 0
3953 -3955 3993 0
-3957 -3959 -3995 0
3957 3959 -3995 0
-3957 3959 3995 0
3957 -3959 3995 0
-3958 -3960 -4022 0
3958 3960 -4022 0
3958 -3960 4022 0
-3958 3960 4022 0
-3961 -3962 -3997 0
3961 3962 -3997 0
-3961 3962 3997 0
3961 -3962 3997 0
-3963 -3964 -3999 0
3963 3964 -3999 0
-3963 3964 3999 0
3963 -3964 3999 0
-3965 -3966 -4001 0
3965 3966 -4001 0
-3965 3966 4001 0
3965 -3966 4001 0
-3967 -3968 -4003 0
3967 3968 -4003 0
-3967 3968 4003 0
3967 -3968 4003 0
-3969 -3971 -4005 0
3969 3971 -4005 0
-3969 3971 4005 0
3969 -3971 4005 0
-3973 -3975 -4007 0
3973 3975 -4007 0
-3973 3975 4007 0
3973 -3975 4007 0
-3977 -3978 -4009 0
3977 3978 -4009 0
-3977 3978 4009 0
3977 -3978 4009 0
-3979 -3980 -4011 0
3979 3980 -4011 0
-3979 3980 4011 0
3979 -3980 4011 0
-3981 -3982 -4013 0
3981 3982 -4013 0
-3981 3982 4013 0
3981 -3982 4013 0
-3983 -3985 -4015 0
3983 3985 -4015 0
-3983 3985 4015 0
3983 -3985 4015 0
-3987 -3988 -4017 0
3987 3988 -4017 0
-3987 3988 4017 0
3987 -3988 4017 0
-3989 -3991 -4019 0
3989 3991 -4019 0
-3989 3991 4019 0
3989 -3991 4019 0
-3993 -3995 -4021 0
3993 3995 -4021 0
-3993 3995 4021 0
3993 -3995 4021 0
-3997 -3999 -4023 0
3997 3999 -4023 0
-3997 3999 4023 0
3997 -3999 4023 0
-4001 -4003 -4025 0
4001 4003 -4025 0
-4001 4003 4025 0
4001 -4003 4025 0
-4005 -4007 -4027 0
4005 4007 -4027 0
-4005 4007 4027 0
4005 -4007 4027 0
-4009 -4011 -4029 0
4009 4011 -4029 0
-4009 4011 4029 0
4009 -4011 4029 0
-4013 -4015 -4031 0
4013 4015 -4031 0
-4013 4015 4031 0
4013 -4015 4031 0
-4017 -4019 -4033 0
4017 4019 -4033 0
-4017 4019 4033 0
4017 -4019 4033 0
-4021 -4022 -4035 0
4021 4022 -4035 0
-4021 4022 4035 0
4021 -4022 4035 0
-4023 -4025 -4037 0
4023 4025 -4037 0
-4023 4025 4037 0
4023 -4025 4037 0
-4027 -4029 -4039 0
4027 4029 -4039 0
-4027 4029 4039 0
4027 -4029 4039 0
-4031 -4033 -4041 0
4031 4033 -4041 0
-4031 4033 4041 0
4031 -4033 4041 0
-4035 -4037 -4043 0
4035 4037 -4043 0
-4035 4037 4043 0
4035 -4037 4043 0
-4039 -4041 -4043 0
4039 4041 -4043 0
-4039 4041 4043 0
4039 -4041 4043 0
-3970 -3972 -4050 0
3970 3972 -4050 0
-3970 3972 4050 0
3970 -3972 4050 0
-3974 -3976 -4051 0
3974 3976 -4051 0
-3974 3976 4051 0
3974 -3976 4051 0
-3984 -3986 -4053 0
3984 3986 -4053 0
-3984 3986 4053 0
3984 -3986 4053 0
-3990 -3992 -4055 0
3990 3992 -4055 0
-3990 3992 4055 0
3990 -3992 4055 0
-3994 -3996 -4057 0
3994 3996 -4057 0
-3994 3996 4057 0
3994 -3996 4057 0
-3998 -4000 -4060 0
3998 4000 -4060 0
-3998 4000 4060 0
3998 -4000 4060 0
-4002 -4004 -4061 0
4002 4004 -4061 0
-4002 4004 4061 0
4002 -4004 4061 0
-4006 -4008 -4063 0
4006 4008 -4063 0
-4006 4008 4063 0
4006 -4008 4063 0
-4010 -4012 -4065 0
4010 4012 -4065 0
-4010 4012 4065 0
4010 -4012 4065 0
-4014 -4016 -4067 0
4014 4016 -4067 0
-4014 4016 4067 0
4014 -4016 4067 0
-4018 -4020 -4069 0
4018 4020 -4069 0
-4018 4020 4069 0
4018 -4020 4069 0
-4024 -4026 -4071 0
4024 4026 -4071 0
-4024 4026 4071 0
4024 -4026 4071 0
-4028 -4030 -4073 0
4028 4030 -4073 0
-4028 4030 4073 0
4028 -4030 4073 0
-4032 -4034 -4075 0
4032 4034 -4075 0
-4032 4034 4075 0
4032 -4034 4075 0
-4036 -4038 -4077 0
4036 4038 -4077 0
-4036 4038 4077 0
4036 -4038 4077 0
-4040 -4042 -4079 0
4040 4042 -4079 0
-4040 4042 4079 0
4040 -4042 4079 0
-4044 -4045 -4081 0
4044 4045 -4081 0
-4044 4045 4081 0
4044 -4045 4081 0
-4046 -4047 -4083 0
4046 4047 -4083 0
-4046 4047 4083 0
4046 -4047 4083 0
-4048 -4049 -4084 0
4048 4049 -4084 0
-4048 4049 4084 0
4048 -4049 4084 0
-4050 -4051 -4086 0
4050 4051 -4086 0
-4050 4051 4086 0
4050 -4051 4086 0
-4052 -4053 -4089 0
4052 4053 -4089 0
-4052 4053 4089 0
4052 -4053 4089 0
-4054 -4055 -4090 0
4054 4055 -4090 0
-4054 4055 4090 0
4054 -4055 4090 0
-4057 -4059 -4092 0
4057 4059 -4092 0
-4057 4059 4092 0
4057 -4059 4092 0
-4060 -4061 -4094 0
4060 4061 -4094 0
-4060 4061 4094 0
4060 -4061 4094 0
-4063 -4065 -4096 0
4063 4065 -4096 0
-4063 4065 4096 0
4063 -4065 4096 0
-4067 -4069 -4098 0
4067 4069 -4098 0
-4067 4069 4098 0
4067 -4069 4098 0
-4070 -4071 -4100 0
4070 4071 -4100 0
-4070 4071 4100 0
4070 -4071 4100 0
-4073 -4075 -4102 0
4073 4075 -4102 0
-4073 4075 4102 0
4073 -4075 4102 0
-4077 -4079 -4104 0
4077 4079 -4104 0
-4077 4079 4104 0
4077 -4079 4104 0
-4043 -4081 -4106 0
4043 4081 -4106 0
4043 -4081 4106 0
-4043 4081 4106 0
-4083 -4084 -4108 0
4083 4084 -4108 0
-4083 4084 4108 0
4083 -4084 4108 0
-4086 -4088 -4110 0
4086 4088 -4110 0
-4086 4088 4110 0
4086 -4088 4110 0
-4089 -4090 -4112 0
4089 4090 -4112 0
-4089 4090 4112 0
4089 -4090 4112 0
-4092 -4094 -4114 0
4092 4094 -4114 0
-4092 4094 4114 0
4092 -4094 4114 0
-4096 -4098 -4116 0
4096 4098 -4116 0
-4096 4098 4116 0
4096 -4098 4116 0
-4100 -4102 -4118 0
4100 4102 -4118 0
-4100 4102 4118 0
4100 -4102 4118 0
-4104 -4106 -4120 0
4104 4106 -4120 0
-4104 4106 4120 0
4104 -4106 4120 0
-4108 -4110 -4122 0
4108 4110 -4122 0
-4108 4110 4122 0
4108 -4110 4122 0
-4112 -4114 -4124 0
4112 4114 -4124 0
-4112 4114 4124 0
4112 -4114 4124 0
-4116 -4118 -4126 0
4116 4118 -4126 0
-4116 4118 4126 0
4116 -4118 4126 0
-4120 -4122 -4128 0
4120 4122 -4128 0
-4120 4122 4128 0
4120 -4122 4128 0
-4124 -4126 -4128 0
4124 4126 -4128 0
-4124 4126 4128 0
4124 -4126 4128 0
-4056 -4058 -4134 0
4056 4058 -4134 0
-4056 4058 4134 0
4056 -4058 4134 0
-4062 -4064 -4136 0
4062 4064 -4136 0
-4062 4064 4136 0
4062 -4064 4136 0
-4066 -4068 -4138 0
4066 4068 -4138 0
-4066 4068 4138 0
4066 -4068 4138 0
-4072 -4074 -4141 0
4072 4074 -4141 0
-4072 4074 4141 0
4072 -4074 4141 0
-4076 -4078 -4142 0
4076 4078 -4142 0
-4076 4078 4142 0
4076 -4078 4142 0
-4080 -4082 -4144 0
4080 4082 -4144 0
-4080 4082 4144 0
4080 -4082 4144 0
-4085 -4087 -4147 0
4085 4087 -4147 0
-4085 4087 4147 0
4085 -4087 4147 0
-4091 -4093 -4149 0
4091 4093 -4149 0
-4091 4093 4149 0
4091 -4093 4149 0
-4095 -4097 -4150 0
4095 4097 -4150 0
-4095 4097 4150 0
4095 -4097 4150 0
-4099 -4101 -4152 0
4099 4101 -4152 0
-4099 4101 4152 0
4099 -4101 4152 0
-4103 -4105 -4154 0
4103 4105 -4154 0
-4103 4105 4154 0
4103 -4105 4154 0
-4107 -4109 -4156 0
4107 4109 -4156 0
-4107 4109 4156 0
4107 -4109 4156 0
-4111 -4113 -4158 0
4111 4113 -4158 0
-4111 4113 4158 0
4111 -4113 4158 0
-4115 -4117 -4160 0
4115 4117 -4160 0
-4115 4117 4160 0
4115 -4117 4160 0
-4119 -4121 -4162 0
4119 4121 -4162 0
-4119 4121 4162 0
4119 -4121 4162 0
-4123 -4125 -4164 0
4123 4125 -4164 0
-4123 4125 4164 0
4123 -4125 4164 0
-4127 -4129 -4166 0
4127 4129 -4166 0
-4127 4129 4166 0
4127 -4129 4166 0
-4128 -4130 -4168 0
4128 4130 -4168 0
4128 -4130 4168 0
-4128 4130 4168 0
-4131 -4132 -4191 0
4131 4132 -4191 0
-4131 4132 4191 0
4131 -4132 4191 0
-4134 -4135 -4170 0
4134 4135 -4170 0
-4134 4135 4170 0
4134 -4135 4170 0
-4136 -4138 -4171 0
4136 4138 -4171 0
-4136 4138 4171 0
4136 -4138 4171 0
-4140 -4141 -4173 0
4140 4141 -4173 0
-4140 4141 4173 0
4140 -4141 4173 0
-4142 -4144 -4175 0
4142 4144 -4175 0
-4142 4144 4175 0
4142 -4144 4175 0
-4146 -4147 -4177 0
4146 4147 -4177 0
-4146 4147 4177 0
4146 -4147 4177 0
-4148 -4149 -4179 0
4148 4149 -4179 0
-4148 4149 4179 0
4148 -4149 4179 0
-4150 -4152 -4181 0
4150 4152 -4181 0
-4150 4152 4181 0
4150 -4152 4181 0
-4154 -4156 -4183 0
4154 4156 -4183 0
-4154 4156 4183 0
4154 -4156 4183 0
-4158 -4160 -4185 0
4158 4160 -4185 0
-4158 4160 4185 0
4158 -4160 4185 0
-4162 -4164 -4187 0
4162 4164 -4187 0
-4162 4164 4187 0
4162 -4164 4187 0
-4166 -4168 -4189 0
4166 4168 -4189 0
-4166 4168 4189 0
4166 -4168 4189 0
-4133 -4170 -4192 0
4133 4170 -4192 0
-4133 4170 4192 0
4133 -4170 4192 0
-4171 -4173 -4193 0
4171 4173 -4193 0
-4171 4173 4193 0
4171 -4173 4193 0
-4175 -4177 -4195 0
4175 4177 -4195 0
-4175 4177 4195 0
4175 -4177 4195 0
-4179 -4181 -4197 0
4179 4181 -4197 0
-4179 4181 4197 0
4179 -4181 4197 0
-4183 -4185 -4199 0
4183 4185 -4199 0
-4183 4185 4199 0
4183 -4185 4199 0
-4187 -4189 -4201 0
4187 4189 -4201 0
-4187 4189 4201 0
4187 -4189 4201 0
-4191 -4192 -4203 0
4191 4192 -4203 0
-4191 4192 4203 0
4191 -4192 4203 0
-4193 -4195 -4205 0
4193 4195 -4205 0
-4193 4195 4205 0
4193 -4195 4205 0
-4197 -4199 -4207 0
4197 4199 -4207 0
-4197 4199 4207 0
4197 -4199 4207 0
-4201 -4203 -4209 0
4201 4203 -4209 0
-4201 4203 4209 0
4201 -4203 4209 0
-4205 -4207 -4209 0
4205 4207 -4209 0
-4205 4207 4209 0
4205 -4207 4209 0
-4137 -4139 -4213 0
4137 4139 -4213 0
-4137 4139 4213 0
4137 -4139 4213 0
-4143 -4145 -4215 0
4143 4145 -4215 0
-4143 4145 4215 0
4143 -4145 4215 0
-4151 -4153 -4218 0
4151 4153 -4218 0
-4151 4153 4218 0
4151 -4153 4218 0
-4155 -4157 -4219 0
4155 4157 -4219 0
-4155 4157 4219 0
4155 -4157 4219 0
-4159 -4161 -4221 0
4159 4161 -4221 0
-4159 4161 4221 0
4159 -4161 4221 0
-4163 -4165 -4223 0
4163 4165 -4223 0
-4163 4165 4223 0
4163 -4165 4223 0
-4167 -4169 -4225 0
4167 4169 -4225 0
-4167 4169 4225 0
4167 -4169 4225 0
-4172 -4174 -4229 0
4172 4174 -4229 0
-4172 4174 4229 0
4172 -4174 4229 0
-4176 -4178 -4231 0
4176 4178 -4231 0
-4176 4178 4231 0
4176 -4178 4231 0
-4180 -4182 -4233 0
4180 4182 -4233 0
-4180 4182 4233 0
4180 -4182 4233 0
-4184 -4186 -4235 0
4184 4186 -4235 0
-4184 4186 4235 0
4184 -4186 4235 0
-4188 -4190 -4237 0
4188 4190 -4237 0
-4188 4190 4237 0
4188 -4190 4237 0
-4194 -4196 -4239 0
4194 4196 -4239 0
-4194 4196 4239 0
4194 -4196 4239 0
-4198 -4200 -4241 0
4198 4200 -4241 0
-4198 4200 4241 0
4198 -4200 4241 0
-4202 -4204 -4243 0
4202 4204 -4243 0
-4202 4204 4243 0
4202 -4204 4243 0
-4206 -4208 -4245 0
4206 4208 -4245 0
-4206 4208 4245 0
4206 -4208 4245 0
-4210 -4211 -4247 0
4210 4211 -4247 0
-4210 4211 4247 0
4210 -4211 4247 0
-4212 -4213 -4248 0
4212 4213 -4248 0
-4212 4213 4248 0
4212 -4213 4248 0
-4214 -4215 -4249 0
4214 4215 -4249 0
-4214 4215 4249 0
4214 -4215 4249 0
-4216 -4217 -4251 0
4216 4217 -4251 0
-4216 4217 4251 0
4216 -4217 4251 0
-4218 -4219 -4253 0
4218 4219 -4253 0
-4218 4219 4253 0
4218 -4219 4253 0
-4221 -4223 -4255 0
4221 4223 -4255 0
-4221 4223 4255 0
4221 -4223 4255 0
-4225 -4227 -4257 0
4225 4227 -4257 0
-4225 4227 4257 0
4225 -4227 4257 0
-4228 -4229 -4259 0
4228 4229 -4259 0
-4228 4229 4259 0
4228 -4229 4259 0
-4231 -4233 -4261 0
4231 4233 -4261 0
-4231 4233 4261 0
4231 -4233 4261 0
-4235 -4237 -4263 0
4235 4237 -4263 0
-4235 4237 4263 0
4235 -4237 4263 0
-4238 -4239 -4265 0
4238 4239 -4265 0
-4238 4239 4265 0
4238 -4239 4265 0
-4241 -4243 -4267 0
4241 4243 -4267 0
-4241 4243 4267 0
4241 -4243 4267 0
-4245 -4247 -4269 0
4245 4247 -4269 0
-4245 4247 4269 0
4245 -4247 4269 0
-4248 -4249 -4270 0
4248 4249 -4270 0
-4248 4249 4270 0
4248 -4249 4270 0
-4251 -4253 -4272 0
4251 4253 -4272 0
-4251 4253 4272 0
4251 -4253 4272 0
-4255 -4257 -4274 0
4255 4257 -4274 0
-4255 4257 4274 0
4255 -4257 4274 0
-4259 -4261 -4276 0
4259 4261 -4276 0
-4259 4261 4276 0
4259 -4261 4276 0
-4263 -4265 -4278 0
4263 4265 -4278 0
-4263 4265 4278 0
4263 -4265 4278 0
-4267 -4269 -4280 0
4267 4269 -4280 0
-4267 4269 4280 0
4267 -4269 4280 0
-4209 -4270 -4282 0
4209 4270 -4282 0
-4209 4270 4282 0
4209 -4270 4282 0
-4272 -4274 -4284 0
4272 4274 -4284 0
-4272 4274 4284 0
4272 -4274 4284 0
-4276 -4278 -4286 0
4276 4278 -4286 0
-4276 4278 4286 0
4276 -4278 4286 0
-4280 -4282 -4288 0
4280 4282 -4288 0
-4280 4282 4288 0
4280 -4282 4288 0
-4284 -4286 -4288 0
4284 4286 -4288 0
-4284 4286 4288 0
4284 -4286 4288 0
-4220 -4222 -4294 0
4220 4222 -4294 0
-4220 4222 4294 0
4220 -4222 4294 0
-4224 -4226 -4327 0
4224 4226 -4327 0
-4224 4226 4327 0
4224 -4226 4327 0
-4230 -4232 -4295 0
4230 4232 -4295 0
-4230 4232 4295 0
4230 -4232 4295 0
-4234 -4236 -4297 0
4234 4236 -4297 0
-4234 4236 4297 0
4234 -4236 4297 0
-4240 -4242 -4300 0
4240 4242 -4300 0
-4240 4242 4300 0
4240 -4242 4300 0
-4244 -4246 -4301 0
4244 4246 -4301 0
-4244 4246 4301 0
4244 -4246 4301 0
-4250 -4252 -4304 0
4250 4252 -4304 0
-4250 4252 4304 0
4250 -4252 4304 0
-4254 -4256 -4305 0
4254 4256 -4305 0
-4254 4256 4305 0
4254 -4256 4305 0
-4258 -4260 -4307 0
4258 4260 -4307 0
-4258 4260 4307 0
4258 -4260 4307 0
-4262 -4264 -4309 0
4262 4264 -4309 0
-4262 4264 4309 0
4262 -4264 4309 0
-4266 -4268 -4311 0
4266 4268 -4311 0
-4266 4268 4311 0
4266 -4268 4311 0
-4271 -4273 -4314 0
4271 4273 -4314 0
-4271 4273 4314 0
4271 -4273 4314 0
-4275 -4277 -4315 0
4275 4277 -4315 0
-4275 4277 4315 0
4275 -4277 4315 0
-4279 -4281 -4317 0
4279 4281 -4317 0
-4279 4281 4317 0
4279 -4281 4317 0
-4283 -4285 -4319 0
4283 4285 -4319 0
-4283 4285 4319 0
4283 -4285 4319 0
-4287 -4289 -4321 0
4287 4289 -4321 0
-4287 4289 4321 0
4287 -4289 4321 0
-4288 -4290 -4345 0
4288 4290 -4345 0
4288 -4290 4345 0
-4288 4290 4345 0
-4291 -4292 -4323 0
4291 4292 -4323 0
-4291 4292 4323 0
4291 -4292 4323 0
-4293 -4294 -4325 0
4293 4294 -4325 0
-4293 4294 4325 0
4293 -4294 4325 0
-4295 -4297 -4328 0
4295 4297 -4328 0
-4295 4297 4328 0
4295 -4297 4328 0
-4299 -4300 -4329 0
4299 4300 -4329 0
-4299 4300 4329 0
4299 -4300 4329 0
-4301 -4302 -4331 0
4301 4302 -4331 0
-4301 4302 4331 0
4301 -4302 4331 0
-4303 -4304 -4333 0
4303 4304 -4333 0
-4303 4304 4333 0
4303 -4304 4333 0
-4305 -4307 -4335 0
4305 4307 -4335 0
-4305 4307 4335 0
4305 -4307 4335 0
-4309 -4311 -4337 0
4309 4311 -4337 0
-4309 4311 4337 0
4309 -4311 4337 0
-4313 -4314 -4339 0
4313 4314 -4339 0
-4313 4314 4339 0
4313 -4314 4339 0
-4315 -4317 -4341 0
4315 4317 -4341 0
-4315 4317 4341 0
4315 -4317 4341 0
-4319 -4321 -4343 0
4319 4321 -4343 0
-4319 4321 4343 0
4319 -4321 4343 0
-4323 -4325 -4346 0
4323 4325 -4346 0
-4323 4325 4346 0
4323 -4325 4346 0
-4327 -4328 -4347 0
4327 4328 -4347 0
-4327 4328 4347 0
4327 -4328 4347 0
-4329 -4331 -4349 0
4329 4331 -4349 0
-4329 4331 4349 0
4329 -4331 4349 0
-4333 -4335 -4351 0
4333 4335 -4351 0
-4333 4335 4351 0
4333 -4335 4351 0
-4337 -4339 -4353 0
4337 4339 -4353 0
-4337 4339 4353 0
4337 -4339 4353 0
-4341 -4343 -4355 0
4341 4343 -4355 0
-4341 4343 4355 0
4341 -4343 4355 0
-4345 -4346 -4357 0
4345 4346 -4357 0
-4345 4346 4357 0
4345 -4346 4357 0
-4347 -4349 -4359 0
4347 4349 -4359 0
-4347 4349 4359 0
4347 -4349 4359 0
-4351 -4353 -4361 0
4351 4353 -4361 0
-4351 4353 4361 0
4351 -4353 4361 0
-4355 -4357 -4363 0
4355 4357 -4363 0
-4355 4357 4363 0
4355 -4357 4363 0
-4359 -4361 -4363 0
4359 4361 -4363 0
-4359 4361 4363 0
4359 -4361 4363 0
-4296 -4298 -4368 0
4296 4298 -4368 0
-4296 4298 4368 0
4296 -4298 4368 0
-4306 -4308 -4372 0
4306 4308 -4372 0
-4306 4308 4372 0
4306 -4308 4372 0
-4310 -4312 -4374 0
4310 4312 -4374 0
-4310 4312 4374 0
4310 -4312 4374 0
-4316 -4318 -4377 0
4316 4318 -4377 0
-4316 4318 4377 0
4316 -4318 4377 0
-4320 -4322 -4378 0
4320 4322 -4378 0
-4320 4322 4378 0
4320 -4322 4378 0
-4324 -4326 -4380 0
4324 4326 -4380 0
-4324 4326 4380 0
4324 -4326 4380 0
-4330 -4332 -4382 0
4330 4332 -4382 0
-4330 4332 4382 0
4330 -4332 4382 0
-4334 -4336 -4384 0
4334 4336 -4384 0
-4334 4336 4384 0
4334 -4336 4384 0
-4338 -4340 -4386 0
4338 4340 -4386 0
-4338 4340 4386 0
4338 -4340 4386 0
-4342 -4344 -4388 0
4342 4344 -4388 0
-4342 4344 4388 0
4342 -4344 4388 0
-4348 -4350 -4391 0
4348 4350 -4391 0
-4348 4350 4391 0
4348 -4350 4391 0
-4352 -4354 -4392 0
4352 4354 -4392 0
-4352 4354 4392 0
4352 -4354 4392 0
-4356 -4358 -4394 0
4356 4358 -4394 0
-4356 4358 4394 0
4356 -4358 4394 0
-4360 -4362 -4396 0
4360 4362 -4396 0
-4360 4362 4396 0
4360 -4362 4396 0
-4364 -4365 -4398 0
4364 4365 -4398 0
-4364 4365 4398 0
4364 -4365 4398 0
-4367 -4368 -4400 0
4367 4368 -4400 0
-4367 4368 4400 0
4367 -4368 4400 0
-4369 -4370 -4402 0
4369 4370 -4402 0
-4369 4370 4402 0
4369 -4370 4402 0
-4371 -4372 -4404 0
4371 4372 -4404 0
-4371 4372 4404 0
4371 -4372 4404 0
-4374 -4376 -4406 0
4374 4376 -4406 0
-4374 4376 4406 0
4374 -4376 4406 0
-4377 -4378 -4408 0
4377 4378 -4408 0
-4377 4378 4408 0
4377 -4378 4408 0
-4379 -4380 -4410 0
4379 4380 -4410 0
-4379 4380 4410 0
4379 -4380 4410 0
-4381 -4382 -4412 0
4381 4382 -4412 0
-4381 4382 4412 0
4381 -4382 4412 0
-4384 -4386 -4414 0
4384 4386 -4414 0
-4384 4386 4414 0
4384 -4386 4414 0
-4388 -4390 -4416 0
4388 4390 -4416 0
-4388 4390 4416 0
4388 -4390 4416 0
-4391 -4392 -4418 0
4391 4392 -4418 0
-4391 4392 4418 0
4391 -4392 4418 0
-4394 -4396 -4420 0
4394 4396 -4420 0
-4394 4396 4420 0
4394 -4396 4420 0
-4363 -4398 -4422 0
4363 4398 -4422 0
4363 -4398 4422 0
-4363 4398 4422 0
-4366 -4400 -4424 0
4366 4400 -4424 0
-4366 4400 4424 0
4366 -4400 4424 0
-4402 -4404 -4426 0
4402 4404 -4426 0
-4402 4404 4426 0
4402 -4404 4426 0
-4406 -4408 -4428 0
4406 4408 -4428 0
-4406 4408 4428 0
4406 -4408 4428 0
-4410 -4412 -4430 0
4410 4412 -4430 0
-4410 4412 4430 0
4410 -4412 4430 0
-4414 -4416 -4432 0
4414 4416 -4432 0
-4414 4416 4432 0
4414 -4416 4432 0
-4418 -4420 -4434 0
4418 4420 -4434 0
-4418 4420 4434 0
4418 -4420 4434 0
-4422 -4424 -4436 0
4422 4424 -4436 0
-4422 4424 4436 0
4422 -4424 4436 0
-4426 -4428 -4438 0
4426 4428 -4438 0
-4426 4428 4438 0
4426 -4428 4438 0
-4430 -4432 -4440 0
4430 4432 -4440 0
-4430 4432 4440 0
4430 -4432 4440 0
-4434 -4436 -4442 0
4434 4436 -4442 0
-4434 4436 4442 0
4434 -4436 4442 0
-4438 -4440 -4442 0
4438 4440 -4442 0
-4438 4440 4442 0
4438 -4440 4442 0
-4373 -4375 -4445 0
4373 4375 -4445 0
-4373 4375 4445 0
4373 -4375 4445 0
-4383 -4385 -4449 0
4383 4385 -4449 0
-4383 4385 4449 0
4383 -4385 4449 0
-4387 -4389 -4451 0
4387 4389 -4451 0
-4387 4389 4451 0
4387 -4389 4451 0
-4393 -4395 -4454 0
4393 4395 -4454 0
-4393 4395 4454 0
4393 -4395 4454 0
-4397 -4399 -4487 0
4397 4399 -4487 0
-4397 4399 4487 0
4397 -4399 4487 0
-4401 -4403 -4455 0
4401 4403 -4455 0
-4401 4403 4455 0
4401 -4403 4455 0
-4405 -4407 -4457 0
4405 4407 -4457 0
-4405 4407 4457 0
4405 -4407 4457 0
-4409 -4411 -4459 0
4409 4411 -4459 0
-4409 4411 4459 0
4409 -4411 4459 0
-4413 -4415 -4461 0
4413 4415 -4461 0
-4413 4415 4461 0
4413 -4415 4461 0
-4417 -4419 -4463 0
4417 4419 -4463 0
-4417 4419 4463 0
4417 -4419 4463 0
-4421 -4423 -4465 0
4421 4423 -4465 0
-4421 4423 4465 0
4421 -4423 4465 0
-4425 -4427 -4467 0
4425 4427 -4467 0
-4425 4427 4467 0
4425 -4427 4467 0
-4429 -4431 -4469 0
4429 4431 -4469 0
-4429 4431 4469 0
4429 -4431 4469 0
-4433 -4435 -4471 0
4433 4435 -4471 0
-4433 4435 4471 0
4433 -4435 4471 0
-4437 -4439 -4473 0
4437 4439 -4473 0
-4437 4439 4473 0
4437 -4439 4473 0
-4441 -4443 -4475 0
4441 4443 -4475 0
-4441 4443 4475 0
4441 -4443 4475 0
-4442 -4444 -4477 0
4442 4444 -4477 0
4442 -4444 4477 0
-4442 4444 4477 0
-4445 -4446 -4479 0
4445 4446 -4479 0
-4445 4446 4479 0
4445 -4446 4479 0
-4447 -4448 -4481 0
4447 4448 -4481 0
-4447 4448 4481 0
4447 -4448 4481 0
-4449 -4451 -4483 0
4449 4451 -4483 0
-4449 4451 4483 0
4449 -4451 4483 0
-4453 -4454 -4485 0
4453 4454 -4485 0
-4453 4454 4485 0
4453 -4454 4485 0
-4455 -4457 -4488 0
4455 4457 -4488 0
-4455 4457 4488 0
4455 -4457 4488 0
-4459 -4461 -4489 0
4459 4461 -4489 0
-4459 4461 4489 0
4459 -4461 4489 0
-4463 -4465 -4491 0
4463 4465 -4491 0
-4463 4465 4491 0
4463 -4465 4491 0
-4467 -4469 -4493 0
4467 4469 -4493 0
-4467 4469 4493 0
4467 -4469 4493 0
-4471 -4473 -4495 0
4471 4473 -4495 0
-4471 4473 4495 0
4471 -4473 4495 0
-4475 -4477 -4497 0
4475 4477 -4497 0
-4475 4477 4497 0
4475 -4477 4497 0
-4479 -4481 -4499 0
4479 4481 -4499 0
-4479 4481 4499 0
4479 -4481 4499 0
-4483 -4485 -4501 0
4483 4485 -4501 0
-4483 4485 4501 0
4483 -4485 4501 0
-4487 -4488 -4503 0
4487 4488 -4503 0
-4487 4488 4503 0
4487 -4488 4503 0
-4489 -4491 -4505 0
4489 4491 -4505 0
-4489 4491 4505 0
4489 -4491 4505 0
-4493 -4495 -4507 0
4493 4495 -4507 0
-4493 4495 4507 0
4493 -4495 4507 0
-4497 -4498 -4509 0
4497 4498 -4509 0
-4497 4498 4509 0
4497 -4498 4509 0
-4499 -4501 -4511 0
4499 4501 -4511 0
-4499 4501 4511 0
4499 -4501 4511 0
-4503 -4505 -4513 0
4503 4505 -4513 0
-4503 4505 4513 0
4503 -4505 4513 0
-4507 -4509 -4515 0
4507 4509 -4515 0
-4507 4509 4515 0
4507 -4509 4515 0
-4511 -4513 -4515 0
4511 4513 -4515 0
-4511 4513 4515 0
4511 -4513 4515 0
-4450 -4452 -4547 0
4450 4452 -4547 0
-4450 4452 4547 0
4450 -4452 4547 0
-4456 -4458 -4520 0
4456 4458 -4520 0
-4456 4458 4520 0
4456 -4458 4520 0
-4460 -4462 -4521 0
4460 4462 -4521 0
-4460 4462 4521 0
4460 -4462 4521 0
-4464 -4466 -4523 0
4464 4466 -4523 0
-4464 4466 4523 0
4464 -4466 4523 0
-4468 -4470 -4525 0
4468 4470 -4525 0
-4468 4470 4525 0
4468 -4470 4525 0
-4472 -4474 -4527 0
4472 4474 -4527 0
-4472 4474 4527 0
4472 -4474 4527 0
-4476 -4478 -4529 0
4476 4478 -4529 0
-4476 4478 4529 0
4476 -4478 4529 0
-4480 -4482 -4556 0
4480 4482 -4556 0
-4480 4482 4556 0
4480 -4482 4556 0
-4484 -4486 -4531 0
4484 4486 -4531 0
-4484 4486 4531 0
4484 -4486 4531 0
-4490 -4492 -4534 0
4490 4492 -4534 0
-4490 4492 4534 0
4490 -4492 4534 0
-4494 -4496 -4535 0
4494 4496 -4535 0
-4494 4496 4535 0
4494 -4496 4535 0
-4500 -4502 -4537 0
4500 4502 -4537 0
-4500 4502 4537 0
4500 -4502 4537 0
-4504 -4506 -4539 0
4504 4506 -4539 0
-4504 4506 4539 0
4504 -4506 4539 0
-4508 -4510 -4541 0
4508 4510 -4541 0
-4508 4510 4541 0
4508 -4510 4541 0
-4512 -4514 -4543 0
4512 4514 -4543 0
-4512 4514 4543 0
4512 -4514 4543 0
-4516 -4517 -4545 0
4516 4517 -4545 0
-4516 4517 4545 0
4516 -4517 4545 0
-4518 -4519 -4548 0
4518 4519 -4548 0
-4518 4519 4548 0
4518 -4519 4548 0
-4520 -4521 -4550 0
4520 4521 -4550 0
-4520 4521 4550 0
4520 -4521 4550 0
-4523 -4525 -4552 0
4523 4525 -4552 0
-4523 4525 4552 0
4523 -4525 4552 0
-4527 -4529 -4554 0
4527 4529 -4554 0
-4527 4529 4554 0
4527 -4529 4554 0
-4531 -4533 -4557 0
4531 4533 -4557 0
-4531 4533 4557 0
4531 -4533 4557 0
-4534 -4535 -4558 0
4534 4535 -4558 0
-4534 4535 4558 0
4534 -4535 4558 0
-4536 -4537 -4560 0
4536 4537 -4560 0
-4536 4537 4560 0
4536 -4537 4560 0
-4539 -4541 -4562 0
4539 4541 -4562 0
-4539 4541 4562 0
4539 -4541 4562 0
-4543 -4545 -4564 0
4543 4545 -4564 0
-4543 4545 4564 0
4543 -4545 4564 0
-4515 -4546 -4566 0
4515 4546 -4566 0
-4515 4546 4566 0
4515 -4546 4566 0
-4547 -4548 -4568 0
4547 4548 -4568 0
-4547 4548 4568 0
4547 -4548 4568 0
-4550 -4552 -4570 0
4550 4552 -4570 0
-4550 4552 4570 0
4550 -4552 4570 0
-4554 -4556 -4572 0
4554 4556 -4572 0
-4554 4556 4572 0
4554 -4556 4572 0
-4557 -4558 -4574 0
4557 4558 -4574 0
-4557 4558 4574 0
4557 -4558 4574 0
-4560 -4562 -4576 0
4560 4562 -4576 0
-4560 4562 4576 0
4560 -4562 4576 0
-4564 -4566 -4578 0
4564 4566 -4578 0
-4564 4566 4578 0
4564 -4566 4578 0
-4568 -4570 -4580 0
4568 4570 -4580 0
-4568 4570 4580 0
4568 -4570 4580 0
-4572 -4574 -4582 0
4572 4574 -4582 0
-4572 4574 4582 0
4572 -4574 4582 0
-4576 -4578 -4584 0
4576 4578 -4584 0
-4576 4578 4584 0
4576 -4578 4584 0
-4580 -4582 -4584 0
4580 4582 -4584 0
-4580 4582 4584 0
4580 -4582 4584 0
-4522 -4524 -4589 0
4522 4524 -4589 0
-4522 4524 4589 0
4522 -4524 4589 0
-4526 -4528 -4591 0
4526 4528 -4591 0
-4526 4528 4591 0
4526 -4528 4591 0
-4530 -4532 -4594 0
4530 4532 -4594 0
-4530 4532 4594 0
4530 -4532 4594 0
-4538 -4540 -4597 0
4538 4540 -4597 0
-4538 4540 4597 0
4538 -4540 4597 0
-4542 -4544 -4599 0
4542 4544 -4599 0
-4542 4544 4599 0
4542 -4544 4599 0
-4549 -4551 -4602 0
4549 4551 -4602 0
-4549 4551 4602 0
4549 -4551 4602 0
-4553 -4555 -4604 0
4553 4555 -4604 0
-4553 4555 4604 0
4553 -4555 4604 0
-4559 -4561 -4607 0
4559 4561 -4607 0
-4559 4561 4607 0
4559 -4561 4607 0
-4563 -4565 -4608 0
4563 4565 -4608 0
-4563 4565 4608 0
4563 -4565 4608 0
-4567 -4569 -4610 0
4567 4569 -4610 0
-4567 4569 4610 0
4567 -4569 4610 0
-4571 -4573 -4612 0
4571 4573 -4612 0
-4571 4573 4612 0
4571 -4573 4612 0
-4575 -4577 -4614 0
4575 4577 -4614 0
-4575 4577 4614 0
4575 -4577 4614 0
-4579 -4581 -4616 0
4579 4581 -4616 0
-4579 4581 4616 0
4579 -4581 4616 0
-4583 -4585 -4618 0
4583 4585 -4618 0
-4583 4585 4618 0
4583 -4585 4618 0
-4584 -4586 -4638 0
4584 4586 -4638 0
4584 -4586 4638 0
-4584 4586 4638 0
-4587 -4588 -4620 0
4587 4588 -4620 0
-4587 4588 4620 0
4587 -4588 4620 0
-4589 -4591 -4622 0
4589 4591 -4622 0
-4589 4591 4622 0
4589 -4591 4622 0
-4593 -4594 -4624 0
4593 4594 -4624 0
-4593 4594 4624 0
4593 -4594 4624 0
-4595 -4596 -4626 0
4595 4596 -4626 0
-4595 4596 4626 0
4595 -4596 4626 0
-4597 -4599 -4628 0
4597 4599 -4628 0
-4597 4599 4628 0
4597 -4599 4628 0
-4602 -4604 -4629 0
4602 4604 -4629 0
-4602 4604 4629 0
4602 -4604 4629 0
-4606 -4607 -4631 0
4606 4607 -4631 0
-4606 4607 4631 0
4606 -4607 4631 0
-4608 -4610 -4633 0
4608 4610 -4633 0
-4608 4610 4633 0
4608 -4610 4633 0
-4612 -4614 -4635 0
4612 4614 -4635 0
-4612 4614 4635 0
4612 -4614 4635 0
-4616 -4618 -4637 0
4616 4618 -4637 0
-4616 4618 4637 0
4616 -4618 4637 0
-4620 -4622 -4639 0
4620 4622 -4639 0
-4620 4622 4639 0
4620 -4622 4639 0
-4624 -4626 -4641 0
4624 4626 -4641 0
-4624 4626 4641 0
4624 -4626 4641 0
-4601 -4628 -4643 0
4601 4628 -4643 0
4601 -4628 4643 0
-4601 4628 4643 0
-4629 -4631 -4645 0
4629 4631 -4645 0
-4629 4631 4645 0
4629 -4631 4645 0
-4633 -4635 -4647 0
4633 4635 -4647 0
-4633 4635 4647 0
4633 -4635 4647 0
-4637 -4638 -4649 0
4637 4638 -4649 0
-4637 4638 4649 0
4637 -4638 4649 0
-4639 -4641 -4651 0
4639 4641 -4651 0
-4639 4641 4651 0
4639 -4641 4651 0
-4643 -4645 -4653 0
4643 4645 -4653 0
-4643 4645 4653 0
4643 -4645 4653 0
-4647 -4649 -4655 0
4647 4649 -4655 0
-4647 4649 4655 0
4647 -4649 4655 0
-4651 -4653 -4655 0
4651 4653 -4655 0
-4651 4653 4655 0
4651 -4653 4655 0
-4590 -4592 -4684 0
4590 4592 -4684 0
-4590 4592 4684 0
4590 -4592 4684 0
-4598 -4600 -4685 0
4598 4600 -4685 0
-4598 4600 4685 0
4598 -4600 4685 0
-4603 -4605 -4659 0
4603 4605 -4659 0
-4603 4605 4659 0
4603 -4605 4659 0
-4609 -4611 -4661 0
4609 4611 -4661 0
-4609 4611 4661 0
4609 -4611 4661 0
-4613 -4615 -4662 0
4613 4615 -4662 0
-4613 4615 4662 0
4613 -4615 4662 0
-4617 -4619 -4664 0
4617 4619 -4664 0
-4617 4619 4664 0
4617 -4619 4664 0
-4621 -4623 -4667 0
4621 4623 -4667 0
-4621 4623 4667 0
4621 -4623 4667 0
-4625 -4627 -4668 0
4625 4627 -4668 0
-4625 4627 4668 0
4625 -4627 4668 0
-4630 -4632 -4670 0
4630 4632 -4670 0
-4630 4632 4670 0
4630 -4632 4670 0
-4634 -4636 -4672 0
4634 4636 -4672 0
-4634 4636 4672 0
4634 -4636 4672 0
-4640 -4642 -4675 0
4640 4642 -4675 0
-4640 4642 4675 0
4640 -4642 4675 0
-4644 -4646 -4676 0
4644 4646 -4676 0
-4644 4646 4676 0
4644 -4646 4676 0
-4648 -4650 -4678 0
4648 4650 -4678 0
-4648 4650 4678 0
4648 -4650 4678 0
-4652 -4654 -4680 0
4652 4654 -4680 0
-4652 4654 4680 0
4652 -4654 4680 0
-4656 -4657 -4682 0
4656 4657 -4682 0
-4656 4657 4682 0
4656 -4657 4682 0
-4659 -4660 -4686 0
4659 4660 -4686 0
-4659 4660 4686 0
4659 -4660 4686 0
-4661 -4662 -4688 0
4661 4662 -4688 0
-4661 4662 4688 0
4661 -4662 4688 0
-4664 -4666 -4690 0
4664 4666 -4690 0
-4664 4666 4690 0
4664 -4666 4690 0
-4667 -4668 -4692 0
4667 4668 -4692 0
-4667 4668 4692 0
4667 -4668 4692 0
-4669 -4670 -4694 0
4669 4670 -4694 0
-4669 4670 4694 0
4669 -4670 4694 0
-4672 -4674 -4696 0
4672 4674 -4696 0
-4672 4674 4696 0
4672 -4674 4696 0
-4675 -4676 -4698 0
4675 4676 -4698 0
-4675 4676 4698 0
4675 -4676 4698 0
-4678 -4680 -4700 0
4678 4680 -4700 0
-4678 4680 4700 0
4678 -4680 4700 0
-4655 -4682 -4702 0
4655 4682 -4702 0
4655 -4682 4702 0
-4655 4682 4702 0
-4658 -4684 -4704 0
4658 4684 -4704 0
4658 -4684 4704 0
-4658 4684 4704 0
-4685 -4686 -4706 0
4685 4686 -4706 0
-4685 4686 4706 0
4685 -4686 4706 0
-4688 -4690 -4708 0
4688 4690 -4708 0
-4688 4690 4708 0
4688 -4690 4708 0
-4692 -4694 -4710 0
4692 4694 -4710 0
-4692 4694 4710 0
4692 -4694 4710 0
-4696 -4698 -4712 0
4696 4698 -4712 0
-4696 4698 4712 0
4696 -4698 4712 0
-4700 -4702 -4714 0
4700 4702 -4714 0
-4700 4702 4714 0
4700 -4702 4714 0
-4704 -4706 -4716 0
4704 4706 -4716 0
-4704 4706 4716 0
4704 -4706 4716 0
-4708 -4710 -4718 0
4708 4710 -4718 0
-4708 4710 4718 0
4708 -4710 4718 0
-4712 -4714 -4720 0
4712 4714 -4720 0
-4712 4714 4720 0
4712 -4714 4720 0
-4716 -4718 -4720 0
4716 4718 -4720 0
-4716 4718 4720 0
4716 -4718 4720 0
-4663 -4665 -4727 0
4663 4665 -4727 0
-4663 4665 4727 0
4663 -4665 4727 0
-4671 -4673 -4730 0
4671 4673 -4730 0
-4671 4673 4730 0
4671 -4673 4730 0
-4677 -4679 -4732 0
4677 4679 -4732 0
-4677 4679 4732 0
4677 -4679 4732 0
-4681 -4683 -4734 0
4681 4683 -4734 0
-4681 4683 4734 0
4681 -4683 4734 0
-4687 -4689 -4736 0
4687 4689 -4736 0
-4687 4689 4736 0
4687 -4689 4736 0
-4691 -4693 -4738 0
4691 4693 -4738 0
-4691 4693 4738 0
4691 -4693 4738 0
-4695 -4697 -4740 0
4695 4697 -4740 0
-4695 4697 4740 0
4695 -4697 4740 0
-4699 -4701 -4742 0
4699 4701 -4742 0
-4699 4701 4742 0
4699 -4701 4742 0
-4703 -4705 -4744 0
4703 4705 -4744 0
-4703 4705 4744 0
4703 -4705 4744 0
-4707 -4709 -4746 0
4707 4709 -4746 0
-4707 4709 4746 0
4707 -4709 4746 0
-4711 -4713 -4748 0
4711 4713 -4748 0
-4711 4713 4748 0
4711 -4713 4748 0
-4715 -4717 -4750 0
4715 4717 -4750 0
-4715 4717 4750 0
4715 -4717 4750 0
-4719 -4721 -4752 0
4719 4721 -4752 0
-4719 4721 4752 0
4719 -4721 4752 0
-4720 -4722 -4754 0
4720 4722 -4754 0
4720 -4722 4754 0
-4720 4722 4754 0
-4724 -4725 -4756 0
4724 4725 -4756 0
-4724 4725 4756 0
4724 -4725 4756 0
-4726 -4727 -4757 0
4726 4727 -4757 0
-4726 4727 4757 0
4726 -4727 4757 0
-4728 -4729 -4759 0
4728 4729 -4759 0
-4728 4729 4759 0
4728 -4729 4759 0
-4730 -4731 -4761 0
4730 4731 -4761 0
-4730 4731 4761 0
4730 -4731 4761 0
-4732 -4734 -4763 0
4732 4734 -4763 0
-4732 4734 4763 0
4732 -4734 4763 0
-4736 -4738 -4778 0
4736 4738 -4778 0
-4736 4738 4778 0
4736 -4738 4778 0
-4740 -4742 -4765 0
4740 4742 -4765 0
-4740 4742 4765 0
4740 -4742 4765 0
-4744 -4746 -4767 0
4744 4746 -4767 0
-4744 4746 4767 0
4744 -4746 4767 0
-4748 -4750 -4769 0
4748 4750 -4769 0
-4748 4750 4769 0
4748 -4750 4769 0
-4752 -4754 -4771 0
4752 4754 -4771 0
-4752 4754 4771 0
4752 -4754 4771 0
-4723 -4756 -4773 0
4723 4756 -4773 0
-4723 4756 4773 0
4723 -4756 4773 0
-4757 -4759 -4775 0
4757 4759 -4775 0
-4757 4759 4775 0
4757 -4759 4775 0
-4761 -4763 -4777 0
4761 4763 -4777 0
-4761 4763 4777 0
4761 -4763 4777 0
-4765 -4767 -4779 0
4765 4767 -4779 0
-4765 4767 4779 0
4765 -4767 4779 0
-4769 -4771 -4781 0
4769 4771 -4781 0
-4769 4771 4781 0
4769 -4771 4781 0
-4773 -4775 -4783 0
4773 4775 -4783 0
-4773 4775 4783 0
4773 -4775 4783 0
-4777 -4778 -4785 0
4777 4778 -4785 0
-4777 4778 4785 0
4777 -4778 4785 0
-4779 -4781 -4787 0
4779 4781 -4787 0
-4779 4781 4787 0
4779 -4781 4787 0
-4783 -4785 -4787 0
4783 4785 -4787 0
-4783 4785 4787 0
4783 -4785 4787 0
-4733 -4735 -4816 0
4733 4735 -4816 0
-4733 4735 4816 0
4733 -4735 4816 0
-4737 -4739 -4791 0
4737 4739 -4791 0
-4737 4739 4791 0
4737 -4739 4791 0
-4741 -4743 -4792 0
4741 4743 -4792 0
-4741 4743 4792 0
4741 -4743 4792 0
-4745 -4747 -4794 0
4745 4747 -4794 0
-4745 4747 4794 0
4745 -4747 4794 0
-4749 -4751 -4796 0
4749 4751 -4796 0
-4749 4751 4796 0
4749 -4751 4796 0
-4753 -4755 -4798 0
4753 4755 -4798 0
-4753 4755 4798 0
4753 -4755 4798 0
-4758 -4760 -4801 0
4758 4760 -4801 0
-4758 4760 4801 0
4758 -4760 4801 0
-4762 -4764 -4802 0
4762 4764 -4802 0
-4762 4764 4802 0
4762 -4764 4802 0
-4766 -4768 -4804 0
4766 4768 -4804 0
-4766 4768 4804 0
4766 -4768 4804 0
-4770 -4772 -4806 0
4770 4772 -4806 0
-4770 4772 4806 0
4770 -4772 4806 0
-4774 -4776 -4808 0
4774 4776 -4808 0
-4774 4776 4808 0
4774 -4776 4808 0
-4780 -4782 -4810 0
4780 4782 -4810 0
-4780 4782 4810 0
4780 -4782 4810 0
-4784 -4786 -4812 0
4784 4786 -4812 0
-4784 4786 4812 0
4784 -4786 4812 0
-4788 -4789 -4814 0
4788 4789 -4814 0
-4788 4789 4814 0
4788 -4789 4814 0
-4791 -4792 -4817 0
4791 4792 -4817 0
-4791 4792 4817 0
4791 -4792 4817 0
-4794 -4796 -4818 0
4794 4796 -4818 0
-4794 4796 4818 0
4794 -4796 4818 0
-4798 -4800 -4820 0
4798 4800 -4820 0
-4798 4800 4820 0
4798 -4800 4820 0
-4801 -4802 -4822 0
4801 4802 -4822 0
-4801 4802 4822 0
4801 -4802 4822 0
-4803 -4804 -4824 0
4803 4804 -4824 0
-4803 4804 4824 0
4803 -4804 4824 0
-4806 -4808 -4826 0
4806 4808 -4826 0
-4806 4808 4826 0
4806 -4808 4826 0
-4809 -4810 -4828 0
4809 4810 -4828 0
-4809 4810 4828 0
4809 -4810 4828 0
-4812 -4814 -4830 0
4812 4814 -4830 0
-4812 4814 4830 0
4812 -4814 4830 0
-4787 -4815 -4832 0
4787 4815 -4832 0
-4787 4815 4832 0
4787 -4815 4832 0
-4790 -4816 -4834 0
4790 4816 -4834 0
-4790 4816 4834 0
4790 -4816 4834 0
-4817 -4818 -4836 0
4817 4818 -4836 0
-4817 4818 4836 0
4817 -4818 4836 0
-4820 -4822 -4838 0
4820 4822 -4838 0
-4820 4822 4838 0
4820 -4822 4838 0
-4824 -4826 -4840 0
4824 4826 -4840 0
-4824 4826 4840 0
4824 -4826 4840 0
-4828 -4830 -4842 0
4828 4830 -4842 0
-4828 4830 4842 0
4828 -4830 4842 0
-4832 -4834 -4844 0
4832 4834 -4844 0
-4832 4834 4844 0
4832 -4834 4844 0
-4836 -4838 -4846 0
4836 4838 -4846 0
-4836 4838 4846 0
4836 -4838 4846 0
-4840 -4842 -4848 0
4840 4842 -4848 0
-4840 4842 4848 0
4840 -4842 4848 0
-4844 -4846 -4848 0
4844 4846 -4848 0
-4844 4846 4848 0
4844 -4846 4848 0
-4793 -4795 -4853 0
4793 4795 -4853 0
-4793 4795 4853 0
4793 -4795 4853 0
-4797 -4799 -4855 0
4797 4799 -4855 0
-4797 4799 4855 0
4797 -4799 4855 0
-4805 -4807 -4859 0
4805 4807 -4859 0
-4805 4807 4859 0
4805 -4807 4859 0
-4811 -4813 -4861 0
4811 4813 -4861 0
-4811 4813 4861 0
4811 -4813 4861 0
-4819 -4821 -4864 0
4819 4821 -4864 0
-4819 4821 4864 0
4819 -4821 4864 0
-4823 -4825 -4866 0
4823 4825 -4866 0
-4823 4825 4866 0
4823 -4825 4866 0
-4827 -4829 -4868 0
4827 4829 -4868 0
-4827 4829 4868 0
4827 -4829 4868 0
-4831 -4833 -4870 0
4831 4833 -4870 0
-4831 4833 4870 0
4831 -4833 4870 0
-4835 -4837 -4872 0
4835 4837 -4872 0
-4835 4837 4872 0
4835 -4837 4872 0
-4839 -4841 -4874 0
4839 4841 -4874 0
-4839 4841 4874 0
4839 -4841 4874 0
-4843 -4845 -4876 0
4843 4845 -4876 0
-4843 4845 4876 0
4843 -4845 4876 0
-4847 -4849 -4878 0
4847 4849 -4878 0
-4847 4849 4878 0
4847 -4849 4878 0
-4848 -4850 -4897 0
4848 4850 -4897 0
4848 -4850 4897 0
-4848 4850 4897 0
-4851 -4852 -4880 0
4851 4852 -4880 0
-4851 4852 4880 0
4851 -4852 4880 0
-4853 -4855 -4882 0
4853 4855 -4882 0
-4853 4855 4882 0
4853 -4855 4882 0
-4857 -4858 -4884 0
4857 4858 -4884 0
-4857 4858 4884 0
4857 -4858 4884 0
-4859 -4860 -4886 0
4859 4860 -4886 0
-4859 4860 4886 0
4859 -4860 4886 0
-4861 -4862 -4888 0
4861 4862 -4888 0
-4861 4862 4888 0
4861 -4862 4888 0
-4864 -4866 -4889 0
4864 4866 -4889 0
-4864 4866 4889 0
4864 -4866 4889 0
-4868 -4870 -4891 0
4868 4870 -4891 0
-4868 4870 4891 0
4868 -4870 4891 0
-4872 -4874 -4893 0
4872 4874 -4893 0
-4872 4874 4893 0
4872 -4874 4893 0
-4876 -4878 -4895 0
4876 4878 -4895 0
-4876 4878 4895 0
4876 -4878 4895 0
-4880 -4882 -4898 0
4880 4882 -4898 0
-4880 4882 4898 0
4880 -4882 4898 0
-4884 -4886 -4899 0
4884 4886 -4899 0
-4884 4886 4899 0
4884 -4886 4899 0
-4863 -4888 -4901 0
4863 4888 -4901 0
4863 -4888 4901 0
-4863 4888 4901 0
-4889 -4891 -4903 0
4889 4891 -4903 0
-4889 4891 4903 0
4889 -4891 4903 0
-4893 -4895 -4905 0
4893 4895 -4905 0
-4893 4895 4905 0
4893 -4895 4905 0
-4897 -4898 -4907 0
4897 4898 -4907 0
-4897 4898 4907 0
4897 -4898 4907 0
-4899 -4901 -4909 0
4899 4901 -4909 0
-4899 4901 4909 0
4899 -4901 4909 0
-4903 -4905 -4911 0
4903 4905 -4911 0
-4903 4905 4911 0
4903 -4905 4911 0
-4907 -4909 -4911 0
4907 4909 -4911 0
-4907 4909 4911 0
4907 -4909 4911 0
-4854 -4856 -4938 0
4854 4856 -4938 0
-4854 4856 4938 0
4854 -4856 4938 0
-4865 -4867 -4915 0
4865 4867 -4915 0
-4865 4867 4915 0
4865 -4867 4915 0
-4869 -4871 -4916 0
4869 4871 -4916 0
-4869 4871 4916 0
4869 -4871 4916 0
-4873 -4875 -4918 0
4873 4875 -4918 0
-4873 4875 4918 0
4873 -4875 4918 0
-4877 -4879 -4920 0
4877 4879 -4920 0
-4877 4879 4920 0
4877 -4879 4920 0
-4881 -4883 -4922 0
4881 4883 -4922 0
-4881 4883 4922 0
4881 -4883 4922 0
-4885 -4887 -4924 0
4885 4887 -4924 0
-4885 4887 4924 0
4885 -4887 4924 0
-4890 -4892 -4927 0
4890 4892 -4927 0
-4890 4892 4927 0
4890 -4892 4927 0
-4894 -4896 -4928 0
4894 4896 -4928 0
-4894 4896 4928 0
4894 -4896 4928 0
-4900 -4902 -4930 0
4900 4902 -4930 0
-4900 4902 4930 0
4900 -4902 4930 0
-4904 -4906 -4932 0
4904 4906 -4932 0
-4904 4906 4932 0
4904 -4906 4932 0
-4908 -4910 -4934 0
4908 4910 -4934 0
-4908 4910 4934 0
4908 -4910 4934 0
-4912 -4913 -4936 0
4912 4913 -4936 0
-4912 4913 4936 0
4912 -4913 4936 0
-4915 -4916 -4940 0
4915 4916 -4940 0
-4915 4916 4940 0
4915 -4916 4940 0
-4918 -4920 -4942 0
4918 4920 -4942 0
-4918 4920 4942 0
4918 -4920 4942 0
-4921 -4922 -4944 0
4921 4922 -4944 0
-4921 4922 4944 0
4921 -4922 4944 0
-4924 -4926 -4946 0
4924 4926 -4946 0
-4924 4926 4946 0
4924 -4926 4946 0
-4927 -4928 -4948 0
4927 4928 -4948 0
-4927 4928 4948 0
4927 -4928 4948 0
-4929 -4930 -4950 0
4929 4930 -4950 0
-4929 4930 4950 0
4929 -4930 4950 0
-4932 -4934 -4952 0
4932 4934 -4952 0
-4932 4934 4952 0
4932 -4934 4952 0
-4911 -4936 -4954 0
4911 4936 -4954 0
4911 -4936 4954 0
-4911 4936 4954 0
-4938 -4939 -4956 0
4938 4939 -4956 0
-4938 4939 4956 0
4938 -4939 4956 0
-4914 -4940 -4958 0
4914 4940 -4958 0
-4914 4940 4958 0
4914 -4940 4958 0
-4942 -4944 -4960 0
4942 4944 -4960 0
-4942 4944 4960 0
4942 -4944 4960 0
-4946 -4948 -4962 0
4946 4948 -4962 0
-4946 4948 4962 0
4946 -4948 4962 0
-4950 -4952 -4964 0
4950 4952 -4964 0
-4950 4952 4964 0
4950 -4952 4964 0
-4954 -4956 -4966 0
4954 4956 -4966 0
-4954 4956 4966 0
4954 -4956 4966 0
-4958 -4960 -4968 0
4958 4960 -4968 0
-4958 4960 4968 0
4958 -4960 4968 0
-4962 -4964 -4970 0
4962 4964 -4970 0
-4962 4964 4970 0
4962 -4964 4970 0
-4966 -4968 -4970 0
4966 4968 -4970 0
-4966 4968 4970 0
4966 -4968 4970 0
-4917 -4919 -4975 0
4917 4919 -4975 0
-4917 4919 4975 0
4917 -4919 4975 0
-4923 -4925 -4977 0
4923 4925 -4977 0
-4923 4925 4977 0
4923 -4925 4977 0
-4931 -4933 -4980 0
4931 4933 -4980 0
-4931 4933 4980 0
4931 -4933 4980 0
-4935 -4937 -5002 0
4935 4937 -5002 0
-4935 4937 5002 0
4935 -4937 5002 0
-4941 -4943 -5003 0
4941 4943 -5003 0
-4941 4943 5003 0
4941 -4943 5003 0
-4945 -4947 -4981 0
4945 4947 -4981 0
-4945 4947 4981 0
4945 -4947 4981 0
-4949 -4951 -4983 0
4949 4951 -4983 0
-4949 4951 4983 0
4949 -4951 4983 0
-4953 -4955 -4985 0
4953 4955 -4985 0
-4953 4955 4985 0
4953 -4955 4985 0
-4957 -4959 -4987 0
4957 4959 -4987 0
-4957 4959 4987 0
4957 -4959 4987 0
-4961 -4963 -4989 0
4961 4963 -4989 0
-4961 4963 4989 0
4961 -4963 4989 0
-4965 -4967 -4991 0
4965 4967 -4991 0
-4965 4967 4991 0
4965 -4967 4991 0
-4969 -4971 -4993 0
4969 4971 -4993 0
-4969 4971 4993 0
4969 -4971 4993 0
-4970 -4972 -4995 0
4970 4972 -4995 0
4970 -4972 4995 0
-4970 4972 4995 0
-4975 -4976 -4997 0
4975 4976 -4997 0
-4975 4976 4997 0
4975 -4976 4997 0
-4977 -4978 -4999 0
4977 4978 -4999 0
-4977 4978 4999 0
4977 -4978 4999 0
-4979 -4980 -5001 0
4979 4980 -5001 0
-4979 4980 5001 0
4979 -4980 5001 0
-4981 -4983 -5004 0
4981 4983 -5004 0
-4981 4983 5004 0
4981 -4983 5004 0
-4985 -4987 -5005 0
4985 4987 -5005 0
-4985 4987 5005 0
4985 -4987 5005 0
-4989 -4991 -5007 0
4989 4991 -5007 0
-4989 4991 5007 0
4989 -4991 5007 0
-4993 -4995 -5009 0
4993 4995 -5009 0
-4993 4995 5009 0
4993 -4995 5009 0
-4973 -4974 -5011 0
4973 4974 -5011 0
-4973 4974 5011 0
4973 -4974 5011 0
-4997 -4999 -5013 0
4997 4999 -5013 0
-4997 4999 5013 0
4997 -4999 5013 0
-5001 -5002 -5015 0
5001 5002 -5015 0
-5001 5002 5015 0
5001 -5002 5015 0
-5003 -5004 -5017 0
5003 5004 -5017 0
-5003 5004 5017 0
5003 -5004 5017 0
-5005 -5007 -5019 0
5005 5007 -5019 0
-5005 5007 5019 0
5005 -5007 5019 0
-5009 -5011 -5021 0
5009 5011 -5021 0
-5009 5011 5021 0
5009 -5011 5021 0
-5013 -5015 -5023 0
5013 5015 -5023 0
-5013 5015 5023 0
5013 -5015 5023 0
-5017 -5019 -5025 0
5017 5019 -5025 0
-5017 5019 5025 0
5017 -5019 5025 0
-5021 -5023 -5025 0
5021 5023 -5025 0
-5021 5023 5025 0
5021 -5023 5025 0
-4982 -4984 -5033 0
4982 4984 -5033 0
-4982 4984 5033 0
4982 -4984 5033 0
-4986 -4988 -5034 0
4986 4988 -5034 0
-4986 4988 5034 0
4986 -4988 5034 0
-4990 -4992 -5036 0
4990 4992 -5036 0
-4990 4992 5036 0
4990 -4992 5036 0
-4994 -4996 -5038 0
4994 4996 -5038 0
-4994 4996 5038 0
4994 -4996 5038 0
-4998 -5000 -5057 0
4998 5000 -5057 0
-4998 5000 5057 0
4998 -5000 5057 0
-5006 -5008 -5041 0
5006 5008 -5041 0
-5006 5008 5041 0
5006 -5008 5041 0
-5010 -5012 -5042 0
5010 5012 -5042 0
-5010 5012 5042 0
5010 -5012 5042 0
-5014 -5016 -5044 0
5014 5016 -5044 0
-5014 5016 5044 0
5014 -5016 5044 0
-5018 -5020 -5046 0
5018 5020 -5046 0
-5018 5020 5046 0
5018 -5020 5046 0
-5022 -5024 -5048 0
5022 5024 -5048 0
-5022 5024 5048 0
5022 -5024 5048 0
-5026 -5027 -5050 0
5026 5027 -5050 0
-5026 5027 5050 0
5026 -5027 5050 0
-5029 -5030 -5051 0
5029 5030 -5051 0
-5029 5030 5051 0
5029 -5030 5051 0
-5031 -5032 -5052 0
5031 5032 -5052 0
-5031 5032 5052 0
5031 -5032 5052 0
-5033 -5034 -5054 0
5033 5034 -5054 0
-5033 5034 5054 0
5033 -5034 5054 0
-5036 -5038 -5056 0
5036 5038 -5056 0
-5036 5038 5056 0
5036 -5038 5056 0
-5039 -5040 -5058 0
5039 5040 -5058 0
-5039 5040 5058 0
5039 -5040 5058 0
-5041 -5042 -5060 0
5041 5042 -5060 0
-5041 5042 5060 0
5041 -5042 5060 0
-5044 -5046 -5062 0
5044 5046 -5062 0
-5044 5046 5062 0
5044 -5046 5062 0
-5048 -5050 -5064 0
5048 5050 -5064 0
-5048 5050 5064 0
5048 -5050 5064 0
-5025 -5028 -5066 0
5025 5028 -5066 0
-5025 5028 5066 0
5025 -5028 5066 0
-5051 -5052 -5068 0
5051 5052 -5068 0
-5051 5052 5068 0
5051 -5052 5068 0
-5054 -5056 -5070 0
5054 5056 -5070 0
-5054 5056 5070 0
5054 -5056 5070 0
-5057 -5058 -5072 0
5057 5058 -5072 0
-5057 5058 5072 0
5057 -5058 5072 0
-5060 -5062 -5074 0
5060 5062 -5074 0
-5060 5062 5074 0
5060 -5062 5074 0
-5064 -5066 -5076 0
5064 5066 -5076 0
-5064 5066 5076 0
5064 -5066 5076 0
-5068 -5070 -5078 0
5068 5070 -5078 0
-5068 5070 5078 0
5068 -5070 5078 0
-5072 -5074 -5080 0
5072 5074 -5080 0
-5072 5074 5080 0
5072 -5074 5080 0
-5076 -5078 -5080 0
5076 5078 -5080 0
-5076 5078 5080 0
5076 -5078 5080 0
-5035 -5037 -5084 0
5035 5037 -5084 0
-5035 5037 5084 0
5035 -5037 5084 0
-5043 -5045 -5088 0
5043 5045 -5088 0
-5043 5045 5088 0
5043 -5045 5088 0
-5047 -5049 -5090 0
5047 5049 -5090 0
-5047 5049 5090 0
5047 -5049 5090 0
-5053 -5055 -5094 0
5053 5055 -5094 0
-5053 5055 5094 0
5053 -5055 5094 0
-5059 -5061 -5096 0
5059 5061 -5096 0
-5059 5061 5096 0
5059 -5061 5096 0
-5063 -5065 -5098 0
5063 5065 -5098 0
-5063 5065 5098 0
5063 -5065 5098 0
-5067 -5069 -5100 0
5067 5069 -5100 0
-5067 5069 5100 0
5067 -5069 5100 0
-5071 -5073 -5102 0
5071 5073 -5102 0
-5071 5073 5102 0
5071 -5073 5102 0
-5075 -5077 -5104 0
5075 5077 -5104 0
-5075 5077 5104 0
5075 -5077 5104 0
-5079 -5081 -5106 0
5079 5081 -5106 0
-5079 5081 5106 0
5079 -5081 5106 0
-5080 -5082 -5122 0
5080 5082 -5122 0
5080 -5082 5122 0
-5080 5082 5122 0
-5084 -5085 -5108 0
5084 5085 -5108 0
-5084 5085 5108 0
5084 -5085 5108 0
-5086 -5087 -5109 0
5086 5087 -5109 0
-5086 5087 5109 0
5086 -5087 5109 0
-5088 -5090 -5111 0
5088 5090 -5111 0
-5088 5090 5111 0
5088 -5090 5111 0
-5092 -5093 -5113 0
5092 5093 -5113 0
-5092 5093 5113 0
5092 -5093 5113 0
-5094 -5095 -5115 0
5094 5095 -5115 0
-5094 5095 5115 0
5094 -5095 5115 0
-5096 -5098 -5117 0
5096 5098 -5117 0
-5096 5098 5117 0
5096 -5098 5117 0
-5100 -5102 -5119 0
5100 5102 -5119 0
-5100 5102 5119 0
5100 -5102 5119 0
-5104 -5106 -5121 0
5104 5106 -5121 0
-5104 5106 5121 0
5104 -5106 5121 0
-5083 -5108 -5123 0
5083 5108 -5123 0
-5083 5108 5123 0
5083 -5108 5123 0
-5109 -5111 -5125 0
5109 5111 -5125 0
-5109 5111 5125 0
5109 -5111 5125 0
-5113 -5115 -5127 0
5113 5115 -5127 0
-5113 5115 5127 0
5113 -5115 5127 0
-5117 -5119 -5129 0
5117 5119 -5129 0
-5117 5119 5129 0
5117 -5119 5129 0
-5121 -5122 -5131 0
5121 5122 -5131 0
-5121 5122 5131 0
5121 -5122 5131 0
-5123 -5125 -5133 0
5123 5125 -5133 0
-5123 5125 5133 0
5123 -5125 5133 0
-5127 -5129 -5135 0
5127 5129 -5135 0
-5127 5129 5135 0
5127 -5129 5135 0
-5131 -5133 -5135 0
5131 5133 -5135 0
-5131 5133 5135 0
5131 -5133 5135 0
-5089 -5091 -5160 0
5089 5091 -5160 0
-5089 5091 5160 0
5089 -5091 5160 0
-5097 -5099 -5139 0
5097 5099 -5139 0
-5097 5099 5139 0
5097 -5099 5139 0
-5101 -5103 -5140 0
5101 5103 -5140 0
-5101 5103 5140 0
5101 -5103 5140 0
-5105 -5107 -5142 0
5105 5107 -5142 0
-5105 5107 5142 0
5105 -5107 5142 0
-5110 -5112 -5146 0
5110 5112 -5146 0
-5110 5112 5146 0
5110 -5112 5146 0
-5114 -5116 -5148 0
5114 5116 -5148 0
-5114 5116 5148 0
5114 -5116 5148 0
-5118 -5120 -5150 0
5118 5120 -5150 0
-5118 5120 5150 0
5118 -5120 5150 0
-5124 -5126 -5152 0
5124 5126 -5152 0
-5124 5126 5152 0
5124 -5126 5152 0
-5128 -5130 -5154 0
5128 5130 -5154 0
-5128 5130 5154 0
5128 -5130 5154 0
-5132 -5134 -5156 0
5132 5134 -5156 0
-5132 5134 5156 0
5132 -5134 5156 0
-5136 -5137 -5158 0
5136 5137 -5158 0
-5136 5137 5158 0
5136 -5137 5158 0
-5139 -5140 -5162 0
5139 5140 -5162 0
-5139 5140 5162 0
5139 -5140 5162 0
-5142 -5144 -5164 0
5142 5144 -5164 0
-5142 5144 5164 0
5142 -5144 5164 0
-5145 -5146 -5166 0
5145 5146 -5166 0
-5145 5146 5166 0
5145 -5146 5166 0
-5148 -5150 -5168 0
5148 5150 -5168 0
-5148 5150 5168 0
5148 -5150 5168 0
-5151 -5152 -5170 0
5151 5152 -5170 0
-5151 5152 5170 0
5151 -5152 5170 0
-5154 -5156 -5172 0
5154 5156 -5172 0
-5154 5156 5172 0
5154 -5156 5172 0
-5135 -5158 -5174 0
5135 5158 -5174 0
5135 -5158 5174 0
-5135 5158 5174 0
-5138 -5160 -5176 0
5138 5160 -5176 0
-5138 5160 5176 0
5138 -5160 5176 0
-5161 -5162 -5178 0
5161 5162 -5178 0
-5161 5162 5178 0
5161 -5162 5178 0
-5164 -5166 -5180 0
5164 5166 -5180 0
-5164 5166 5180 0
5164 -5166 5180 0
-5168 -5170 -5182 0
5168 5170 -5182 0
-5168 5170 5182 0
5168 -5170 5182 0
-5172 -5174 -5184 0
5172 5174 -5184 0
-5172 5174 5184 0
5172 -5174 5184 0
-5176 -5178 -5186 0
5176 5178 -5186 0
-5176 5178 5186 0
5176 -5178 5186 0
-5180 -5182 -5188 0
5180 5182 -5188 0
-5180 5182 5188 0
5180 -5182 5188 0
-5184 -5186 -5188 0
5184 5186 -5188 0
-5184 5186 5188 0
5184 -5186 5188 0
-5141 -5143 -5215 0
5141 5143 -5215 0
-5141 5143 5215 0
5141 -5143 5215 0
-5147 -5149 -5193 0
5147 5149 -5193 0
-5147 5149 5193 0
5147 -5149 5193 0
-5153 -5155 -5195 0
5153 5155 -5195 0
-5153 5155 5195 0
5153 -5155 5195 0
-5157 -5159 -5197 0
5157 5159 -5197 0
-5157 5159 5197 0
5157 -5159 5197 0
-5163 -5165 -5199 0
5163 5165 -5199 0
-5163 5165 5199 0
5163 -5165 5199 0
-5167 -5169 -5201 0
5167 5169 -5201 0
-5167 5169 5201 0
5167 -5169 5201 0
-5171 -5173 -5203 0
5171 5173 -5203 0
-5171 5173 5203 0
5171 -5173 5203 0
-5175 -5177 -5205 0
5175 5177 -5205 0
-5175 5177 5205 0
5175 -5177 5205 0
-5179 -5181 -5207 0
5179 5181 -5207 0
-5179 5181 5207 0
5179 -5181 5207 0
-5183 -5185 -5209 0
5183 5185 -5209 0
-5183 5185 5209 0
5183 -5185 5209 0
-5187 -5189 -5211 0
5187 5189 -5211 0
-5187 5189 5211 0
5187 -5189 5211 0
-5188 -5190 -5213 0
5188 5190 -5213 0
5188 -5190 5213 0
-5188 5190 5213 0
-5191 -5192 -5225 0
5191 5192 -5225 0
-5191 5192 5225 0
5191 -5192 5225 0
-5193 -5194 -5216 0
5193 5194 -5216 0
-5193 5194 5216 0
5193 -5194 5216 0
-5195 -5197 -5227 0
5195 5197 -5227 0
-5195 5197 5227 0
5195 -5197 5227 0
-5199 -5201 -5217 0
5199 5201 -5217 0
-5199 5201 5217 0
5199 -5201 5217 0
-5203 -5205 -5219 0
5203 5205 -5219 0
-5203 5205 5219 0
5203 -5205 5219 0
-5207 -5209 -5221 0
5207 5209 -5221 0
-5207 5209 5221 0
5207 -5209 5221 0
-5211 -5213 -5223 0
5211 5213 -5223 0
-5211 5213 5223 0
5211 -5213 5223 0
-5215 -5216 -5226 0
5215 5216 -5226 0
-5215 5216 5226 0
5215 -5216 5226 0
-5217 -5219 -5228 0
5217 5219 -5228 0
-5217 5219 5228 0
5217 -5219 5228 0
-5221 -5223 -5229 0
5221 5223 -5229 0
-5221 5223 5229 0
5221 -5223 5229 0
-5225 -5226 -5231 0
5225 5226 -5231 0
-5225 5226 5231 0
5225 -5226 5231 0
-5227 -5228 -5233 0
5227 5228 -5233 0
-5227 5228 5233 0
5227 -5228 5233 0
-5229 -5231 -5233 0
5229 5231 -5233 0
-5229 5231 5233 0
5229 -5231 5233 0
-5196 -5198 -5238 0
5196 5198 -5238 0
-5196 5198 5238 0
5196 -5198 5238 0
-5200 -5202 -5256 0
5200 5202 -5256 0
-5200 5202 5256 0
5200 -5202 5256 0
-5204 -5206 -5240 0
5204 5206 -5240 0
-5204 5206 5240 0
5204 -5206 5240 0
-5208 -5210 -5242 0
5208 5210 -5242 0
-5208 5210 5242 0
5208 -5210 5242 0
-5212 -5214 -5244 0
5212 5214 -5244 0
-5212 5214 5244 0
5212 -5214 5244 0
-5218 -5220 -5249 0
5218 5220 -5249 0
-5218 5220 5249 0
5218 -5220 5249 0
-5222 -5224 -5250 0
5222 5224 -5250 0
-5222 5224 5250 0
5222 -5224 5250 0
-5230 -5232 -5253 0
5230 5232 -5253 0
-5230 5232 5253 0
5230 -5232 5253 0
-5234 -5235 -5254 0
5234 5235 -5254 0
-5234 5235 5254 0
5234 -5235 5254 0
-5237 -5238 -5255 0
5237 5238 -5255 0
-5237 5238 5255 0
5237 -5238 5255 0
-5240 -5242 -5257 0
5240 5242 -5257 0
-5240 5242 5257 0
5240 -5242 5257 0
-5244 -5246 -5258 0
5244 5246 -5258 0
-5244 5246 5258 0
5244 -5246 5258 0
-5247 -5248 -5260 0
5247 5248 -5260 0
-5247 5248 5260 0
5247 -5248 5260 0
-5249 -5250 -5262 0
5249 5250 -5262 0
-5249 5250 5262 0
5249 -5250 5262 0
-5251 -5252 -5264 0
5251 5252 -5264 0
-5251 5252 5264 0
5251 -5252 5264 0
-5253 -5254 -5266 0
5253 5254 -5266 0
-5253 5254 5266 0
5253 -5254 5266 0
-5233 -5236 -5268 0
5233 5236 -5268 0
-5233 5236 5268 0
5233 -5236 5268 0
-5255 -5256 -5270 0
5255 5256 -5270 0
-5255 5256 5270 0
5255 -5256 5270 0
-5257 -5258 -5272 0
5257 5258 -5272 0
-5257 5258 5272 0
5257 -5258 5272 0
-5260 -5262 -5274 0
5260 5262 -5274 0
-5260 5262 5274 0
5260 -5262 5274 0
-5264 -5266 -5276 0
5264 5266 -5276 0
-5264 5266 5276 0
5264 -5266 5276 0
-5268 -5270 -5278 0
5268 5270 -5278 0
-5268 5270 5278 0
5268 -5270 5278 0
-5272 -5274 -5280 0
5272 5274 -5280 0
-5272 5274 5280 0
5272 -5274 5280 0
-5276 -5278 -5280 0
5276 5278 -5280 0
-5276 5278 5280 0
5276 -5278 5280 0
-5239 -5241 -5284 0
5239 5241 -5284 0
-5239 5241 5284 0
5239 -5241 5284 0
-5243 -5245 -5304 0
5243 5245 -5304 0
-5243 5245 5304 0
5243 -5245 5304 0
-5259 -5261 -5291 0
5259 5261 -5291 0
-5259 5261 5291 0
5259 -5261 5291 0
-5263 -5265 -5293 0
5263 5265 -5293 0
-5263 5265 5293 0
5263 -5265 5293 0
-5267 -5269 -5295 0
5267 5269 -5295 0
-5267 5269 5295 0
5267 -5269 5295 0
-5271 -5273 -5297 0
5271 5273 -5297 0
-5271 5273 5297 0
5271 -5273 5297 0
-5275 -5277 -5299 0
5275 5277 -5299 0
-5275 5277 5299 0
5275 -5277 5299 0
-5279 -5281 -5301 0
5279 5281 -5301 0
-5279 5281 5301 0
5279 -5281 5301 0
-5280 -5282 -5317 0
5280 5282 -5317 0
5280 -5282 5317 0
-5280 5282 5317 0
-5283 -5284 -5303 0
5283 5284 -5303 0
-5283 5284 5303 0
5283 -5284 5303 0
-5285 -5286 -5305 0
5285 5286 -5305 0
-5285 5286 5305 0
5285 -5286 5305 0
-5287 -5288 -5307 0
5287 5288 -5307 0
-5287 5288 5307 0
5287 -5288 5307 0
-5289 -5290 -5309 0
5289 5290 -5309 0
-5289 5290 5309 0
5289 -5290 5309 0
-5291 -5293 -5311 0
5291 5293 -5311 0
-5291 5293 5311 0
5291 -5293 5311 0
-5295 -5297 -5313 0
5295 5297 -5313 0
-5295 5297 5313 0
5295 -5297 5313 0
-5299 -5301 -5315 0
5299 5301 -5315 0
-5299 5301 5315 0
5299 -5301 5315 0
-5303 -5304 -5318 0
5303 5304 -5318 0
-5303 5304 5318 0
5303 -5304 5318 0
-5305 -5307 -5319 0
5305 5307 -5319 0
-5305 5307 5319 0
5305 -5307 5319 0
-5309 -5311 -5321 0
5309 5311 -5321 0
-5309 5311 5321 0
5309 -5311 5321 0
-5313 -5315 -5323 0
5313 5315 -5323 0
-5313 5315 5323 0
5313 -5315 5323 0
-5317 -5318 -5325 0
5317 5318 -5325 0
-5317 5318 5325 0
5317 -5318 5325 0
-5319 -5321 -5327 0
5319 5321 -5327 0
-5319 5321 5327 0
5319 -5321 5327 0
-5323 -5325 -5327 0
5323 5325 -5327 0
-5323 5325 5327 0
5323 -5325 5327 0
-5292 -5294 -5349 0
5292 5294 -5349 0
-5292 5294 5349 0
5292 -5294 5349 0
-5296 -5298 -5333 0
5296 5298 -5333 0
-5296 5298 5333 0
5296 -5298 5333 0
-5300 -5302 -5335 0
5300 5302 -5335 0
-5300 5302 5335 0
5300 -5302 5335 0
-5306 -5308 -5338 0
5306 5308 -5338 0
-5306 5308 5338 0
5306 -5308 5338 0
-5310 -5312 -5339 0
5310 5312 -5339 0
-5310 5312 5339 0
5310 -5312 5339 0
-5314 -5316 -5341 0
5314 5316 -5341 0
-5314 5316 5341 0
5314 -5316 5341 0
-5320 -5322 -5344 0
5320 5322 -5344 0
-5320 5322 5344 0
5320 -5322 5344 0
-5324 -5326 -5345 0
5324 5326 -5345 0
-5324 5326 5345 0
5324 -5326 5345 0
-5328 -5329 -5347 0
5328 5329 -5347 0
-5328 5329 5347 0
5328 -5329 5347 0
-5330 -5331 -5362 0
5330 5331 -5362 0
-5330 5331 5362 0
5330 -5331 5362 0
-5333 -5335 -5350 0
5333 5335 -5350 0
-5333 5335 5350 0
5333 -5335 5350 0
-5336 -5337 -5352 0
5336 5337 -5352 0
-5336 5337 5352 0
5336 -5337 5352 0
-5338 -5339 -5354 0
5338 5339 -5354 0
-5338 5339 5354 0
5338 -5339 5354 0
-5341 -5343 -5356 0
5341 5343 -5356 0
-5341 5343 5356 0
5341 -5343 5356 0
-5344 -5345 -5358 0
5344 5345 -5358 0
-5344 5345 5358 0
5344 -5345 5358 0
-5327 -5347 -5360 0
5327 5347 -5360 0
5327 -5347 5360 0
-5327 5347 5360 0
-5349 -5350 -5363 0
5349 5350 -5363 0
-5349 5350 5363 0
5349 -5350 5363 0
-5352 -5354 -5364 0
5352 5354 -5364 0
-5352 5354 5364 0
5352 -5354 5364 0
-5356 -5358 -5366 0
5356 5358 -5366 0
-5356 5358 5366 0
5356 -5358 5366 0
-5360 -5362 -5368 0
5360 5362 -5368 0
-5360 5362 5368 0
5360 -5362 5368 0
-5363 -5364 -5370 0
5363 5364 -5370 0
-5363 5364 5370 0
5363 -5364 5370 0
-5366 -5368 -5370 0
5366 5368 -5370 0
-5366 5368 5370 0
5366 -5368 5370 0
-5332 -5334 -5389 0
5332 5334 -5389 0
-5332 5334 5389 0
5332 -5334 5389 0
-5340 -5342 -5375 0
5340 5342 -5375 0
-5340 5342 5375 0
5340 -5342 5375 0
-5346 -5348 -5377 0
5346 5348 -5377 0
-5346 5348 5377 0
5346 -5348 5377 0
-5351 -5353 -5395 0
5351 5353 -5395 0
-5351 5353 5395 0
5351 -5353 5395 0
-5355 -5357 -5379 0
5355 5357 -5379 0
-5355 5357 5379 0
5355 -5357 5379 0
-5359 -5361 -5381 0
5359 5361 -5381 0
-5359 5361 5381 0
5359 -5361 5381 0
-5365 -5367 -5384 0
5365 5367 -5384 0
-5365 5367 5384 0
5365 -5367 5384 0
-5369 -5371 -5385 0
5369 5371 -5385 0
-5369 5371 5385 0
5369 -5371 5385 0
-5370 -5372 -5387 0
5370 5372 -5387 0
5370 -5372 5387 0
-5370 5372 5387 0
-5373 -5374 -5390 0
5373 5374 -5390 0
-5373 5374 5390 0
5373 -5374 5390 0
-5375 -5376 -5392 0
5375 5376 -5392 0
-5375 5376 5392 0
5375 -5376 5392 0
-5377 -5378 -5394 0
5377 5378 -5394 0
-5377 5378 5394 0
5377 -5378 5394 0
-5379 -5381 -5396 0
5379 5381 -5396 0
-5379 5381 5396 0
5379 -5381 5396 0
-5383 -5384 -5398 0
5383 5384 -5398 0
-5383 5384 5398 0
5383 -5384 5398 0
-5385 -5387 -5400 0
5385 5387 -5400 0
-5385 5387 5400 0
5385 -5387 5400 0
-5390 -5392 -5401 0
5390 5392 -5401 0
-5390 5392 5401 0
5390 -5392 5401 0
-5394 -5395 -5403 0
5394 5395 -5403 0
-5394 5395 5403 0
5394 -5395 5403 0
-5396 -5398 -5405 0
5396 5398 -5405 0
-5396 5398 5405 0
5396 -5398 5405 0
-5389 -5400 -5407 0
5389 5400 -5407 0
5389 -5400 5407 0
-5389 5400 5407 0
-5401 -5403 -5409 0
5401 5403 -5409 0
-5401 5403 5409 0
5401 -5403 5409 0
-5405 -5407 -5409 0
5405 5407 -5409 0
-5405 5407 5409 0
5405 -5407 5409 0
-5380 -5382 -5416 0
5380 5382 -5416 0
-5380 5382 5416 0
5380 -5382 5416 0
-5386 -5388 -5418 0
5386 5388 -5418 0
-5386 5388 5418 0
5386 -5388 5418 0
-5391 -5393 -5432 0
5391 5393 -5432 0
-5391 5393 5432 0
5391 -5393 5432 0
-5397 -5399 -5420 0
5397 5399 -5420 0
-5397 5399 5420 0
5397 -5399 5420 0
-5402 -5404 -5422 0
5402 5404 -5422 0
-5402 5404 5422 0
5402 -5404 5422 0
-5406 -5408 -5424 0
5406 5408 -5424 0
-5406 5408 5424 0
5406 -5408 5424 0
-5410 -5411 -5426 0
5410 5411 -5426 0
-5410 5411 5426 0
5410 -5411 5426 0
-5413 -5414 -5427 0
5413 5414 -5427 0
-5413 5414 5427 0
5413 -5414 5427 0
-5415 -5416 -5428 0
5415 5416 -5428 0
-5415 5416 5428 0
5415 -5416 5428 0
-5417 -5418 -5430 0
5417 5418 -5430 0
-5417 5418 5430 0
5417 -5418 5430 0
-5419 -5420 -5433 0
5419 5420 -5433 0
-5419 5420 5433 0
5419 -5420 5433 0
-5421 -5422 -5434 0
5421 5422 -5434 0
-5421 5422 5434 0
5421 -5422 5434 0
-5424 -5426 -5436 0
5424 5426 -5436 0
-5424 5426 5436 0
5424 -5426 5436 0
-5409 -5412 -5438 0
5409 5412 -5438 0
-5409 5412 5438 0
5409 -5412 5438 0
-5427 -5428 -5440 0
5427 5428 -5440 0
-5427 5428 5440 0
5427 -5428 5440 0
-5430 -5432 -5442 0
5430 5432 -5442 0
-5430 5432 5442 0
5430 -5432 5442 0
-5433 -5434 -5444 0
5433 5434 -5444 0
-5433 5434 5444 0
5433 -5434 5444 0
-5436 -5438 -5446 0
5436 5438 -5446 0
-5436 5438 5446 0
5436 -5438 5446 0
-5440 -5442 -5448 0
5440 5442 -5448 0
-5440 5442 5448 0
5440 -5442 5448 0
-5444 -5446 -5448 0
5444 5446 -5448 0
-5444 5446 5448 0
5444 -5446 5448 0
-5423 -5425 -5454 0
5423 5425 -5454 0
-5423 5425 5454 0
5423 -5425 5454 0
-5429 -5431 -5457 0
5429 5431 -5457 0
-5429 5431 5457 0
5429 -5431 5457 0
-5435 -5437 -5459 0
5435 5437 -5459 0
-5435 5437 5459 0
5435 -5437 5459 0
-5439 -5441 -5461 0
5439 5441 -5461 0
-5439 5441 5461 0
5439 -5441 5461 0
-5443 -5445 -5463 0
5443 5445 -5463 0
-5443 5445 5463 0
5443 -5445 5463 0
-5447 -5449 -5465 0
5447 5449 -5465 0
-5447 5449 5465 0
5447 -5449 5465 0
-5448 -5450 -5478 0
5448 5450 -5478 0
5448 -5450 5478 0
-5448 5450 5478 0
-5451 -5452 -5468 0
5451 5452 -5468 0
-5451 5452 5468 0
5451 -5452 5468 0
-5453 -5454 -5469 0
5453 5454 -5469 0
-5453 5454 5469 0
5453 -5454 5469 0
-5455 -5456 -5471 0
5455 5456 -5471 0
-5455 5456 5471 0
5455 -5456 5471 0
-5457 -5458 -5473 0
5457 5458 -5473 0
-5457 5458 5473 0
5457 -5458 5473 0
-5459 -5461 -5475 0
5459 5461 -5475 0
-5459 5461 5475 0
5459 -5461 5475 0
-5463 -5465 -5477 0
5463 5465 -5477 0
-5463 5465 5477 0
5463 -5465 5477 0
-5467 -5468 -5479 0
5467 5468 -5479 0
-5467 5468 5479 0
5467 -5468 5479 0
-5469 -5471 -5481 0
5469 5471 -5481 0
-5469 5471 5481 0
5469 -5471 5481 0
-5473 -5475 -5483 0
5473 5475 -5483 0
-5473 5475 5483 0
5473 -5475 5483 0
-5477 -5478 -5485 0
5477 5478 -5485 0
-5477 5478 5485 0
5477 -5478 5485 0
-5479 -5481 -5487 0
5479 5481 -5487 0
-5479 5481 5487 0
5479 -5481 5487 0
-5483 -5485 -5487 0
5483 5485 -5487 0
-5483 5485 5487 0
5483 -5485 5487 0
-5460 -5462 -5492 0
5460 5462 -5492 0
-5460 5462 5492 0
5460 -5462 5492 0
-5464 -5466 -5494 0
5464 5466 -5494 0
-5464 5466 5494 0
5464 -5466 5494 0
-5470 -5472 -5498 0
5470 5472 -5498 0
-5470 5472 5498 0
5470 -5472 5498 0
-5474 -5476 -5500 0
5474 5476 -5500 0
-5474 5476 5500 0
5474 -5476 5500 0
-5480 -5482 -5503 0
5480 5482 -5503 0
-5480 5482 5503 0
5480 -5482 5503 0
-5484 -5486 -5504 0
5484 5486 -5504 0
-5484 5486 5504 0
5484 -5486 5504 0
-5488 -5489 -5506 0
5488 5489 -5506 0
-5488 5489 5506 0
5488 -5489 5506 0
-5491 -5492 -5508 0
5491 5492 -5508 0
-5491 5492 5508 0
5491 -5492 5508 0
-5494 -5496 -5509 0
5494 5496 -5509 0
-5494 5496 5509 0
5494 -5496 5509 0
-5497 -5498 -5511 0
5497 5498 -5511 0
-5497 5498 5511 0
5497 -5498 5511 0
-5500 -5502 -5513 0
5500 5502 -5513 0
-5500 5502 5513 0
5500 -5502 5513 0
-5503 -5504 -5515 0
5503 5504 -5515 0
-5503 5504 5515 0
5503 -5504 5515 0
-5487 -5506 -5517 0
5487 5506 -5517 0
5487 -5506 5517 0
-5487 5506 5517 0
-5508 -5509 -5518 0
5508 5509 -5518 0
-5508 5509 5518 0
5508 -5509 5518 0
-5511 -5513 -5520 0
5511 5513 -5520 0
-5511 5513 5520 0
5511 -5513 5520 0
-5515 -5517 -5522 0
5515 5517 -5522 0
-5515 5517 5522 0
5515 -5517 5522 0
-5490 -5518 -5524 0
5490 5518 -5524 0
-5490 5518 5524 0
5490 -5518 5524 0
-5520 -5522 -5524 0
5520 5522 -5524 0
-5520 5522 5524 0
5520 -5522 5524 0
-5493 -5495 -5540 0
5493 5495 -5540 0
-5493 5495 5540 0
5493 -5495 5540 0
-5499 -5501 -5541 0
5499 5501 -5541 0
-5499 5501 5541 0
5499 -5501 5541 0
-5505 -5507 -5528 0
5505 5507 -5528 0
-5505 5507 5528 0
5505 -5507 5528 0
-5510 -5512 -5530 0
5510 5512 -5530 0
-5510 5512 5530 0
5510 -5512 5530 0
-5514 -5516 -5532 0
5514 5516 -5532 0
-5514 5516 5532 0
5514 -5516 5532 0
-5519 -5521 -5535 0
5519 5521 -5535 0
-5519 5521 5535 0
5519 -5521 5535 0
-5523 -5525 -5536 0
5523 5525 -5536 0
-5523 5525 5536 0
5523 -5525 5536 0
-5524 -5526 -5538 0
5524 5526 -5538 0
5524 -5526 5538 0
-5524 5526 5538 0
-5527 -5528 -5542 0
5527 5528 -5542 0
-5527 5528 5542 0
5527 -5528 5542 0
-5530 -5532 -5543 0
5530 5532 -5543 0
-5530 5532 5543 0
5530 -5532 5543 0
-5534 -5535 -5544 0
5534 5535 -5544 0
-5534 5535 5544 0
5534 -5535 5544 0
-5536 -5538 -5546 0
5536 5538 -5546 0
-5536 5538 5546 0
5536 -5538 5546 0
-5541 -5542 -5548 0
5541 5542 -5548 0
-5541 5542 5548 0
5541 -5542 5548 0
-5529 -5543 -5549 0
5529 5543 -5549 0
-5529 5543 5549 0
5529 -5543 5549 0
-5544 -5546 -5551 0
5544 5546 -5551 0
-5544 5546 5551 0
5544 -5546 5551 0
-5540 -5548 -5553 0
5540 5548 -5553 0
-5540 5548 5553 0
5540 -5548 5553 0
-5549 -5551 -5553 0
5549 5551 -5553 0
-5549 5551 5553 0
5549 -5551 5553 0
-5531 -5533 -5558 0
5531 5533 -5558 0
-5531 5533 5558 0
5531 -5533 5558 0
-5537 -5539 -5569 0
5537 5539 -5569 0
-5537 5539 5569 0
5537 -5539 5569 0
-5545 -5547 -5562 0
5545 5547 -5562 0
-5545 5547 5562 0
5545 -5547 5562 0
-5550 -5552 -5564 0
5550 5552 -5564 0
-5550 5552 5564 0
5550 -5552 5564 0
-5554 -5555 -5565 0
5554 5555 -5565 0
-5554 5555 5565 0
5554 -5555 5565 0
-5556 -5557 -5566 0
5556 5557 -5566 0
-5556 5557 5566 0
5556 -5557 5566 0
-5558 -5559 -5568 0
5558 5559 -5568 0
-5558 5559 5568 0
5558 -5559 5568 0
-5560 -5561 -5570 0
5560 5561 -5570 0
-5560 5561 5570 0
5560 -5561 5570 0
-5562 -5563 -5572 0
5562 5563 -5572 0
-5562 5563 5572 0
5562 -5563 5572 0
-5564 -5565 -5574 0
5564 5565 -5574 0
-5564 5565 5574 0
5564 -5565 5574 0
-5553 -5566 -5576 0
5553 5566 -5576 0
-5553 5566 5576 0
5553 -5566 5576 0
-5567 -5568 -5578 0
5567 5568 -5578 0
-5567 5568 5578 0
5567 -5568 5578 0
-5569 -5570 -5580 0
5569 5570 -5580 0
-5569 5570 5580 0
5569 -5570 5580 0
-5572 -5574 -5582 0
5572 5574 -5582 0
-5572 5574 5582 0
5572 -5574 5582 0
-5576 -5578 -5584 0
5576 5578 -5584 0
-5576 5578 5584 0
5576 -5578 5584 0
-5580 -5582 -5584 0
5580 5582 -5584 0
-5580 5582 5584 0
5580 -5582 5584 0
-5571 -5573 -5593 0
5571 5573 -5593 0
-5571 5573 5593 0
5571 -5573 5593 0
-5575 -5577 -5595 0
5575 5577 -5595 0
-5575 5577 5595 0
5575 -5577 5595 0
-5579 -5581 -5597 0
5579 5581 -5597 0
-5579 5581 5597 0
5579 -5581 5597 0
-5583 -5585 -5599 0
5583 5585 -5599 0
-5583 5585 5599 0
5583 -5585 5599 0
-5584 -5586 -5611 0
5584 5586 -5611 0
5584 -5586 5611 0
-5584 5586 5611 0
-5587 -5588 -5601 0
5587 5588 -5601 0
-5587 5588 5601 0
5587 -5588 5601 0
-5589 -5590 -5603 0
5589 5590 -5603 0
-5589 5590 5603 0
5589 -5590 5603 0
-5591 -5592 -5605 0
5591 5592 -5605 0
-5591 5592 5605 0
5591 -5592 5605 0
-5593 -5595 -5607 0
5593 5595 -5607 0
-5593 5595 5607 0
5593 -5595 5607 0
-5597 -5599 -5609 0
5597 5599 -5609 0
-5597 5599 5609 0
5597 -5599 5609 0
-5601 -5602 -5612 0
5601 5602 -5612 0
-5601 5602 5612 0
5601 -5602 5612 0
-5603 -5605 -5613 0
5603 5605 -5613 0
-5603 5605 5613 0
5603 -5605 5613 0
-5607 -5609 -5615 0
5607 5609 -5615 0
-5607 5609 5615 0
5607 -5609 5615 0
-5611 -5612 -5617 0
5611 5612 -5617 0
-5611 5612 5617 0
5611 -5612 5617 0
-5613 -5615 -5617 0
5613 5615 -5617 0
-5613 5615 5617 0
5613 -5615 5617 0
-5594 -5596 -5620 0
5594 5596 -5620 0
-5594 5596 5620 0
5594 -5596 5620 0
-5598 -5600 -5621 0
5598 5600 -5621 0
-5598 5600 5621 0
5598 -5600 5621 0
-5604 -5606 -5624 0
5604 5606 -5624 0
-5604 5606 5624 0
5604 -5606 5624 0
-5608 -5610 -5625 0
5608 5610 -5625 0
-5608 5610 5625 0
5608 -5610 5625 0
-5614 -5616 -5627 0
5614 5616 -5627 0
-5614 5616 5627 0
5614 -5616 5627 0
-5618 -5619 -5629 0
5618 5619 -5629 0
-5618 5619 5629 0
5618 -5619 5629 0
-5620 -5621 -5631 0
5620 5621 -5631 0
-5620 5621 5631 0
5620 -5621 5631 0
-5622 -5623 -5632 0
5622 5623 -5632 0
-5622 5623 5632 0
5622 -5623 5632 0
-5624 -5625 -5634 0
5624 5625 -5634 0
-5624 5625 5634 0
5624 -5625 5634 0
-5626 -5627 -5636 0
5626 5627 -5636 0
-5626 5627 5636 0
5626 -5627 5636 0
-5617 -5629 -5641 0
5617 5629 -5641 0
5617 -5629 5641 0
-5617 5629 5641 0
-5631 -5632 -5639 0
5631 5632 -5639 0
-5631 5632 5639 0
5631 -5632 5639 0
-5634 -5636 -5640 0
5634 5636 -5640 0
-5634 5636 5640 0
5634 -5636 5640 0
-5639 -5640 -5641 0
5639 5640 -5641 0
-5639 5640 5641 0
5639 -5640 5641 0
-5628 -5630 -5654 0
5628 5630 -5654 0
-5628 5630 5654 0
5628 -5630 5654 0
-5633 -5635 -5648 0
5633 5635 -5648 0
-5633 5635 5648 0
5633 -5635 5648 0
-5637 -5638 -5649 0
5637 5638 -5649 0
-5637 5638 5649 0
5637 -5638 5649 0
-5641 -5642 -5652 0
5641 5642 -5652 0
5641 -5642 5652 0
-5641 5642 5652 0
-5643 -5644 -5660 0
5643 5644 -5660 0
-5643 5644 5660 0
5643 -5644 5660 0
-5645 -5646 -5653 0
5645 5646 -5653 0
-5645 5646 5653 0
5645 -5646 5653 0
-5647 -5648 -5655 0
5647 5648 -5655 0
-5647 5648 5655 0
5647 -5648 5655 0
-5649 -5650 -5657 0
5649 5650 -5657 0
-5649 5650 5657 0
5649 -5650 5657 0
-5651 -5652 -5659 0
5651 5652 -5659 0
-5651 5652 5659 0
5651 -5652 5659 0
-5653 -5654 -5661 0
5653 5654 -5661 0
-5653 5654 5661 0
5653 -5654 5661 0
-5655 -5657 -5663 0
5655 5657 -5663 0
-5655 5657 5663 0
5655 -5657 5663 0
-5659 -5660 -5665 0
5659 5660 -5665 0
-5659 5660 5665 0
5659 -5660 5665 0
-5661 -5663 -5665 0
5661 5663 -5665 0
-5661 5663 5665 0
5661 -5663 5665 0
-5656 -5658 -5674 0
5656 5658 -5674 0
-5656 5658 5674 0
5656 -5658 5674 0
-5662 -5664 -5676 0
5662 5664 -5676 0
-5662 5664 5676 0
5662 -5664 5676 0
-5666 -5667 -5677 0
5666 5667 -5677 0
-5666 5667 5677 0
5666 -5667 5677 0
-5668 -5669 -5678 0
5668 5669 -5678 0
-5668 5669 5678 0
5668 -5669 5678 0
-5670 -5671 -5679 0
5670 5671 -5679 0
-5670 5671 5679 0
5670 -5671 5679 0
-5672 -5673 -5681 0
5672 5673 -5681 0
-5672 5673 5681 0
5672 -5673 5681 0
-5674 -5675 -5683 0
5674 5675 -5683 0
-5674 5675 5683 0
5674 -5675 5683 0
-5676 -5677 -5685 0
5676 5677 -5685 0
-5676 5677 5685 0
5676 -5677 5685 0
-5678 -5679 -5687 0
5678 5679 -5687 0
-5678 5679 5687 0
5678 -5679 5687 0
-5681 -5683 -5688 0
5681 5683 -5688 0
-5681 5683 5688 0
5681 -5683 5688 0
-5665 -5685 -5690 0
5665 5685 -5690 0
5665 -5685 5690 0
-5665 5685 5690 0
-5687 -5688 -5690 0
5687 5688 -5690 0
-5687 5688 5690 0
5687 -5688 5690 0
-5680 -5682 -5697 0
5680 5682 -5697 0
-5680 5682 5697 0
5680 -5682 5697 0
-5684 -5686 -5699 0
5684 5686 -5699 0
-5684 5686 5699 0
5684 -5686 5699 0
-5689 -5691 -5702 0
5689 5691 -5702 0
-5689 5691 5702 0
5689 -5691 5702 0
-5690 -5692 -5708 0
5690 5692 -5708 0
5690 -5692 5708 0
-5690 5692 5708 0
-5693 -5694 -5709 0
5693 5694 -5709 0
-5693 5694 5709 0
5693 -5694 5709 0
-5695 -5696 -5703 0
5695 5696 -5703 0
-5695 5696 5703 0
5695 -5696 5703 0
-5697 -5699 -5705 0
5697 5699 -5705 0
-5697 5699 5705 0
5697 -5699 5705 0
-5701 -5702 -5707 0
5701 5702 -5707 0
-5701 5702 5707 0
5701 -5702 5707 0
-5703 -5705 -5710 0
5703 5705 -5710 0
-5703 5705 5710 0
5703 -5705 5710 0
-5707 -5708 -5711 0
5707 5708 -5711 0
-5707 5708 5711 0
5707 -5708 5711 0
-5709 -5710 -5711 0
5709 5710 -5711 0
-5709 5710 5711 0
5709 -5710 5711 0
-5698 -5700 -5721 0
5698 5700 -5721 0
-5698 5700 5721 0
5698 -5700 5721 0
-5704 -5706 -5717 0
5704 5706 -5717 0
-5704 5706 5717 0
5704 -5706 5717 0
-5712 -5713 -5720 0
5712 5713 -5720 0
-5712 5713 5720 0
5712 -5713 5720 0
-5714 -5715 -5722 0
5714 5715 -5722 0
-5714 5715 5722 0
5714 -5715 5722 0
-5716 -5717 -5723 0
5716 5717 -5723 0
-5716 5717 5723 0
5716 -5717 5723 0
-5718 -5719 -5725 0
5718 5719 -5725 0
-5718 5719 5725 0
5718 -5719 5725 0
-5711 -5720 -5727 0
5711 5720 -5727 0
5711 -5720 5727 0
-5711 5720 5727 0
-5722 -5723 -5728 0
5722 5723 -5728 0
-5722 5723 5728 0
5722 -5723 5728 0
-5725 -5727 -5730 0
5725 5727 -5730 0
-5725 5727 5730 0
5725 -5727 5730 0
-5721 -5728 -5730 0
5721 5728 -5730 0
-5721 5728 5730 0
5721 -5728 5730 0
-5724 -5726 -5736 0
5724 5726 -5736 0
-5724 5726 5736 0
5724 -5726 5736 0
-5729 -5731 -5738 0
5729 5731 -5738 0
-5729 5731 5738 0
5729 -5731 5738 0
-5730 -5732 -5740 0
5730 5732 -5740 0
5730 -5732 5740 0
-5730 5732 5740 0
-5733 -5734 -5742 0
5733 5734 -5742 0
-5733 5734 5742 0
5733 -5734 5742 0
-5736 -5737 -5743 0
5736 5737 -5743 0
-5736 5737 5743 0
5736 -5737 5743 0
-5738 -5740 -5745 0
5738 5740 -5745 0
-5738 5740 5745 0
5738 -5740 5745 0
-5735 -5742 -5748 0
5735 5742 -5748 0
5735 -5742 5748 0
-5735 5742 5748 0
-5743 -5745 -5749 0
5743 5745 -5749 0
-5743 5745 5749 0
5743 -5745 5749 0
-5747 -5748 -5749 0
5747 5748 -5749 0
-5747 5748 5749 0
5747 -5748 5749 0
-5739 -5741 -5757 0
5739 5741 -5757 0
-5739 5741 5757 0
5739 -5741 5757 0
-5744 -5746 -5753 0
5744 5746 -5753 0
-5744 5746 5753 0
5744 -5746 5753 0
-5750 -5751 -5755 0
5750 5751 -5755 0
-5750 5751 5755 0
5750 -5751 5755 0
-5752 -5753 -5758 0
5752 5753 -5758 0
-5752 5753 5758 0
5752 -5753 5758 0
-5754 -5755 -5759 0
5754 5755 -5759 0
-5754 5755 5759 0
5754 -5755 5759 0
-5756 -5757 -5760 0
5756 5757 -5760 0
-5756 5757 5760 0
5756 -5757 5760 0
-5758 -5759 -5762 0
5758 5759 -5762 0
-5758 5759 5762 0
5758 -5759 5762 0
-5749 -5760 -5762 0
5749 5760 -5762 0
-5749 5760 5762 0
5749 -5760 5762 0
-5761 -5763 -5769 0
5761 5763 -5769 0
-5761 5763 5769 0
5761 -5763 5769 0
-5762 -5764 -5773 0
5762 5764 -5773 0
5762 -5764 5773 0
-5762 5764 5773 0
-5765 -5766 -5771 0
5765 5766 -5771 0
-5765 5766 5771 0
5765 -5766 5771 0
-5768 -5769 -5772 0
5768 5769 -5772 0
-5768 5769 5772 0
5768 -5769 5772 0
-5770 -5771 -5774 0
5770 5771 -5774 0
-5770 5771 5774 0
5770 -5771 5774 0
-5767 -5772 -5775 0
5767 5772 -5775 0
-5767 5772 5775 0
5767 -5772 5775 0
-5773 -5774 -5775 0
5773 5774 -5775 0
-5773 5774 5775 0
5773 -5774 5775 0
-5776 -5777 -5782 0
5776 5777 -5782 0
-5776 5777 5782 0
5776 -5777 5782 0
-5778 -5779 -5784 0
5778 5779 -5784 0
-5778 5779 5784 0
5778 -5779 5784 0
-5780 -5781 -5785 0
5780 5781 -5785 0
-5780 5781 5785 0
5780 -5781 5785 0
-5775 -5782 -5787 0
5775 5782 -5787 0
5775 -5782 5787 0
-5775 5782 5787 0
-5784 -5785 -5789 0
5784 5785 -5789 0
-5784 5785 5789 0
5784 -5785 5789 0
-5783 -5787 -5789 0
5783 5787 -5789 0
5783 -5787 5789 0
-5783 5787 5789 0
-5786 -5788 -5792 0
5786 5788 -5792 0
-5786 5788 5792 0
5786 -5788 5792 0
-5789 -5790 -5794 0
5789 5790 -5794 0
5789 -5790 5794 0
-5789 5790 5794 0
-5791 -5792 -5796 0
5791 5792 -5796 0
-5791 5792 5796 0
5791 -5792 5796 0
-5793 -5794 -5797 0
5793 5794 -5797 0
-5793 5794 5797 0
5793 -5794 5797 0
-5795 -5796 -5797 0
5795 5796 -5797 0
-5795 5796 5797 0
5795 -5796 5797 0
-5798 -5799 -5803 0
5798 5799 -5803 0
-5798 5799 5803 0
5798 -5799 5803 0
-5801 -5802 -5804 0
5801 5802 -5804 0
-5801 5802 5804 0
5801 -5802 5804 0
-5800 -5803 -5805 0
5800 5803 -5805 0
5800 -5803 5805 0
-5800 5803 5805 0
-5797 -5804 -5805 0
5797 5804 -5805 0
5797 -5804 5805 0
-5797 5804 5805 0
-5805 -5806 -5810 0
5805 5806 -5810 0
5805 -5806 5810 0
-5805 5806 5810 0
-5807 -5808 -5809 0
5807 5808 -5809 0
-5807 5808 5809 0
5807 -5808 5809 0
-5809 -5810 -5811 0
5809 5810 -5811 0
-5809 5810 5811 0
5809 -5810 5811 0
-5811 -5813 -5814 0
5811 5813 -5814 0
5811 -5813 5814 0
-5811 5813 5814 0
-5812 -5814 -5815 0
5812 5814 -5815 0
-5812 5814 5815 0
5812 -5814 5815 0
5815 -5816 5817 0
-5815 5816 5817 0
