c Factorization SAT instance #3: N = 29213 = 131 x 223
c p = 131 (8 bits), q = 223 (8 bits)
c N = 29213 (15 bits)
c Generator: generate_instances.py  d=3, k=50, seed=None
p cnf 2321 8238
-1 -2 8 0
1 -8 0
2 -8 0
-1 -3 9 0
1 -9 0
3 -9 0
-1 -4 10 0
1 -10 0
4 -10 0
-1 -5 11 0
1 -11 0
5 -11 0
-1 -6 12 0
1 -12 0
6 -12 0
-1 -7 13 0
1 -13 0
7 -13 0
-1 -14 15 0
14 -15 0
1 -15 0
-2 -14 16 0
14 -16 0
2 -16 0
-3 -14 17 0
14 -17 0
3 -17 0
-4 -14 18 0
14 -18 0
4 -18 0
-5 -14 19 0
14 -19 0
5 -19 0
-6 -14 20 0
14 -20 0
6 -20 0
-7 -14 21 0
14 -21 0
7 -21 0
-1 -22 23 0
22 -23 0
1 -23 0
-2 -22 24 0
22 -24 0
2 -24 0
-3 -22 25 0
22 -25 0
3 -25 0
-4 -22 26 0
22 -26 0
4 -26 0
-5 -22 27 0
22 -27 0
5 -27 0
-6 -22 28 0
22 -28 0
6 -28 0
-7 -22 29 0
22 -29 0
7 -29 0
-1 -30 31 0
30 -31 0
1 -31 0
-2 -30 32 0
30 -32 0
2 -32 0
-3 -30 33 0
30 -33 0
3 -33 0
-4 -30 34 0
30 -34 0
4 -34 0
-5 -30 35 0
30 -35 0
5 -35 0
-6 -30 36 0
30 -36 0
6 -36 0
-7 -30 37 0
30 -37 0
7 -37 0
-1 -38 39 0
38 -39 0
1 -39 0
-2 -38 40 0
38 -40 0
2 -40 0
-3 -38 41 0
38 -41 0
3 -41 0
-4 -38 42 0
38 -42 0
4 -42 0
-5 -38 43 0
38 -43 0
5 -43 0
-6 -38 44 0
38 -44 0
6 -44 0
-7 -38 45 0
38 -45 0
7 -45 0
-1 -46 47 0
46 -47 0
1 -47 0
-2 -46 48 0
46 -48 0
2 -48 0
-3 -46 49 0
46 -49 0
3 -49 0
-4 -46 50 0
46 -50 0
4 -50 0
-5 -46 51 0
46 -51 0
5 -51 0
-6 -46 52 0
46 -52 0
6 -52 0
-7 -46 53 0
46 -53 0
7 -53 0
-1 -54 55 0
54 -55 0
1 -55 0
-2 -54 56 0
54 -56 0
2 -56 0
-3 -54 57 0
54 -57 0
3 -57 0
-4 -54 58 0
54 -58 0
4 -58 0
-5 -54 59 0
54 -59 0
5 -59 0
-6 -54 60 0
54 -60 0
6 -60 0
-7 -54 61 0
54 -61 0
7 -61 0
-1 -2 63 0
2 -63 0
1 -63 0
-1 -14 64 0
14 -64 0
1 -64 0
-3 -8 65 0
3 -65 0
8 -65 0
-15 -22 67 0
15 -67 0
22 -67 0
-63 -64 69 0
63 -69 0
64 -69 0
-66 -68 78 0
66 -78 0
68 -78 0
-4 -9 71 0
4 -71 0
9 -71 0
-16 -23 73 0
16 -73 0
23 -73 0
-30 -65 75 0
30 -75 0
65 -75 0
-67 -69 77 0
67 -77 0
69 -77 0
-72 -74 81 0
72 -81 0
74 -81 0
-76 -78 83 0
76 -83 0
78 -83 0
-79 -80 94 0
79 -94 0
80 -94 0
-5 -10 85 0
5 -85 0
10 -85 0
-17 -24 87 0
17 -87 0
24 -87 0
-31 -38 89 0
31 -89 0
38 -89 0
-71 -73 91 0
71 -91 0
73 -91 0
-75 -77 92 0
75 -92 0
77 -92 0
-81 -83 115 0
81 -115 0
83 -115 0
-84 -86 116 0
84 -116 0
86 -116 0
-88 -90 117 0
88 -117 0
90 -117 0
-93 -94 99 0
93 -99 0
94 -99 0
-95 -96 101 0
95 -101 0
96 -101 0
-97 -98 102 0
97 -102 0
98 -102 0
-6 -11 104 0
6 -104 0
11 -104 0
-18 -25 106 0
18 -106 0
25 -106 0
-32 -39 108 0
32 -108 0
39 -108 0
-46 -85 110 0
46 -110 0
85 -110 0
-87 -89 112 0
87 -112 0
89 -112 0
-91 -92 114 0
91 -114 0
92 -114 0
-99 -101 169 0
99 -169 0
101 -169 0
-100 -102 120 0
102 -120 0
100 -120 0
-103 -105 122 0
103 -122 0
105 -122 0
-107 -109 124 0
107 -124 0
109 -124 0
-111 -113 126 0
111 -126 0
113 -126 0
-115 -116 128 0
115 -128 0
116 -128 0
-117 -118 130 0
117 -130 0
118 -130 0
-119 -121 132 0
119 -132 0
121 -132 0
-123 -125 134 0
123 -134 0
125 -134 0
-127 -129 136 0
127 -136 0
129 -136 0
-131 -133 137 0
131 -137 0
133 -137 0
-7 -12 139 0
7 -139 0
12 -139 0
-19 -26 141 0
19 -141 0
26 -141 0
-33 -40 143 0
33 -143 0
40 -143 0
-47 -54 145 0
47 -145 0
54 -145 0
-104 -106 147 0
104 -147 0
106 -147 0
-108 -110 149 0
108 -149 0
110 -149 0
-112 -114 151 0
112 -151 0
114 -151 0
-120 -122 153 0
120 -153 0
122 -153 0
-124 -126 155 0
124 -155 0
126 -155 0
-128 -130 157 0
128 -157 0
130 -157 0
-132 -134 159 0
132 -159 0
134 -159 0
-136 -137 161 0
136 -161 0
137 -161 0
-135 -138 163 0
135 -163 0
138 -163 0
-140 -142 165 0
140 -165 0
142 -165 0
-144 -146 167 0
144 -167 0
146 -167 0
-148 -150 205 0
148 -205 0
150 -205 0
-152 -154 171 0
152 -171 0
154 -171 0
-156 -158 173 0
156 -173 0
158 -173 0
-160 -162 175 0
160 -175 0
162 -175 0
-164 -166 177 0
164 -177 0
166 -177 0
-168 -169 179 0
168 -179 0
169 -179 0
-170 -172 181 0
170 -181 0
172 -181 0
-174 -176 183 0
174 -183 0
176 -183 0
-178 -180 184 0
178 -184 0
180 -184 0
-13 -20 186 0
13 -186 0
20 -186 0
-27 -34 188 0
27 -188 0
34 -188 0
-41 -48 190 0
41 -190 0
48 -190 0
-55 -139 192 0
55 -192 0
139 -192 0
-141 -143 194 0
141 -194 0
143 -194 0
-145 -147 196 0
145 -196 0
147 -196 0
-149 -151 253 0
149 -253 0
151 -253 0
-153 -155 198 0
153 -198 0
155 -198 0
-157 -159 200 0
157 -200 0
159 -200 0
-161 -163 202 0
161 -202 0
163 -202 0
-165 -167 204 0
165 -204 0
167 -204 0
-171 -173 258 0
171 -258 0
173 -258 0
-175 -177 208 0
175 -208 0
177 -208 0
-179 -181 210 0
179 -210 0
181 -210 0
-183 -184 212 0
183 -212 0
184 -212 0
-182 -185 214 0
182 -214 0
185 -214 0
-187 -189 216 0
187 -216 0
189 -216 0
-191 -193 218 0
191 -218 0
193 -218 0
-195 -197 264 0
195 -264 0
197 -264 0
-199 -201 222 0
199 -222 0
201 -222 0
-203 -205 224 0
203 -224 0
205 -224 0
-206 -207 226 0
206 -226 0
207 -226 0
-209 -211 228 0
209 -228 0
211 -228 0
-213 -215 230 0
213 -230 0
215 -230 0
-217 -219 232 0
217 -232 0
219 -232 0
-220 -221 234 0
220 -234 0
221 -234 0
-223 -225 236 0
223 -236 0
225 -236 0
-227 -229 238 0
227 -238 0
229 -238 0
-231 -233 240 0
231 -240 0
233 -240 0
-235 -237 241 0
235 -241 0
237 -241 0
-21 -28 243 0
21 -243 0
28 -243 0
-35 -42 245 0
35 -245 0
42 -245 0
-49 -56 247 0
49 -247 0
56 -247 0
-186 -188 249 0
186 -249 0
188 -249 0
-190 -192 251 0
190 -251 0
192 -251 0
-194 -196 319 0
194 -319 0
196 -319 0
-198 -200 255 0
198 -255 0
200 -255 0
-202 -204 257 0
202 -257 0
204 -257 0
-208 -210 321 0
208 -321 0
210 -321 0
-212 -214 261 0
212 -261 0
214 -261 0
-216 -218 263 0
216 -263 0
218 -263 0
-222 -224 323 0
222 -323 0
224 -323 0
-226 -228 267 0
226 -267 0
228 -267 0
-230 -232 269 0
230 -269 0
232 -269 0
-234 -236 271 0
234 -271 0
236 -271 0
-238 -240 273 0
238 -273 0
240 -273 0
-239 -241 275 0
241 -275 0
239 -275 0
-242 -244 277 0
242 -277 0
244 -277 0
-246 -248 279 0
246 -279 0
248 -279 0
-250 -252 281 0
250 -281 0
252 -281 0
-253 -254 283 0
253 -283 0
254 -283 0
-256 -258 285 0
256 -285 0
258 -285 0
-259 -260 287 0
259 -287 0
260 -287 0
-262 -264 289 0
262 -289 0
264 -289 0
-265 -266 291 0
265 -291 0
266 -291 0
-268 -270 293 0
268 -293 0
270 -293 0
-272 -274 295 0
272 -295 0
274 -295 0
-276 -278 297 0
276 -297 0
278 -297 0
-280 -282 299 0
280 -299 0
282 -299 0
-284 -286 301 0
284 -301 0
286 -301 0
-288 -290 303 0
288 -303 0
290 -303 0
-292 -294 305 0
292 -305 0
294 -305 0
-296 -298 307 0
296 -307 0
298 -307 0
-300 -302 309 0
300 -309 0
302 -309 0
-304 -306 345 0
304 -345 0
306 -345 0
-29 -36 311 0
29 -311 0
36 -311 0
-43 -50 313 0
43 -313 0
50 -313 0
-57 -243 315 0
57 -315 0
243 -315 0
-245 -247 317 0
245 -317 0
247 -317 0
-249 -251 392 0
249 -392 0
251 -392 0
-255 -257 393 0
255 -393 0
257 -393 0
-261 -263 394 0
261 -394 0
263 -394 0
-267 -269 325 0
267 -325 0
269 -325 0
-271 -273 327 0
271 -327 0
273 -327 0
-275 -277 329 0
275 -329 0
277 -329 0
-279 -281 331 0
279 -331 0
281 -331 0
-283 -285 333 0
283 -333 0
285 -333 0
-287 -289 335 0
287 -335 0
289 -335 0
-291 -293 337 0
291 -337 0
293 -337 0
-295 -297 339 0
295 -339 0
297 -339 0
-299 -301 341 0
299 -341 0
301 -341 0
-303 -305 343 0
303 -343 0
305 -343 0
-307 -309 404 0
307 -404 0
309 -404 0
-310 -312 347 0
310 -347 0
312 -347 0
-314 -316 349 0
314 -349 0
316 -349 0
-318 -319 351 0
318 -351 0
319 -351 0
-320 -321 353 0
320 -353 0
321 -353 0
-322 -323 355 0
322 -355 0
323 -355 0
-324 -326 357 0
324 -357 0
326 -357 0
-328 -330 359 0
328 -359 0
330 -359 0
-332 -334 361 0
332 -361 0
334 -361 0
-336 -338 363 0
336 -363 0
338 -363 0
-340 -342 365 0
340 -365 0
342 -365 0
-344 -345 367 0
344 -367 0
345 -367 0
-346 -348 369 0
346 -369 0
348 -369 0
-350 -352 371 0
350 -371 0
352 -371 0
-354 -356 373 0
354 -373 0
356 -373 0
-358 -360 375 0
358 -375 0
360 -375 0
-362 -364 377 0
362 -377 0
364 -377 0
-366 -368 379 0
366 -379 0
368 -379 0
-370 -372 381 0
370 -381 0
372 -381 0
-374 -376 383 0
374 -383 0
376 -383 0
-378 -380 384 0
378 -384 0
380 -384 0
-37 -44 386 0
37 -386 0
44 -386 0
-51 -58 388 0
51 -388 0
58 -388 0
-311 -313 390 0
311 -390 0
313 -390 0
-315 -317 473 0
315 -473 0
317 -473 0
-325 -327 396 0
325 -396 0
327 -396 0
-329 -331 398 0
329 -398 0
331 -398 0
-333 -335 400 0
333 -400 0
335 -400 0
-337 -339 402 0
337 -402 0
339 -402 0
-341 -343 476 0
341 -476 0
343 -476 0
-347 -349 406 0
347 -406 0
349 -406 0
-351 -353 408 0
351 -408 0
353 -408 0
-355 -357 410 0
355 -410 0
357 -410 0
-359 -361 412 0
359 -412 0
361 -412 0
-363 -365 414 0
363 -414 0
365 -414 0
-367 -369 416 0
367 -416 0
369 -416 0
-371 -373 418 0
371 -418 0
373 -418 0
-375 -377 420 0
375 -420 0
377 -420 0
-379 -381 422 0
379 -422 0
381 -422 0
-383 -384 424 0
383 -424 0
384 -424 0
-382 -385 426 0
382 -426 0
385 -426 0
-387 -389 428 0
387 -428 0
389 -428 0
-391 -392 430 0
391 -430 0
392 -430 0
-393 -394 432 0
393 -432 0
394 -432 0
-395 -397 434 0
395 -434 0
397 -434 0
-399 -401 436 0
399 -436 0
401 -436 0
-403 -404 438 0
403 -438 0
404 -438 0
-405 -407 440 0
405 -440 0
407 -440 0
-409 -411 442 0
409 -442 0
411 -442 0
-413 -415 444 0
413 -444 0
415 -444 0
-417 -419 446 0
417 -446 0
419 -446 0
-421 -423 448 0
421 -448 0
423 -448 0
-425 -427 450 0
425 -450 0
427 -450 0
-429 -431 452 0
429 -452 0
431 -452 0
-433 -435 454 0
433 -454 0
435 -454 0
-437 -439 456 0
437 -456 0
439 -456 0
-441 -443 458 0
441 -458 0
443 -458 0
-445 -447 460 0
445 -460 0
447 -460 0
-449 -451 462 0
449 -462 0
451 -462 0
-453 -455 464 0
453 -464 0
455 -464 0
-457 -459 466 0
457 -466 0
459 -466 0
-461 -463 467 0
461 -467 0
463 -467 0
-45 -52 469 0
45 -469 0
52 -469 0
-59 -386 471 0
59 -471 0
386 -471 0
-388 -390 553 0
388 -553 0
390 -553 0
-396 -398 554 0
396 -554 0
398 -554 0
-400 -402 555 0
400 -555 0
402 -555 0
-406 -408 478 0
406 -478 0
408 -478 0
-410 -412 480 0
410 -480 0
412 -480 0
-414 -416 482 0
414 -482 0
416 -482 0
-418 -420 484 0
418 -484 0
420 -484 0
-422 -424 486 0
422 -486 0
424 -486 0
-426 -428 488 0
426 -488 0
428 -488 0
-430 -432 490 0
430 -490 0
432 -490 0
-434 -436 492 0
434 -492 0
436 -492 0
-438 -440 494 0
438 -494 0
440 -494 0
-442 -444 496 0
442 -496 0
444 -496 0
-446 -448 498 0
446 -498 0
448 -498 0
-450 -452 500 0
450 -500 0
452 -500 0
-454 -456 502 0
454 -502 0
456 -502 0
-458 -460 504 0
458 -504 0
460 -504 0
-462 -464 506 0
462 -506 0
464 -506 0
-466 -467 508 0
466 -508 0
467 -508 0
-465 -468 510 0
465 -510 0
468 -510 0
-470 -472 512 0
470 -512 0
472 -512 0
-474 -475 573 0
474 -573 0
475 -573 0
-476 -477 515 0
476 -515 0
477 -515 0
-479 -481 517 0
479 -517 0
481 -517 0
-483 -485 519 0
483 -519 0
485 -519 0
-487 -489 521 0
487 -521 0
489 -521 0
-491 -493 523 0
491 -523 0
493 -523 0
-495 -497 525 0
495 -525 0
497 -525 0
-499 -501 527 0
499 -527 0
501 -527 0
-503 -505 529 0
503 -529 0
505 -529 0
-507 -509 531 0
507 -531 0
509 -531 0
-473 -511 533 0
511 -533 0
473 -533 0
-513 -514 535 0
513 -535 0
514 -535 0
-516 -518 537 0
516 -537 0
518 -537 0
-520 -522 539 0
520 -539 0
522 -539 0
-524 -526 541 0
524 -541 0
526 -541 0
-528 -530 543 0
528 -543 0
530 -543 0
-532 -534 545 0
532 -545 0
534 -545 0
-536 -538 547 0
536 -547 0
538 -547 0
-540 -542 549 0
540 -549 0
542 -549 0
-544 -546 591 0
544 -591 0
546 -591 0
-53 -60 551 0
53 -551 0
60 -551 0
-469 -471 637 0
469 -637 0
471 -637 0
-478 -480 557 0
478 -557 0
480 -557 0
-482 -484 559 0
482 -559 0
484 -559 0
-486 -488 561 0
486 -561 0
488 -561 0
-490 -492 563 0
490 -563 0
492 -563 0
-494 -496 565 0
494 -565 0
496 -565 0
-498 -500 567 0
498 -567 0
500 -567 0
-502 -504 569 0
502 -569 0
504 -569 0
-506 -508 571 0
506 -571 0
508 -571 0
-510 -512 643 0
510 -643 0
512 -643 0
-515 -517 575 0
515 -575 0
517 -575 0
-519 -521 577 0
519 -577 0
521 -577 0
-523 -525 579 0
523 -579 0
525 -579 0
-527 -529 581 0
527 -581 0
529 -581 0
-531 -533 583 0
531 -583 0
533 -583 0
-535 -537 585 0
535 -585 0
537 -585 0
-539 -541 587 0
539 -587 0
541 -587 0
-543 -545 589 0
543 -589 0
545 -589 0
-547 -549 652 0
547 -652 0
549 -652 0
-550 -552 593 0
550 -593 0
552 -593 0
-553 -554 595 0
553 -595 0
554 -595 0
-555 -556 597 0
555 -597 0
556 -597 0
-558 -560 599 0
558 -599 0
560 -599 0
-562 -564 601 0
562 -601 0
564 -601 0
-566 -568 603 0
566 -603 0
568 -603 0
-570 -572 605 0
570 -605 0
572 -605 0
-573 -574 607 0
573 -607 0
574 -607 0
-576 -578 609 0
576 -609 0
578 -609 0
-580 -582 611 0
580 -611 0
582 -611 0
-584 -586 613 0
584 -613 0
586 -613 0
-588 -590 615 0
588 -615 0
590 -615 0
-591 -592 617 0
591 -617 0
592 -617 0
-594 -596 619 0
594 -619 0
596 -619 0
-598 -600 621 0
598 -621 0
600 -621 0
-602 -604 623 0
602 -623 0
604 -623 0
-606 -608 625 0
606 -625 0
608 -625 0
-610 -612 627 0
610 -627 0
612 -627 0
-614 -616 629 0
614 -629 0
616 -629 0
-618 -620 631 0
618 -631 0
620 -631 0
-622 -624 633 0
622 -633 0
624 -633 0
-626 -628 635 0
626 -635 0
628 -635 0
-630 -632 674 0
630 -674 0
632 -674 0
-61 -551 717 0
61 -717 0
551 -717 0
-557 -559 718 0
557 -718 0
559 -718 0
-561 -563 639 0
561 -639 0
563 -639 0
-565 -567 641 0
565 -641 0
567 -641 0
-569 -571 720 0
569 -720 0
571 -720 0
-575 -577 645 0
575 -645 0
577 -645 0
-579 -581 647 0
579 -647 0
581 -647 0
-583 -585 649 0
583 -649 0
585 -649 0
-587 -589 651 0
587 -651 0
589 -651 0
-593 -595 725 0
593 -725 0
595 -725 0
-597 -599 655 0
597 -655 0
599 -655 0
-601 -603 657 0
601 -657 0
603 -657 0
-605 -607 659 0
605 -659 0
607 -659 0
-609 -611 661 0
609 -661 0
611 -661 0
-613 -615 663 0
613 -663 0
615 -663 0
-617 -619 665 0
617 -665 0
619 -665 0
-621 -623 667 0
621 -667 0
623 -667 0
-625 -627 669 0
625 -669 0
627 -669 0
-629 -631 671 0
629 -671 0
631 -671 0
-633 -635 673 0
633 -673 0
635 -673 0
-636 -637 735 0
636 -735 0
637 -735 0
-638 -640 736 0
638 -736 0
640 -736 0
-642 -643 679 0
642 -679 0
643 -679 0
-644 -646 681 0
644 -681 0
646 -681 0
-648 -650 683 0
648 -683 0
650 -683 0
-652 -653 685 0
652 -685 0
653 -685 0
-654 -656 687 0
654 -687 0
656 -687 0
-658 -660 689 0
658 -689 0
660 -689 0
-662 -664 691 0
662 -691 0
664 -691 0
-666 -668 693 0
666 -693 0
668 -693 0
-670 -672 695 0
670 -695 0
672 -695 0
-674 -675 697 0
674 -697 0
675 -697 0
-676 -677 699 0
676 -699 0
677 -699 0
-678 -680 701 0
678 -701 0
680 -701 0
-682 -684 703 0
682 -703 0
684 -703 0
-686 -688 705 0
686 -705 0
688 -705 0
-690 -692 707 0
690 -707 0
692 -707 0
-694 -696 709 0
694 -709 0
696 -709 0
-698 -700 711 0
698 -711 0
700 -711 0
-702 -704 713 0
702 -713 0
704 -713 0
-706 -708 715 0
706 -715 0
708 -715 0
-710 -712 716 0
710 -716 0
712 -716 0
-639 -641 835 0
639 -835 0
641 -835 0
-645 -647 722 0
645 -722 0
647 -722 0
-649 -651 724 0
649 -724 0
651 -724 0
-655 -657 800 0
655 -800 0
657 -800 0
-659 -661 728 0
659 -728 0
661 -728 0
-663 -665 730 0
663 -730 0
665 -730 0
-667 -669 732 0
667 -732 0
669 -732 0
-671 -673 734 0
671 -734 0
673 -734 0
-679 -681 738 0
679 -738 0
681 -738 0
-683 -685 740 0
683 -740 0
685 -740 0
-687 -689 742 0
687 -742 0
689 -742 0
-691 -693 744 0
691 -744 0
693 -744 0
-695 -697 746 0
695 -746 0
697 -746 0
-699 -701 748 0
699 -748 0
701 -748 0
-703 -705 750 0
703 -750 0
705 -750 0
-707 -709 752 0
707 -752 0
709 -752 0
-711 -713 754 0
711 -754 0
713 -754 0
-715 -716 756 0
715 -756 0
716 -756 0
-718 -719 813 0
718 -813 0
719 -813 0
-720 -721 759 0
720 -759 0
721 -759 0
-723 -725 761 0
723 -761 0
725 -761 0
-726 -727 763 0
726 -763 0
727 -763 0
-729 -731 765 0
729 -765 0
731 -765 0
-733 -735 767 0
733 -767 0
735 -767 0
-736 -737 769 0
736 -769 0
737 -769 0
-739 -741 771 0
739 -771 0
741 -771 0
-743 -745 773 0
743 -773 0
745 -773 0
-747 -749 775 0
747 -775 0
749 -775 0
-751 -753 777 0
751 -777 0
753 -777 0
-717 -755 779 0
755 -779 0
717 -779 0
-757 -758 781 0
757 -781 0
758 -781 0
-760 -762 783 0
760 -783 0
762 -783 0
-764 -766 785 0
764 -785 0
766 -785 0
-768 -770 787 0
768 -787 0
770 -787 0
-772 -774 789 0
772 -789 0
774 -789 0
-776 -778 791 0
776 -791 0
778 -791 0
-780 -782 793 0
780 -793 0
782 -793 0
-784 -786 795 0
784 -795 0
786 -795 0
-788 -790 797 0
788 -797 0
790 -797 0
-792 -794 798 0
792 -798 0
794 -798 0
-722 -724 874 0
722 -874 0
724 -874 0
-728 -730 802 0
728 -802 0
730 -802 0
-732 -734 804 0
732 -804 0
734 -804 0
-738 -740 876 0
738 -876 0
740 -876 0
-742 -744 806 0
742 -806 0
744 -806 0
-746 -748 808 0
746 -808 0
748 -808 0
-750 -752 810 0
750 -810 0
752 -810 0
-754 -756 812 0
754 -812 0
756 -812 0
-759 -761 881 0
759 -881 0
761 -881 0
-763 -765 816 0
763 -816 0
765 -816 0
-767 -769 818 0
767 -818 0
769 -818 0
-771 -773 820 0
771 -820 0
773 -820 0
-775 -777 822 0
775 -822 0
777 -822 0
-779 -781 824 0
779 -824 0
781 -824 0
-783 -785 826 0
783 -826 0
785 -826 0
-787 -789 828 0
787 -828 0
789 -828 0
-791 -793 830 0
791 -830 0
793 -830 0
-795 -797 832 0
795 -832 0
797 -832 0
-796 -798 834 0
798 -834 0
796 -834 0
-799 -800 891 0
799 -891 0
800 -891 0
-801 -803 892 0
801 -892 0
803 -892 0
-805 -807 840 0
805 -840 0
807 -840 0
-809 -811 842 0
809 -842 0
811 -842 0
-813 -814 844 0
813 -844 0
814 -844 0
-815 -817 846 0
815 -846 0
817 -846 0
-819 -821 848 0
819 -848 0
821 -848 0
-823 -825 850 0
823 -850 0
825 -850 0
-827 -829 852 0
827 -852 0
829 -852 0
-831 -833 854 0
831 -854 0
833 -854 0
-835 -836 856 0
835 -856 0
836 -856 0
-837 -838 858 0
837 -858 0
838 -858 0
-839 -841 860 0
839 -860 0
841 -860 0
-843 -845 862 0
843 -862 0
845 -862 0
-847 -849 864 0
847 -864 0
849 -864 0
-851 -853 866 0
851 -866 0
853 -866 0
-855 -857 868 0
855 -868 0
857 -868 0
-859 -861 870 0
859 -870 0
861 -870 0
-863 -865 872 0
863 -872 0
865 -872 0
-867 -869 873 0
867 -873 0
869 -873 0
-802 -804 951 0
802 -951 0
804 -951 0
-806 -808 878 0
806 -878 0
808 -878 0
-810 -812 880 0
810 -880 0
812 -880 0
-816 -818 953 0
816 -953 0
818 -953 0
-820 -822 884 0
820 -884 0
822 -884 0
-824 -826 886 0
824 -886 0
826 -886 0
-828 -830 888 0
828 -888 0
830 -888 0
-832 -834 890 0
832 -890 0
834 -890 0
-840 -842 894 0
840 -894 0
842 -894 0
-844 -846 896 0
844 -896 0
846 -896 0
-848 -850 898 0
848 -898 0
850 -898 0
-852 -854 900 0
852 -900 0
854 -900 0
-856 -858 902 0
856 -902 0
858 -902 0
-860 -862 904 0
860 -904 0
862 -904 0
-864 -866 906 0
864 -906 0
866 -906 0
-868 -870 908 0
868 -908 0
870 -908 0
-872 -873 963 0
872 -963 0
873 -963 0
-874 -875 911 0
874 -911 0
875 -911 0
-876 -877 913 0
876 -913 0
877 -913 0
-879 -881 915 0
879 -915 0
881 -915 0
-882 -883 917 0
882 -917 0
883 -917 0
-885 -887 919 0
885 -919 0
887 -919 0
-889 -891 921 0
889 -921 0
891 -921 0
-892 -893 923 0
892 -923 0
893 -923 0
-895 -897 925 0
895 -925 0
897 -925 0
-899 -901 927 0
899 -927 0
901 -927 0
-903 -905 929 0
903 -929 0
905 -929 0
-907 -909 931 0
907 -931 0
909 -931 0
-871 -910 933 0
871 -933 0
910 -933 0
-912 -914 935 0
912 -935 0
914 -935 0
-916 -918 937 0
916 -937 0
918 -937 0
-920 -922 939 0
920 -939 0
922 -939 0
-924 -926 941 0
924 -941 0
926 -941 0
-928 -930 943 0
928 -943 0
930 -943 0
-932 -934 945 0
932 -945 0
934 -945 0
-936 -938 947 0
936 -947 0
938 -947 0
-940 -942 949 0
940 -949 0
942 -949 0
-944 -946 950 0
944 -950 0
946 -950 0
-878 -880 1022 0
878 -1022 0
880 -1022 0
-884 -886 955 0
884 -955 0
886 -955 0
-888 -890 957 0
888 -957 0
890 -957 0
-894 -896 1024 0
894 -1024 0
896 -1024 0
-898 -900 959 0
898 -959 0
900 -959 0
-902 -904 961 0
902 -961 0
904 -961 0
-906 -908 1026 0
906 -1026 0
908 -1026 0
-911 -913 965 0
911 -965 0
913 -965 0
-915 -917 967 0
915 -967 0
917 -967 0
-919 -921 969 0
919 -969 0
921 -969 0
-923 -925 971 0
923 -971 0
925 -971 0
-927 -929 973 0
927 -973 0
929 -973 0
-931 -933 975 0
931 -975 0
933 -975 0
-935 -937 977 0
935 -977 0
937 -977 0
-939 -941 979 0
939 -979 0
941 -979 0
-943 -945 981 0
943 -981 0
945 -981 0
-947 -949 983 0
947 -983 0
949 -983 0
-948 -950 1036 0
950 -1036 0
948 -1036 0
-952 -953 986 0
952 -986 0
953 -986 0
-954 -956 988 0
954 -988 0
956 -988 0
-958 -960 1038 0
958 -1038 0
960 -1038 0
-962 -963 992 0
962 -992 0
963 -992 0
-964 -966 994 0
964 -994 0
966 -994 0
-968 -970 996 0
968 -996 0
970 -996 0
-972 -974 998 0
972 -998 0
974 -998 0
-976 -978 1000 0
976 -1000 0
978 -1000 0
-980 -982 1002 0
980 -1002 0
982 -1002 0
-951 -984 1004 0
984 -1004 0
951 -1004 0
-985 -987 1006 0
985 -1006 0
987 -1006 0
-989 -990 1008 0
989 -1008 0
990 -1008 0
-991 -993 1010 0
991 -1010 0
993 -1010 0
-995 -997 1012 0
995 -1012 0
997 -1012 0
-999 -1001 1014 0
999 -1014 0
1001 -1014 0
-1003 -1005 1016 0
1003 -1016 0
1005 -1016 0
-1007 -1009 1018 0
1007 -1018 0
1009 -1018 0
-1011 -1013 1020 0
1011 -1020 0
1013 -1020 0
-1015 -1017 1021 0
1015 -1021 0
1017 -1021 0
-955 -957 1125 0
955 -1125 0
957 -1125 0
-959 -961 1093 0
959 -1093 0
961 -1093 0
-965 -967 1028 0
965 -1028 0
967 -1028 0
-969 -971 1030 0
969 -1030 0
971 -1030 0
-973 -975 1032 0
973 -1032 0
975 -1032 0
-977 -979 1034 0
977 -1034 0
979 -1034 0
-981 -983 1096 0
981 -1096 0
983 -1096 0
-986 -988 1097 0
986 -1097 0
988 -1097 0
-992 -994 1040 0
992 -1040 0
994 -1040 0
-996 -998 1042 0
996 -1042 0
998 -1042 0
-1000 -1002 1044 0
1000 -1044 0
1002 -1044 0
-1004 -1006 1046 0
1004 -1046 0
1006 -1046 0
-1008 -1010 1048 0
1008 -1048 0
1010 -1048 0
-1012 -1014 1050 0
1012 -1050 0
1014 -1050 0
-1016 -1018 1052 0
1016 -1052 0
1018 -1052 0
-1020 -1021 1054 0
1020 -1054 0
1021 -1054 0
-1022 -1023 1104 0
1022 -1104 0
1023 -1104 0
-1024 -1025 1057 0
1024 -1057 0
1025 -1057 0
-1026 -1027 1059 0
1026 -1059 0
1027 -1059 0
-1029 -1031 1061 0
1029 -1061 0
1031 -1061 0
-1033 -1035 1063 0
1033 -1063 0
1035 -1063 0
-1036 -1037 1065 0
1036 -1065 0
1037 -1065 0
-1038 -1039 1067 0
1038 -1067 0
1039 -1067 0
-1041 -1043 1069 0
1041 -1069 0
1043 -1069 0
-1045 -1047 1071 0
1045 -1071 0
1047 -1071 0
-1049 -1051 1073 0
1049 -1073 0
1051 -1073 0
-1019 -1053 1075 0
1053 -1075 0
1019 -1075 0
-1055 -1056 1077 0
1055 -1077 0
1056 -1077 0
-1058 -1060 1079 0
1058 -1079 0
1060 -1079 0
-1062 -1064 1081 0
1062 -1081 0
1064 -1081 0
-1066 -1068 1083 0
1066 -1083 0
1068 -1083 0
-1070 -1072 1085 0
1070 -1085 0
1072 -1085 0
-1074 -1076 1087 0
1074 -1087 0
1076 -1087 0
-1078 -1080 1089 0
1078 -1089 0
1080 -1089 0
-1082 -1084 1091 0
1082 -1091 0
1084 -1091 0
-1086 -1088 1092 0
1086 -1092 0
1088 -1092 0
-1028 -1030 1162 0
1028 -1162 0
1030 -1162 0
-1032 -1034 1163 0
1032 -1163 0
1034 -1163 0
-1040 -1042 1164 0
1040 -1164 0
1042 -1164 0
-1044 -1046 1100 0
1044 -1100 0
1046 -1100 0
-1048 -1050 1102 0
1048 -1102 0
1050 -1102 0
-1052 -1054 1166 0
1052 -1166 0
1054 -1166 0
-1057 -1059 1106 0
1057 -1106 0
1059 -1106 0
-1061 -1063 1108 0
1061 -1108 0
1063 -1108 0
-1065 -1067 1110 0
1065 -1110 0
1067 -1110 0
-1069 -1071 1112 0
1069 -1112 0
1071 -1112 0
-1073 -1075 1114 0
1073 -1114 0
1075 -1114 0
-1077 -1079 1116 0
1077 -1116 0
1079 -1116 0
-1081 -1083 1118 0
1081 -1118 0
1083 -1118 0
-1085 -1087 1120 0
1085 -1120 0
1087 -1120 0
-1089 -1091 1122 0
1089 -1122 0
1091 -1122 0
-1090 -1092 1124 0
1092 -1124 0
1090 -1124 0
-1093 -1094 1176 0
1093 -1176 0
1094 -1176 0
-1095 -1096 1128 0
1095 -1128 0
1096 -1128 0
-1097 -1098 1130 0
1097 -1130 0
1098 -1130 0
-1099 -1101 1132 0
1099 -1132 0
1101 -1132 0
-1103 -1104 1134 0
1103 -1134 0
1104 -1134 0
-1105 -1107 1136 0
1105 -1136 0
1107 -1136 0
-1109 -1111 1138 0
1109 -1138 0
1111 -1138 0
-1113 -1115 1140 0
1113 -1140 0
1115 -1140 0
-1117 -1119 1142 0
1117 -1142 0
1119 -1142 0
-1121 -1123 1144 0
1121 -1144 0
1123 -1144 0
-1125 -1126 1146 0
1125 -1146 0
1126 -1146 0
-1127 -1129 1148 0
1127 -1148 0
1129 -1148 0
-1131 -1133 1150 0
1131 -1150 0
1133 -1150 0
-1135 -1137 1152 0
1135 -1152 0
1137 -1152 0
-1139 -1141 1154 0
1139 -1154 0
1141 -1154 0
-1143 -1145 1156 0
1143 -1156 0
1145 -1156 0
-1147 -1149 1158 0
1147 -1158 0
1149 -1158 0
-1151 -1153 1160 0
1151 -1160 0
1153 -1160 0
-1155 -1157 1161 0
1155 -1161 0
1157 -1161 0
-1100 -1102 1231 0
1100 -1231 0
1102 -1231 0
-1106 -1108 1168 0
1106 -1168 0
1108 -1168 0
-1110 -1112 1170 0
1110 -1170 0
1112 -1170 0
-1114 -1116 1172 0
1114 -1172 0
1116 -1172 0
-1118 -1120 1174 0
1118 -1174 0
1120 -1174 0
-1122 -1124 1234 0
1122 -1234 0
1124 -1234 0
-1128 -1130 1178 0
1128 -1178 0
1130 -1178 0
-1132 -1134 1180 0
1132 -1180 0
1134 -1180 0
-1136 -1138 1182 0
1136 -1182 0
1138 -1182 0
-1140 -1142 1184 0
1140 -1184 0
1142 -1184 0
-1144 -1146 1186 0
1144 -1186 0
1146 -1186 0
-1148 -1150 1188 0
1148 -1188 0
1150 -1188 0
-1152 -1154 1190 0
1152 -1190 0
1154 -1190 0
-1156 -1158 1192 0
1156 -1192 0
1158 -1192 0
-1160 -1161 1243 0
1160 -1243 0
1161 -1243 0
-1162 -1163 1195 0
1162 -1195 0
1163 -1195 0
-1164 -1165 1197 0
1164 -1197 0
1165 -1197 0
-1166 -1167 1199 0
1166 -1199 0
1167 -1199 0
-1169 -1171 1201 0
1169 -1201 0
1171 -1201 0
-1173 -1175 1203 0
1173 -1203 0
1175 -1203 0
-1176 -1177 1205 0
1176 -1205 0
1177 -1205 0
-1179 -1181 1207 0
1179 -1207 0
1181 -1207 0
-1183 -1185 1209 0
1183 -1209 0
1185 -1209 0
-1187 -1189 1211 0
1187 -1211 0
1189 -1211 0
-1191 -1193 1213 0
1191 -1213 0
1193 -1213 0
-1159 -1194 1215 0
1159 -1215 0
1194 -1215 0
-1196 -1198 1217 0
1196 -1217 0
1198 -1217 0
-1200 -1202 1219 0
1200 -1219 0
1202 -1219 0
-1204 -1206 1221 0
1204 -1221 0
1206 -1221 0
-1208 -1210 1223 0
1208 -1223 0
1210 -1223 0
-1212 -1214 1225 0
1212 -1225 0
1214 -1225 0
-1216 -1218 1227 0
1216 -1227 0
1218 -1227 0
-1220 -1222 1229 0
1220 -1229 0
1222 -1229 0
-1224 -1226 1230 0
1224 -1230 0
1226 -1230 0
-1168 -1170 1294 0
1168 -1294 0
1170 -1294 0
-1172 -1174 1295 0
1172 -1295 0
1174 -1295 0
-1178 -1180 1236 0
1178 -1236 0
1180 -1236 0
-1182 -1184 1238 0
1182 -1238 0
1184 -1238 0
-1186 -1188 1240 0
1186 -1240 0
1188 -1240 0
-1190 -1192 1242 0
1190 -1242 0
1192 -1242 0
-1195 -1197 1298 0
1195 -1298 0
1197 -1298 0
-1199 -1201 1246 0
1199 -1246 0
1201 -1246 0
-1203 -1205 1248 0
1203 -1248 0
1205 -1248 0
-1207 -1209 1250 0
1207 -1250 0
1209 -1250 0
-1211 -1213 1252 0
1211 -1252 0
1213 -1252 0
-1215 -1217 1254 0
1215 -1254 0
1217 -1254 0
-1219 -1221 1256 0
1219 -1256 0
1221 -1256 0
-1223 -1225 1258 0
1223 -1258 0
1225 -1258 0
-1227 -1229 1260 0
1227 -1260 0
1229 -1260 0
-1228 -1230 1307 0
1230 -1307 0
1228 -1307 0
-1231 -1232 1262 0
1231 -1262 0
1232 -1262 0
-1233 -1234 1264 0
1233 -1264 0
1234 -1264 0
-1235 -1237 1266 0
1235 -1266 0
1237 -1266 0
-1239 -1241 1268 0
1239 -1268 0
1241 -1268 0
-1243 -1244 1270 0
1243 -1270 0
1244 -1270 0
-1245 -1247 1272 0
1245 -1272 0
1247 -1272 0
-1249 -1251 1274 0
1249 -1274 0
1251 -1274 0
-1253 -1255 1276 0
1253 -1276 0
1255 -1276 0
-1257 -1259 1314 0
1257 -1314 0
1259 -1314 0
-1261 -1263 1280 0
1261 -1280 0
1263 -1280 0
-1265 -1267 1282 0
1265 -1282 0
1267 -1282 0
-1269 -1271 1284 0
1269 -1284 0
1271 -1284 0
-1273 -1275 1286 0
1273 -1286 0
1275 -1286 0
-1277 -1278 1288 0
1277 -1288 0
1278 -1288 0
-1279 -1281 1290 0
1279 -1290 0
1281 -1290 0
-1283 -1285 1292 0
1283 -1292 0
1285 -1292 0
-1287 -1289 1293 0
1287 -1293 0
1289 -1293 0
-1236 -1238 1357 0
1236 -1357 0
1238 -1357 0
-1240 -1242 1358 0
1240 -1358 0
1242 -1358 0
-1246 -1248 1300 0
1246 -1300 0
1248 -1300 0
-1250 -1252 1302 0
1250 -1302 0
1252 -1302 0
-1254 -1256 1304 0
1254 -1304 0
1256 -1304 0
-1258 -1260 1306 0
1258 -1306 0
1260 -1306 0
-1262 -1264 1361 0
1262 -1361 0
1264 -1361 0
-1266 -1268 1310 0
1266 -1310 0
1268 -1310 0
-1270 -1272 1312 0
1270 -1312 0
1272 -1312 0
-1274 -1276 1363 0
1274 -1363 0
1276 -1363 0
-1280 -1282 1316 0
1280 -1316 0
1282 -1316 0
-1284 -1286 1318 0
1284 -1318 0
1286 -1318 0
-1288 -1290 1320 0
1288 -1320 0
1290 -1320 0
-1292 -1293 1322 0
1292 -1322 0
1293 -1322 0
-1294 -1295 1368 0
1294 -1368 0
1295 -1368 0
-1296 -1297 1325 0
1296 -1325 0
1297 -1325 0
-1298 -1299 1327 0
1298 -1327 0
1299 -1327 0
-1301 -1303 1329 0
1301 -1329 0
1303 -1329 0
-1305 -1307 1331 0
1305 -1331 0
1307 -1331 0
-1308 -1309 1333 0
1308 -1333 0
1309 -1333 0
-1311 -1313 1335 0
1311 -1335 0
1313 -1335 0
-1314 -1315 1337 0
1314 -1337 0
1315 -1337 0
-1317 -1319 1339 0
1317 -1339 0
1319 -1339 0
-1291 -1321 1341 0
1321 -1341 0
1291 -1341 0
-1323 -1324 1343 0
1323 -1343 0
1324 -1343 0
-1326 -1328 1345 0
1326 -1345 0
1328 -1345 0
-1330 -1332 1347 0
1330 -1347 0
1332 -1347 0
-1334 -1336 1349 0
1334 -1349 0
1336 -1349 0
-1338 -1340 1351 0
1338 -1351 0
1340 -1351 0
-1342 -1344 1353 0
1342 -1353 0
1344 -1353 0
-1346 -1348 1355 0
1346 -1355 0
1348 -1355 0
-1350 -1352 1356 0
1350 -1356 0
1352 -1356 0
-1300 -1302 1418 0
1300 -1418 0
1302 -1418 0
-1304 -1306 1419 0
1304 -1419 0
1306 -1419 0
-1310 -1312 1420 0
1310 -1420 0
1312 -1420 0
-1316 -1318 1365 0
1316 -1365 0
1318 -1365 0
-1320 -1322 1367 0
1320 -1367 0
1322 -1367 0
-1325 -1327 1422 0
1325 -1422 0
1327 -1422 0
-1329 -1331 1371 0
1329 -1371 0
1331 -1371 0
-1333 -1335 1373 0
1333 -1373 0
1335 -1373 0
-1337 -1339 1375 0
1337 -1375 0
1339 -1375 0
-1341 -1343 1377 0
1341 -1377 0
1343 -1377 0
-1345 -1347 1379 0
1345 -1379 0
1347 -1379 0
-1349 -1351 1381 0
1349 -1381 0
1351 -1381 0
-1353 -1355 1383 0
1353 -1383 0
1355 -1383 0
-1354 -1356 1385 0
1356 -1385 0
1354 -1385 0
-1358 -1359 1431 0
1358 -1431 0
1359 -1431 0
-1360 -1361 1388 0
1360 -1388 0
1361 -1388 0
-1362 -1363 1390 0
1362 -1390 0
1363 -1390 0
-1364 -1366 1392 0
1364 -1392 0
1366 -1392 0
-1368 -1369 1394 0
1368 -1394 0
1369 -1394 0
-1370 -1372 1396 0
1370 -1396 0
1372 -1396 0
-1374 -1376 1398 0
1374 -1398 0
1376 -1398 0
-1378 -1380 1400 0
1378 -1400 0
1380 -1400 0
-1382 -1384 1402 0
1382 -1402 0
1384 -1402 0
-1357 -1386 1404 0
1357 -1404 0
1386 -1404 0
-1387 -1389 1406 0
1387 -1406 0
1389 -1406 0
-1391 -1393 1408 0
1391 -1408 0
1393 -1408 0
-1395 -1397 1410 0
1395 -1410 0
1397 -1410 0
-1399 -1401 1412 0
1399 -1412 0
1401 -1412 0
-1403 -1405 1414 0
1403 -1414 0
1405 -1414 0
-1407 -1409 1416 0
1407 -1416 0
1409 -1416 0
-1411 -1413 1417 0
1411 -1417 0
1413 -1417 0
-1365 -1367 1479 0
1365 -1479 0
1367 -1479 0
-1371 -1373 1424 0
1371 -1424 0
1373 -1424 0
-1375 -1377 1426 0
1375 -1426 0
1377 -1426 0
-1379 -1381 1428 0
1379 -1428 0
1381 -1428 0
-1383 -1385 1430 0
1383 -1430 0
1385 -1430 0
-1388 -1390 1482 0
1388 -1482 0
1390 -1482 0
-1392 -1394 1434 0
1392 -1434 0
1394 -1434 0
-1396 -1398 1436 0
1396 -1436 0
1398 -1436 0
-1400 -1402 1438 0
1400 -1438 0
1402 -1438 0
-1404 -1406 1440 0
1404 -1440 0
1406 -1440 0
-1408 -1410 1442 0
1408 -1442 0
1410 -1442 0
-1412 -1414 1444 0
1412 -1444 0
1414 -1444 0
-1416 -1417 1488 0
1416 -1488 0
1417 -1488 0
-1418 -1419 1447 0
1418 -1447 0
1419 -1447 0
-1420 -1421 1449 0
1420 -1449 0
1421 -1449 0
-1422 -1423 1451 0
1422 -1451 0
1423 -1451 0
-1425 -1427 1453 0
1425 -1453 0
1427 -1453 0
-1429 -1431 1455 0
1429 -1455 0
1431 -1455 0
-1432 -1433 1457 0
1432 -1457 0
1433 -1457 0
-1435 -1437 1459 0
1435 -1459 0
1437 -1459 0
-1439 -1441 1461 0
1439 -1461 0
1441 -1461 0
-1443 -1445 1463 0
1443 -1463 0
1445 -1463 0
-1415 -1446 1465 0
1415 -1465 0
1446 -1465 0
-1448 -1450 1467 0
1448 -1467 0
1450 -1467 0
-1452 -1454 1469 0
1452 -1469 0
1454 -1469 0
-1456 -1458 1471 0
1456 -1471 0
1458 -1471 0
-1460 -1462 1473 0
1460 -1473 0
1462 -1473 0
-1464 -1466 1475 0
1464 -1475 0
1466 -1475 0
-1468 -1470 1477 0
1468 -1477 0
1470 -1477 0
-1472 -1474 1478 0
1472 -1478 0
1474 -1478 0
-1424 -1426 1534 0
1424 -1534 0
1426 -1534 0
-1428 -1430 1535 0
1428 -1535 0
1430 -1535 0
-1434 -1436 1484 0
1434 -1484 0
1436 -1484 0
-1438 -1440 1486 0
1438 -1486 0
1440 -1486 0
-1442 -1444 1537 0
1442 -1537 0
1444 -1537 0
-1447 -1449 1490 0
1447 -1490 0
1449 -1490 0
-1451 -1453 1492 0
1451 -1492 0
1453 -1492 0
-1455 -1457 1494 0
1455 -1494 0
1457 -1494 0
-1459 -1461 1496 0
1459 -1496 0
1461 -1496 0
-1463 -1465 1498 0
1463 -1498 0
1465 -1498 0
-1467 -1469 1500 0
1467 -1500 0
1469 -1500 0
-1471 -1473 1502 0
1471 -1502 0
1473 -1502 0
-1475 -1477 1504 0
1475 -1504 0
1477 -1504 0
-1476 -1478 1544 0
1478 -1544 0
1476 -1544 0
-1479 -1480 1506 0
1479 -1506 0
1480 -1506 0
-1481 -1482 1508 0
1481 -1508 0
1482 -1508 0
-1483 -1485 1510 0
1483 -1510 0
1485 -1510 0
-1487 -1488 1512 0
1487 -1512 0
1488 -1512 0
-1489 -1491 1514 0
1489 -1514 0
1491 -1514 0
-1493 -1495 1516 0
1493 -1516 0
1495 -1516 0
-1497 -1499 1518 0
1497 -1518 0
1499 -1518 0
-1501 -1503 1520 0
1501 -1520 0
1503 -1520 0
-1505 -1507 1553 0
1505 -1553 0
1507 -1553 0
-1509 -1511 1524 0
1509 -1524 0
1511 -1524 0
-1513 -1515 1526 0
1513 -1526 0
1515 -1526 0
-1517 -1519 1528 0
1517 -1528 0
1519 -1528 0
-1521 -1522 1530 0
1521 -1530 0
1522 -1530 0
-1523 -1525 1532 0
1523 -1532 0
1525 -1532 0
-1527 -1529 1533 0
1527 -1533 0
1529 -1533 0
-1484 -1486 1589 0
1484 -1589 0
1486 -1589 0
-1490 -1492 1590 0
1490 -1590 0
1492 -1590 0
-1494 -1496 1540 0
1494 -1540 0
1496 -1540 0
-1498 -1500 1542 0
1498 -1542 0
1500 -1542 0
-1502 -1504 1592 0
1502 -1592 0
1504 -1592 0
-1506 -1508 1546 0
1506 -1546 0
1508 -1546 0
-1510 -1512 1548 0
1510 -1548 0
1512 -1548 0
-1514 -1516 1550 0
1514 -1550 0
1516 -1550 0
-1518 -1520 1552 0
1518 -1552 0
1520 -1552 0
-1524 -1526 1595 0
1524 -1595 0
1526 -1595 0
-1528 -1530 1556 0
1528 -1556 0
1530 -1556 0
-1532 -1533 1558 0
1532 -1558 0
1533 -1558 0
-1534 -1535 1597 0
1534 -1597 0
1535 -1597 0
-1536 -1537 1561 0
1536 -1561 0
1537 -1561 0
-1538 -1539 1563 0
1538 -1563 0
1539 -1563 0
-1541 -1543 1565 0
1541 -1565 0
1543 -1565 0
-1544 -1545 1567 0
1544 -1567 0
1545 -1567 0
-1547 -1549 1569 0
1547 -1569 0
1549 -1569 0
-1551 -1553 1571 0
1551 -1571 0
1553 -1571 0
-1554 -1555 1573 0
1554 -1573 0
1555 -1573 0
-1531 -1557 1575 0
1557 -1575 0
1531 -1575 0
-1559 -1560 1577 0
1559 -1577 0
1560 -1577 0
-1562 -1564 1579 0
1562 -1579 0
1564 -1579 0
-1566 -1568 1581 0
1566 -1581 0
1568 -1581 0
-1570 -1572 1583 0
1570 -1583 0
1572 -1583 0
-1574 -1576 1585 0
1574 -1585 0
1576 -1585 0
-1578 -1580 1587 0
1578 -1587 0
1580 -1587 0
-1582 -1584 1588 0
1582 -1588 0
1584 -1588 0
-1540 -1542 1642 0
1540 -1642 0
1542 -1642 0
-1546 -1548 1643 0
1546 -1643 0
1548 -1643 0
-1550 -1552 1644 0
1550 -1644 0
1552 -1644 0
-1556 -1558 1645 0
1556 -1645 0
1558 -1645 0
-1561 -1563 1599 0
1561 -1599 0
1563 -1599 0
-1565 -1567 1601 0
1565 -1601 0
1567 -1601 0
-1569 -1571 1603 0
1569 -1603 0
1571 -1603 0
-1573 -1575 1605 0
1573 -1605 0
1575 -1605 0
-1577 -1579 1607 0
1577 -1607 0
1579 -1607 0
-1581 -1583 1609 0
1581 -1609 0
1583 -1609 0
-1585 -1587 1611 0
1585 -1611 0
1587 -1611 0
-1586 -1588 1613 0
1588 -1613 0
1586 -1613 0
-1590 -1591 1652 0
1590 -1652 0
1591 -1652 0
-1592 -1593 1616 0
1592 -1616 0
1593 -1616 0
-1594 -1595 1618 0
1594 -1618 0
1595 -1618 0
-1596 -1597 1620 0
1596 -1620 0
1597 -1620 0
-1598 -1600 1622 0
1598 -1622 0
1600 -1622 0
-1602 -1604 1624 0
1602 -1624 0
1604 -1624 0
-1606 -1608 1626 0
1606 -1626 0
1608 -1626 0
-1610 -1612 1628 0
1610 -1628 0
1612 -1628 0
-1589 -1614 1630 0
1589 -1630 0
1614 -1630 0
-1615 -1617 1632 0
1615 -1632 0
1617 -1632 0
-1619 -1621 1634 0
1619 -1634 0
1621 -1634 0
-1623 -1625 1636 0
1623 -1636 0
1625 -1636 0
-1627 -1629 1638 0
1627 -1638 0
1629 -1638 0
-1631 -1633 1640 0
1631 -1640 0
1633 -1640 0
-1635 -1637 1641 0
1635 -1641 0
1637 -1641 0
-1599 -1601 1695 0
1599 -1695 0
1601 -1695 0
-1603 -1605 1648 0
1603 -1648 0
1605 -1648 0
-1607 -1609 1650 0
1607 -1650 0
1609 -1650 0
-1611 -1613 1697 0
1611 -1697 0
1613 -1697 0
-1616 -1618 1654 0
1616 -1654 0
1618 -1654 0
-1620 -1622 1656 0
1620 -1656 0
1622 -1656 0
-1624 -1626 1658 0
1624 -1658 0
1626 -1658 0
-1628 -1630 1660 0
1628 -1660 0
1630 -1660 0
-1632 -1634 1662 0
1632 -1662 0
1634 -1662 0
-1636 -1638 1664 0
1636 -1664 0
1638 -1664 0
-1640 -1641 1703 0
1640 -1703 0
1641 -1703 0
-1642 -1643 1667 0
1642 -1667 0
1643 -1667 0
-1644 -1645 1669 0
1644 -1669 0
1645 -1669 0
-1646 -1647 1671 0
1646 -1671 0
1647 -1671 0
-1649 -1651 1673 0
1649 -1673 0
1651 -1673 0
-1652 -1653 1675 0
1652 -1675 0
1653 -1675 0
-1655 -1657 1677 0
1655 -1677 0
1657 -1677 0
-1659 -1661 1679 0
1659 -1679 0
1661 -1679 0
-1663 -1665 1681 0
1663 -1681 0
1665 -1681 0
-1639 -1666 1683 0
1639 -1683 0
1666 -1683 0
-1668 -1670 1685 0
1668 -1685 0
1670 -1685 0
-1672 -1674 1687 0
1672 -1687 0
1674 -1687 0
-1676 -1678 1689 0
1676 -1689 0
1678 -1689 0
-1680 -1682 1691 0
1680 -1691 0
1682 -1691 0
-1684 -1686 1693 0
1684 -1693 0
1686 -1693 0
-1688 -1690 1694 0
1688 -1694 0
1690 -1694 0
-1648 -1650 1742 0
1648 -1742 0
1650 -1742 0
-1654 -1656 1743 0
1654 -1743 0
1656 -1743 0
-1658 -1660 1700 0
1658 -1700 0
1660 -1700 0
-1662 -1664 1702 0
1662 -1702 0
1664 -1702 0
-1667 -1669 1745 0
1667 -1745 0
1669 -1745 0
-1671 -1673 1706 0
1671 -1706 0
1673 -1706 0
-1675 -1677 1708 0
1675 -1708 0
1677 -1708 0
-1679 -1681 1710 0
1679 -1710 0
1681 -1710 0
-1683 -1685 1712 0
1683 -1712 0
1685 -1712 0
-1687 -1689 1714 0
1687 -1714 0
1689 -1714 0
-1691 -1693 1716 0
1691 -1716 0
1693 -1716 0
-1692 -1694 1751 0
1694 -1751 0
1692 -1751 0
-1695 -1696 1718 0
1695 -1718 0
1696 -1718 0
-1697 -1698 1720 0
1697 -1720 0
1698 -1720 0
-1699 -1701 1722 0
1699 -1722 0
1701 -1722 0
-1703 -1704 1724 0
1703 -1724 0
1704 -1724 0
-1705 -1707 1726 0
1705 -1726 0
1707 -1726 0
-1709 -1711 1728 0
1709 -1728 0
1711 -1728 0
-1713 -1715 1757 0
1713 -1757 0
1715 -1757 0
-1717 -1719 1732 0
1717 -1732 0
1719 -1732 0
-1721 -1723 1734 0
1721 -1734 0
1723 -1734 0
-1725 -1727 1736 0
1725 -1736 0
1727 -1736 0
-1729 -1730 1738 0
1729 -1738 0
1730 -1738 0
-1731 -1733 1740 0
1731 -1740 0
1733 -1740 0
-1735 -1737 1741 0
1735 -1741 0
1737 -1741 0
-1700 -1702 1789 0
1700 -1789 0
1702 -1789 0
-1706 -1708 1790 0
1706 -1790 0
1708 -1790 0
-1710 -1712 1748 0
1710 -1748 0
1712 -1748 0
-1714 -1716 1750 0
1714 -1750 0
1716 -1750 0
-1718 -1720 1792 0
1718 -1792 0
1720 -1792 0
-1722 -1724 1754 0
1722 -1754 0
1724 -1754 0
-1726 -1728 1756 0
1726 -1756 0
1728 -1756 0
-1732 -1734 1794 0
1732 -1794 0
1734 -1794 0
-1736 -1738 1760 0
1736 -1760 0
1738 -1760 0
-1740 -1741 1762 0
1740 -1762 0
1741 -1762 0
-1742 -1743 1796 0
1742 -1796 0
1743 -1796 0
-1744 -1745 1765 0
1744 -1765 0
1745 -1765 0
-1746 -1747 1767 0
1746 -1767 0
1747 -1767 0
-1749 -1751 1769 0
1749 -1769 0
1751 -1769 0
-1752 -1753 1771 0
1752 -1771 0
1753 -1771 0
-1755 -1757 1773 0
1755 -1773 0
1757 -1773 0
-1758 -1759 1775 0
1758 -1775 0
1759 -1775 0
-1739 -1761 1777 0
1761 -1777 0
1739 -1777 0
-1763 -1764 1779 0
1763 -1779 0
1764 -1779 0
-1766 -1768 1781 0
1766 -1781 0
1768 -1781 0
-1770 -1772 1783 0
1770 -1783 0
1772 -1783 0
-1774 -1776 1785 0
1774 -1785 0
1776 -1785 0
-1778 -1780 1787 0
1778 -1787 0
1780 -1787 0
-1782 -1784 1788 0
1782 -1788 0
1784 -1788 0
-1748 -1750 1834 0
1748 -1834 0
1750 -1834 0
-1754 -1756 1835 0
1754 -1835 0
1756 -1835 0
-1760 -1762 1836 0
1760 -1836 0
1762 -1836 0
-1765 -1767 1837 0
1765 -1837 0
1767 -1837 0
-1769 -1771 1799 0
1769 -1799 0
1771 -1799 0
-1773 -1775 1801 0
1773 -1801 0
1775 -1801 0
-1777 -1779 1803 0
1777 -1803 0
1779 -1803 0
-1781 -1783 1805 0
1781 -1805 0
1783 -1805 0
-1785 -1787 1807 0
1785 -1807 0
1787 -1807 0
-1786 -1788 1809 0
1788 -1809 0
1786 -1809 0
-1790 -1791 1843 0
1790 -1843 0
1791 -1843 0
-1792 -1793 1812 0
1792 -1812 0
1793 -1812 0
-1794 -1795 1814 0
1794 -1814 0
1795 -1814 0
-1796 -1797 1816 0
1796 -1816 0
1797 -1816 0
-1798 -1800 1818 0
1798 -1818 0
1800 -1818 0
-1802 -1804 1820 0
1802 -1820 0
1804 -1820 0
-1806 -1808 1822 0
1806 -1822 0
1808 -1822 0
-1789 -1810 1824 0
1789 -1824 0
1810 -1824 0
-1811 -1813 1826 0
1811 -1826 0
1813 -1826 0
-1815 -1817 1828 0
1815 -1828 0
1817 -1828 0
-1819 -1821 1830 0
1819 -1830 0
1821 -1830 0
-1823 -1825 1832 0
1823 -1832 0
1825 -1832 0
-1827 -1829 1833 0
1827 -1833 0
1829 -1833 0
-1799 -1801 1879 0
1799 -1879 0
1801 -1879 0
-1803 -1805 1840 0
1803 -1840 0
1805 -1840 0
-1807 -1809 1842 0
1807 -1842 0
1809 -1842 0
-1812 -1814 1881 0
1812 -1881 0
1814 -1881 0
-1816 -1818 1846 0
1816 -1846 0
1818 -1846 0
-1820 -1822 1848 0
1820 -1848 0
1822 -1848 0
-1824 -1826 1850 0
1824 -1850 0
1826 -1850 0
-1828 -1830 1852 0
1828 -1852 0
1830 -1852 0
-1832 -1833 1884 0
1832 -1884 0
1833 -1884 0
-1834 -1835 1855 0
1834 -1855 0
1835 -1855 0
-1836 -1837 1857 0
1836 -1857 0
1837 -1857 0
-1838 -1839 1859 0
1838 -1859 0
1839 -1859 0
-1841 -1843 1861 0
1841 -1861 0
1843 -1861 0
-1844 -1845 1863 0
1844 -1863 0
1845 -1863 0
-1847 -1849 1865 0
1847 -1865 0
1849 -1865 0
-1851 -1853 1867 0
1851 -1867 0
1853 -1867 0
-1831 -1854 1869 0
1831 -1869 0
1854 -1869 0
-1856 -1858 1871 0
1856 -1871 0
1858 -1871 0
-1860 -1862 1873 0
1860 -1873 0
1862 -1873 0
-1864 -1866 1875 0
1864 -1875 0
1866 -1875 0
-1868 -1870 1877 0
1868 -1877 0
1870 -1877 0
-1872 -1874 1878 0
1872 -1878 0
1874 -1878 0
-1840 -1842 1918 0
1840 -1918 0
1842 -1918 0
-1846 -1848 1919 0
1846 -1919 0
1848 -1919 0
-1850 -1852 1920 0
1850 -1920 0
1852 -1920 0
-1855 -1857 1886 0
1855 -1886 0
1857 -1886 0
-1859 -1861 1888 0
1859 -1888 0
1861 -1888 0
-1863 -1865 1890 0
1863 -1890 0
1865 -1890 0
-1867 -1869 1892 0
1867 -1892 0
1869 -1892 0
-1871 -1873 1894 0
1871 -1894 0
1873 -1894 0
-1875 -1877 1896 0
1875 -1896 0
1877 -1896 0
-1876 -1878 1926 0
1878 -1926 0
1876 -1926 0
-1879 -1880 1898 0
1879 -1898 0
1880 -1898 0
-1881 -1882 1900 0
1881 -1900 0
1882 -1900 0
-1883 -1884 1902 0
1883 -1902 0
1884 -1902 0
-1885 -1887 1904 0
1885 -1904 0
1887 -1904 0
-1889 -1891 1906 0
1889 -1906 0
1891 -1906 0
-1893 -1895 1908 0
1893 -1908 0
1895 -1908 0
-1897 -1899 1932 0
1897 -1932 0
1899 -1932 0
-1901 -1903 1912 0
1901 -1912 0
1903 -1912 0
-1905 -1907 1914 0
1905 -1914 0
1907 -1914 0
-1909 -1910 1916 0
1909 -1916 0
1910 -1916 0
-1911 -1913 1917 0
1911 -1917 0
1913 -1917 0
-1886 -1888 1922 0
1886 -1922 0
1888 -1922 0
-1890 -1892 1924 0
1890 -1924 0
1892 -1924 0
-1894 -1896 1960 0
1894 -1960 0
1896 -1960 0
-1898 -1900 1928 0
1898 -1928 0
1900 -1928 0
-1902 -1904 1930 0
1902 -1930 0
1904 -1930 0
-1906 -1908 1962 0
1906 -1962 0
1908 -1962 0
-1912 -1914 1934 0
1912 -1934 0
1914 -1934 0
-1916 -1917 1936 0
1916 -1936 0
1917 -1936 0
-1918 -1919 1964 0
1918 -1964 0
1919 -1964 0
-1920 -1921 1939 0
1920 -1939 0
1921 -1939 0
-1923 -1925 1941 0
1923 -1941 0
1925 -1941 0
-1926 -1927 1943 0
1926 -1943 0
1927 -1943 0
-1929 -1931 1945 0
1929 -1945 0
1931 -1945 0
-1932 -1933 1947 0
1932 -1947 0
1933 -1947 0
-1915 -1935 1949 0
1935 -1949 0
1915 -1949 0
-1937 -1938 1951 0
1937 -1951 0
1938 -1951 0
-1940 -1942 1953 0
1940 -1953 0
1942 -1953 0
-1944 -1946 1955 0
1944 -1955 0
1946 -1955 0
-1948 -1950 1957 0
1948 -1957 0
1950 -1957 0
-1952 -1954 1958 0
1952 -1958 0
1954 -1958 0
-1922 -1924 1994 0
1922 -1994 0
1924 -1994 0
-1928 -1930 1995 0
1928 -1995 0
1930 -1995 0
-1934 -1936 1996 0
1934 -1996 0
1936 -1996 0
-1939 -1941 1966 0
1939 -1966 0
1941 -1966 0
-1943 -1945 1968 0
1943 -1968 0
1945 -1968 0
-1947 -1949 1970 0
1947 -1970 0
1949 -1970 0
-1951 -1953 1972 0
1951 -1972 0
1953 -1972 0
-1955 -1957 1974 0
1955 -1974 0
1957 -1974 0
-1956 -1958 1976 0
1958 -1976 0
1956 -1976 0
-1959 -1960 2002 0
1959 -2002 0
1960 -2002 0
-1961 -1962 1978 0
1961 -1978 0
1962 -1978 0
-1963 -1964 1980 0
1963 -1980 0
1964 -1980 0
-1965 -1967 1982 0
1965 -1982 0
1967 -1982 0
-1969 -1971 1984 0
1969 -1984 0
1971 -1984 0
-1973 -1975 2007 0
1973 -2007 0
1975 -2007 0
-1977 -1979 1988 0
1977 -1988 0
1979 -1988 0
-1981 -1983 1990 0
1981 -1990 0
1983 -1990 0
-1985 -1986 1992 0
1985 -1992 0
1986 -1992 0
-1987 -1989 1993 0
1987 -1993 0
1989 -1993 0
-1966 -1968 1998 0
1966 -1998 0
1968 -1998 0
-1970 -1972 2000 0
1970 -2000 0
1972 -2000 0
-1974 -1976 2032 0
1974 -2032 0
1976 -2032 0
-1978 -1980 2004 0
1978 -2004 0
1980 -2004 0
-1982 -1984 2006 0
1982 -2006 0
1984 -2006 0
-1988 -1990 2034 0
1988 -2034 0
1990 -2034 0
-1992 -1993 2035 0
1992 -2035 0
1993 -2035 0
-1994 -1995 2011 0
1994 -2011 0
1995 -2011 0
-1996 -1997 2013 0
1996 -2013 0
1997 -2013 0
-1999 -2001 2015 0
1999 -2015 0
2001 -2015 0
-2002 -2003 2017 0
2002 -2017 0
2003 -2017 0
-2005 -2007 2019 0
2005 -2019 0
2007 -2019 0
-2008 -2009 2021 0
2008 -2021 0
2009 -2021 0
-1991 -2010 2023 0
1991 -2023 0
2010 -2023 0
-2012 -2014 2025 0
2012 -2025 0
2014 -2025 0
-2016 -2018 2027 0
2016 -2027 0
2018 -2027 0
-2020 -2022 2029 0
2020 -2029 0
2022 -2029 0
-2024 -2026 2030 0
2024 -2030 0
2026 -2030 0
-1998 -2000 2062 0
1998 -2062 0
2000 -2062 0
-2004 -2006 2063 0
2004 -2063 0
2006 -2063 0
-2011 -2013 2064 0
2011 -2064 0
2013 -2064 0
-2015 -2017 2038 0
2015 -2038 0
2017 -2038 0
-2019 -2021 2040 0
2019 -2040 0
2021 -2040 0
-2023 -2025 2042 0
2023 -2042 0
2025 -2042 0
-2027 -2029 2044 0
2027 -2044 0
2029 -2044 0
-2028 -2030 2069 0
2030 -2069 0
2028 -2069 0
-2031 -2032 2046 0
2031 -2046 0
2032 -2046 0
-2033 -2034 2048 0
2033 -2048 0
2034 -2048 0
-2035 -2036 2050 0
2035 -2050 0
2036 -2050 0
-2037 -2039 2052 0
2037 -2052 0
2039 -2052 0
-2041 -2043 2072 0
2041 -2072 0
2043 -2072 0
-2045 -2047 2056 0
2045 -2056 0
2047 -2056 0
-2049 -2051 2058 0
2049 -2058 0
2051 -2058 0
-2053 -2054 2060 0
2053 -2060 0
2054 -2060 0
-2055 -2057 2061 0
2055 -2061 0
2057 -2061 0
-2038 -2040 2066 0
2038 -2066 0
2040 -2066 0
-2042 -2044 2068 0
2042 -2068 0
2044 -2068 0
-2046 -2048 2096 0
2046 -2096 0
2048 -2096 0
-2050 -2052 2097 0
2050 -2097 0
2052 -2097 0
-2056 -2058 2074 0
2056 -2074 0
2058 -2074 0
-2060 -2061 2076 0
2060 -2076 0
2061 -2076 0
-2062 -2063 2099 0
2062 -2099 0
2063 -2099 0
-2064 -2065 2079 0
2064 -2079 0
2065 -2079 0
-2067 -2069 2081 0
2067 -2081 0
2069 -2081 0
-2070 -2071 2083 0
2070 -2083 0
2071 -2083 0
-2072 -2073 2085 0
2072 -2085 0
2073 -2085 0
-2059 -2075 2087 0
2075 -2087 0
2059 -2087 0
-2077 -2078 2089 0
2077 -2089 0
2078 -2089 0
-2080 -2082 2091 0
2080 -2091 0
2082 -2091 0
-2084 -2086 2093 0
2084 -2093 0
2086 -2093 0
-2088 -2090 2094 0
2088 -2094 0
2090 -2094 0
-2066 -2068 2122 0
2066 -2122 0
2068 -2122 0
-2074 -2076 2123 0
2074 -2123 0
2076 -2123 0
-2079 -2081 2124 0
2079 -2124 0
2081 -2124 0
-2083 -2085 2102 0
2083 -2102 0
2085 -2102 0
-2087 -2089 2104 0
2087 -2104 0
2089 -2104 0
-2091 -2093 2106 0
2091 -2106 0
2093 -2106 0
-2092 -2094 2108 0
2094 -2108 0
2092 -2108 0
-2095 -2096 2129 0
2095 -2129 0
2096 -2129 0
-2097 -2098 2110 0
2097 -2110 0
2098 -2110 0
-2099 -2100 2112 0
2099 -2112 0
2100 -2112 0
-2101 -2103 2114 0
2101 -2114 0
2103 -2114 0
-2105 -2107 2116 0
2105 -2116 0
2107 -2116 0
-2109 -2111 2132 0
2109 -2132 0
2111 -2132 0
-2113 -2115 2120 0
2113 -2120 0
2115 -2120 0
-2117 -2118 2121 0
2117 -2121 0
2118 -2121 0
-2102 -2104 2126 0
2102 -2126 0
2104 -2126 0
-2106 -2108 2128 0
2106 -2128 0
2108 -2128 0
-2110 -2112 2152 0
2110 -2152 0
2112 -2152 0
-2114 -2116 2153 0
2114 -2153 0
2116 -2153 0
-2120 -2121 2154 0
2120 -2154 0
2121 -2154 0
-2122 -2123 2135 0
2122 -2135 0
2123 -2135 0
-2124 -2125 2137 0
2124 -2137 0
2125 -2137 0
-2127 -2129 2139 0
2127 -2139 0
2129 -2139 0
-2130 -2131 2141 0
2130 -2141 0
2131 -2141 0
-2132 -2133 2143 0
2132 -2143 0
2133 -2143 0
-2119 -2134 2145 0
2119 -2145 0
2134 -2145 0
-2136 -2138 2147 0
2136 -2147 0
2138 -2147 0
-2140 -2142 2149 0
2140 -2149 0
2142 -2149 0
-2144 -2146 2150 0
2144 -2150 0
2146 -2150 0
-2126 -2128 2176 0
2126 -2176 0
2128 -2176 0
-2135 -2137 2156 0
2135 -2156 0
2137 -2156 0
-2139 -2141 2158 0
2139 -2158 0
2141 -2158 0
-2143 -2145 2160 0
2143 -2160 0
2145 -2160 0
-2147 -2149 2162 0
2147 -2162 0
2149 -2162 0
-2148 -2150 2179 0
2150 -2179 0
2148 -2179 0
-2151 -2152 2164 0
2151 -2164 0
2152 -2164 0
-2153 -2154 2166 0
2153 -2166 0
2154 -2166 0
-2155 -2157 2168 0
2155 -2168 0
2157 -2168 0
-2159 -2161 2170 0
2159 -2170 0
2161 -2170 0
-2163 -2165 2184 0
2163 -2184 0
2165 -2184 0
-2167 -2169 2174 0
2167 -2174 0
2169 -2174 0
-2171 -2172 2175 0
2171 -2175 0
2172 -2175 0
-2156 -2158 2199 0
2156 -2199 0
2158 -2199 0
-2160 -2162 2200 0
2160 -2200 0
2162 -2200 0
-2164 -2166 2181 0
2164 -2181 0
2166 -2181 0
-2168 -2170 2183 0
2168 -2183 0
2170 -2183 0
-2174 -2175 2211 0
2174 -2211 0
2175 -2211 0
-2177 -2178 2187 0
2177 -2187 0
2178 -2187 0
-2179 -2180 2189 0
2179 -2189 0
2180 -2189 0
-2182 -2184 2191 0
2182 -2191 0
2184 -2191 0
-2173 -2185 2193 0
2185 -2193 0
2173 -2193 0
-2176 -2186 2195 0
2176 -2195 0
2186 -2195 0
-2188 -2190 2197 0
2188 -2197 0
2190 -2197 0
-2192 -2194 2198 0
2192 -2198 0
2194 -2198 0
-2181 -2183 2220 0
2181 -2220 0
2183 -2220 0
-2187 -2189 2203 0
2187 -2203 0
2189 -2203 0
-2191 -2193 2205 0
2191 -2205 0
2193 -2205 0
-2195 -2197 2207 0
2195 -2207 0
2197 -2207 0
-2196 -2198 2209 0
2198 -2209 0
2196 -2209 0
-2200 -2201 2223 0
2200 -2223 0
2201 -2223 0
-2202 -2204 2224 0
2202 -2224 0
2204 -2224 0
-2206 -2208 2214 0
2206 -2214 0
2208 -2214 0
-2199 -2210 2216 0
2199 -2216 0
2210 -2216 0
-2211 -2212 2218 0
2211 -2218 0
2212 -2218 0
-2213 -2215 2219 0
2213 -2219 0
2215 -2219 0
-2203 -2205 2237 0
2203 -2237 0
2205 -2237 0
-2207 -2209 2238 0
2207 -2238 0
2209 -2238 0
-2214 -2216 2239 0
2214 -2239 0
2216 -2239 0
-2218 -2219 2240 0
2218 -2240 0
2219 -2240 0
-2221 -2222 2241 0
2221 -2241 0
2222 -2241 0
-2223 -2224 2229 0
2223 -2229 0
2224 -2229 0
-2225 -2226 2231 0
2225 -2231 0
2226 -2231 0
-2217 -2220 2233 0
2217 -2233 0
2220 -2233 0
-2227 -2228 2235 0
2227 -2235 0
2228 -2235 0
-2230 -2232 2236 0
2230 -2236 0
2232 -2236 0
-2229 -2231 2243 0
2229 -2243 0
2231 -2243 0
-2233 -2235 2245 0
2233 -2245 0
2235 -2245 0
-2234 -2236 2259 0
2236 -2259 0
2234 -2259 0
-2238 -2239 2248 0
2238 -2248 0
2239 -2248 0
-2240 -2241 2250 0
2240 -2250 0
2241 -2250 0
-2242 -2244 2252 0
2242 -2252 0
2244 -2252 0
-2237 -2246 2254 0
2246 -2254 0
2237 -2254 0
-2247 -2249 2256 0
2247 -2256 0
2249 -2256 0
-2251 -2253 2257 0
2251 -2257 0
2253 -2257 0
-2243 -2245 2271 0
2243 -2271 0
2245 -2271 0
-2248 -2250 2272 0
2248 -2272 0
2250 -2272 0
-2252 -2254 2262 0
2252 -2262 0
2254 -2262 0
-2256 -2257 2264 0
2256 -2264 0
2257 -2264 0
-2258 -2259 2265 0
2258 -2265 0
2259 -2265 0
-2260 -2261 2267 0
2260 -2267 0
2261 -2267 0
-2255 -2263 2274 0
2263 -2274 0
2255 -2274 0
-2266 -2268 2270 0
2266 -2270 0
2268 -2270 0
-2262 -2264 2282 0
2262 -2282 0
2264 -2282 0
-2265 -2267 2283 0
2265 -2283 0
2267 -2283 0
-2269 -2270 2284 0
2270 -2284 0
2269 -2284 0
-2272 -2273 2285 0
2272 -2285 0
2273 -2285 0
-2274 -2275 2286 0
2274 -2286 0
2275 -2286 0
-2271 -2276 2280 0
2271 -2280 0
2276 -2280 0
-2277 -2278 2281 0
2277 -2281 0
2278 -2281 0
-2280 -2281 2297 0
2280 -2297 0
2281 -2297 0
-2282 -2283 2289 0
2282 -2289 0
2283 -2289 0
-2284 -2285 2291 0
2284 -2291 0
2285 -2291 0
-2286 -2287 2293 0
2286 -2293 0
2287 -2293 0
-2279 -2288 2295 0
2279 -2295 0
2288 -2295 0
-2290 -2292 2296 0
2290 -2296 0
2292 -2296 0
-2289 -2291 2299 0
2289 -2299 0
2291 -2299 0
-2293 -2295 2301 0
2293 -2301 0
2295 -2301 0
-2294 -2296 2304 0
2296 -2304 0
2294 -2304 0
-2298 -2300 2305 0
2298 -2305 0
2300 -2305 0
-2297 -2302 2306 0
2297 -2306 0
2302 -2306 0
-2299 -2301 2317 0
2299 -2317 0
2301 -2317 0
-2304 -2305 2309 0
2304 -2309 0
2305 -2309 0
-2303 -2306 2311 0
2306 -2311 0
2303 -2311 0
-2307 -2308 2312 0
2307 -2312 0
2308 -2312 0
-2309 -2311 2314 0
2309 -2314 0
2311 -2314 0
-2310 -2312 2316 0
2312 -2316 0
2310 -2316 0
-2313 -2315 2319 0
2313 -2319 0
2315 -2319 0
-2314 -2316 2321 0
-2317 -2318 2320 0
2317 -2320 0
2318 -2320 0
-2319 -2320 0
-2321 0
-1 -2 -62 0
1 2 -62 0
1 -2 62 0
-1 2 62 0
-1 -14 62 0
1 14 62 0
1 -14 -62 0
-1 14 -62 0
-3 -8 -70 0
3 8 -70 0
-3 8 70 0
3 -8 70 0
-15 -22 -66 0
15 22 -66 0
-15 22 66 0
15 -22 66 0
-63 -64 -68 0
63 64 -68 0
-63 64 68 0
63 -64 68 0
-66 -68 70 0
66 68 70 0
-66 68 -70 0
66 -68 -70 0
-4 -9 -79 0
4 9 -79 0
-4 9 79 0
4 -9 79 0
-16 -23 -72 0
16 23 -72 0
-16 23 72 0
16 -23 72 0
-30 -65 -74 0
30 65 -74 0
-30 65 74 0
30 -65 74 0
-67 -69 -76 0
67 69 -76 0
-67 69 76 0
67 -69 76 0
-72 -74 -80 0
72 74 -80 0
-72 74 80 0
72 -74 80 0
-76 -78 -82 0
76 78 -82 0
-76 78 82 0
76 -78 82 0
-79 -80 82 0
79 80 82 0
-79 80 -82 0
79 -80 -82 0
-5 -10 -84 0
5 10 -84 0
-5 10 84 0
5 -10 84 0
-17 -24 -86 0
17 24 -86 0
-17 24 86 0
17 -24 86 0
-31 -38 -88 0
31 38 -88 0
-31 38 88 0
31 -38 88 0
-71 -73 -90 0
71 73 -90 0
-71 73 90 0
71 -73 90 0
-75 -77 -97 0
75 77 -97 0
-75 77 97 0
75 -77 97 0
-81 -83 -93 0
81 83 -93 0
-81 83 93 0
81 -83 93 0
-84 -86 -95 0
84 86 -95 0
-84 86 95 0
84 -86 95 0
-88 -90 -96 0
88 90 -96 0
-88 90 96 0
88 -90 96 0
-93 -94 -98 0
93 94 -98 0
-93 94 98 0
93 -94 98 0
-95 -96 -100 0
95 96 -100 0
-95 96 100 0
95 -96 100 0
-97 -98 -100 0
97 98 -100 0
-97 98 100 0
97 -98 100 0
-6 -11 -103 0
6 11 -103 0
-6 11 103 0
6 -11 103 0
-18 -25 -105 0
18 25 -105 0
-18 25 105 0
18 -25 105 0
-32 -39 -107 0
32 39 -107 0
-32 39 107 0
32 -39 107 0
-46 -85 -109 0
46 85 -109 0
-46 85 109 0
46 -85 109 0
-87 -89 -111 0
87 89 -111 0
-87 89 111 0
87 -89 111 0
-91 -92 -113 0
91 92 -113 0
-91 92 113 0
91 -92 113 0
-99 -101 -118 0
99 101 -118 0
-99 101 118 0
99 -101 118 0
-100 -102 -119 0
100 102 -119 0
100 -102 119 0
-100 102 119 0
-103 -105 -121 0
103 105 -121 0
-103 105 121 0
103 -105 121 0
-107 -109 -123 0
107 109 -123 0
-107 109 123 0
107 -109 123 0
-111 -113 -125 0
111 113 -125 0
-111 113 125 0
111 -113 125 0
-115 -116 -127 0
115 116 -127 0
-115 116 127 0
115 -116 127 0
-117 -118 -129 0
117 118 -129 0
-117 118 129 0
117 -118 129 0
-119 -121 -131 0
119 121 -131 0
-119 121 131 0
119 -121 131 0
-123 -125 -133 0
123 125 -133 0
-123 125 133 0
123 -125 133 0
-127 -129 -135 0
127 129 -135 0
-127 129 135 0
127 -129 135 0
-131 -133 -135 0
131 133 -135 0
-131 133 135 0
131 -133 135 0
-7 -12 -138 0
7 12 -138 0
-7 12 138 0
7 -12 138 0
-19 -26 -140 0
19 26 -140 0
-19 26 140 0
19 -26 140 0
-33 -40 -142 0
33 40 -142 0
-33 40 142 0
33 -40 142 0
-47 -54 -144 0
47 54 -144 0
-47 54 144 0
47 -54 144 0
-104 -106 -146 0
104 106 -146 0
-104 106 146 0
104 -106 146 0
-108 -110 -148 0
108 110 -148 0
-108 110 148 0
108 -110 148 0
-112 -114 -150 0
112 114 -150 0
-112 114 150 0
112 -114 150 0
-120 -122 -152 0
120 122 -152 0
-120 122 152 0
120 -122 152 0
-124 -126 -154 0
124 126 -154 0
-124 126 154 0
124 -126 154 0
-128 -130 -156 0
128 130 -156 0
-128 130 156 0
128 -130 156 0
-132 -134 -158 0
132 134 -158 0
-132 134 158 0
132 -134 158 0
-136 -137 -160 0
136 137 -160 0
-136 137 160 0
136 -137 160 0
-135 -138 -162 0
135 138 -162 0
-135 138 162 0
135 -138 162 0
-140 -142 -164 0
140 142 -164 0
-140 142 164 0
140 -142 164 0
-144 -146 -166 0
144 146 -166 0
-144 146 166 0
144 -146 166 0
-148 -150 -168 0
148 150 -168 0
-148 150 168 0
148 -150 168 0
-152 -154 -170 0
152 154 -170 0
-152 154 170 0
152 -154 170 0
-156 -158 -172 0
156 158 -172 0
-156 158 172 0
156 -158 172 0
-160 -162 -174 0
160 162 -174 0
-160 162 174 0
160 -162 174 0
-164 -166 -176 0
164 166 -176 0
-164 166 176 0
164 -166 176 0
-168 -169 -178 0
168 169 -178 0
-168 169 178 0
168 -169 178 0
-170 -172 -180 0
170 172 -180 0
-170 172 180 0
170 -172 180 0
-174 -176 -182 0
174 176 -182 0
-174 176 182 0
174 -176 182 0
-178 -180 -182 0
178 180 -182 0
-178 180 182 0
178 -180 182 0
-13 -20 -185 0
13 20 -185 0
-13 20 185 0
13 -20 185 0
-27 -34 -187 0
27 34 -187 0
-27 34 187 0
27 -34 187 0
-41 -48 -189 0
41 48 -189 0
-41 48 189 0
41 -48 189 0
-55 -139 -191 0
55 139 -191 0
-55 139 191 0
55 -139 191 0
-141 -143 -193 0
141 143 -193 0
-141 143 193 0
141 -143 193 0
-145 -147 -195 0
145 147 -195 0
-145 147 195 0
145 -147 195 0
-149 -151 -197 0
149 151 -197 0
-149 151 197 0
149 -151 197 0
-153 -155 -220 0
153 155 -220 0
-153 155 220 0
153 -155 220 0
-157 -159 -199 0
157 159 -199 0
-157 159 199 0
157 -159 199 0
-161 -163 -201 0
161 163 -201 0
-161 163 201 0
161 -163 201 0
-165 -167 -203 0
165 167 -203 0
-165 167 203 0
165 -167 203 0
-171 -173 -206 0
171 173 -206 0
-171 173 206 0
171 -173 206 0
-175 -177 -207 0
175 177 -207 0
-175 177 207 0
175 -177 207 0
-179 -181 -209 0
179 181 -209 0
-179 181 209 0
179 -181 209 0
-183 -184 -211 0
183 184 -211 0
-183 184 211 0
183 -184 211 0
-182 -185 -213 0
182 185 -213 0
-182 185 213 0
182 -185 213 0
-187 -189 -215 0
187 189 -215 0
-187 189 215 0
187 -189 215 0
-191 -193 -217 0
191 193 -217 0
-191 193 217 0
191 -193 217 0
-195 -197 -219 0
195 197 -219 0
-195 197 219 0
195 -197 219 0
-199 -201 -221 0
199 201 -221 0
-199 201 221 0
199 -201 221 0
-203 -205 -223 0
203 205 -223 0
-203 205 223 0
203 -205 223 0
-206 -207 -225 0
206 207 -225 0
-206 207 225 0
206 -207 225 0
-209 -211 -227 0
209 211 -227 0
-209 211 227 0
209 -211 227 0
-213 -215 -229 0
213 215 -229 0
-213 215 229 0
213 -215 229 0
-217 -219 -231 0
217 219 -231 0
-217 219 231 0
217 -219 231 0
-220 -221 -233 0
220 221 -233 0
-220 221 233 0
220 -221 233 0
-223 -225 -235 0
223 225 -235 0
-223 225 235 0
223 -225 235 0
-227 -229 -237 0
227 229 -237 0
-227 229 237 0
227 -229 237 0
-231 -233 -239 0
231 233 -239 0
-231 233 239 0
231 -233 239 0
-235 -237 -239 0
235 237 -239 0
-235 237 239 0
235 -237 239 0
-21 -28 -242 0
21 28 -242 0
-21 28 242 0
21 -28 242 0
-35 -42 -244 0
35 42 -244 0
-35 42 244 0
35 -42 244 0
-49 -56 -246 0
49 56 -246 0
-49 56 246 0
49 -56 246 0
-186 -188 -248 0
186 188 -248 0
-186 188 248 0
186 -188 248 0
-190 -192 -250 0
190 192 -250 0
-190 192 250 0
190 -192 250 0
-194 -196 -252 0
194 196 -252 0
-194 196 252 0
194 -196 252 0
-198 -200 -254 0
198 200 -254 0
-198 200 254 0
198 -200 254 0
-202 -204 -256 0
202 204 -256 0
-202 204 256 0
202 -204 256 0
-208 -210 -259 0
208 210 -259 0
-208 210 259 0
208 -210 259 0
-212 -214 -260 0
212 214 -260 0
-212 214 260 0
212 -214 260 0
-216 -218 -262 0
216 218 -262 0
-216 218 262 0
216 -218 262 0
-222 -224 -265 0
222 224 -265 0
-222 224 265 0
222 -224 265 0
-226 -228 -266 0
226 228 -266 0
-226 228 266 0
226 -228 266 0
-230 -232 -268 0
230 232 -268 0
-230 232 268 0
230 -232 268 0
-234 -236 -270 0
234 236 -270 0
-234 236 270 0
234 -236 270 0
-238 -240 -272 0
238 240 -272 0
-238 240 272 0
238 -240 272 0
-239 -241 -274 0
239 241 -274 0
239 -241 274 0
-239 241 274 0
-242 -244 -276 0
242 244 -276 0
-242 244 276 0
242 -244 276 0
-246 -248 -278 0
246 248 -278 0
-246 248 278 0
246 -248 278 0
-250 -252 -280 0
250 252 -280 0
-250 252 280 0
250 -252 280 0
-253 -254 -282 0
253 254 -282 0
-253 254 282 0
253 -254 282 0
-256 -258 -284 0
256 258 -284 0
-256 258 284 0
256 -258 284 0
-259 -260 -286 0
259 260 -286 0
-259 260 286 0
259 -260 286 0
-262 -264 -288 0
262 264 -288 0
-262 264 288 0
262 -264 288 0
-265 -266 -290 0
265 266 -290 0
-265 266 290 0
265 -266 290 0
-268 -270 -292 0
268 270 -292 0
-268 270 292 0
268 -270 292 0
-272 -274 -294 0
272 274 -294 0
-272 274 294 0
272 -274 294 0
-276 -278 -296 0
276 278 -296 0
-276 278 296 0
276 -278 296 0
-280 -282 -298 0
280 282 -298 0
-280 282 298 0
280 -282 298 0
-284 -286 -300 0
284 286 -300 0
-284 286 300 0
284 -286 300 0
-288 -290 -302 0
288 290 -302 0
-288 290 302 0
288 -290 302 0
-292 -294 -304 0
292 294 -304 0
-292 294 304 0
292 -294 304 0
-296 -298 -306 0
296 298 -306 0
-296 298 306 0
296 -298 306 0
-300 -302 -308 0
300 302 -308 0
-300 302 308 0
300 -302 308 0
-304 -306 308 0
304 306 308 0
-304 306 -308 0
304 -306 -308 0
-29 -36 -310 0
29 36 -310 0
-29 36 310 0
29 -36 310 0
-43 -50 -312 0
43 50 -312 0
-43 50 312 0
43 -50 312 0
-57 -243 -314 0
57 243 -314 0
-57 243 314 0
57 -243 314 0
-245 -247 -316 0
245 247 -316 0
-245 247 316 0
245 -247 316 0
-249 -251 -318 0
249 251 -318 0
-249 251 318 0
249 -251 318 0
-255 -257 -320 0
255 257 -320 0
-255 257 320 0
255 -257 320 0
-261 -263 -322 0
261 263 -322 0
-261 263 322 0
261 -263 322 0
-267 -269 -324 0
267 269 -324 0
-267 269 324 0
267 -269 324 0
-271 -273 -326 0
271 273 -326 0
-271 273 326 0
271 -273 326 0
-275 -277 -328 0
275 277 -328 0
-275 277 328 0
275 -277 328 0
-279 -281 -330 0
279 281 -330 0
-279 281 330 0
279 -281 330 0
-283 -285 -332 0
283 285 -332 0
-283 285 332 0
283 -285 332 0
-287 -289 -334 0
287 289 -334 0
-287 289 334 0
287 -289 334 0
-291 -293 -336 0
291 293 -336 0
-291 293 336 0
291 -293 336 0
-295 -297 -338 0
295 297 -338 0
-295 297 338 0
295 -297 338 0
-299 -301 -340 0
299 301 -340 0
-299 301 340 0
299 -301 340 0
-303 -305 -342 0
303 305 -342 0
-303 305 342 0
303 -305 342 0
-307 -309 -344 0
307 309 -344 0
-307 309 344 0
307 -309 344 0
-310 -312 -346 0
310 312 -346 0
-310 312 346 0
310 -312 346 0
-314 -316 -348 0
314 316 -348 0
-314 316 348 0
314 -316 348 0
-318 -319 -350 0
318 319 -350 0
-318 319 350 0
318 -319 350 0
-320 -321 -352 0
320 321 -352 0
-320 321 352 0
320 -321 352 0
-322 -323 -354 0
322 323 -354 0
-322 323 354 0
322 -323 354 0
-324 -326 -356 0
324 326 -356 0
-324 326 356 0
324 -326 356 0
-328 -330 -358 0
328 330 -358 0
-328 330 358 0
328 -330 358 0
-332 -334 -360 0
332 334 -360 0
-332 334 360 0
332 -334 360 0
-336 -338 -362 0
336 338 -362 0
-336 338 362 0
336 -338 362 0
-340 -342 -364 0
340 342 -364 0
-340 342 364 0
340 -342 364 0
-344 -345 -366 0
344 345 -366 0
-344 345 366 0
344 -345 366 0
-346 -348 -368 0
346 348 -368 0
-346 348 368 0
346 -348 368 0
-350 -352 -370 0
350 352 -370 0
-350 352 370 0
350 -352 370 0
-354 -356 -372 0
354 356 -372 0
-354 356 372 0
354 -356 372 0
-358 -360 -374 0
358 360 -374 0
-358 360 374 0
358 -360 374 0
-362 -364 -376 0
362 364 -376 0
-362 364 376 0
362 -364 376 0
-366 -368 -378 0
366 368 -378 0
-366 368 378 0
366 -368 378 0
-370 -372 -380 0
370 372 -380 0
-370 372 380 0
370 -372 380 0
-374 -376 -382 0
374 376 -382 0
-374 376 382 0
374 -376 382 0
-378 -380 -382 0
378 380 -382 0
-378 380 382 0
378 -380 382 0
-37 -44 -385 0
37 44 -385 0
-37 44 385 0
37 -44 385 0
-51 -58 -387 0
51 58 -387 0
-51 58 387 0
51 -58 387 0
-311 -313 -389 0
311 313 -389 0
-311 313 389 0
311 -313 389 0
-315 -317 -391 0
315 317 -391 0
-315 317 391 0
315 -317 391 0
-325 -327 -395 0
325 327 -395 0
-325 327 395 0
325 -327 395 0
-329 -331 -397 0
329 331 -397 0
-329 331 397 0
329 -331 397 0
-333 -335 -399 0
333 335 -399 0
-333 335 399 0
333 -335 399 0
-337 -339 -401 0
337 339 -401 0
-337 339 401 0
337 -339 401 0
-341 -343 -403 0
341 343 -403 0
-341 343 403 0
341 -343 403 0
-347 -349 -405 0
347 349 -405 0
-347 349 405 0
347 -349 405 0
-351 -353 -407 0
351 353 -407 0
-351 353 407 0
351 -353 407 0
-355 -357 -409 0
355 357 -409 0
-355 357 409 0
355 -357 409 0
-359 -361 -411 0
359 361 -411 0
-359 361 411 0
359 -361 411 0
-363 -365 -413 0
363 365 -413 0
-363 365 413 0
363 -365 413 0
-367 -369 -415 0
367 369 -415 0
-367 369 415 0
367 -369 415 0
-371 -373 -417 0
371 373 -417 0
-371 373 417 0
371 -373 417 0
-375 -377 -419 0
375 377 -419 0
-375 377 419 0
375 -377 419 0
-379 -381 -421 0
379 381 -421 0
-379 381 421 0
379 -381 421 0
-383 -384 -423 0
383 384 -423 0
-383 384 423 0
383 -384 423 0
-382 -385 -425 0
382 385 -425 0
-382 385 425 0
382 -385 425 0
-387 -389 -427 0
387 389 -427 0
-387 389 427 0
387 -389 427 0
-391 -392 -429 0
391 392 -429 0
-391 392 429 0
391 -392 429 0
-393 -394 -431 0
393 394 -431 0
-393 394 431 0
393 -394 431 0
-395 -397 -433 0
395 397 -433 0
-395 397 433 0
395 -397 433 0
-399 -401 -435 0
399 401 -435 0
-399 401 435 0
399 -401 435 0
-403 -404 -437 0
403 404 -437 0
-403 404 437 0
403 -404 437 0
-405 -407 -439 0
405 407 -439 0
-405 407 439 0
405 -407 439 0
-409 -411 -441 0
409 411 -441 0
-409 411 441 0
409 -411 441 0
-413 -415 -443 0
413 415 -443 0
-413 415 443 0
413 -415 443 0
-417 -419 -445 0
417 419 -445 0
-417 419 445 0
417 -419 445 0
-421 -423 -447 0
421 423 -447 0
-421 423 447 0
421 -423 447 0
-425 -427 -449 0
425 427 -449 0
-425 427 449 0
425 -427 449 0
-429 -431 -451 0
429 431 -451 0
-429 431 451 0
429 -431 451 0
-433 -435 -453 0
433 435 -453 0
-433 435 453 0
433 -435 453 0
-437 -439 -455 0
437 439 -455 0
-437 439 455 0
437 -439 455 0
-441 -443 -457 0
441 443 -457 0
-441 443 457 0
441 -443 457 0
-445 -447 -459 0
445 447 -459 0
-445 447 459 0
445 -447 459 0
-449 -451 -461 0
449 451 -461 0
-449 451 461 0
449 -451 461 0
-453 -455 -463 0
453 455 -463 0
-453 455 463 0
453 -455 463 0
-457 -459 -465 0
457 459 -465 0
-457 459 465 0
457 -459 465 0
-461 -463 -465 0
461 463 -465 0
-461 463 465 0
461 -463 465 0
-45 -52 -468 0
45 52 -468 0
-45 52 468 0
45 -52 468 0
-59 -386 -470 0
59 386 -470 0
-59 386 470 0
59 -386 470 0
-388 -390 -472 0
388 390 -472 0
-388 390 472 0
388 -390 472 0
-396 -398 -474 0
396 398 -474 0
-396 398 474 0
396 -398 474 0
-400 -402 -475 0
400 402 -475 0
-400 402 475 0
400 -402 475 0
-406 -408 -477 0
406 408 -477 0
-406 408 477 0
406 -408 477 0
-410 -412 -479 0
410 412 -479 0
-410 412 479 0
410 -412 479 0
-414 -416 -481 0
414 416 -481 0
-414 416 481 0
414 -416 481 0
-418 -420 -483 0
418 420 -483 0
-418 420 483 0
418 -420 483 0
-422 -424 -485 0
422 424 -485 0
-422 424 485 0
422 -424 485 0
-426 -428 -487 0
426 428 -487 0
-426 428 487 0
426 -428 487 0
-430 -432 -489 0
430 432 -489 0
-430 432 489 0
430 -432 489 0
-434 -436 -491 0
434 436 -491 0
-434 436 491 0
434 -436 491 0
-438 -440 -493 0
438 440 -493 0
-438 440 493 0
438 -440 493 0
-442 -444 -495 0
442 444 -495 0
-442 444 495 0
442 -444 495 0
-446 -448 -497 0
446 448 -497 0
-446 448 497 0
446 -448 497 0
-450 -452 -499 0
450 452 -499 0
-450 452 499 0
450 -452 499 0
-454 -456 -501 0
454 456 -501 0
-454 456 501 0
454 -456 501 0
-458 -460 -503 0
458 460 -503 0
-458 460 503 0
458 -460 503 0
-462 -464 -505 0
462 464 -505 0
-462 464 505 0
462 -464 505 0
-466 -467 -507 0
466 467 -507 0
-466 467 507 0
466 -467 507 0
-465 -468 -509 0
465 468 -509 0
-465 468 509 0
465 -468 509 0
-470 -472 -511 0
470 472 -511 0
-470 472 511 0
470 -472 511 0
-474 -475 -513 0
474 475 -513 0
-474 475 513 0
474 -475 513 0
-476 -477 -514 0
476 477 -514 0
-476 477 514 0
476 -477 514 0
-479 -481 -516 0
479 481 -516 0
-479 481 516 0
479 -481 516 0
-483 -485 -518 0
483 485 -518 0
-483 485 518 0
483 -485 518 0
-487 -489 -520 0
487 489 -520 0
-487 489 520 0
487 -489 520 0
-491 -493 -522 0
491 493 -522 0
-491 493 522 0
491 -493 522 0
-495 -497 -524 0
495 497 -524 0
-495 497 524 0
495 -497 524 0
-499 -501 -526 0
499 501 -526 0
-499 501 526 0
499 -501 526 0
-503 -505 -528 0
503 505 -528 0
-503 505 528 0
503 -505 528 0
-507 -509 -530 0
507 509 -530 0
-507 509 530 0
507 -509 530 0
-473 -511 -532 0
473 511 -532 0
473 -511 532 0
-473 511 532 0
-513 -514 -534 0
513 514 -534 0
-513 514 534 0
513 -514 534 0
-516 -518 -536 0
516 518 -536 0
-516 518 536 0
516 -518 536 0
-520 -522 -538 0
520 522 -538 0
-520 522 538 0
520 -522 538 0
-524 -526 -540 0
524 526 -540 0
-524 526 540 0
524 -526 540 0
-528 -530 -542 0
528 530 -542 0
-528 530 542 0
528 -530 542 0
-532 -534 -544 0
532 534 -544 0
-532 534 544 0
532 -534 544 0
-536 -538 -546 0
536 538 -546 0
-536 538 546 0
536 -538 546 0
-540 -542 -548 0
540 542 -548 0
-540 542 548 0
540 -542 548 0
-544 -546 548 0
544 546 548 0
-544 546 -548 0
544 -546 -548 0
-53 -60 -550 0
53 60 -550 0
-53 60 550 0
53 -60 550 0
-469 -471 -552 0
469 471 -552 0
-469 471 552 0
469 -471 552 0
-478 -480 -556 0
478 480 -556 0
-478 480 556 0
478 -480 556 0
-482 -484 -558 0
482 484 -558 0
-482 484 558 0
482 -484 558 0
-486 -488 -560 0
486 488 -560 0
-486 488 560 0
486 -488 560 0
-490 -492 -562 0
490 492 -562 0
-490 492 562 0
490 -492 562 0
-494 -496 -564 0
494 496 -564 0
-494 496 564 0
494 -496 564 0
-498 -500 -566 0
498 500 -566 0
-498 500 566 0
498 -500 566 0
-502 -504 -568 0
502 504 -568 0
-502 504 568 0
502 -504 568 0
-506 -508 -570 0
506 508 -570 0
-506 508 570 0
506 -508 570 0
-510 -512 -572 0
510 512 -572 0
-510 512 572 0
510 -512 572 0
-515 -517 -574 0
515 517 -574 0
-515 517 574 0
515 -517 574 0
-519 -521 -576 0
519 521 -576 0
-519 521 576 0
519 -521 576 0
-523 -525 -578 0
523 525 -578 0
-523 525 578 0
523 -525 578 0
-527 -529 -580 0
527 529 -580 0
-527 529 580 0
527 -529 580 0
-531 -533 -582 0
531 533 -582 0
-531 533 582 0
531 -533 582 0
-535 -537 -584 0
535 537 -584 0
-535 537 584 0
535 -537 584 0
-539 -541 -586 0
539 541 -586 0
-539 541 586 0
539 -541 586 0
-543 -545 -588 0
543 545 -588 0
-543 545 588 0
543 -545 588 0
-547 -549 -590 0
547 549 -590 0
-547 549 590 0
547 -549 590 0
-550 -552 -592 0
550 552 -592 0
-550 552 592 0
550 -552 592 0
-553 -554 -594 0
553 554 -594 0
-553 554 594 0
553 -554 594 0
-555 -556 -596 0
555 556 -596 0
-555 556 596 0
555 -556 596 0
-558 -560 -598 0
558 560 -598 0
-558 560 598 0
558 -560 598 0
-562 -564 -600 0
562 564 -600 0
-562 564 600 0
562 -564 600 0
-566 -568 -602 0
566 568 -602 0
-566 568 602 0
566 -568 602 0
-570 -572 -604 0
570 572 -604 0
-570 572 604 0
570 -572 604 0
-573 -574 -606 0
573 574 -606 0
-573 574 606 0
573 -574 606 0
-576 -578 -608 0
576 578 -608 0
-576 578 608 0
576 -578 608 0
-580 -582 -610 0
580 582 -610 0
-580 582 610 0
580 -582 610 0
-584 -586 -612 0
584 586 -612 0
-584 586 612 0
584 -586 612 0
-588 -590 -614 0
588 590 -614 0
-588 590 614 0
588 -590 614 0
-591 -592 -616 0
591 592 -616 0
-591 592 616 0
591 -592 616 0
-594 -596 -618 0
594 596 -618 0
-594 596 618 0
594 -596 618 0
-598 -600 -620 0
598 600 -620 0
-598 600 620 0
598 -600 620 0
-602 -604 -622 0
602 604 -622 0
-602 604 622 0
602 -604 622 0
-606 -608 -624 0
606 608 -624 0
-606 608 624 0
606 -608 624 0
-610 -612 -626 0
610 612 -626 0
-610 612 626 0
610 -612 626 0
-614 -616 -628 0
614 616 -628 0
-614 616 628 0
614 -616 628 0
-618 -620 -630 0
618 620 -630 0
-618 620 630 0
618 -620 630 0
-622 -624 -632 0
622 624 -632 0
-622 624 632 0
622 -624 632 0
-626 -628 -634 0
626 628 -634 0
-626 628 634 0
626 -628 634 0
-630 -632 634 0
630 632 634 0
-630 632 -634 0
630 -632 -634 0
-61 -551 -636 0
61 551 -636 0
-61 551 636 0
61 -551 636 0
-557 -559 -676 0
557 559 -676 0
-557 559 676 0
557 -559 676 0
-561 -563 -638 0
561 563 -638 0
-561 563 638 0
561 -563 638 0
-565 -567 -640 0
565 567 -640 0
-565 567 640 0
565 -567 640 0
-569 -571 -642 0
569 571 -642 0
-569 571 642 0
569 -571 642 0
-575 -577 -644 0
575 577 -644 0
-575 577 644 0
575 -577 644 0
-579 -581 -646 0
579 581 -646 0
-579 581 646 0
579 -581 646 0
-583 -585 -648 0
583 585 -648 0
-583 585 648 0
583 -585 648 0
-587 -589 -650 0
587 589 -650 0
-587 589 650 0
587 -589 650 0
-593 -595 -653 0
593 595 -653 0
-593 595 653 0
593 -595 653 0
-597 -599 -654 0
597 599 -654 0
-597 599 654 0
597 -599 654 0
-601 -603 -656 0
601 603 -656 0
-601 603 656 0
601 -603 656 0
-605 -607 -658 0
605 607 -658 0
-605 607 658 0
605 -607 658 0
-609 -611 -660 0
609 611 -660 0
-609 611 660 0
609 -611 660 0
-613 -615 -662 0
613 615 -662 0
-613 615 662 0
613 -615 662 0
-617 -619 -664 0
617 619 -664 0
-617 619 664 0
617 -619 664 0
-621 -623 -666 0
621 623 -666 0
-621 623 666 0
621 -623 666 0
-625 -627 -668 0
625 627 -668 0
-625 627 668 0
625 -627 668 0
-629 -631 -670 0
629 631 -670 0
-629 631 670 0
629 -631 670 0
-633 -635 -672 0
633 635 -672 0
-633 635 672 0
633 -635 672 0
-636 -637 -675 0
636 637 -675 0
-636 637 675 0
636 -637 675 0
-638 -640 -677 0
638 640 -677 0
-638 640 677 0
638 -640 677 0
-642 -643 -678 0
642 643 -678 0
-642 643 678 0
642 -643 678 0
-644 -646 -680 0
644 646 -680 0
-644 646 680 0
644 -646 680 0
-648 -650 -682 0
648 650 -682 0
-648 650 682 0
648 -650 682 0
-652 -653 -684 0
652 653 -684 0
-652 653 684 0
652 -653 684 0
-654 -656 -686 0
654 656 -686 0
-654 656 686 0
654 -656 686 0
-658 -660 -688 0
658 660 -688 0
-658 660 688 0
658 -660 688 0
-662 -664 -690 0
662 664 -690 0
-662 664 690 0
662 -664 690 0
-666 -668 -692 0
666 668 -692 0
-666 668 692 0
666 -668 692 0
-670 -672 -694 0
670 672 -694 0
-670 672 694 0
670 -672 694 0
-674 -675 -696 0
674 675 -696 0
-674 675 696 0
674 -675 696 0
-676 -677 -698 0
676 677 -698 0
-676 677 698 0
676 -677 698 0
-678 -680 -700 0
678 680 -700 0
-678 680 700 0
678 -680 700 0
-682 -684 -702 0
682 684 -702 0
-682 684 702 0
682 -684 702 0
-686 -688 -704 0
686 688 -704 0
-686 688 704 0
686 -688 704 0
-690 -692 -706 0
690 692 -706 0
-690 692 706 0
690 -692 706 0
-694 -696 -708 0
694 696 -708 0
-694 696 708 0
694 -696 708 0
-698 -700 -710 0
698 700 -710 0
-698 700 710 0
698 -700 710 0
-702 -704 -712 0
702 704 -712 0
-702 704 712 0
702 -704 712 0
-706 -708 -714 0
706 708 -714 0
-706 708 714 0
706 -708 714 0
-710 -712 714 0
710 712 714 0
-710 712 -714 0
710 -712 -714 0
-639 -641 -719 0
639 641 -719 0
-639 641 719 0
639 -641 719 0
-645 -647 -721 0
645 647 -721 0
-645 647 721 0
645 -647 721 0
-649 -651 -723 0
649 651 -723 0
-649 651 723 0
649 -651 723 0
-655 -657 -726 0
655 657 -726 0
-655 657 726 0
655 -657 726 0
-659 -661 -727 0
659 661 -727 0
-659 661 727 0
659 -661 727 0
-663 -665 -729 0
663 665 -729 0
-663 665 729 0
663 -665 729 0
-667 -669 -731 0
667 669 -731 0
-667 669 731 0
667 -669 731 0
-671 -673 -733 0
671 673 -733 0
-671 673 733 0
671 -673 733 0
-679 -681 -737 0
679 681 -737 0
-679 681 737 0
679 -681 737 0
-683 -685 -739 0
683 685 -739 0
-683 685 739 0
683 -685 739 0
-687 -689 -741 0
687 689 -741 0
-687 689 741 0
687 -689 741 0
-691 -693 -743 0
691 693 -743 0
-691 693 743 0
691 -693 743 0
-695 -697 -745 0
695 697 -745 0
-695 697 745 0
695 -697 745 0
-699 -701 -747 0
699 701 -747 0
-699 701 747 0
699 -701 747 0
-703 -705 -749 0
703 705 -749 0
-703 705 749 0
703 -705 749 0
-707 -709 -751 0
707 709 -751 0
-707 709 751 0
707 -709 751 0
-711 -713 -753 0
711 713 -753 0
-711 713 753 0
711 -713 753 0
-715 -716 -755 0
715 716 -755 0
-715 716 755 0
715 -716 755 0
-718 -719 -757 0
718 719 -757 0
-718 719 757 0
718 -719 757 0
-720 -721 -758 0
720 721 -758 0
-720 721 758 0
720 -721 758 0
-723 -725 -760 0
723 725 -760 0
-723 725 760 0
723 -725 760 0
-726 -727 -762 0
726 727 -762 0
-726 727 762 0
726 -727 762 0
-729 -731 -764 0
729 731 -764 0
-729 731 764 0
729 -731 764 0
-733 -735 -766 0
733 735 -766 0
-733 735 766 0
733 -735 766 0
-736 -737 -768 0
736 737 -768 0
-736 737 768 0
736 -737 768 0
-739 -741 -770 0
739 741 -770 0
-739 741 770 0
739 -741 770 0
-743 -745 -772 0
743 745 -772 0
-743 745 772 0
743 -745 772 0
-747 -749 -774 0
747 749 -774 0
-747 749 774 0
747 -749 774 0
-751 -753 -776 0
751 753 -776 0
-751 753 776 0
751 -753 776 0
-717 -755 -778 0
717 755 -778 0
717 -755 778 0
-717 755 778 0
-757 -758 -780 0
757 758 -780 0
-757 758 780 0
757 -758 780 0
-760 -762 -782 0
760 762 -782 0
-760 762 782 0
760 -762 782 0
-764 -766 -784 0
764 766 -784 0
-764 766 784 0
764 -766 784 0
-768 -770 -786 0
768 770 -786 0
-768 770 786 0
768 -770 786 0
-772 -774 -788 0
772 774 -788 0
-772 774 788 0
772 -774 788 0
-776 -778 -790 0
776 778 -790 0
-776 778 790 0
776 -778 790 0
-780 -782 -792 0
780 782 -792 0
-780 782 792 0
780 -782 792 0
-784 -786 -794 0
784 786 -794 0
-784 786 794 0
784 -786 794 0
-788 -790 -796 0
788 790 -796 0
-788 790 796 0
788 -790 796 0
-792 -794 -796 0
792 794 -796 0
-792 794 796 0
792 -794 796 0
-722 -724 -799 0
722 724 -799 0
-722 724 799 0
722 -724 799 0
-728 -730 -801 0
728 730 -801 0
-728 730 801 0
728 -730 801 0
-732 -734 -803 0
732 734 -803 0
-732 734 803 0
732 -734 803 0
-738 -740 -838 0
738 740 -838 0
-738 740 838 0
738 -740 838 0
-742 -744 -805 0
742 744 -805 0
-742 744 805 0
742 -744 805 0
-746 -748 -807 0
746 748 -807 0
-746 748 807 0
746 -748 807 0
-750 -752 -809 0
750 752 -809 0
-750 752 809 0
750 -752 809 0
-754 -756 -811 0
754 756 -811 0
-754 756 811 0
754 -756 811 0
-759 -761 -814 0
759 761 -814 0
-759 761 814 0
759 -761 814 0
-763 -765 -815 0
763 765 -815 0
-763 765 815 0
763 -765 815 0
-767 -769 -817 0
767 769 -817 0
-767 769 817 0
767 -769 817 0
-771 -773 -819 0
771 773 -819 0
-771 773 819 0
771 -773 819 0
-775 -777 -821 0
775 777 -821 0
-775 777 821 0
775 -777 821 0
-779 -781 -823 0
779 781 -823 0
-779 781 823 0
779 -781 823 0
-783 -785 -825 0
783 785 -825 0
-783 785 825 0
783 -785 825 0
-787 -789 -827 0
787 789 -827 0
-787 789 827 0
787 -789 827 0
-791 -793 -829 0
791 793 -829 0
-791 793 829 0
791 -793 829 0
-795 -797 -831 0
795 797 -831 0
-795 797 831 0
795 -797 831 0
-796 -798 -833 0
796 798 -833 0
796 -798 833 0
-796 798 833 0
-799 -800 -836 0
799 800 -836 0
-799 800 836 0
799 -800 836 0
-801 -803 -837 0
801 803 -837 0
-801 803 837 0
801 -803 837 0
-805 -807 -839 0
805 807 -839 0
-805 807 839 0
805 -807 839 0
-809 -811 -841 0
809 811 -841 0
-809 811 841 0
809 -811 841 0
-813 -814 -843 0
813 814 -843 0
-813 814 843 0
813 -814 843 0
-815 -817 -845 0
815 817 -845 0
-815 817 845 0
815 -817 845 0
-819 -821 -847 0
819 821 -847 0
-819 821 847 0
819 -821 847 0
-823 -825 -849 0
823 825 -849 0
-823 825 849 0
823 -825 849 0
-827 -829 -851 0
827 829 -851 0
-827 829 851 0
827 -829 851 0
-831 -833 -853 0
831 833 -853 0
-831 833 853 0
831 -833 853 0
-835 -836 -855 0
835 836 -855 0
-835 836 855 0
835 -836 855 0
-837 -838 -857 0
837 838 -857 0
-837 838 857 0
837 -838 857 0
-839 -841 -859 0
839 841 -859 0
-839 841 859 0
839 -841 859 0
-843 -845 -861 0
843 845 -861 0
-843 845 861 0
843 -845 861 0
-847 -849 -863 0
847 849 -863 0
-847 849 863 0
847 -849 863 0
-851 -853 -865 0
851 853 -865 0
-851 853 865 0
851 -853 865 0
-855 -857 -867 0
855 857 -867 0
-855 857 867 0
855 -857 867 0
-859 -861 -869 0
859 861 -869 0
-859 861 869 0
859 -861 869 0
-863 -865 -871 0
863 865 -871 0
-863 865 871 0
863 -865 871 0
-867 -869 -871 0
867 869 -871 0
-867 869 871 0
867 -869 871 0
-802 -804 -875 0
802 804 -875 0
-802 804 875 0
802 -804 875 0
-806 -808 -877 0
806 808 -877 0
-806 808 877 0
806 -808 877 0
-810 -812 -879 0
810 812 -879 0
-810 812 879 0
810 -812 879 0
-816 -818 -882 0
816 818 -882 0
-816 818 882 0
816 -818 882 0
-820 -822 -883 0
820 822 -883 0
-820 822 883 0
820 -822 883 0
-824 -826 -885 0
824 826 -885 0
-824 826 885 0
824 -826 885 0
-828 -830 -887 0
828 830 -887 0
-828 830 887 0
828 -830 887 0
-832 -834 -889 0
832 834 -889 0
-832 834 889 0
832 -834 889 0
-840 -842 -893 0
840 842 -893 0
-840 842 893 0
840 -842 893 0
-844 -846 -895 0
844 846 -895 0
-844 846 895 0
844 -846 895 0
-848 -850 -897 0
848 850 -897 0
-848 850 897 0
848 -850 897 0
-852 -854 -899 0
852 854 -899 0
-852 854 899 0
852 -854 899 0
-856 -858 -901 0
856 858 -901 0
-856 858 901 0
856 -858 901 0
-860 -862 -903 0
860 862 -903 0
-860 862 903 0
860 -862 903 0
-864 -866 -905 0
864 866 -905 0
-864 866 905 0
864 -866 905 0
-868 -870 -907 0
868 870 -907 0
-868 870 907 0
868 -870 907 0
-872 -873 -909 0
872 873 -909 0
-872 873 909 0
872 -873 909 0
-874 -875 -910 0
874 875 -910 0
-874 875 910 0
874 -875 910 0
-876 -877 -912 0
876 877 -912 0
-876 877 912 0
876 -877 912 0
-879 -881 -914 0
879 881 -914 0
-879 881 914 0
879 -881 914 0
-882 -883 -916 0
882 883 -916 0
-882 883 916 0
882 -883 916 0
-885 -887 -918 0
885 887 -918 0
-885 887 918 0
885 -887 918 0
-889 -891 -920 0
889 891 -920 0
-889 891 920 0
889 -891 920 0
-892 -893 -922 0
892 893 -922 0
-892 893 922 0
892 -893 922 0
-895 -897 -924 0
895 897 -924 0
-895 897 924 0
895 -897 924 0
-899 -901 -926 0
899 901 -926 0
-899 901 926 0
899 -901 926 0
-903 -905 -928 0
903 905 -928 0
-903 905 928 0
903 -905 928 0
-907 -909 -930 0
907 909 -930 0
-907 909 930 0
907 -909 930 0
-871 -910 -932 0
871 910 -932 0
-871 910 932 0
871 -910 932 0
-912 -914 -934 0
912 914 -934 0
-912 914 934 0
912 -914 934 0
-916 -918 -936 0
916 918 -936 0
-916 918 936 0
916 -918 936 0
-920 -922 -938 0
920 922 -938 0
-920 922 938 0
920 -922 938 0
-924 -926 -940 0
924 926 -940 0
-924 926 940 0
924 -926 940 0
-928 -930 -942 0
928 930 -942 0
-928 930 942 0
928 -930 942 0
-932 -934 -944 0
932 934 -944 0
-932 934 944 0
932 -934 944 0
-936 -938 -946 0
936 938 -946 0
-936 938 946 0
936 -938 946 0
-940 -942 -948 0
940 942 -948 0
-940 942 948 0
940 -942 948 0
-944 -946 -948 0
944 946 -948 0
-944 946 948 0
944 -946 948 0
-878 -880 -952 0
878 880 -952 0
-878 880 952 0
878 -880 952 0
-884 -886 -954 0
884 886 -954 0
-884 886 954 0
884 -886 954 0
-888 -890 -956 0
888 890 -956 0
-888 890 956 0
888 -890 956 0
-894 -896 -989 0
894 896 -989 0
-894 896 989 0
894 -896 989 0
-898 -900 -958 0
898 900 -958 0
-898 900 958 0
898 -900 958 0
-902 -904 -960 0
902 904 -960 0
-902 904 960 0
902 -904 960 0
-906 -908 -962 0
906 908 -962 0
-906 908 962 0
906 -908 962 0
-911 -913 -964 0
911 913 -964 0
-911 913 964 0
911 -913 964 0
-915 -917 -966 0
915 917 -966 0
-915 917 966 0
915 -917 966 0
-919 -921 -968 0
919 921 -968 0
-919 921 968 0
919 -921 968 0
-923 -925 -970 0
923 925 -970 0
-923 925 970 0
923 -925 970 0
-927 -929 -972 0
927 929 -972 0
-927 929 972 0
927 -929 972 0
-931 -933 -974 0
931 933 -974 0
-931 933 974 0
931 -933 974 0
-935 -937 -976 0
935 937 -976 0
-935 937 976 0
935 -937 976 0
-939 -941 -978 0
939 941 -978 0
-939 941 978 0
939 -941 978 0
-943 -945 -980 0
943 945 -980 0
-943 945 980 0
943 -945 980 0
-947 -949 -982 0
947 949 -982 0
-947 949 982 0
947 -949 982 0
-948 -950 -984 0
948 950 -984 0
948 -950 984 0
-948 950 984 0
-952 -953 -985 0
952 953 -985 0
-952 953 985 0
952 -953 985 0
-954 -956 -987 0
954 956 -987 0
-954 956 987 0
954 -956 987 0
-958 -960 -990 0
958 960 -990 0
-958 960 990 0
958 -960 990 0
-962 -963 -991 0
962 963 -991 0
-962 963 991 0
962 -963 991 0
-964 -966 -993 0
964 966 -993 0
-964 966 993 0
964 -966 993 0
-968 -970 -995 0
968 970 -995 0
-968 970 995 0
968 -970 995 0
-972 -974 -997 0
972 974 -997 0
-972 974 997 0
972 -974 997 0
-976 -978 -999 0
976 978 -999 0
-976 978 999 0
976 -978 999 0
-980 -982 -1001 0
980 982 -1001 0
-980 982 1001 0
980 -982 1001 0
-951 -984 -1003 0
951 984 -1003 0
951 -984 1003 0
-951 984 1003 0
-985 -987 -1005 0
985 987 -1005 0
-985 987 1005 0
985 -987 1005 0
-989 -990 -1007 0
989 990 -1007 0
-989 990 1007 0
989 -990 1007 0
-991 -993 -1009 0
991 993 -1009 0
-991 993 1009 0
991 -993 1009 0
-995 -997 -1011 0
995 997 -1011 0
-995 997 1011 0
995 -997 1011 0
-999 -1001 -1013 0
999 1001 -1013 0
-999 1001 1013 0
999 -1001 1013 0
-1003 -1005 -1015 0
1003 1005 -1015 0
-1003 1005 1015 0
1003 -1005 1015 0
-1007 -1009 -1017 0
1007 1009 -1017 0
-1007 1009 1017 0
1007 -1009 1017 0
-1011 -1013 -1019 0
1011 1013 -1019 0
-1011 1013 1019 0
1011 -1013 1019 0
-1015 -1017 -1019 0
1015 1017 -1019 0
-1015 1017 1019 0
1015 -1017 1019 0
-955 -957 -1023 0
955 957 -1023 0
-955 957 1023 0
955 -957 1023 0
-959 -961 -1025 0
959 961 -1025 0
-959 961 1025 0
959 -961 1025 0
-965 -967 -1027 0
965 967 -1027 0
-965 967 1027 0
965 -967 1027 0
-969 -971 -1029 0
969 971 -1029 0
-969 971 1029 0
969 -971 1029 0
-973 -975 -1031 0
973 975 -1031 0
-973 975 1031 0
973 -975 1031 0
-977 -979 -1033 0
977 979 -1033 0
-977 979 1033 0
977 -979 1033 0
-981 -983 -1035 0
981 983 -1035 0
-981 983 1035 0
981 -983 1035 0
-986 -988 -1037 0
986 988 -1037 0
-986 988 1037 0
986 -988 1037 0
-992 -994 -1039 0
992 994 -1039 0
-992 994 1039 0
992 -994 1039 0
-996 -998 -1041 0
996 998 -1041 0
-996 998 1041 0
996 -998 1041 0
-1000 -1002 -1043 0
1000 1002 -1043 0
-1000 1002 1043 0
1000 -1002 1043 0
-1004 -1006 -1045 0
1004 1006 -1045 0
-1004 1006 1045 0
1004 -1006 1045 0
-1008 -1010 -1047 0
1008 1010 -1047 0
-1008 1010 1047 0
1008 -1010 1047 0
-1012 -1014 -1049 0
1012 1014 -1049 0
-1012 1014 1049 0
1012 -1014 1049 0
-1016 -1018 -1051 0
1016 1018 -1051 0
-1016 1018 1051 0
1016 -1018 1051 0
-1020 -1021 -1053 0
1020 1021 -1053 0
-1020 1021 1053 0
1020 -1021 1053 0
-1022 -1023 -1055 0
1022 1023 -1055 0
-1022 1023 1055 0
1022 -1023 1055 0
-1024 -1025 -1056 0
1024 1025 -1056 0
-1024 1025 1056 0
1024 -1025 1056 0
-1026 -1027 -1058 0
1026 1027 -1058 0
-1026 1027 1058 0
1026 -1027 1058 0
-1029 -1031 -1060 0
1029 1031 -1060 0
-1029 1031 1060 0
1029 -1031 1060 0
-1033 -1035 -1062 0
1033 1035 -1062 0
-1033 1035 1062 0
1033 -1035 1062 0
-1036 -1037 -1064 0
1036 1037 -1064 0
-1036 1037 1064 0
1036 -1037 1064 0
-1038 -1039 -1066 0
1038 1039 -1066 0
-1038 1039 1066 0
1038 -1039 1066 0
-1041 -1043 -1068 0
1041 1043 -1068 0
-1041 1043 1068 0
1041 -1043 1068 0
-1045 -1047 -1070 0
1045 1047 -1070 0
-1045 1047 1070 0
1045 -1047 1070 0
-1049 -1051 -1072 0
1049 1051 -1072 0
-1049 1051 1072 0
1049 -1051 1072 0
-1019 -1053 -1074 0
1019 1053 -1074 0
1019 -1053 1074 0
-1019 1053 1074 0
-1055 -1056 -1076 0
1055 1056 -1076 0
-1055 1056 1076 0
1055 -1056 1076 0
-1058 -1060 -1078 0
1058 1060 -1078 0
-1058 1060 1078 0
1058 -1060 1078 0
-1062 -1064 -1080 0
1062 1064 -1080 0
-1062 1064 1080 0
1062 -1064 1080 0
-1066 -1068 -1082 0
1066 1068 -1082 0
-1066 1068 1082 0
1066 -1068 1082 0
-1070 -1072 -1084 0
1070 1072 -1084 0
-1070 1072 1084 0
1070 -1072 1084 0
-1074 -1076 -1086 0
1074 1076 -1086 0
-1074 1076 1086 0
1074 -1076 1086 0
-1078 -1080 -1088 0
1078 1080 -1088 0
-1078 1080 1088 0
1078 -1080 1088 0
-1082 -1084 -1090 0
1082 1084 -1090 0
-1082 1084 1090 0
1082 -1084 1090 0
-1086 -1088 -1090 0
1086 1088 -1090 0
-1086 1088 1090 0
1086 -1088 1090 0
-1028 -1030 -1094 0
1028 1030 -1094 0
-1028 1030 1094 0
1028 -1030 1094 0
-1032 -1034 -1095 0
1032 1034 -1095 0
-1032 1034 1095 0
1032 -1034 1095 0
-1040 -1042 -1098 0
1040 1042 -1098 0
-1040 1042 1098 0
1040 -1042 1098 0
-1044 -1046 -1099 0
1044 1046 -1099 0
-1044 1046 1099 0
1044 -1046 1099 0
-1048 -1050 -1101 0
1048 1050 -1101 0
-1048 1050 1101 0
1048 -1050 1101 0
-1052 -1054 -1103 0
1052 1054 -1103 0
-1052 1054 1103 0
1052 -1054 1103 0
-1057 -1059 -1105 0
1057 1059 -1105 0
-1057 1059 1105 0
1057 -1059 1105 0
-1061 -1063 -1107 0
1061 1063 -1107 0
-1061 1063 1107 0
1061 -1063 1107 0
-1065 -1067 -1109 0
1065 1067 -1109 0
-1065 1067 1109 0
1065 -1067 1109 0
-1069 -1071 -1111 0
1069 1071 -1111 0
-1069 1071 1111 0
1069 -1071 1111 0
-1073 -1075 -1113 0
1073 1075 -1113 0
-1073 1075 1113 0
1073 -1075 1113 0
-1077 -1079 -1115 0
1077 1079 -1115 0
-1077 1079 1115 0
1077 -1079 1115 0
-1081 -1083 -1117 0
1081 1083 -1117 0
-1081 1083 1117 0
1081 -1083 1117 0
-1085 -1087 -1119 0
1085 1087 -1119 0
-1085 1087 1119 0
1085 -1087 1119 0
-1089 -1091 -1121 0
1089 1091 -1121 0
-1089 1091 1121 0
1089 -1091 1121 0
-1090 -1092 -1123 0
1090 1092 -1123 0
1090 -1092 1123 0
-1090 1092 1123 0
-1093 -1094 -1126 0
1093 1094 -1126 0
-1093 1094 1126 0
1093 -1094 1126 0
-1095 -1096 -1127 0
1095 1096 -1127 0
-1095 1096 1127 0
1095 -1096 1127 0
-1097 -1098 -1129 0
1097 1098 -1129 0
-1097 1098 1129 0
1097 -1098 1129 0
-1099 -1101 -1131 0
1099 1101 -1131 0
-1099 1101 1131 0
1099 -1101 1131 0
-1103 -1104 -1133 0
1103 1104 -1133 0
-1103 1104 1133 0
1103 -1104 1133 0
-1105 -1107 -1135 0
1105 1107 -1135 0
-1105 1107 1135 0
1105 -1107 1135 0
-1109 -1111 -1137 0
1109 1111 -1137 0
-1109 1111 1137 0
1109 -1111 1137 0
-1113 -1115 -1139 0
1113 1115 -1139 0
-1113 1115 1139 0
1113 -1115 1139 0
-1117 -1119 -1141 0
1117 1119 -1141 0
-1117 1119 1141 0
1117 -1119 1141 0
-1121 -1123 -1143 0
1121 1123 -1143 0
-1121 1123 1143 0
1121 -1123 1143 0
-1125 -1126 -1145 0
1125 1126 -1145 0
-1125 1126 1145 0
1125 -1126 1145 0
-1127 -1129 -1147 0
1127 1129 -1147 0
-1127 1129 1147 0
1127 -1129 1147 0
-1131 -1133 -1149 0
1131 1133 -1149 0
-1131 1133 1149 0
1131 -1133 1149 0
-1135 -1137 -1151 0
1135 1137 -1151 0
-1135 1137 1151 0
1135 -1137 1151 0
-1139 -1141 -1153 0
1139 1141 -1153 0
-1139 1141 1153 0
1139 -1141 1153 0
-1143 -1145 -1155 0
1143 1145 -1155 0
-1143 1145 1155 0
1143 -1145 1155 0
-1147 -1149 -1157 0
1147 1149 -1157 0
-1147 1149 1157 0
1147 -1149 1157 0
-1151 -1153 -1159 0
1151 1153 -1159 0
-1151 1153 1159 0
1151 -1153 1159 0
-1155 -1157 -1159 0
1155 1157 -1159 0
-1155 1157 1159 0
1155 -1157 1159 0
-1100 -1102 -1165 0
1100 1102 -1165 0
-1100 1102 1165 0
1100 -1102 1165 0
-1106 -1108 -1167 0
1106 1108 -1167 0
-1106 1108 1167 0
1106 -1108 1167 0
-1110 -1112 -1169 0
1110 1112 -1169 0
-1110 1112 1169 0
1110 -1112 1169 0
-1114 -1116 -1171 0
1114 1116 -1171 0
-1114 1116 1171 0
1114 -1116 1171 0
-1118 -1120 -1173 0
1118 1120 -1173 0
-1118 1120 1173 0
1118 -1120 1173 0
-1122 -1124 -1175 0
1122 1124 -1175 0
-1122 1124 1175 0
1122 -1124 1175 0
-1128 -1130 -1177 0
1128 1130 -1177 0
-1128 1130 1177 0
1128 -1130 1177 0
-1132 -1134 -1179 0
1132 1134 -1179 0
-1132 1134 1179 0
1132 -1134 1179 0
-1136 -1138 -1181 0
1136 1138 -1181 0
-1136 1138 1181 0
1136 -1138 1181 0
-1140 -1142 -1183 0
1140 1142 -1183 0
-1140 1142 1183 0
1140 -1142 1183 0
-1144 -1146 -1185 0
1144 1146 -1185 0
-1144 1146 1185 0
1144 -1146 1185 0
-1148 -1150 -1187 0
1148 1150 -1187 0
-1148 1150 1187 0
1148 -1150 1187 0
-1152 -1154 -1189 0
1152 1154 -1189 0
-1152 1154 1189 0
1152 -1154 1189 0
-1156 -1158 -1191 0
1156 1158 -1191 0
-1156 1158 1191 0
1156 -1158 1191 0
-1160 -1161 -1193 0
1160 1161 -1193 0
-1160 1161 1193 0
1160 -1161 1193 0
-1162 -1163 -1194 0
1162 1163 -1194 0
-1162 1163 1194 0
1162 -1163 1194 0
-1164 -1165 -1196 0
1164 1165 -1196 0
-1164 1165 1196 0
1164 -1165 1196 0
-1166 -1167 -1198 0
1166 1167 -1198 0
-1166 1167 1198 0
1166 -1167 1198 0
-1169 -1171 -1200 0
1169 1171 -1200 0
-1169 1171 1200 0
1169 -1171 1200 0
-1173 -1175 -1202 0
1173 1175 -1202 0
-1173 1175 1202 0
1173 -1175 1202 0
-1176 -1177 -1204 0
1176 1177 -1204 0
-1176 1177 1204 0
1176 -1177 1204 0
-1179 -1181 -1206 0
1179 1181 -1206 0
-1179 1181 1206 0
1179 -1181 1206 0
-1183 -1185 -1208 0
1183 1185 -1208 0
-1183 1185 1208 0
1183 -1185 1208 0
-1187 -1189 -1210 0
1187 1189 -1210 0
-1187 1189 1210 0
1187 -1189 1210 0
-1191 -1193 -1212 0
1191 1193 -1212 0
-1191 1193 1212 0
1191 -1193 1212 0
-1159 -1194 -1214 0
1159 1194 -1214 0
-1159 1194 1214 0
1159 -1194 1214 0
-1196 -1198 -1216 0
1196 1198 -1216 0
-1196 1198 1216 0
1196 -1198 1216 0
-1200 -1202 -1218 0
1200 1202 -1218 0
-1200 1202 1218 0
1200 -1202 1218 0
-1204 -1206 -1220 0
1204 1206 -1220 0
-1204 1206 1220 0
1204 -1206 1220 0
-1208 -1210 -1222 0
1208 1210 -1222 0
-1208 1210 1222 0
1208 -1210 1222 0
-1212 -1214 -1224 0
1212 1214 -1224 0
-1212 1214 1224 0
1212 -1214 1224 0
-1216 -1218 -1226 0
1216 1218 -1226 0
-1216 1218 1226 0
1216 -1218 1226 0
-1220 -1222 -1228 0
1220 1222 -1228 0
-1220 1222 1228 0
1220 -1222 1228 0
-1224 -1226 -1228 0
1224 1226 -1228 0
-1224 1226 1228 0
1224 -1226 1228 0
-1168 -1170 -1232 0
1168 1170 -1232 0
-1168 1170 1232 0
1168 -1170 1232 0
-1172 -1174 -1233 0
1172 1174 -1233 0
-1172 1174 1233 0
1172 -1174 1233 0
-1178 -1180 -1235 0
1178 1180 -1235 0
-1178 1180 1235 0
1178 -1180 1235 0
-1182 -1184 -1237 0
1182 1184 -1237 0
-1182 1184 1237 0
1182 -1184 1237 0
-1186 -1188 -1239 0
1186 1188 -1239 0
-1186 1188 1239 0
1186 -1188 1239 0
-1190 -1192 -1241 0
1190 1192 -1241 0
-1190 1192 1241 0
1190 -1192 1241 0
-1195 -1197 -1244 0
1195 1197 -1244 0
-1195 1197 1244 0
1195 -1197 1244 0
-1199 -1201 -1245 0
1199 1201 -1245 0
-1199 1201 1245 0
1199 -1201 1245 0
-1203 -1205 -1247 0
1203 1205 -1247 0
-1203 1205 1247 0
1203 -1205 1247 0
-1207 -1209 -1249 0
1207 1209 -1249 0
-1207 1209 1249 0
1207 -1209 1249 0
-1211 -1213 -1251 0
1211 1213 -1251 0
-1211 1213 1251 0
1211 -1213 1251 0
-1215 -1217 -1253 0
1215 1217 -1253 0
-1215 1217 1253 0
1215 -1217 1253 0
-1219 -1221 -1255 0
1219 1221 -1255 0
-1219 1221 1255 0
1219 -1221 1255 0
-1223 -1225 -1257 0
1223 1225 -1257 0
-1223 1225 1257 0
1223 -1225 1257 0
-1227 -1229 -1259 0
1227 1229 -1259 0
-1227 1229 1259 0
1227 -1229 1259 0
-1228 -1230 -1278 0
1228 1230 -1278 0
1228 -1230 1278 0
-1228 1230 1278 0
-1231 -1232 -1261 0
1231 1232 -1261 0
-1231 1232 1261 0
1231 -1232 1261 0
-1233 -1234 -1263 0
1233 1234 -1263 0
-1233 1234 1263 0
1233 -1234 1263 0
-1235 -1237 -1265 0
1235 1237 -1265 0
-1235 1237 1265 0
1235 -1237 1265 0
-1239 -1241 -1267 0
1239 1241 -1267 0
-1239 1241 1267 0
1239 -1241 1267 0
-1243 -1244 -1269 0
1243 1244 -1269 0
-1243 1244 1269 0
1243 -1244 1269 0
-1245 -1247 -1271 0
1245 1247 -1271 0
-1245 1247 1271 0
1245 -1247 1271 0
-1249 -1251 -1273 0
1249 1251 -1273 0
-1249 1251 1273 0
1249 -1251 1273 0
-1253 -1255 -1275 0
1253 1255 -1275 0
-1253 1255 1275 0
1253 -1255 1275 0
-1257 -1259 -1277 0
1257 1259 -1277 0
-1257 1259 1277 0
1257 -1259 1277 0
-1261 -1263 -1279 0
1261 1263 -1279 0
-1261 1263 1279 0
1261 -1263 1279 0
-1265 -1267 -1281 0
1265 1267 -1281 0
-1265 1267 1281 0
1265 -1267 1281 0
-1269 -1271 -1283 0
1269 1271 -1283 0
-1269 1271 1283 0
1269 -1271 1283 0
-1273 -1275 -1285 0
1273 1275 -1285 0
-1273 1275 1285 0
1273 -1275 1285 0
-1277 -1278 -1287 0
1277 1278 -1287 0
-1277 1278 1287 0
1277 -1278 1287 0
-1279 -1281 -1289 0
1279 1281 -1289 0
-1279 1281 1289 0
1279 -1281 1289 0
-1283 -1285 -1291 0
1283 1285 -1291 0
-1283 1285 1291 0
1283 -1285 1291 0
-1287 -1289 -1291 0
1287 1289 -1291 0
-1287 1289 1291 0
1287 -1289 1291 0
-1236 -1238 -1296 0
1236 1238 -1296 0
-1236 1238 1296 0
1236 -1238 1296 0
-1240 -1242 -1297 0
1240 1242 -1297 0
-1240 1242 1297 0
1240 -1242 1297 0
-1246 -1248 -1299 0
1246 1248 -1299 0
-1246 1248 1299 0
1246 -1248 1299 0
-1250 -1252 -1301 0
1250 1252 -1301 0
-1250 1252 1301 0
1250 -1252 1301 0
-1254 -1256 -1303 0
1254 1256 -1303 0
-1254 1256 1303 0
1254 -1256 1303 0
-1258 -1260 -1305 0
1258 1260 -1305 0
-1258 1260 1305 0
1258 -1260 1305 0
-1262 -1264 -1308 0
1262 1264 -1308 0
-1262 1264 1308 0
1262 -1264 1308 0
-1266 -1268 -1309 0
1266 1268 -1309 0
-1266 1268 1309 0
1266 -1268 1309 0
-1270 -1272 -1311 0
1270 1272 -1311 0
-1270 1272 1311 0
1270 -1272 1311 0
-1274 -1276 -1313 0
1274 1276 -1313 0
-1274 1276 1313 0
1274 -1276 1313 0
-1280 -1282 -1315 0
1280 1282 -1315 0
-1280 1282 1315 0
1280 -1282 1315 0
-1284 -1286 -1317 0
1284 1286 -1317 0
-1284 1286 1317 0
1284 -1286 1317 0
-1288 -1290 -1319 0
1288 1290 -1319 0
-1288 1290 1319 0
1288 -1290 1319 0
-1292 -1293 -1321 0
1292 1293 -1321 0
-1292 1293 1321 0
1292 -1293 1321 0
-1294 -1295 -1323 0
1294 1295 -1323 0
-1294 1295 1323 0
1294 -1295 1323 0
-1296 -1297 -1324 0
1296 1297 -1324 0
-1296 1297 1324 0
1296 -1297 1324 0
-1298 -1299 -1326 0
1298 1299 -1326 0
-1298 1299 1326 0
1298 -1299 1326 0
-1301 -1303 -1328 0
1301 1303 -1328 0
-1301 1303 1328 0
1301 -1303 1328 0
-1305 -1307 -1330 0
1305 1307 -1330 0
-1305 1307 1330 0
1305 -1307 1330 0
-1308 -1309 -1332 0
1308 1309 -1332 0
-1308 1309 1332 0
1308 -1309 1332 0
-1311 -1313 -1334 0
1311 1313 -1334 0
-1311 1313 1334 0
1311 -1313 1334 0
-1314 -1315 -1336 0
1314 1315 -1336 0
-1314 1315 1336 0
1314 -1315 1336 0
-1317 -1319 -1338 0
1317 1319 -1338 0
-1317 1319 1338 0
1317 -1319 1338 0
-1291 -1321 -1340 0
1291 1321 -1340 0
1291 -1321 1340 0
-1291 1321 1340 0
-1323 -1324 -1342 0
1323 1324 -1342 0
-1323 1324 1342 0
1323 -1324 1342 0
-1326 -1328 -1344 0
1326 1328 -1344 0
-1326 1328 1344 0
1326 -1328 1344 0
-1330 -1332 -1346 0
1330 1332 -1346 0
-1330 1332 1346 0
1330 -1332 1346 0
-1334 -1336 -1348 0
1334 1336 -1348 0
-1334 1336 1348 0
1334 -1336 1348 0
-1338 -1340 -1350 0
1338 1340 -1350 0
-1338 1340 1350 0
1338 -1340 1350 0
-1342 -1344 -1352 0
1342 1344 -1352 0
-1342 1344 1352 0
1342 -1344 1352 0
-1346 -1348 -1354 0
1346 1348 -1354 0
-1346 1348 1354 0
1346 -1348 1354 0
-1350 -1352 -1354 0
1350 1352 -1354 0
-1350 1352 1354 0
1350 -1352 1354 0
-1300 -1302 -1359 0
1300 1302 -1359 0
-1300 1302 1359 0
1300 -1302 1359 0
-1304 -1306 -1360 0
1304 1306 -1360 0
-1304 1306 1360 0
1304 -1306 1360 0
-1310 -1312 -1362 0
1310 1312 -1362 0
-1310 1312 1362 0
1310 -1312 1362 0
-1316 -1318 -1364 0
1316 1318 -1364 0
-1316 1318 1364 0
1316 -1318 1364 0
-1320 -1322 -1366 0
1320 1322 -1366 0
-1320 1322 1366 0
1320 -1322 1366 0
-1325 -1327 -1369 0
1325 1327 -1369 0
-1325 1327 1369 0
1325 -1327 1369 0
-1329 -1331 -1370 0
1329 1331 -1370 0
-1329 1331 1370 0
1329 -1331 1370 0
-1333 -1335 -1372 0
1333 1335 -1372 0
-1333 1335 1372 0
1333 -1335 1372 0
-1337 -1339 -1374 0
1337 1339 -1374 0
-1337 1339 1374 0
1337 -1339 1374 0
-1341 -1343 -1376 0
1341 1343 -1376 0
-1341 1343 1376 0
1341 -1343 1376 0
-1345 -1347 -1378 0
1345 1347 -1378 0
-1345 1347 1378 0
1345 -1347 1378 0
-1349 -1351 -1380 0
1349 1351 -1380 0
-1349 1351 1380 0
1349 -1351 1380 0
-1353 -1355 -1382 0
1353 1355 -1382 0
-1353 1355 1382 0
1353 -1355 1382 0
-1354 -1356 -1384 0
1354 1356 -1384 0
1354 -1356 1384 0
-1354 1356 1384 0
-1358 -1359 -1386 0
1358 1359 -1386 0
-1358 1359 1386 0
1358 -1359 1386 0
-1360 -1361 -1387 0
1360 1361 -1387 0
-1360 1361 1387 0
1360 -1361 1387 0
-1362 -1363 -1389 0
1362 1363 -1389 0
-1362 1363 1389 0
1362 -1363 1389 0
-1364 -1366 -1391 0
1364 1366 -1391 0
-1364 1366 1391 0
1364 -1366 1391 0
-1368 -1369 -1393 0
1368 1369 -1393 0
-1368 1369 1393 0
1368 -1369 1393 0
-1370 -1372 -1395 0
1370 1372 -1395 0
-1370 1372 1395 0
1370 -1372 1395 0
-1374 -1376 -1397 0
1374 1376 -1397 0
-1374 1376 1397 0
1374 -1376 1397 0
-1378 -1380 -1399 0
1378 1380 -1399 0
-1378 1380 1399 0
1378 -1380 1399 0
-1382 -1384 -1401 0
1382 1384 -1401 0
-1382 1384 1401 0
1382 -1384 1401 0
-1357 -1386 -1403 0
1357 1386 -1403 0
-1357 1386 1403 0
1357 -1386 1403 0
-1387 -1389 -1405 0
1387 1389 -1405 0
-1387 1389 1405 0
1387 -1389 1405 0
-1391 -1393 -1407 0
1391 1393 -1407 0
-1391 1393 1407 0
1391 -1393 1407 0
-1395 -1397 -1409 0
1395 1397 -1409 0
-1395 1397 1409 0
1395 -1397 1409 0
-1399 -1401 -1411 0
1399 1401 -1411 0
-1399 1401 1411 0
1399 -1401 1411 0
-1403 -1405 -1413 0
1403 1405 -1413 0
-1403 1405 1413 0
1403 -1405 1413 0
-1407 -1409 -1415 0
1407 1409 -1415 0
-1407 1409 1415 0
1407 -1409 1415 0
-1411 -1413 -1415 0
1411 1413 -1415 0
-1411 1413 1415 0
1411 -1413 1415 0
-1365 -1367 -1421 0
1365 1367 -1421 0
-1365 1367 1421 0
1365 -1367 1421 0
-1371 -1373 -1423 0
1371 1373 -1423 0
-1371 1373 1423 0
1371 -1373 1423 0
-1375 -1377 -1425 0
1375 1377 -1425 0
-1375 1377 1425 0
1375 -1377 1425 0
-1379 -1381 -1427 0
1379 1381 -1427 0
-1379 1381 1427 0
1379 -1381 1427 0
-1383 -1385 -1429 0
1383 1385 -1429 0
-1383 1385 1429 0
1383 -1385 1429 0
-1388 -1390 -1432 0
1388 1390 -1432 0
-1388 1390 1432 0
1388 -1390 1432 0
-1392 -1394 -1433 0
1392 1394 -1433 0
-1392 1394 1433 0
1392 -1394 1433 0
-1396 -1398 -1435 0
1396 1398 -1435 0
-1396 1398 1435 0
1396 -1398 1435 0
-1400 -1402 -1437 0
1400 1402 -1437 0
-1400 1402 1437 0
1400 -1402 1437 0
-1404 -1406 -1439 0
1404 1406 -1439 0
-1404 1406 1439 0
1404 -1406 1439 0
-1408 -1410 -1441 0
1408 1410 -1441 0
-1408 1410 1441 0
1408 -1410 1441 0
-1412 -1414 -1443 0
1412 1414 -1443 0
-1412 1414 1443 0
1412 -1414 1443 0
-1416 -1417 -1445 0
1416 1417 -1445 0
-1416 1417 1445 0
1416 -1417 1445 0
-1418 -1419 -1446 0
1418 1419 -1446 0
-1418 1419 1446 0
1418 -1419 1446 0
-1420 -1421 -1448 0
1420 1421 -1448 0
-1420 1421 1448 0
1420 -1421 1448 0
-1422 -1423 -1450 0
1422 1423 -1450 0
-1422 1423 1450 0
1422 -1423 1450 0
-1425 -1427 -1452 0
1425 1427 -1452 0
-1425 1427 1452 0
1425 -1427 1452 0
-1429 -1431 -1454 0
1429 1431 -1454 0
-1429 1431 1454 0
1429 -1431 1454 0
-1432 -1433 -1456 0
1432 1433 -1456 0
-1432 1433 1456 0
1432 -1433 1456 0
-1435 -1437 -1458 0
1435 1437 -1458 0
-1435 1437 1458 0
1435 -1437 1458 0
-1439 -1441 -1460 0
1439 1441 -1460 0
-1439 1441 1460 0
1439 -1441 1460 0
-1443 -1445 -1462 0
1443 1445 -1462 0
-1443 1445 1462 0
1443 -1445 1462 0
-1415 -1446 -1464 0
1415 1446 -1464 0
-1415 1446 1464 0
1415 -1446 1464 0
-1448 -1450 -1466 0
1448 1450 -1466 0
-1448 1450 1466 0
1448 -1450 1466 0
-1452 -1454 -1468 0
1452 1454 -1468 0
-1452 1454 1468 0
1452 -1454 1468 0
-1456 -1458 -1470 0
1456 1458 -1470 0
-1456 1458 1470 0
1456 -1458 1470 0
-1460 -1462 -1472 0
1460 1462 -1472 0
-1460 1462 1472 0
1460 -1462 1472 0
-1464 -1466 -1474 0
1464 1466 -1474 0
-1464 1466 1474 0
1464 -1466 1474 0
-1468 -1470 -1476 0
1468 1470 -1476 0
-1468 1470 1476 0
1468 -1470 1476 0
-1472 -1474 -1476 0
1472 1474 -1476 0
-1472 1474 1476 0
1472 -1474 1476 0
-1424 -1426 -1480 0
1424 1426 -1480 0
-1424 1426 1480 0
1424 -1426 1480 0
-1428 -1430 -1481 0
1428 1430 -1481 0
-1428 1430 1481 0
1428 -1430 1481 0
-1434 -1436 -1483 0
1434 1436 -1483 0
-1434 1436 1483 0
1434 -1436 1483 0
-1438 -1440 -1485 0
1438 1440 -1485 0
-1438 1440 1485 0
1438 -1440 1485 0
-1442 -1444 -1487 0
1442 1444 -1487 0
-1442 1444 1487 0
1442 -1444 1487 0
-1447 -1449 -1489 0
1447 1449 -1489 0
-1447 1449 1489 0
1447 -1449 1489 0
-1451 -1453 -1491 0
1451 1453 -1491 0
-1451 1453 1491 0
1451 -1453 1491 0
-1455 -1457 -1493 0
1455 1457 -1493 0
-1455 1457 1493 0
1455 -1457 1493 0
-1459 -1461 -1495 0
1459 1461 -1495 0
-1459 1461 1495 0
1459 -1461 1495 0
-1463 -1465 -1497 0
1463 1465 -1497 0
-1463 1465 1497 0
1463 -1465 1497 0
-1467 -1469 -1499 0
1467 1469 -1499 0
-1467 1469 1499 0
1467 -1469 1499 0
-1471 -1473 -1501 0
1471 1473 -1501 0
-1471 1473 1501 0
1471 -1473 1501 0
-1475 -1477 -1503 0
1475 1477 -1503 0
-1475 1477 1503 0
1475 -1477 1503 0
-1476 -1478 -1521 0
1476 1478 -1521 0
1476 -1478 1521 0
-1476 1478 1521 0
-1479 -1480 -1505 0
1479 1480 -1505 0
-1479 1480 1505 0
1479 -1480 1505 0
-1481 -1482 -1507 0
1481 1482 -1507 0
-1481 1482 1507 0
1481 -1482 1507 0
-1483 -1485 -1509 0
1483 1485 -1509 0
-1483 1485 1509 0
1483 -1485 1509 0
-1487 -1488 -1511 0
1487 1488 -1511 0
-1487 1488 1511 0
1487 -1488 1511 0
-1489 -1491 -1513 0
1489 1491 -1513 0
-1489 1491 1513 0
1489 -1491 1513 0
-1493 -1495 -1515 0
1493 1495 -1515 0
-1493 1495 1515 0
1493 -1495 1515 0
-1497 -1499 -1517 0
1497 1499 -1517 0
-1497 1499 1517 0
1497 -1499 1517 0
-1501 -1503 -1519 0
1501 1503 -1519 0
-1501 1503 1519 0
1501 -1503 1519 0
-1505 -1507 -1522 0
1505 1507 -1522 0
-1505 1507 1522 0
1505 -1507 1522 0
-1509 -1511 -1523 0
1509 1511 -1523 0
-1509 1511 1523 0
1509 -1511 1523 0
-1513 -1515 -1525 0
1513 1515 -1525 0
-1513 1515 1525 0
1513 -1515 1525 0
-1517 -1519 -1527 0
1517 1519 -1527 0
-1517 1519 1527 0
1517 -1519 1527 0
-1521 -1522 -1529 0
1521 1522 -1529 0
-1521 1522 1529 0
1521 -1522 1529 0
-1523 -1525 -1531 0
1523 1525 -1531 0
-1523 1525 1531 0
1523 -1525 1531 0
-1527 -1529 -1531 0
1527 1529 -1531 0
-1527 1529 1531 0
1527 -1529 1531 0
-1484 -1486 -1536 0
1484 1486 -1536 0
-1484 1486 1536 0
1484 -1486 1536 0
-1490 -1492 -1538 0
1490 1492 -1538 0
-1490 1492 1538 0
1490 -1492 1538 0
-1494 -1496 -1539 0
1494 1496 -1539 0
-1494 1496 1539 0
1494 -1496 1539 0
-1498 -1500 -1541 0
1498 1500 -1541 0
-1498 1500 1541 0
1498 -1500 1541 0
-1502 -1504 -1543 0
1502 1504 -1543 0
-1502 1504 1543 0
1502 -1504 1543 0
-1506 -1508 -1545 0
1506 1508 -1545 0
-1506 1508 1545 0
1506 -1508 1545 0
-1510 -1512 -1547 0
1510 1512 -1547 0
-1510 1512 1547 0
1510 -1512 1547 0
-1514 -1516 -1549 0
1514 1516 -1549 0
-1514 1516 1549 0
1514 -1516 1549 0
-1518 -1520 -1551 0
1518 1520 -1551 0
-1518 1520 1551 0
1518 -1520 1551 0
-1524 -1526 -1554 0
1524 1526 -1554 0
-1524 1526 1554 0
1524 -1526 1554 0
-1528 -1530 -1555 0
1528 1530 -1555 0
-1528 1530 1555 0
1528 -1530 1555 0
-1532 -1533 -1557 0
1532 1533 -1557 0
-1532 1533 1557 0
1532 -1533 1557 0
-1534 -1535 -1559 0
1534 1535 -1559 0
-1534 1535 1559 0
1534 -1535 1559 0
-1536 -1537 -1560 0
1536 1537 -1560 0
-1536 1537 1560 0
1536 -1537 1560 0
-1538 -1539 -1562 0
1538 1539 -1562 0
-1538 1539 1562 0
1538 -1539 1562 0
-1541 -1543 -1564 0
1541 1543 -1564 0
-1541 1543 1564 0
1541 -1543 1564 0
-1544 -1545 -1566 0
1544 1545 -1566 0
-1544 1545 1566 0
1544 -1545 1566 0
-1547 -1549 -1568 0
1547 1549 -1568 0
-1547 1549 1568 0
1547 -1549 1568 0
-1551 -1553 -1570 0
1551 1553 -1570 0
-1551 1553 1570 0
1551 -1553 1570 0
-1554 -1555 -1572 0
1554 1555 -1572 0
-1554 1555 1572 0
1554 -1555 1572 0
-1531 -1557 -1574 0
1531 1557 -1574 0
1531 -1557 1574 0
-1531 1557 1574 0
-1559 -1560 -1576 0
1559 1560 -1576 0
-1559 1560 1576 0
1559 -1560 1576 0
-1562 -1564 -1578 0
1562 1564 -1578 0
-1562 1564 1578 0
1562 -1564 1578 0
-1566 -1568 -1580 0
1566 1568 -1580 0
-1566 1568 1580 0
1566 -1568 1580 0
-1570 -1572 -1582 0
1570 1572 -1582 0
-1570 1572 1582 0
1570 -1572 1582 0
-1574 -1576 -1584 0
1574 1576 -1584 0
-1574 1576 1584 0
1574 -1576 1584 0
-1578 -1580 -1586 0
1578 1580 -1586 0
-1578 1580 1586 0
1578 -1580 1586 0
-1582 -1584 -1586 0
1582 1584 -1586 0
-1582 1584 1586 0
1582 -1584 1586 0
-1540 -1542 -1591 0
1540 1542 -1591 0
-1540 1542 1591 0
1540 -1542 1591 0
-1546 -1548 -1593 0
1546 1548 -1593 0
-1546 1548 1593 0
1546 -1548 1593 0
-1550 -1552 -1594 0
1550 1552 -1594 0
-1550 1552 1594 0
1550 -1552 1594 0
-1556 -1558 -1596 0
1556 1558 -1596 0
-1556 1558 1596 0
1556 -1558 1596 0
-1561 -1563 -1598 0
1561 1563 -1598 0
-1561 1563 1598 0
1561 -1563 1598 0
-1565 -1567 -1600 0
1565 1567 -1600 0
-1565 1567 1600 0
1565 -1567 1600 0
-1569 -1571 -1602 0
1569 1571 -1602 0
-1569 1571 1602 0
1569 -1571 1602 0
-1573 -1575 -1604 0
1573 1575 -1604 0
-1573 1575 1604 0
1573 -1575 1604 0
-1577 -1579 -1606 0
1577 1579 -1606 0
-1577 1579 1606 0
1577 -1579 1606 0
-1581 -1583 -1608 0
1581 1583 -1608 0
-1581 1583 1608 0
1581 -1583 1608 0
-1585 -1587 -1610 0
1585 1587 -1610 0
-1585 1587 1610 0
1585 -1587 1610 0
-1586 -1588 -1612 0
1586 1588 -1612 0
1586 -1588 1612 0
-1586 1588 1612 0
-1590 -1591 -1614 0
1590 1591 -1614 0
-1590 1591 1614 0
1590 -1591 1614 0
-1592 -1593 -1615 0
1592 1593 -1615 0
-1592 1593 1615 0
1592 -1593 1615 0
-1594 -1595 -1617 0
1594 1595 -1617 0
-1594 1595 1617 0
1594 -1595 1617 0
-1596 -1597 -1619 0
1596 1597 -1619 0
-1596 1597 1619 0
1596 -1597 1619 0
-1598 -1600 -1621 0
1598 1600 -1621 0
-1598 1600 1621 0
1598 -1600 1621 0
-1602 -1604 -1623 0
1602 1604 -1623 0
-1602 1604 1623 0
1602 -1604 1623 0
-1606 -1608 -1625 0
1606 1608 -1625 0
-1606 1608 1625 0
1606 -1608 1625 0
-1610 -1612 -1627 0
1610 1612 -1627 0
-1610 1612 1627 0
1610 -1612 1627 0
-1589 -1614 -1629 0
1589 1614 -1629 0
-1589 1614 1629 0
1589 -1614 1629 0
-1615 -1617 -1631 0
1615 1617 -1631 0
-1615 1617 1631 0
1615 -1617 1631 0
-1619 -1621 -1633 0
1619 1621 -1633 0
-1619 1621 1633 0
1619 -1621 1633 0
-1623 -1625 -1635 0
1623 1625 -1635 0
-1623 1625 1635 0
1623 -1625 1635 0
-1627 -1629 -1637 0
1627 1629 -1637 0
-1627 1629 1637 0
1627 -1629 1637 0
-1631 -1633 -1639 0
1631 1633 -1639 0
-1631 1633 1639 0
1631 -1633 1639 0
-1635 -1637 -1639 0
1635 1637 -1639 0
-1635 1637 1639 0
1635 -1637 1639 0
-1599 -1601 -1646 0
1599 1601 -1646 0
-1599 1601 1646 0
1599 -1601 1646 0
-1603 -1605 -1647 0
1603 1605 -1647 0
-1603 1605 1647 0
1603 -1605 1647 0
-1607 -1609 -1649 0
1607 1609 -1649 0
-1607 1609 1649 0
1607 -1609 1649 0
-1611 -1613 -1651 0
1611 1613 -1651 0
-1611 1613 1651 0
1611 -1613 1651 0
-1616 -1618 -1653 0
1616 1618 -1653 0
-1616 1618 1653 0
1616 -1618 1653 0
-1620 -1622 -1655 0
1620 1622 -1655 0
-1620 1622 1655 0
1620 -1622 1655 0
-1624 -1626 -1657 0
1624 1626 -1657 0
-1624 1626 1657 0
1624 -1626 1657 0
-1628 -1630 -1659 0
1628 1630 -1659 0
-1628 1630 1659 0
1628 -1630 1659 0
-1632 -1634 -1661 0
1632 1634 -1661 0
-1632 1634 1661 0
1632 -1634 1661 0
-1636 -1638 -1663 0
1636 1638 -1663 0
-1636 1638 1663 0
1636 -1638 1663 0
-1640 -1641 -1665 0
1640 1641 -1665 0
-1640 1641 1665 0
1640 -1641 1665 0
-1642 -1643 -1666 0
1642 1643 -1666 0
-1642 1643 1666 0
1642 -1643 1666 0
-1644 -1645 -1668 0
1644 1645 -1668 0
-1644 1645 1668 0
1644 -1645 1668 0
-1646 -1647 -1670 0
1646 1647 -1670 0
-1646 1647 1670 0
1646 -1647 1670 0
-1649 -1651 -1672 0
1649 1651 -1672 0
-1649 1651 1672 0
1649 -1651 1672 0
-1652 -1653 -1674 0
1652 1653 -1674 0
-1652 1653 1674 0
1652 -1653 1674 0
-1655 -1657 -1676 0
1655 1657 -1676 0
-1655 1657 1676 0
1655 -1657 1676 0
-1659 -1661 -1678 0
1659 1661 -1678 0
-1659 1661 1678 0
1659 -1661 1678 0
-1663 -1665 -1680 0
1663 1665 -1680 0
-1663 1665 1680 0
1663 -1665 1680 0
-1639 -1666 -1682 0
1639 1666 -1682 0
-1639 1666 1682 0
1639 -1666 1682 0
-1668 -1670 -1684 0
1668 1670 -1684 0
-1668 1670 1684 0
1668 -1670 1684 0
-1672 -1674 -1686 0
1672 1674 -1686 0
-1672 1674 1686 0
1672 -1674 1686 0
-1676 -1678 -1688 0
1676 1678 -1688 0
-1676 1678 1688 0
1676 -1678 1688 0
-1680 -1682 -1690 0
1680 1682 -1690 0
-1680 1682 1690 0
1680 -1682 1690 0
-1684 -1686 -1692 0
1684 1686 -1692 0
-1684 1686 1692 0
1684 -1686 1692 0
-1688 -1690 -1692 0
1688 1690 -1692 0
-1688 1690 1692 0
1688 -1690 1692 0
-1648 -1650 -1696 0
1648 1650 -1696 0
-1648 1650 1696 0
1648 -1650 1696 0
-1654 -1656 -1698 0
1654 1656 -1698 0
-1654 1656 1698 0
1654 -1656 1698 0
-1658 -1660 -1699 0
1658 1660 -1699 0
-1658 1660 1699 0
1658 -1660 1699 0
-1662 -1664 -1701 0
1662 1664 -1701 0
-1662 1664 1701 0
1662 -1664 1701 0
-1667 -1669 -1704 0
1667 1669 -1704 0
-1667 1669 1704 0
1667 -1669 1704 0
-1671 -1673 -1705 0
1671 1673 -1705 0
-1671 1673 1705 0
1671 -1673 1705 0
-1675 -1677 -1707 0
1675 1677 -1707 0
-1675 1677 1707 0
1675 -1677 1707 0
-1679 -1681 -1709 0
1679 1681 -1709 0
-1679 1681 1709 0
1679 -1681 1709 0
-1683 -1685 -1711 0
1683 1685 -1711 0
-1683 1685 1711 0
1683 -1685 1711 0
-1687 -1689 -1713 0
1687 1689 -1713 0
-1687 1689 1713 0
1687 -1689 1713 0
-1691 -1693 -1715 0
1691 1693 -1715 0
-1691 1693 1715 0
1691 -1693 1715 0
-1692 -1694 -1730 0
1692 1694 -1730 0
1692 -1694 1730 0
-1692 1694 1730 0
-1695 -1696 -1717 0
1695 1696 -1717 0
-1695 1696 1717 0
1695 -1696 1717 0
-1697 -1698 -1719 0
1697 1698 -1719 0
-1697 1698 1719 0
1697 -1698 1719 0
-1699 -1701 -1721 0
1699 1701 -1721 0
-1699 1701 1721 0
1699 -1701 1721 0
-1703 -1704 -1723 0
1703 1704 -1723 0
-1703 1704 1723 0
1703 -1704 1723 0
-1705 -1707 -1725 0
1705 1707 -1725 0
-1705 1707 1725 0
1705 -1707 1725 0
-1709 -1711 -1727 0
1709 1711 -1727 0
-1709 1711 1727 0
1709 -1711 1727 0
-1713 -1715 -1729 0
1713 1715 -1729 0
-1713 1715 1729 0
1713 -1715 1729 0
-1717 -1719 -1731 0
1717 1719 -1731 0
-1717 1719 1731 0
1717 -1719 1731 0
-1721 -1723 -1733 0
1721 1723 -1733 0
-1721 1723 1733 0
1721 -1723 1733 0
-1725 -1727 -1735 0
1725 1727 -1735 0
-1725 1727 1735 0
1725 -1727 1735 0
-1729 -1730 -1737 0
1729 1730 -1737 0
-1729 1730 1737 0
1729 -1730 1737 0
-1731 -1733 -1739 0
1731 1733 -1739 0
-1731 1733 1739 0
1731 -1733 1739 0
-1735 -1737 -1739 0
1735 1737 -1739 0
-1735 1737 1739 0
1735 -1737 1739 0
-1700 -1702 -1744 0
1700 1702 -1744 0
-1700 1702 1744 0
1700 -1702 1744 0
-1706 -1708 -1746 0
1706 1708 -1746 0
-1706 1708 1746 0
1706 -1708 1746 0
-1710 -1712 -1747 0
1710 1712 -1747 0
-1710 1712 1747 0
1710 -1712 1747 0
-1714 -1716 -1749 0
1714 1716 -1749 0
-1714 1716 1749 0
1714 -1716 1749 0
-1718 -1720 -1752 0
1718 1720 -1752 0
-1718 1720 1752 0
1718 -1720 1752 0
-1722 -1724 -1753 0
1722 1724 -1753 0
-1722 1724 1753 0
1722 -1724 1753 0
-1726 -1728 -1755 0
1726 1728 -1755 0
-1726 1728 1755 0
1726 -1728 1755 0
-1732 -1734 -1758 0
1732 1734 -1758 0
-1732 1734 1758 0
1732 -1734 1758 0
-1736 -1738 -1759 0
1736 1738 -1759 0
-1736 1738 1759 0
1736 -1738 1759 0
-1740 -1741 -1761 0
1740 1741 -1761 0
-1740 1741 1761 0
1740 -1741 1761 0
-1742 -1743 -1763 0
1742 1743 -1763 0
-1742 1743 1763 0
1742 -1743 1763 0
-1744 -1745 -1764 0
1744 1745 -1764 0
-1744 1745 1764 0
1744 -1745 1764 0
-1746 -1747 -1766 0
1746 1747 -1766 0
-1746 1747 1766 0
1746 -1747 1766 0
-1749 -1751 -1768 0
1749 1751 -1768 0
-1749 1751 1768 0
1749 -1751 1768 0
-1752 -1753 -1770 0
1752 1753 -1770 0
-1752 1753 1770 0
1752 -1753 1770 0
-1755 -1757 -1772 0
1755 1757 -1772 0
-1755 1757 1772 0
1755 -1757 1772 0
-1758 -1759 -1774 0
1758 1759 -1774 0
-1758 1759 1774 0
1758 -1759 1774 0
-1739 -1761 -1776 0
1739 1761 -1776 0
1739 -1761 1776 0
-1739 1761 1776 0
-1763 -1764 -1778 0
1763 1764 -1778 0
-1763 1764 1778 0
1763 -1764 1778 0
-1766 -1768 -1780 0
1766 1768 -1780 0
-1766 1768 1780 0
1766 -1768 1780 0
-1770 -1772 -1782 0
1770 1772 -1782 0
-1770 1772 1782 0
1770 -1772 1782 0
-1774 -1776 -1784 0
1774 1776 -1784 0
-1774 1776 1784 0
1774 -1776 1784 0
-1778 -1780 -1786 0
1778 1780 -1786 0
-1778 1780 1786 0
1778 -1780 1786 0
-1782 -1784 -1786 0
1782 1784 -1786 0
-1782 1784 1786 0
1782 -1784 1786 0
-1748 -1750 -1791 0
1748 1750 -1791 0
-1748 1750 1791 0
1748 -1750 1791 0
-1754 -1756 -1793 0
1754 1756 -1793 0
-1754 1756 1793 0
1754 -1756 1793 0
-1760 -1762 -1795 0
1760 1762 -1795 0
-1760 1762 1795 0
1760 -1762 1795 0
-1765 -1767 -1797 0
1765 1767 -1797 0
-1765 1767 1797 0
1765 -1767 1797 0
-1769 -1771 -1798 0
1769 1771 -1798 0
-1769 1771 1798 0
1769 -1771 1798 0
-1773 -1775 -1800 0
1773 1775 -1800 0
-1773 1775 1800 0
1773 -1775 1800 0
-1777 -1779 -1802 0
1777 1779 -1802 0
-1777 1779 1802 0
1777 -1779 1802 0
-1781 -1783 -1804 0
1781 1783 -1804 0
-1781 1783 1804 0
1781 -1783 1804 0
-1785 -1787 -1806 0
1785 1787 -1806 0
-1785 1787 1806 0
1785 -1787 1806 0
-1786 -1788 -1808 0
1786 1788 -1808 0
1786 -1788 1808 0
-1786 1788 1808 0
-1790 -1791 -1810 0
1790 1791 -1810 0
-1790 1791 1810 0
1790 -1791 1810 0
-1792 -1793 -1811 0
1792 1793 -1811 0
-1792 1793 1811 0
1792 -1793 1811 0
-1794 -1795 -1813 0
1794 1795 -1813 0
-1794 1795 1813 0
1794 -1795 1813 0
-1796 -1797 -1815 0
1796 1797 -1815 0
-1796 1797 1815 0
1796 -1797 1815 0
-1798 -1800 -1817 0
1798 1800 -1817 0
-1798 1800 1817 0
1798 -1800 1817 0
-1802 -1804 -1819 0
1802 1804 -1819 0
-1802 1804 1819 0
1802 -1804 1819 0
-1806 -1808 -1821 0
1806 1808 -1821 0
-1806 1808 1821 0
1806 -1808 1821 0
-1789 -1810 -1823 0
1789 1810 -1823 0
-1789 1810 1823 0
1789 -1810 1823 0
-1811 -1813 -1825 0
1811 1813 -1825 0
-1811 1813 1825 0
1811 -1813 1825 0
-1815 -1817 -1827 0
1815 1817 -1827 0
-1815 1817 1827 0
1815 -1817 1827 0
-1819 -1821 -1829 0
1819 1821 -1829 0
-1819 1821 1829 0
1819 -1821 1829 0
-1823 -1825 -1831 0
1823 1825 -1831 0
-1823 1825 1831 0
1823 -1825 1831 0
-1827 -1829 -1831 0
1827 1829 -1831 0
-1827 1829 1831 0
1827 -1829 1831 0
-1799 -1801 -1838 0
1799 1801 -1838 0
-1799 1801 1838 0
1799 -1801 1838 0
-1803 -1805 -1839 0
1803 1805 -1839 0
-1803 1805 1839 0
1803 -1805 1839 0
-1807 -1809 -1841 0
1807 1809 -1841 0
-1807 1809 1841 0
1807 -1809 1841 0
-1812 -1814 -1844 0
1812 1814 -1844 0
-1812 1814 1844 0
1812 -1814 1844 0
-1816 -1818 -1845 0
1816 1818 -1845 0
-1816 1818 1845 0
1816 -1818 1845 0
-1820 -1822 -1847 0
1820 1822 -1847 0
-1820 1822 1847 0
1820 -1822 1847 0
-1824 -1826 -1849 0
1824 1826 -1849 0
-1824 1826 1849 0
1824 -1826 1849 0
-1828 -1830 -1851 0
1828 1830 -1851 0
-1828 1830 1851 0
1828 -1830 1851 0
-1832 -1833 -1853 0
1832 1833 -1853 0
-1832 1833 1853 0
1832 -1833 1853 0
-1834 -1835 -1854 0
1834 1835 -1854 0
-1834 1835 1854 0
1834 -1835 1854 0
-1836 -1837 -1856 0
1836 1837 -1856 0
-1836 1837 1856 0
1836 -1837 1856 0
-1838 -1839 -1858 0
1838 1839 -1858 0
-1838 1839 1858 0
1838 -1839 1858 0
-1841 -1843 -1860 0
1841 1843 -1860 0
-1841 1843 1860 0
1841 -1843 1860 0
-1844 -1845 -1862 0
1844 1845 -1862 0
-1844 1845 1862 0
1844 -1845 1862 0
-1847 -1849 -1864 0
1847 1849 -1864 0
-1847 1849 1864 0
1847 -1849 1864 0
-1851 -1853 -1866 0
1851 1853 -1866 0
-1851 1853 1866 0
1851 -1853 1866 0
-1831 -1854 -1868 0
1831 1854 -1868 0
-1831 1854 1868 0
1831 -1854 1868 0
-1856 -1858 -1870 0
1856 1858 -1870 0
-1856 1858 1870 0
1856 -1858 1870 0
-1860 -1862 -1872 0
1860 1862 -1872 0
-1860 1862 1872 0
1860 -1862 1872 0
-1864 -1866 -1874 0
1864 1866 -1874 0
-1864 1866 1874 0
1864 -1866 1874 0
-1868 -1870 -1876 0
1868 1870 -1876 0
-1868 1870 1876 0
1868 -1870 1876 0
-1872 -1874 -1876 0
1872 1874 -1876 0
-1872 1874 1876 0
1872 -1874 1876 0
-1840 -1842 -1880 0
1840 1842 -1880 0
-1840 1842 1880 0
1840 -1842 1880 0
-1846 -1848 -1882 0
1846 1848 -1882 0
-1846 1848 1882 0
1846 -1848 1882 0
-1850 -1852 -1883 0
1850 1852 -1883 0
-1850 1852 1883 0
1850 -1852 1883 0
-1855 -1857 -1885 0
1855 1857 -1885 0
-1855 1857 1885 0
1855 -1857 1885 0
-1859 -1861 -1887 0
1859 1861 -1887 0
-1859 1861 1887 0
1859 -1861 1887 0
-1863 -1865 -1889 0
1863 1865 -1889 0
-1863 1865 1889 0
1863 -1865 1889 0
-1867 -1869 -1891 0
1867 1869 -1891 0
-1867 1869 1891 0
1867 -1869 1891 0
-1871 -1873 -1893 0
1871 1873 -1893 0
-1871 1873 1893 0
1871 -1873 1893 0
-1875 -1877 -1895 0
1875 1877 -1895 0
-1875 1877 1895 0
1875 -1877 1895 0
-1876 -1878 -1909 0
1876 1878 -1909 0
1876 -1878 1909 0
-1876 1878 1909 0
-1879 -1880 -1897 0
1879 1880 -1897 0
-1879 1880 1897 0
1879 -1880 1897 0
-1881 -1882 -1899 0
1881 1882 -1899 0
-1881 1882 1899 0
1881 -1882 1899 0
-1883 -1884 -1901 0
1883 1884 -1901 0
-1883 1884 1901 0
1883 -1884 1901 0
-1885 -1887 -1903 0
1885 1887 -1903 0
-1885 1887 1903 0
1885 -1887 1903 0
-1889 -1891 -1905 0
1889 1891 -1905 0
-1889 1891 1905 0
1889 -1891 1905 0
-1893 -1895 -1907 0
1893 1895 -1907 0
-1893 1895 1907 0
1893 -1895 1907 0
-1897 -1899 -1910 0
1897 1899 -1910 0
-1897 1899 1910 0
1897 -1899 1910 0
-1901 -1903 -1911 0
1901 1903 -1911 0
-1901 1903 1911 0
1901 -1903 1911 0
-1905 -1907 -1913 0
1905 1907 -1913 0
-1905 1907 1913 0
1905 -1907 1913 0
-1909 -1910 -1915 0
1909 1910 -1915 0
-1909 1910 1915 0
1909 -1910 1915 0
-1911 -1913 -1915 0
1911 1913 -1915 0
-1911 1913 1915 0
1911 -1913 1915 0
-1886 -1888 -1921 0
1886 1888 -1921 0
-1886 1888 1921 0
1886 -1888 1921 0
-1890 -1892 -1923 0
1890 1892 -1923 0
-1890 1892 1923 0
1890 -1892 1923 0
-1894 -1896 -1925 0
1894 1896 -1925 0
-1894 1896 1925 0
1894 -1896 1925 0
-1898 -1900 -1927 0
1898 1900 -1927 0
-1898 1900 1927 0
1898 -1900 1927 0
-1902 -1904 -1929 0
1902 1904 -1929 0
-1902 1904 1929 0
1902 -1904 1929 0
-1906 -1908 -1931 0
1906 1908 -1931 0
-1906 1908 1931 0
1906 -1908 1931 0
-1912 -1914 -1933 0
1912 1914 -1933 0
-1912 1914 1933 0
1912 -1914 1933 0
-1916 -1917 -1935 0
1916 1917 -1935 0
-1916 1917 1935 0
1916 -1917 1935 0
-1918 -1919 -1937 0
1918 1919 -1937 0
-1918 1919 1937 0
1918 -1919 1937 0
-1920 -1921 -1938 0
1920 1921 -1938 0
-1920 1921 1938 0
1920 -1921 1938 0
-1923 -1925 -1940 0
1923 1925 -1940 0
-1923 1925 1940 0
1923 -1925 1940 0
-1926 -1927 -1942 0
1926 1927 -1942 0
-1926 1927 1942 0
1926 -1927 1942 0
-1929 -1931 -1944 0
1929 1931 -1944 0
-1929 1931 1944 0
1929 -1931 1944 0
-1932 -1933 -1946 0
1932 1933 -1946 0
-1932 1933 1946 0
1932 -1933 1946 0
-1915 -1935 -1948 0
1915 1935 -1948 0
1915 -1935 1948 0
-1915 1935 1948 0
-1937 -1938 -1950 0
1937 1938 -1950 0
-1937 1938 1950 0
1937 -1938 1950 0
-1940 -1942 -1952 0
1940 1942 -1952 0
-1940 1942 1952 0
1940 -1942 1952 0
-1944 -1946 -1954 0
1944 1946 -1954 0
-1944 1946 1954 0
1944 -1946 1954 0
-1948 -1950 -1956 0
1948 1950 -1956 0
-1948 1950 1956 0
1948 -1950 1956 0
-1952 -1954 -1956 0
1952 1954 -1956 0
-1952 1954 1956 0
1952 -1954 1956 0
-1922 -1924 -1959 0
1922 1924 -1959 0
-1922 1924 1959 0
1922 -1924 1959 0
-1928 -1930 -1961 0
1928 1930 -1961 0
-1928 1930 1961 0
1928 -1930 1961 0
-1934 -1936 -1963 0
1934 1936 -1963 0
-1934 1936 1963 0
1934 -1936 1963 0
-1939 -1941 -1965 0
1939 1941 -1965 0
-1939 1941 1965 0
1939 -1941 1965 0
-1943 -1945 -1967 0
1943 1945 -1967 0
-1943 1945 1967 0
1943 -1945 1967 0
-1947 -1949 -1969 0
1947 1949 -1969 0
-1947 1949 1969 0
1947 -1949 1969 0
-1951 -1953 -1971 0
1951 1953 -1971 0
-1951 1953 1971 0
1951 -1953 1971 0
-1955 -1957 -1973 0
1955 1957 -1973 0
-1955 1957 1973 0
1955 -1957 1973 0
-1956 -1958 -1975 0
1956 1958 -1975 0
1956 -1958 1975 0
-1956 1958 1975 0
-1959 -1960 -1986 0
1959 1960 -1986 0
-1959 1960 1986 0
1959 -1960 1986 0
-1961 -1962 -1977 0
1961 1962 -1977 0
-1961 1962 1977 0
1961 -1962 1977 0
-1963 -1964 -1979 0
1963 1964 -1979 0
-1963 1964 1979 0
1963 -1964 1979 0
-1965 -1967 -1981 0
1965 1967 -1981 0
-1965 1967 1981 0
1965 -1967 1981 0
-1969 -1971 -1983 0
1969 1971 -1983 0
-1969 1971 1983 0
1969 -1971 1983 0
-1973 -1975 -1985 0
1973 1975 -1985 0
-1973 1975 1985 0
1973 -1975 1985 0
-1977 -1979 -1987 0
1977 1979 -1987 0
-1977 1979 1987 0
1977 -1979 1987 0
-1981 -1983 -1989 0
1981 1983 -1989 0
-1981 1983 1989 0
1981 -1983 1989 0
-1985 -1986 -1991 0
1985 1986 -1991 0
-1985 1986 1991 0
1985 -1986 1991 0
-1987 -1989 -1991 0
1987 1989 -1991 0
-1987 1989 1991 0
1987 -1989 1991 0
-1966 -1968 -1997 0
1966 1968 -1997 0
-1966 1968 1997 0
1966 -1968 1997 0
-1970 -1972 -1999 0
1970 1972 -1999 0
-1970 1972 1999 0
1970 -1972 1999 0
-1974 -1976 -2001 0
1974 1976 -2001 0
-1974 1976 2001 0
1974 -1976 2001 0
-1978 -1980 -2003 0
1978 1980 -2003 0
-1978 1980 2003 0
1978 -1980 2003 0
-1982 -1984 -2005 0
1982 1984 -2005 0
-1982 1984 2005 0
1982 -1984 2005 0
-1988 -1990 -2008 0
1988 1990 -2008 0
-1988 1990 2008 0
1988 -1990 2008 0
-1992 -1993 -2009 0
1992 1993 -2009 0
-1992 1993 2009 0
1992 -1993 2009 0
-1994 -1995 -2010 0
1994 1995 -2010 0
-1994 1995 2010 0
1994 -1995 2010 0
-1996 -1997 -2012 0
1996 1997 -2012 0
-1996 1997 2012 0
1996 -1997 2012 0
-1999 -2001 -2014 0
1999 2001 -2014 0
-1999 2001 2014 0
1999 -2001 2014 0
-2002 -2003 -2016 0
2002 2003 -2016 0
-2002 2003 2016 0
2002 -2003 2016 0
-2005 -2007 -2018 0
2005 2007 -2018 0
-2005 2007 2018 0
2005 -2007 2018 0
-2008 -2009 -2020 0
2008 2009 -2020 0
-2008 2009 2020 0
2008 -2009 2020 0
-1991 -2010 -2022 0
1991 2010 -2022 0
-1991 2010 2022 0
1991 -2010 2022 0
-2012 -2014 -2024 0
2012 2014 -2024 0
-2012 2014 2024 0
2012 -2014 2024 0
-2016 -2018 -2026 0
2016 2018 -2026 0
-2016 2018 2026 0
2016 -2018 2026 0
-2020 -2022 -2028 0
2020 2022 -2028 0
-2020 2022 2028 0
2020 -2022 2028 0
-2024 -2026 -2028 0
2024 2026 -2028 0
-2024 2026 2028 0
2024 -2026 2028 0
-1998 -2000 -2031 0
1998 2000 -2031 0
-1998 2000 2031 0
1998 -2000 2031 0
-2004 -2006 -2033 0
2004 2006 -2033 0
-2004 2006 2033 0
2004 -2006 2033 0
-2011 -2013 -2036 0
2011 2013 -2036 0
-2011 2013 2036 0
2011 -2013 2036 0
-2015 -2017 -2037 0
2015 2017 -2037 0
-2015 2017 2037 0
2015 -2017 2037 0
-2019 -2021 -2039 0
2019 2021 -2039 0
-2019 2021 2039 0
2019 -2021 2039 0
-2023 -2025 -2041 0
2023 2025 -2041 0
-2023 2025 2041 0
2023 -2025 2041 0
-2027 -2029 -2043 0
2027 2029 -2043 0
-2027 2029 2043 0
2027 -2029 2043 0
-2028 -2030 -2054 0
2028 2030 -2054 0
2028 -2030 2054 0
-2028 2030 2054 0
-2031 -2032 -2045 0
2031 2032 -2045 0
-2031 2032 2045 0
2031 -2032 2045 0
-2033 -2034 -2047 0
2033 2034 -2047 0
-2033 2034 2047 0
2033 -2034 2047 0
-2035 -2036 -2049 0
2035 2036 -2049 0
-2035 2036 2049 0
2035 -2036 2049 0
-2037 -2039 -2051 0
2037 2039 -2051 0
-2037 2039 2051 0
2037 -2039 2051 0
-2041 -2043 -2053 0
2041 2043 -2053 0
-2041 2043 2053 0
2041 -2043 2053 0
-2045 -2047 -2055 0
2045 2047 -2055 0
-2045 2047 2055 0
2045 -2047 2055 0
-2049 -2051 -2057 0
2049 2051 -2057 0
-2049 2051 2057 0
2049 -2051 2057 0
-2053 -2054 -2059 0
2053 2054 -2059 0
-2053 2054 2059 0
2053 -2054 2059 0
-2055 -2057 -2059 0
2055 2057 -2059 0
-2055 2057 2059 0
2055 -2057 2059 0
-2038 -2040 -2065 0
2038 2040 -2065 0
-2038 2040 2065 0
2038 -2040 2065 0
-2042 -2044 -2067 0
2042 2044 -2067 0
-2042 2044 2067 0
2042 -2044 2067 0
-2046 -2048 -2070 0
2046 2048 -2070 0
-2046 2048 2070 0
2046 -2048 2070 0
-2050 -2052 -2071 0
2050 2052 -2071 0
-2050 2052 2071 0
2050 -2052 2071 0
-2056 -2058 -2073 0
2056 2058 -2073 0
-2056 2058 2073 0
2056 -2058 2073 0
-2060 -2061 -2075 0
2060 2061 -2075 0
-2060 2061 2075 0
2060 -2061 2075 0
-2062 -2063 -2077 0
2062 2063 -2077 0
-2062 2063 2077 0
2062 -2063 2077 0
-2064 -2065 -2078 0
2064 2065 -2078 0
-2064 2065 2078 0
2064 -2065 2078 0
-2067 -2069 -2080 0
2067 2069 -2080 0
-2067 2069 2080 0
2067 -2069 2080 0
-2070 -2071 -2082 0
2070 2071 -2082 0
-2070 2071 2082 0
2070 -2071 2082 0
-2072 -2073 -2084 0
2072 2073 -2084 0
-2072 2073 2084 0
2072 -2073 2084 0
-2059 -2075 -2086 0
2059 2075 -2086 0
2059 -2075 2086 0
-2059 2075 2086 0
-2077 -2078 -2088 0
2077 2078 -2088 0
-2077 2078 2088 0
2077 -2078 2088 0
-2080 -2082 -2090 0
2080 2082 -2090 0
-2080 2082 2090 0
2080 -2082 2090 0
-2084 -2086 -2092 0
2084 2086 -2092 0
-2084 2086 2092 0
2084 -2086 2092 0
-2088 -2090 -2092 0
2088 2090 -2092 0
-2088 2090 2092 0
2088 -2090 2092 0
-2066 -2068 -2095 0
2066 2068 -2095 0
-2066 2068 2095 0
2066 -2068 2095 0
-2074 -2076 -2098 0
2074 2076 -2098 0
-2074 2076 2098 0
2074 -2076 2098 0
-2079 -2081 -2100 0
2079 2081 -2100 0
-2079 2081 2100 0
2079 -2081 2100 0
-2083 -2085 -2101 0
2083 2085 -2101 0
-2083 2085 2101 0
2083 -2085 2101 0
-2087 -2089 -2103 0
2087 2089 -2103 0
-2087 2089 2103 0
2087 -2089 2103 0
-2091 -2093 -2105 0
2091 2093 -2105 0
-2091 2093 2105 0
2091 -2093 2105 0
-2092 -2094 -2107 0
2092 2094 -2107 0
2092 -2094 2107 0
-2092 2094 2107 0
-2095 -2096 -2117 0
2095 2096 -2117 0
-2095 2096 2117 0
2095 -2096 2117 0
-2097 -2098 -2109 0
2097 2098 -2109 0
-2097 2098 2109 0
2097 -2098 2109 0
-2099 -2100 -2111 0
2099 2100 -2111 0
-2099 2100 2111 0
2099 -2100 2111 0
-2101 -2103 -2113 0
2101 2103 -2113 0
-2101 2103 2113 0
2101 -2103 2113 0
-2105 -2107 -2115 0
2105 2107 -2115 0
-2105 2107 2115 0
2105 -2107 2115 0
-2109 -2111 -2118 0
2109 2111 -2118 0
-2109 2111 2118 0
2109 -2111 2118 0
-2113 -2115 -2119 0
2113 2115 -2119 0
-2113 2115 2119 0
2113 -2115 2119 0
-2117 -2118 -2119 0
2117 2118 -2119 0
-2117 2118 2119 0
2117 -2118 2119 0
-2102 -2104 -2125 0
2102 2104 -2125 0
-2102 2104 2125 0
2102 -2104 2125 0
-2106 -2108 -2127 0
2106 2108 -2127 0
-2106 2108 2127 0
2106 -2108 2127 0
-2110 -2112 -2130 0
2110 2112 -2130 0
-2110 2112 2130 0
2110 -2112 2130 0
-2114 -2116 -2131 0
2114 2116 -2131 0
-2114 2116 2131 0
2114 -2116 2131 0
-2120 -2121 -2133 0
2120 2121 -2133 0
-2120 2121 2133 0
2120 -2121 2133 0
-2122 -2123 -2134 0
2122 2123 -2134 0
-2122 2123 2134 0
2122 -2123 2134 0
-2124 -2125 -2136 0
2124 2125 -2136 0
-2124 2125 2136 0
2124 -2125 2136 0
-2127 -2129 -2138 0
2127 2129 -2138 0
-2127 2129 2138 0
2127 -2129 2138 0
-2130 -2131 -2140 0
2130 2131 -2140 0
-2130 2131 2140 0
2130 -2131 2140 0
-2132 -2133 -2142 0
2132 2133 -2142 0
-2132 2133 2142 0
2132 -2133 2142 0
-2119 -2134 -2144 0
2119 2134 -2144 0
-2119 2134 2144 0
2119 -2134 2144 0
-2136 -2138 -2146 0
2136 2138 -2146 0
-2136 2138 2146 0
2136 -2138 2146 0
-2140 -2142 -2148 0
2140 2142 -2148 0
-2140 2142 2148 0
2140 -2142 2148 0
-2144 -2146 -2148 0
2144 2146 -2148 0
-2144 2146 2148 0
2144 -2146 2148 0
-2126 -2128 -2151 0
2126 2128 -2151 0
-2126 2128 2151 0
2126 -2128 2151 0
-2135 -2137 -2155 0
2135 2137 -2155 0
-2135 2137 2155 0
2135 -2137 2155 0
-2139 -2141 -2157 0
2139 2141 -2157 0
-2139 2141 2157 0
2139 -2141 2157 0
-2143 -2145 -2159 0
2143 2145 -2159 0
-2143 2145 2159 0
2143 -2145 2159 0
-2147 -2149 -2161 0
2147 2149 -2161 0
-2147 2149 2161 0
2147 -2149 2161 0
-2148 -2150 -2171 0
2148 2150 -2171 0
2148 -2150 2171 0
-2148 2150 2171 0
-2151 -2152 -2163 0
2151 2152 -2163 0
-2151 2152 2163 0
2151 -2152 2163 0
-2153 -2154 -2165 0
2153 2154 -2165 0
-2153 2154 2165 0
2153 -2154 2165 0
-2155 -2157 -2167 0
2155 2157 -2167 0
-2155 2157 2167 0
2155 -2157 2167 0
-2159 -2161 -2169 0
2159 2161 -2169 0
-2159 2161 2169 0
2159 -2161 2169 0
-2163 -2165 -2172 0
2163 2165 -2172 0
-2163 2165 2172 0
2163 -2165 2172 0
-2167 -2169 -2173 0
2167 2169 -2173 0
-2167 2169 2173 0
2167 -2169 2173 0
-2171 -2172 -2173 0
2171 2172 -2173 0
-2171 2172 2173 0
2171 -2172 2173 0
-2156 -2158 -2177 0
2156 2158 -2177 0
-2156 2158 2177 0
2156 -2158 2177 0
-2160 -2162 -2178 0
2160 2162 -2178 0
-2160 2162 2178 0
2160 -2162 2178 0
-2164 -2166 -2180 0
2164 2166 -2180 0
-2164 2166 2180 0
2164 -2166 2180 0
-2168 -2170 -2182 0
2168 2170 -2182 0
-2168 2170 2182 0
2168 -2170 2182 0
-2174 -2175 -2185 0
2174 2175 -2185 0
-2174 2175 2185 0
2174 -2175 2185 0
-2177 -2178 -2186 0
2177 2178 -2186 0
-2177 2178 2186 0
2177 -2178 2186 0
-2179 -2180 -2188 0
2179 2180 -2188 0
-2179 2180 2188 0
2179 -2180 2188 0
-2182 -2184 -2190 0
2182 2184 -2190 0
-2182 2184 2190 0
2182 -2184 2190 0
-2173 -2185 -2192 0
2173 2185 -2192 0
2173 -2185 2192 0
-2173 2185 2192 0
-2176 -2186 -2194 0
2176 2186 -2194 0
-2176 2186 2194 0
2176 -2186 2194 0
-2188 -2190 -2196 0
2188 2190 -2196 0
-2188 2190 2196 0
2188 -2190 2196 0
-2192 -2194 -2196 0
2192 2194 -2196 0
-2192 2194 2196 0
2192 -2194 2196 0
-2181 -2183 -2201 0
2181 2183 -2201 0
-2181 2183 2201 0
2181 -2183 2201 0
-2187 -2189 -2202 0
2187 2189 -2202 0
-2187 2189 2202 0
2187 -2189 2202 0
-2191 -2193 -2204 0
2191 2193 -2204 0
-2191 2193 2204 0
2191 -2193 2204 0
-2195 -2197 -2206 0
2195 2197 -2206 0
-2195 2197 2206 0
2195 -2197 2206 0
-2196 -2198 -2208 0
2196 2198 -2208 0
2196 -2198 2208 0
-2196 2198 2208 0
-2200 -2201 -2210 0
2200 2201 -2210 0
-2200 2201 2210 0
2200 -2201 2210 0
-2202 -2204 -2212 0
2202 2204 -2212 0
-2202 2204 2212 0
2202 -2204 2212 0
-2206 -2208 -2213 0
2206 2208 -2213 0
-2206 2208 2213 0
2206 -2208 2213 0
-2199 -2210 -2215 0
2199 2210 -2215 0
-2199 2210 2215 0
2199 -2210 2215 0
-2211 -2212 -2217 0
2211 2212 -2217 0
-2211 2212 2217 0
2211 -2212 2217 0
-2213 -2215 -2217 0
2213 2215 -2217 0
-2213 2215 2217 0
2213 -2215 2217 0
-2203 -2205 -2221 0
2203 2205 -2221 0
-2203 2205 2221 0
2203 -2205 2221 0
-2207 -2209 -2222 0
2207 2209 -2222 0
-2207 2209 2222 0
2207 -2209 2222 0
-2214 -2216 -2225 0
2214 2216 -2225 0
-2214 2216 2225 0
2214 -2216 2225 0
-2218 -2219 -2226 0
2218 2219 -2226 0
-2218 2219 2226 0
2218 -2219 2226 0
-2221 -2222 -2227 0
2221 2222 -2227 0
-2221 2222 2227 0
2221 -2222 2227 0
-2223 -2224 -2228 0
2223 2224 -2228 0
-2223 2224 2228 0
2223 -2224 2228 0
-2225 -2226 -2230 0
2225 2226 -2230 0
-2225 2226 2230 0
2225 -2226 2230 0
-2217 -2220 -2232 0
2217 2220 -2232 0
-2217 2220 2232 0
2217 -2220 2232 0
-2227 -2228 -2234 0
2227 2228 -2234 0
-2227 2228 2234 0
2227 -2228 2234 0
-2230 -2232 -2234 0
2230 2232 -2234 0
-2230 2232 2234 0
2230 -2232 2234 0
-2229 -2231 -2242 0
2229 2231 -2242 0
-2229 2231 2242 0
2229 -2231 2242 0
-2233 -2235 -2244 0
2233 2235 -2244 0
-2233 2235 2244 0
2233 -2235 2244 0
-2234 -2236 -2246 0
2234 2236 -2246 0
2234 -2236 2246 0
-2234 2236 2246 0
-2238 -2239 -2247 0
2238 2239 -2247 0
-2238 2239 2247 0
2238 -2239 2247 0
-2240 -2241 -2249 0
2240 2241 -2249 0
-2240 2241 2249 0
2240 -2241 2249 0
-2242 -2244 -2251 0
2242 2244 -2251 0
-2242 2244 2251 0
2242 -2244 2251 0
-2237 -2246 -2253 0
2237 2246 -2253 0
2237 -2246 2253 0
-2237 2246 2253 0
-2247 -2249 -2255 0
2247 2249 -2255 0
-2247 2249 2255 0
2247 -2249 2255 0
-2251 -2253 -2255 0
2251 2253 -2255 0
-2251 2253 2255 0
2251 -2253 2255 0
-2243 -2245 -2258 0
2243 2245 -2258 0
-2243 2245 2258 0
2243 -2245 2258 0
-2248 -2250 -2260 0
2248 2250 -2260 0
-2248 2250 2260 0
2248 -2250 2260 0
-2252 -2254 -2261 0
2252 2254 -2261 0
-2252 2254 2261 0
2252 -2254 2261 0
-2256 -2257 -2263 0
2256 2257 -2263 0
-2256 2257 2263 0
2256 -2257 2263 0
-2258 -2259 -2269 0
2258 2259 -2269 0
-2258 2259 2269 0
2258 -2259 2269 0
-2260 -2261 -2266 0
2260 2261 -2266 0
-2260 2261 2266 0
2260 -2261 2266 0
-2255 -2263 -2268 0
2255 2263 -2268 0
2255 -2263 2268 0
-2255 2263 2268 0
-2266 -2268 -2269 0
2266 2268 -2269 0
-2266 2268 2269 0
2266 -2268 2269 0
-2262 -2264 -2273 0
2262 2264 -2273 0
-2262 2264 2273 0
2262 -2264 2273 0
-2265 -2267 -2277 0
2265 2267 -2277 0
-2265 2267 2277 0
2265 -2267 2277 0
-2269 -2270 -2275 0
2269 2270 -2275 0
2269 -2270 2275 0
-2269 2270 2275 0
-2272 -2273 -2276 0
2272 2273 -2276 0
-2272 2273 2276 0
2272 -2273 2276 0
-2274 -2275 -2278 0
2274 2275 -2278 0
-2274 2275 2278 0
2274 -2275 2278 0
-2271 -2276 -2279 0
2271 2276 -2279 0
-2271 2276 2279 0
2271 -2276 2279 0
-2277 -2278 -2279 0
2277 2278 -2279 0
-2277 2278 2279 0
2277 -2278 2279 0
-2280 -2281 -2287 0
2280 2281 -2287 0
-2280 2281 2287 0
2280 -2281 2287 0
-2282 -2283 -2288 0
2282 2283 -2288 0
-2282 2283 2288 0
2282 -2283 2288 0
-2284 -2285 -2290 0
2284 2285 -2290 0
-2284 2285 2290 0
2284 -2285 2290 0
-2286 -2287 -2292 0
2286 2287 -2292 0
-2286 2287 2292 0
2286 -2287 2292 0
-2279 -2288 -2294 0
2279 2288 -2294 0
-2279 2288 2294 0
2279 -2288 2294 0
-2290 -2292 -2294 0
2290 2292 -2294 0
-2290 2292 2294 0
2290 -2292 2294 0
-2289 -2291 -2298 0
2289 2291 -2298 0
-2289 2291 2298 0
2289 -2291 2298 0
-2293 -2295 -2300 0
2293 2295 -2300 0
-2293 2295 2300 0
2293 -2295 2300 0
-2294 -2296 -2303 0
2294 2296 -2303 0
2294 -2296 2303 0
-2294 2296 2303 0
-2298 -2300 -2302 0
2298 2300 -2302 0
-2298 2300 2302 0
2298 -2300 2302 0
-2297 -2302 -2303 0
2297 2302 -2303 0
-2297 2302 2303 0
2297 -2302 2303 0
-2299 -2301 -2307 0
2299 2301 -2307 0
-2299 2301 2307 0
2299 -2301 2307 0
-2304 -2305 -2308 0
2304 2305 -2308 0
-2304 2305 2308 0
2304 -2305 2308 0
-2303 -2306 -2310 0
2303 2306 -2310 0
2303 -2306 2310 0
-2303 2306 2310 0
-2307 -2308 -2310 0
2307 2308 -2310 0
-2307 2308 2310 0
2307 -2308 2310 0
-2309 -2311 -2313 0
2309 2311 -2313 0
-2309 2311 2313 0
2309 -2311 2313 0
-2310 -2312 -2315 0
2310 2312 -2315 0
2310 -2312 2315 0
-2310 2312 2315 0
-2313 -2315 -2317 0
2313 2315 -2317 0
-2313 2315 2317 0
2313 -2315 2317 0
-2314 -2316 -2318 0
2314 2316 -2318 0
-2314 2316 2318 0
2314 -2316 2318 0
-2317 -2318 -2319 0
2317 2318 -2319 0
-2317 2318 2319 0
2317 -2318 2319 0
2319 -2320 2321 0
-2319 2320 2321 0
