c Factorization SAT instance #44: N = 116801 = 271 x 431
c p = 271 (9 bits), q = 431 (9 bits)
c N = 116801 (17 bits)
c Generator: generate_instances.py  d=3, k=50, seed=None
p cnf 4393 15539
-1 -2 9 0
1 -9 0
2 -9 0
-1 -3 10 0
1 -10 0
3 -10 0
-1 -4 11 0
1 -11 0
4 -11 0
-1 -5 12 0
1 -12 0
5 -12 0
-1 -6 13 0
1 -13 0
6 -13 0
-1 -7 14 0
1 -14 0
7 -14 0
-1 -8 15 0
1 -15 0
8 -15 0
-1 -16 17 0
16 -17 0
1 -17 0
-2 -16 18 0
16 -18 0
2 -18 0
-3 -16 19 0
16 -19 0
3 -19 0
-4 -16 20 0
16 -20 0
4 -20 0
-5 -16 21 0
16 -21 0
5 -21 0
-6 -16 22 0
16 -22 0
6 -22 0
-7 -16 23 0
16 -23 0
7 -23 0
-8 -16 24 0
16 -24 0
8 -24 0
-1 -25 26 0
25 -26 0
1 -26 0
-2 -25 27 0
25 -27 0
2 -27 0
-3 -25 28 0
25 -28 0
3 -28 0
-4 -25 29 0
25 -29 0
4 -29 0
-5 -25 30 0
25 -30 0
5 -30 0
-6 -25 31 0
25 -31 0
6 -31 0
-7 -25 32 0
25 -32 0
7 -32 0
-8 -25 33 0
25 -33 0
8 -33 0
-1 -34 35 0
34 -35 0
1 -35 0
-2 -34 36 0
34 -36 0
2 -36 0
-3 -34 37 0
34 -37 0
3 -37 0
-4 -34 38 0
34 -38 0
4 -38 0
-5 -34 39 0
34 -39 0
5 -39 0
-6 -34 40 0
34 -40 0
6 -40 0
-7 -34 41 0
34 -41 0
7 -41 0
-8 -34 42 0
34 -42 0
8 -42 0
-1 -43 44 0
43 -44 0
1 -44 0
-2 -43 45 0
43 -45 0
2 -45 0
-3 -43 46 0
43 -46 0
3 -46 0
-4 -43 47 0
43 -47 0
4 -47 0
-5 -43 48 0
43 -48 0
5 -48 0
-6 -43 49 0
43 -49 0
6 -49 0
-7 -43 50 0
43 -50 0
7 -50 0
-8 -43 51 0
43 -51 0
8 -51 0
-1 -52 53 0
52 -53 0
1 -53 0
-2 -52 54 0
52 -54 0
2 -54 0
-3 -52 55 0
52 -55 0
3 -55 0
-4 -52 56 0
52 -56 0
4 -56 0
-5 -52 57 0
52 -57 0
5 -57 0
-6 -52 58 0
52 -58 0
6 -58 0
-7 -52 59 0
52 -59 0
7 -59 0
-8 -52 60 0
52 -60 0
8 -60 0
-1 -61 62 0
61 -62 0
1 -62 0
-2 -61 63 0
61 -63 0
2 -63 0
-3 -61 64 0
61 -64 0
3 -64 0
-4 -61 65 0
61 -65 0
4 -65 0
-5 -61 66 0
61 -66 0
5 -66 0
-6 -61 67 0
61 -67 0
6 -67 0
-7 -61 68 0
61 -68 0
7 -68 0
-8 -61 69 0
61 -69 0
8 -69 0
-1 -70 71 0
70 -71 0
1 -71 0
-2 -70 72 0
70 -72 0
2 -72 0
-3 -70 73 0
70 -73 0
3 -73 0
-4 -70 74 0
70 -74 0
4 -74 0
-5 -70 75 0
70 -75 0
5 -75 0
-6 -70 76 0
70 -76 0
6 -76 0
-7 -70 77 0
70 -77 0
7 -77 0
-8 -70 78 0
70 -78 0
8 -78 0
-1 -2 80 0
2 -80 0
1 -80 0
-1 -16 81 0
16 -81 0
1 -81 0
-3 -9 83 0
3 -83 0
9 -83 0
-17 -25 85 0
17 -85 0
25 -85 0
-80 -81 87 0
80 -87 0
81 -87 0
-79 -82 89 0
79 -89 0
82 -89 0
-84 -86 90 0
84 -90 0
86 -90 0
-4 -10 92 0
4 -92 0
10 -92 0
-18 -26 94 0
18 -94 0
26 -94 0
-34 -83 96 0
34 -96 0
83 -96 0
-85 -87 98 0
85 -98 0
87 -98 0
-89 -90 100 0
89 -100 0
90 -100 0
-88 -91 102 0
88 -102 0
91 -102 0
-93 -95 104 0
93 -104 0
95 -104 0
-97 -99 106 0
97 -106 0
99 -106 0
-101 -103 107 0
101 -107 0
103 -107 0
-5 -11 109 0
5 -109 0
11 -109 0
-19 -27 111 0
19 -111 0
27 -111 0
-35 -43 113 0
35 -113 0
43 -113 0
-92 -94 115 0
92 -115 0
94 -115 0
-96 -98 117 0
96 -117 0
98 -117 0
-100 -102 119 0
100 -119 0
102 -119 0
-104 -106 121 0
104 -121 0
106 -121 0
-105 -107 123 0
107 -123 0
105 -123 0
-108 -110 125 0
108 -125 0
110 -125 0
-112 -114 127 0
112 -127 0
114 -127 0
-116 -118 129 0
116 -129 0
118 -129 0
-120 -122 131 0
120 -131 0
122 -131 0
-124 -126 133 0
124 -133 0
126 -133 0
-128 -130 134 0
128 -134 0
130 -134 0
-6 -12 136 0
6 -136 0
12 -136 0
-20 -28 138 0
20 -138 0
28 -138 0
-36 -44 140 0
36 -140 0
44 -140 0
-52 -109 142 0
52 -142 0
109 -142 0
-111 -113 144 0
111 -144 0
113 -144 0
-115 -117 146 0
115 -146 0
117 -146 0
-119 -121 148 0
119 -148 0
121 -148 0
-123 -125 150 0
123 -150 0
125 -150 0
-127 -129 152 0
127 -152 0
129 -152 0
-131 -133 154 0
131 -154 0
133 -154 0
-132 -134 156 0
134 -156 0
132 -156 0
-135 -137 158 0
135 -158 0
137 -158 0
-139 -141 160 0
139 -160 0
141 -160 0
-143 -145 162 0
143 -162 0
145 -162 0
-147 -149 164 0
147 -164 0
149 -164 0
-151 -153 166 0
151 -166 0
153 -166 0
-155 -157 168 0
155 -168 0
157 -168 0
-159 -161 170 0
159 -170 0
161 -170 0
-163 -165 172 0
163 -172 0
165 -172 0
-167 -169 173 0
167 -173 0
169 -173 0
-7 -13 174 0
7 -174 0
13 -174 0
-21 -29 176 0
21 -176 0
29 -176 0
-37 -45 178 0
37 -178 0
45 -178 0
-53 -61 180 0
53 -180 0
61 -180 0
-136 -138 182 0
136 -182 0
138 -182 0
-140 -142 184 0
140 -184 0
142 -184 0
-144 -146 186 0
144 -186 0
146 -186 0
-148 -150 188 0
148 -188 0
150 -188 0
-152 -154 190 0
152 -190 0
154 -190 0
-156 -158 192 0
156 -192 0
158 -192 0
-160 -162 194 0
160 -194 0
162 -194 0
-164 -166 196 0
164 -196 0
166 -196 0
-168 -170 198 0
168 -198 0
170 -198 0
-172 -173 245 0
172 -245 0
173 -245 0
-175 -177 202 0
175 -202 0
177 -202 0
-179 -181 204 0
179 -204 0
181 -204 0
-183 -185 206 0
183 -206 0
185 -206 0
-187 -189 208 0
187 -208 0
189 -208 0
-191 -193 210 0
191 -210 0
193 -210 0
-195 -197 212 0
195 -212 0
197 -212 0
-199 -200 214 0
199 -214 0
200 -214 0
-201 -203 216 0
201 -216 0
203 -216 0
-205 -207 218 0
205 -218 0
207 -218 0
-209 -211 220 0
209 -220 0
211 -220 0
-213 -215 222 0
213 -222 0
215 -222 0
-217 -219 223 0
217 -223 0
219 -223 0
-8 -14 225 0
8 -225 0
14 -225 0
-22 -30 227 0
22 -227 0
30 -227 0
-38 -46 229 0
38 -229 0
46 -229 0
-54 -62 231 0
54 -231 0
62 -231 0
-70 -174 233 0
70 -233 0
174 -233 0
-176 -178 235 0
176 -235 0
178 -235 0
-180 -182 237 0
180 -237 0
182 -237 0
-184 -186 239 0
184 -239 0
186 -239 0
-188 -190 241 0
188 -241 0
190 -241 0
-192 -194 243 0
192 -243 0
194 -243 0
-196 -198 309 0
196 -309 0
198 -309 0
-202 -204 247 0
202 -247 0
204 -247 0
-206 -208 249 0
206 -249 0
208 -249 0
-210 -212 251 0
210 -251 0
212 -251 0
-214 -216 253 0
214 -253 0
216 -253 0
-218 -220 255 0
218 -255 0
220 -255 0
-222 -223 257 0
222 -257 0
223 -257 0
-221 -224 259 0
221 -259 0
224 -259 0
-226 -228 261 0
226 -261 0
228 -261 0
-230 -232 263 0
230 -263 0
232 -263 0
-234 -236 265 0
234 -265 0
236 -265 0
-238 -240 267 0
238 -267 0
240 -267 0
-242 -244 269 0
242 -269 0
244 -269 0
-245 -246 271 0
245 -271 0
246 -271 0
-248 -250 273 0
248 -273 0
250 -273 0
-252 -254 275 0
252 -275 0
254 -275 0
-256 -258 277 0
256 -277 0
258 -277 0
-260 -262 279 0
260 -279 0
262 -279 0
-264 -266 281 0
264 -281 0
266 -281 0
-268 -270 283 0
268 -283 0
270 -283 0
-272 -274 285 0
272 -285 0
274 -285 0
-276 -278 287 0
276 -287 0
278 -287 0
-280 -282 289 0
280 -289 0
282 -289 0
-284 -286 290 0
284 -290 0
286 -290 0
-15 -23 292 0
15 -292 0
23 -292 0
-31 -39 294 0
31 -294 0
39 -294 0
-47 -55 296 0
47 -296 0
55 -296 0
-63 -71 298 0
63 -298 0
71 -298 0
-225 -227 300 0
225 -300 0
227 -300 0
-229 -231 302 0
229 -302 0
231 -302 0
-233 -235 304 0
233 -304 0
235 -304 0
-237 -239 306 0
237 -306 0
239 -306 0
-241 -243 308 0
241 -308 0
243 -308 0
-247 -249 388 0
247 -388 0
249 -388 0
-251 -253 312 0
251 -312 0
253 -312 0
-255 -257 314 0
255 -314 0
257 -314 0
-259 -261 316 0
259 -316 0
261 -316 0
-263 -265 318 0
263 -318 0
265 -318 0
-267 -269 320 0
267 -320 0
269 -320 0
-271 -273 322 0
271 -322 0
273 -322 0
-275 -277 324 0
275 -324 0
277 -324 0
-279 -281 326 0
279 -326 0
281 -326 0
-283 -285 328 0
283 -328 0
285 -328 0
-287 -289 330 0
287 -330 0
289 -330 0
-288 -290 332 0
290 -332 0
288 -332 0
-291 -293 334 0
291 -334 0
293 -334 0
-295 -297 336 0
295 -336 0
297 -336 0
-299 -301 338 0
299 -338 0
301 -338 0
-303 -305 340 0
303 -340 0
305 -340 0
-307 -309 342 0
307 -342 0
309 -342 0
-310 -311 344 0
310 -344 0
311 -344 0
-313 -315 346 0
313 -346 0
315 -346 0
-317 -319 348 0
317 -348 0
319 -348 0
-321 -323 350 0
321 -350 0
323 -350 0
-325 -327 352 0
325 -352 0
327 -352 0
-329 -331 354 0
329 -354 0
331 -354 0
-333 -335 356 0
333 -356 0
335 -356 0
-337 -339 358 0
337 -358 0
339 -358 0
-341 -343 360 0
341 -360 0
343 -360 0
-345 -347 362 0
345 -362 0
347 -362 0
-349 -351 364 0
349 -364 0
351 -364 0
-353 -355 366 0
353 -366 0
355 -366 0
-357 -359 368 0
357 -368 0
359 -368 0
-361 -363 370 0
361 -370 0
363 -370 0
-365 -367 371 0
365 -371 0
367 -371 0
-24 -32 373 0
24 -373 0
32 -373 0
-40 -48 375 0
40 -375 0
48 -375 0
-56 -64 377 0
56 -377 0
64 -377 0
-72 -292 379 0
72 -379 0
292 -379 0
-294 -296 381 0
294 -381 0
296 -381 0
-298 -300 383 0
298 -383 0
300 -383 0
-302 -304 385 0
302 -385 0
304 -385 0
-306 -308 387 0
306 -387 0
308 -387 0
-312 -314 479 0
312 -479 0
314 -479 0
-316 -318 391 0
316 -391 0
318 -391 0
-320 -322 393 0
320 -393 0
322 -393 0
-324 -326 395 0
324 -395 0
326 -395 0
-328 -330 397 0
328 -397 0
330 -397 0
-332 -334 399 0
332 -399 0
334 -399 0
-336 -338 401 0
336 -401 0
338 -401 0
-340 -342 403 0
340 -403 0
342 -403 0
-344 -346 405 0
344 -405 0
346 -405 0
-348 -350 407 0
348 -407 0
350 -407 0
-352 -354 409 0
352 -409 0
354 -409 0
-356 -358 411 0
356 -411 0
358 -411 0
-360 -362 413 0
360 -413 0
362 -413 0
-364 -366 415 0
364 -415 0
366 -415 0
-368 -370 417 0
368 -417 0
370 -417 0
-369 -371 419 0
371 -419 0
369 -419 0
-372 -374 421 0
372 -421 0
374 -421 0
-376 -378 423 0
376 -423 0
378 -423 0
-380 -382 425 0
380 -425 0
382 -425 0
-384 -386 427 0
384 -427 0
386 -427 0
-388 -389 429 0
388 -429 0
389 -429 0
-390 -392 431 0
390 -431 0
392 -431 0
-394 -396 433 0
394 -433 0
396 -433 0
-398 -400 435 0
398 -435 0
400 -435 0
-402 -404 437 0
402 -437 0
404 -437 0
-406 -408 439 0
406 -439 0
408 -439 0
-410 -412 441 0
410 -441 0
412 -441 0
-414 -416 443 0
414 -443 0
416 -443 0
-418 -420 445 0
418 -445 0
420 -445 0
-422 -424 447 0
422 -447 0
424 -447 0
-426 -428 449 0
426 -449 0
428 -449 0
-430 -432 451 0
430 -451 0
432 -451 0
-434 -436 453 0
434 -453 0
436 -453 0
-438 -440 455 0
438 -455 0
440 -455 0
-442 -444 457 0
442 -457 0
444 -457 0
-446 -448 459 0
446 -459 0
448 -459 0
-450 -452 461 0
450 -461 0
452 -461 0
-454 -456 463 0
454 -463 0
456 -463 0
-458 -460 464 0
458 -464 0
460 -464 0
-33 -41 466 0
33 -466 0
41 -466 0
-49 -57 468 0
49 -468 0
57 -468 0
-65 -73 470 0
65 -470 0
73 -470 0
-373 -375 472 0
373 -472 0
375 -472 0
-377 -379 474 0
377 -474 0
379 -474 0
-381 -383 476 0
381 -476 0
383 -476 0
-385 -387 478 0
385 -478 0
387 -478 0
-391 -393 579 0
391 -579 0
393 -579 0
-395 -397 482 0
395 -482 0
397 -482 0
-399 -401 484 0
399 -484 0
401 -484 0
-403 -405 486 0
403 -486 0
405 -486 0
-407 -409 488 0
407 -488 0
409 -488 0
-411 -413 490 0
411 -490 0
413 -490 0
-415 -417 492 0
415 -492 0
417 -492 0
-419 -421 494 0
419 -494 0
421 -494 0
-423 -425 496 0
423 -496 0
425 -496 0
-427 -429 498 0
427 -498 0
429 -498 0
-431 -433 500 0
431 -500 0
433 -500 0
-435 -437 502 0
435 -502 0
437 -502 0
-439 -441 504 0
439 -504 0
441 -504 0
-443 -445 506 0
443 -506 0
445 -506 0
-447 -449 508 0
447 -508 0
449 -508 0
-451 -453 510 0
451 -510 0
453 -510 0
-455 -457 512 0
455 -512 0
457 -512 0
-459 -461 514 0
459 -514 0
461 -514 0
-463 -464 516 0
463 -516 0
464 -516 0
-462 -465 518 0
462 -518 0
465 -518 0
-467 -469 520 0
467 -520 0
469 -520 0
-471 -473 522 0
471 -522 0
473 -522 0
-475 -477 524 0
475 -524 0
477 -524 0
-479 -480 526 0
479 -526 0
480 -526 0
-481 -483 528 0
481 -528 0
483 -528 0
-485 -487 530 0
485 -530 0
487 -530 0
-489 -491 532 0
489 -532 0
491 -532 0
-493 -495 534 0
493 -534 0
495 -534 0
-497 -499 536 0
497 -536 0
499 -536 0
-501 -503 538 0
501 -538 0
503 -538 0
-505 -507 540 0
505 -540 0
507 -540 0
-509 -511 542 0
509 -542 0
511 -542 0
-513 -515 544 0
513 -544 0
515 -544 0
-517 -519 546 0
517 -546 0
519 -546 0
-521 -523 548 0
521 -548 0
523 -548 0
-525 -527 550 0
525 -550 0
527 -550 0
-529 -531 552 0
529 -552 0
531 -552 0
-533 -535 554 0
533 -554 0
535 -554 0
-537 -539 556 0
537 -556 0
539 -556 0
-541 -543 558 0
541 -558 0
543 -558 0
-545 -547 560 0
545 -560 0
547 -560 0
-549 -551 562 0
549 -562 0
551 -562 0
-553 -555 564 0
553 -564 0
555 -564 0
-557 -559 566 0
557 -566 0
559 -566 0
-561 -563 567 0
561 -567 0
563 -567 0
-42 -50 568 0
42 -568 0
50 -568 0
-58 -66 570 0
58 -570 0
66 -570 0
-74 -466 572 0
74 -572 0
466 -572 0
-468 -470 574 0
468 -574 0
470 -574 0
-472 -474 576 0
472 -576 0
474 -576 0
-476 -478 578 0
476 -578 0
478 -578 0
-482 -484 686 0
482 -686 0
484 -686 0
-486 -488 582 0
486 -582 0
488 -582 0
-490 -492 584 0
490 -584 0
492 -584 0
-494 -496 586 0
494 -586 0
496 -586 0
-498 -500 588 0
498 -588 0
500 -588 0
-502 -504 590 0
502 -590 0
504 -590 0
-506 -508 592 0
506 -592 0
508 -592 0
-510 -512 594 0
510 -594 0
512 -594 0
-514 -516 596 0
514 -596 0
516 -596 0
-518 -520 598 0
518 -598 0
520 -598 0
-522 -524 600 0
522 -600 0
524 -600 0
-526 -528 602 0
526 -602 0
528 -602 0
-530 -532 604 0
530 -604 0
532 -604 0
-534 -536 606 0
534 -606 0
536 -606 0
-538 -540 608 0
538 -608 0
540 -608 0
-542 -544 610 0
542 -610 0
544 -610 0
-546 -548 612 0
546 -612 0
548 -612 0
-550 -552 614 0
550 -614 0
552 -614 0
-554 -556 616 0
554 -616 0
556 -616 0
-558 -560 618 0
558 -618 0
560 -618 0
-562 -564 620 0
562 -620 0
564 -620 0
-566 -567 705 0
566 -705 0
567 -705 0
-569 -571 624 0
569 -624 0
571 -624 0
-573 -575 626 0
573 -626 0
575 -626 0
-577 -579 628 0
577 -628 0
579 -628 0
-580 -581 630 0
580 -630 0
581 -630 0
-583 -585 632 0
583 -632 0
585 -632 0
-587 -589 634 0
587 -634 0
589 -634 0
-591 -593 636 0
591 -636 0
593 -636 0
-595 -597 638 0
595 -638 0
597 -638 0
-599 -601 640 0
599 -640 0
601 -640 0
-603 -605 642 0
603 -642 0
605 -642 0
-607 -609 644 0
607 -644 0
609 -644 0
-611 -613 646 0
611 -646 0
613 -646 0
-615 -617 648 0
615 -648 0
617 -648 0
-619 -621 650 0
619 -650 0
621 -650 0
-622 -623 652 0
622 -652 0
623 -652 0
-625 -627 654 0
625 -654 0
627 -654 0
-629 -631 656 0
629 -656 0
631 -656 0
-633 -635 658 0
633 -658 0
635 -658 0
-637 -639 660 0
637 -660 0
639 -660 0
-641 -643 662 0
641 -662 0
643 -662 0
-645 -647 664 0
645 -664 0
647 -664 0
-649 -651 666 0
649 -666 0
651 -666 0
-653 -655 668 0
653 -668 0
655 -668 0
-657 -659 670 0
657 -670 0
659 -670 0
-661 -663 672 0
661 -672 0
663 -672 0
-665 -667 674 0
665 -674 0
667 -674 0
-669 -671 675 0
669 -675 0
671 -675 0
-51 -59 677 0
51 -677 0
59 -677 0
-67 -75 679 0
67 -679 0
75 -679 0
-568 -570 681 0
568 -681 0
570 -681 0
-572 -574 683 0
572 -683 0
574 -683 0
-576 -578 685 0
576 -685 0
578 -685 0
-582 -584 799 0
582 -799 0
584 -799 0
-586 -588 689 0
586 -689 0
588 -689 0
-590 -592 691 0
590 -691 0
592 -691 0
-594 -596 693 0
594 -693 0
596 -693 0
-598 -600 695 0
598 -695 0
600 -695 0
-602 -604 697 0
602 -697 0
604 -697 0
-606 -608 699 0
606 -699 0
608 -699 0
-610 -612 701 0
610 -701 0
612 -701 0
-614 -616 703 0
614 -703 0
616 -703 0
-618 -620 806 0
618 -806 0
620 -806 0
-624 -626 707 0
624 -707 0
626 -707 0
-628 -630 709 0
628 -709 0
630 -709 0
-632 -634 711 0
632 -711 0
634 -711 0
-636 -638 713 0
636 -713 0
638 -713 0
-640 -642 715 0
640 -715 0
642 -715 0
-644 -646 717 0
644 -717 0
646 -717 0
-648 -650 719 0
648 -719 0
650 -719 0
-652 -654 721 0
652 -721 0
654 -721 0
-656 -658 723 0
656 -723 0
658 -723 0
-660 -662 725 0
660 -725 0
662 -725 0
-664 -666 727 0
664 -727 0
666 -727 0
-668 -670 729 0
668 -729 0
670 -729 0
-672 -674 731 0
672 -731 0
674 -731 0
-673 -675 733 0
675 -733 0
673 -733 0
-676 -678 735 0
676 -735 0
678 -735 0
-680 -682 737 0
680 -737 0
682 -737 0
-684 -686 739 0
684 -739 0
686 -739 0
-687 -688 741 0
687 -741 0
688 -741 0
-690 -692 743 0
690 -743 0
692 -743 0
-694 -696 745 0
694 -745 0
696 -745 0
-698 -700 747 0
698 -747 0
700 -747 0
-702 -704 749 0
702 -749 0
704 -749 0
-705 -706 751 0
705 -751 0
706 -751 0
-708 -710 753 0
708 -753 0
710 -753 0
-712 -714 755 0
712 -755 0
714 -755 0
-716 -718 757 0
716 -757 0
718 -757 0
-720 -722 759 0
720 -759 0
722 -759 0
-724 -726 761 0
724 -761 0
726 -761 0
-728 -730 763 0
728 -763 0
730 -763 0
-732 -734 765 0
732 -765 0
734 -765 0
-736 -738 767 0
736 -767 0
738 -767 0
-740 -742 769 0
740 -769 0
742 -769 0
-744 -746 771 0
744 -771 0
746 -771 0
-748 -750 773 0
748 -773 0
750 -773 0
-752 -754 775 0
752 -775 0
754 -775 0
-756 -758 777 0
756 -777 0
758 -777 0
-760 -762 779 0
760 -779 0
762 -779 0
-764 -766 781 0
764 -781 0
766 -781 0
-768 -770 783 0
768 -783 0
770 -783 0
-772 -774 785 0
772 -785 0
774 -785 0
-776 -778 787 0
776 -787 0
778 -787 0
-780 -782 789 0
780 -789 0
782 -789 0
-784 -786 790 0
784 -790 0
786 -790 0
-60 -68 792 0
60 -792 0
68 -792 0
-76 -677 794 0
76 -794 0
677 -794 0
-679 -681 796 0
679 -796 0
681 -796 0
-683 -685 798 0
683 -798 0
685 -798 0
-689 -691 915 0
689 -915 0
691 -915 0
-693 -695 802 0
693 -802 0
695 -802 0
-697 -699 804 0
697 -804 0
699 -804 0
-701 -703 917 0
701 -917 0
703 -917 0
-707 -709 808 0
707 -808 0
709 -808 0
-711 -713 810 0
711 -810 0
713 -810 0
-715 -717 812 0
715 -812 0
717 -812 0
-719 -721 814 0
719 -814 0
721 -814 0
-723 -725 816 0
723 -816 0
725 -816 0
-727 -729 818 0
727 -818 0
729 -818 0
-731 -733 820 0
731 -820 0
733 -820 0
-735 -737 822 0
735 -822 0
737 -822 0
-739 -741 824 0
739 -824 0
741 -824 0
-743 -745 826 0
743 -826 0
745 -826 0
-747 -749 828 0
747 -828 0
749 -828 0
-751 -753 830 0
751 -830 0
753 -830 0
-755 -757 832 0
755 -832 0
757 -832 0
-759 -761 834 0
759 -834 0
761 -834 0
-763 -765 836 0
763 -836 0
765 -836 0
-767 -769 838 0
767 -838 0
769 -838 0
-771 -773 840 0
771 -840 0
773 -840 0
-775 -777 842 0
775 -842 0
777 -842 0
-779 -781 844 0
779 -844 0
781 -844 0
-783 -785 846 0
783 -846 0
785 -846 0
-787 -789 848 0
787 -848 0
789 -848 0
-788 -790 850 0
790 -850 0
788 -850 0
-791 -793 852 0
791 -852 0
793 -852 0
-795 -797 854 0
795 -854 0
797 -854 0
-799 -800 856 0
799 -856 0
800 -856 0
-801 -803 858 0
801 -858 0
803 -858 0
-805 -806 860 0
805 -860 0
806 -860 0
-807 -809 862 0
807 -862 0
809 -862 0
-811 -813 864 0
811 -864 0
813 -864 0
-815 -817 866 0
815 -866 0
817 -866 0
-819 -821 868 0
819 -868 0
821 -868 0
-823 -825 870 0
823 -870 0
825 -870 0
-827 -829 872 0
827 -872 0
829 -872 0
-831 -833 874 0
831 -874 0
833 -874 0
-835 -837 876 0
835 -876 0
837 -876 0
-839 -841 878 0
839 -878 0
841 -878 0
-843 -845 880 0
843 -880 0
845 -880 0
-847 -849 882 0
847 -882 0
849 -882 0
-851 -853 884 0
851 -884 0
853 -884 0
-855 -857 886 0
855 -886 0
857 -886 0
-859 -861 888 0
859 -888 0
861 -888 0
-863 -865 890 0
863 -890 0
865 -890 0
-867 -869 892 0
867 -892 0
869 -892 0
-871 -873 894 0
871 -894 0
873 -894 0
-875 -877 896 0
875 -896 0
877 -896 0
-879 -881 898 0
879 -898 0
881 -898 0
-883 -885 900 0
883 -900 0
885 -900 0
-887 -889 902 0
887 -902 0
889 -902 0
-891 -893 904 0
891 -904 0
893 -904 0
-895 -897 906 0
895 -906 0
897 -906 0
-899 -901 908 0
899 -908 0
901 -908 0
-903 -905 909 0
903 -909 0
905 -909 0
-69 -77 910 0
69 -910 0
77 -910 0
-792 -794 912 0
792 -912 0
794 -912 0
-796 -798 914 0
796 -914 0
798 -914 0
-802 -804 1031 0
802 -1031 0
804 -1031 0
-808 -810 1032 0
808 -1032 0
810 -1032 0
-812 -814 920 0
812 -920 0
814 -920 0
-816 -818 922 0
816 -922 0
818 -922 0
-820 -822 924 0
820 -924 0
822 -924 0
-824 -826 926 0
824 -926 0
826 -926 0
-828 -830 928 0
828 -928 0
830 -928 0
-832 -834 930 0
832 -930 0
834 -930 0
-836 -838 932 0
836 -932 0
838 -932 0
-840 -842 934 0
840 -934 0
842 -934 0
-844 -846 936 0
844 -936 0
846 -936 0
-848 -850 938 0
848 -938 0
850 -938 0
-852 -854 940 0
852 -940 0
854 -940 0
-856 -858 942 0
856 -942 0
858 -942 0
-860 -862 944 0
860 -944 0
862 -944 0
-864 -866 946 0
864 -946 0
866 -946 0
-868 -870 948 0
868 -948 0
870 -948 0
-872 -874 950 0
872 -950 0
874 -950 0
-876 -878 952 0
876 -952 0
878 -952 0
-880 -882 954 0
880 -954 0
882 -954 0
-884 -886 956 0
884 -956 0
886 -956 0
-888 -890 958 0
888 -958 0
890 -958 0
-892 -894 960 0
892 -960 0
894 -960 0
-896 -898 962 0
896 -962 0
898 -962 0
-900 -902 964 0
900 -964 0
902 -964 0
-904 -906 966 0
904 -966 0
906 -966 0
-908 -909 1057 0
908 -1057 0
909 -1057 0
-911 -913 970 0
911 -970 0
913 -970 0
-915 -916 972 0
915 -972 0
916 -972 0
-917 -918 974 0
917 -974 0
918 -974 0
-919 -921 976 0
919 -976 0
921 -976 0
-923 -925 978 0
923 -978 0
925 -978 0
-927 -929 980 0
927 -980 0
929 -980 0
-931 -933 982 0
931 -982 0
933 -982 0
-935 -937 984 0
935 -984 0
937 -984 0
-939 -941 986 0
939 -986 0
941 -986 0
-943 -945 988 0
943 -988 0
945 -988 0
-947 -949 990 0
947 -990 0
949 -990 0
-951 -953 992 0
951 -992 0
953 -992 0
-955 -957 994 0
955 -994 0
957 -994 0
-959 -961 996 0
959 -996 0
961 -996 0
-963 -965 998 0
963 -998 0
965 -998 0
-967 -968 1000 0
967 -1000 0
968 -1000 0
-969 -971 1002 0
969 -1002 0
971 -1002 0
-973 -975 1004 0
973 -1004 0
975 -1004 0
-977 -979 1006 0
977 -1006 0
979 -1006 0
-981 -983 1008 0
981 -1008 0
983 -1008 0
-985 -987 1010 0
985 -1010 0
987 -1010 0
-989 -991 1012 0
989 -1012 0
991 -1012 0
-993 -995 1014 0
993 -1014 0
995 -1014 0
-997 -999 1016 0
997 -1016 0
999 -1016 0
-1001 -1003 1018 0
1001 -1018 0
1003 -1018 0
-1005 -1007 1020 0
1005 -1020 0
1007 -1020 0
-1009 -1011 1022 0
1009 -1022 0
1011 -1022 0
-1013 -1015 1024 0
1013 -1024 0
1015 -1024 0
-1017 -1019 1026 0
1017 -1026 0
1019 -1026 0
-1021 -1023 1027 0
1021 -1027 0
1023 -1027 0
-78 -910 1028 0
78 -1028 0
910 -1028 0
-912 -914 1030 0
912 -1030 0
914 -1030 0
-920 -922 1034 0
920 -1034 0
922 -1034 0
-924 -926 1036 0
924 -1036 0
926 -1036 0
-928 -930 1038 0
928 -1038 0
930 -1038 0
-932 -934 1040 0
932 -1040 0
934 -1040 0
-936 -938 1042 0
936 -1042 0
938 -1042 0
-940 -942 1044 0
940 -1044 0
942 -1044 0
-944 -946 1046 0
944 -1046 0
946 -1046 0
-948 -950 1048 0
948 -1048 0
950 -1048 0
-952 -954 1050 0
952 -1050 0
954 -1050 0
-956 -958 1052 0
956 -1052 0
958 -1052 0
-960 -962 1054 0
960 -1054 0
962 -1054 0
-964 -966 1056 0
964 -1056 0
966 -1056 0
-970 -972 1157 0
970 -1157 0
972 -1157 0
-974 -976 1060 0
974 -1060 0
976 -1060 0
-978 -980 1062 0
978 -1062 0
980 -1062 0
-982 -984 1064 0
982 -1064 0
984 -1064 0
-986 -988 1066 0
986 -1066 0
988 -1066 0
-990 -992 1068 0
990 -1068 0
992 -1068 0
-994 -996 1070 0
994 -1070 0
996 -1070 0
-998 -1000 1072 0
998 -1072 0
1000 -1072 0
-1002 -1004 1074 0
1002 -1074 0
1004 -1074 0
-1006 -1008 1076 0
1006 -1076 0
1008 -1076 0
-1010 -1012 1078 0
1010 -1078 0
1012 -1078 0
-1014 -1016 1080 0
1014 -1080 0
1016 -1080 0
-1018 -1020 1082 0
1018 -1082 0
1020 -1082 0
-1022 -1024 1084 0
1022 -1084 0
1024 -1084 0
-1026 -1027 1086 0
1026 -1086 0
1027 -1086 0
-1029 -1031 1171 0
1029 -1171 0
1031 -1171 0
-1032 -1033 1090 0
1032 -1090 0
1033 -1090 0
-1035 -1037 1092 0
1035 -1092 0
1037 -1092 0
-1039 -1041 1094 0
1039 -1094 0
1041 -1094 0
-1043 -1045 1096 0
1043 -1096 0
1045 -1096 0
-1047 -1049 1098 0
1047 -1098 0
1049 -1098 0
-1051 -1053 1100 0
1051 -1100 0
1053 -1100 0
-1055 -1057 1102 0
1055 -1102 0
1057 -1102 0
-1058 -1059 1104 0
1058 -1104 0
1059 -1104 0
-1061 -1063 1106 0
1061 -1106 0
1063 -1106 0
-1065 -1067 1108 0
1065 -1108 0
1067 -1108 0
-1069 -1071 1110 0
1069 -1110 0
1071 -1110 0
-1073 -1075 1112 0
1073 -1112 0
1075 -1112 0
-1077 -1079 1114 0
1077 -1114 0
1079 -1114 0
-1081 -1083 1116 0
1081 -1116 0
1083 -1116 0
-1085 -1087 1118 0
1085 -1118 0
1087 -1118 0
-1088 -1089 1120 0
1088 -1120 0
1089 -1120 0
-1091 -1093 1122 0
1091 -1122 0
1093 -1122 0
-1095 -1097 1124 0
1095 -1124 0
1097 -1124 0
-1099 -1101 1126 0
1099 -1126 0
1101 -1126 0
-1103 -1105 1128 0
1103 -1128 0
1105 -1128 0
-1107 -1109 1130 0
1107 -1130 0
1109 -1130 0
-1111 -1113 1132 0
1111 -1132 0
1113 -1132 0
-1115 -1117 1134 0
1115 -1134 0
1117 -1134 0
-1119 -1121 1136 0
1119 -1136 0
1121 -1136 0
-1123 -1125 1138 0
1123 -1138 0
1125 -1138 0
-1127 -1129 1140 0
1127 -1140 0
1129 -1140 0
-1131 -1133 1142 0
1131 -1142 0
1133 -1142 0
-1135 -1137 1144 0
1135 -1144 0
1137 -1144 0
-1139 -1141 1198 0
1139 -1198 0
1141 -1198 0
-1028 -1030 1256 0
1028 -1256 0
1030 -1256 0
-1034 -1036 1146 0
1034 -1146 0
1036 -1146 0
-1038 -1040 1148 0
1038 -1148 0
1040 -1148 0
-1042 -1044 1150 0
1042 -1150 0
1044 -1150 0
-1046 -1048 1152 0
1046 -1152 0
1048 -1152 0
-1050 -1052 1154 0
1050 -1154 0
1052 -1154 0
-1054 -1056 1156 0
1054 -1156 0
1056 -1156 0
-1060 -1062 1262 0
1060 -1262 0
1062 -1262 0
-1064 -1066 1160 0
1064 -1160 0
1066 -1160 0
-1068 -1070 1162 0
1068 -1162 0
1070 -1162 0
-1072 -1074 1164 0
1072 -1164 0
1074 -1164 0
-1076 -1078 1166 0
1076 -1166 0
1078 -1166 0
-1080 -1082 1168 0
1080 -1168 0
1082 -1168 0
-1084 -1086 1170 0
1084 -1170 0
1086 -1170 0
-1090 -1092 1268 0
1090 -1268 0
1092 -1268 0
-1094 -1096 1174 0
1094 -1174 0
1096 -1174 0
-1098 -1100 1176 0
1098 -1176 0
1100 -1176 0
-1102 -1104 1178 0
1102 -1178 0
1104 -1178 0
-1106 -1108 1180 0
1106 -1180 0
1108 -1180 0
-1110 -1112 1182 0
1110 -1182 0
1112 -1182 0
-1114 -1116 1184 0
1114 -1184 0
1116 -1184 0
-1118 -1120 1186 0
1118 -1186 0
1120 -1186 0
-1122 -1124 1188 0
1122 -1188 0
1124 -1188 0
-1126 -1128 1190 0
1126 -1190 0
1128 -1190 0
-1130 -1132 1192 0
1130 -1192 0
1132 -1192 0
-1134 -1136 1194 0
1134 -1194 0
1136 -1194 0
-1138 -1140 1196 0
1138 -1196 0
1140 -1196 0
-1142 -1144 1279 0
1142 -1279 0
1144 -1279 0
-1145 -1147 1280 0
1145 -1280 0
1147 -1280 0
-1149 -1151 1202 0
1149 -1202 0
1151 -1202 0
-1153 -1155 1204 0
1153 -1204 0
1155 -1204 0
-1157 -1158 1206 0
1157 -1206 0
1158 -1206 0
-1159 -1161 1208 0
1159 -1208 0
1161 -1208 0
-1163 -1165 1210 0
1163 -1210 0
1165 -1210 0
-1167 -1169 1212 0
1167 -1212 0
1169 -1212 0
-1171 -1172 1214 0
1171 -1214 0
1172 -1214 0
-1173 -1175 1216 0
1173 -1216 0
1175 -1216 0
-1177 -1179 1218 0
1177 -1218 0
1179 -1218 0
-1181 -1183 1220 0
1181 -1220 0
1183 -1220 0
-1185 -1187 1222 0
1185 -1222 0
1187 -1222 0
-1189 -1191 1224 0
1189 -1224 0
1191 -1224 0
-1193 -1195 1226 0
1193 -1226 0
1195 -1226 0
-1197 -1198 1228 0
1197 -1228 0
1198 -1228 0
-1199 -1200 1230 0
1199 -1230 0
1200 -1230 0
-1201 -1203 1232 0
1201 -1232 0
1203 -1232 0
-1205 -1207 1234 0
1205 -1234 0
1207 -1234 0
-1209 -1211 1236 0
1209 -1236 0
1211 -1236 0
-1213 -1215 1238 0
1213 -1238 0
1215 -1238 0
-1217 -1219 1240 0
1217 -1240 0
1219 -1240 0
-1221 -1223 1242 0
1221 -1242 0
1223 -1242 0
-1225 -1227 1244 0
1225 -1244 0
1227 -1244 0
-1229 -1231 1246 0
1229 -1246 0
1231 -1246 0
-1233 -1235 1248 0
1233 -1248 0
1235 -1248 0
-1237 -1239 1250 0
1237 -1250 0
1239 -1250 0
-1241 -1243 1252 0
1241 -1252 0
1243 -1252 0
-1245 -1247 1254 0
1245 -1254 0
1247 -1254 0
-1249 -1251 1255 0
1249 -1255 0
1251 -1255 0
-1146 -1148 1367 0
1146 -1367 0
1148 -1367 0
-1150 -1152 1259 0
1150 -1259 0
1152 -1259 0
-1154 -1156 1261 0
1154 -1261 0
1156 -1261 0
-1160 -1162 1369 0
1160 -1369 0
1162 -1369 0
-1164 -1166 1265 0
1164 -1265 0
1166 -1265 0
-1168 -1170 1267 0
1168 -1267 0
1170 -1267 0
-1174 -1176 1371 0
1174 -1371 0
1176 -1371 0
-1178 -1180 1271 0
1178 -1271 0
1180 -1271 0
-1182 -1184 1273 0
1182 -1273 0
1184 -1273 0
-1186 -1188 1275 0
1186 -1275 0
1188 -1275 0
-1190 -1192 1277 0
1190 -1277 0
1192 -1277 0
-1194 -1196 1374 0
1194 -1374 0
1196 -1374 0
-1202 -1204 1375 0
1202 -1375 0
1204 -1375 0
-1206 -1208 1283 0
1206 -1283 0
1208 -1283 0
-1210 -1212 1285 0
1210 -1285 0
1212 -1285 0
-1214 -1216 1287 0
1214 -1287 0
1216 -1287 0
-1218 -1220 1289 0
1218 -1289 0
1220 -1289 0
-1222 -1224 1291 0
1222 -1291 0
1224 -1291 0
-1226 -1228 1293 0
1226 -1293 0
1228 -1293 0
-1230 -1232 1295 0
1230 -1295 0
1232 -1295 0
-1234 -1236 1297 0
1234 -1297 0
1236 -1297 0
-1238 -1240 1299 0
1238 -1299 0
1240 -1299 0
-1242 -1244 1301 0
1242 -1301 0
1244 -1301 0
-1246 -1248 1303 0
1246 -1303 0
1248 -1303 0
-1250 -1252 1305 0
1250 -1305 0
1252 -1305 0
-1254 -1255 1307 0
1254 -1307 0
1255 -1307 0
-1253 -1256 1309 0
1253 -1309 0
1256 -1309 0
-1257 -1258 1311 0
1257 -1311 0
1258 -1311 0
-1260 -1262 1313 0
1260 -1313 0
1262 -1313 0
-1263 -1264 1315 0
1263 -1315 0
1264 -1315 0
-1266 -1268 1317 0
1266 -1317 0
1268 -1317 0
-1269 -1270 1319 0
1269 -1319 0
1270 -1319 0
-1272 -1274 1321 0
1272 -1321 0
1274 -1321 0
-1276 -1278 1323 0
1276 -1323 0
1278 -1323 0
-1279 -1280 1325 0
1279 -1325 0
1280 -1325 0
-1281 -1282 1327 0
1281 -1327 0
1282 -1327 0
-1284 -1286 1329 0
1284 -1329 0
1286 -1329 0
-1288 -1290 1331 0
1288 -1331 0
1290 -1331 0
-1292 -1294 1333 0
1292 -1333 0
1294 -1333 0
-1296 -1298 1335 0
1296 -1335 0
1298 -1335 0
-1300 -1302 1337 0
1300 -1337 0
1302 -1337 0
-1304 -1306 1339 0
1304 -1339 0
1306 -1339 0
-1308 -1310 1341 0
1308 -1341 0
1310 -1341 0
-1312 -1314 1343 0
1312 -1343 0
1314 -1343 0
-1316 -1318 1345 0
1316 -1345 0
1318 -1345 0
-1320 -1322 1347 0
1320 -1347 0
1322 -1347 0
-1324 -1326 1349 0
1324 -1349 0
1326 -1349 0
-1328 -1330 1351 0
1328 -1351 0
1330 -1351 0
-1332 -1334 1353 0
1332 -1353 0
1334 -1353 0
-1336 -1338 1355 0
1336 -1355 0
1338 -1355 0
-1340 -1342 1357 0
1340 -1357 0
1342 -1357 0
-1344 -1346 1359 0
1344 -1359 0
1346 -1359 0
-1348 -1350 1361 0
1348 -1361 0
1350 -1361 0
-1352 -1354 1363 0
1352 -1363 0
1354 -1363 0
-1356 -1358 1365 0
1356 -1365 0
1358 -1365 0
-1360 -1362 1366 0
1360 -1366 0
1362 -1366 0
-1259 -1261 1476 0
1259 -1476 0
1261 -1476 0
-1265 -1267 1477 0
1265 -1477 0
1267 -1477 0
-1271 -1273 1478 0
1271 -1478 0
1273 -1478 0
-1275 -1277 1479 0
1275 -1479 0
1277 -1479 0
-1283 -1285 1480 0
1283 -1480 0
1285 -1480 0
-1287 -1289 1378 0
1287 -1378 0
1289 -1378 0
-1291 -1293 1380 0
1291 -1380 0
1293 -1380 0
-1295 -1297 1382 0
1295 -1382 0
1297 -1382 0
-1299 -1301 1384 0
1299 -1384 0
1301 -1384 0
-1303 -1305 1386 0
1303 -1386 0
1305 -1386 0
-1307 -1309 1388 0
1307 -1388 0
1309 -1388 0
-1311 -1313 1390 0
1311 -1390 0
1313 -1390 0
-1315 -1317 1392 0
1315 -1392 0
1317 -1392 0
-1319 -1321 1394 0
1319 -1394 0
1321 -1394 0
-1323 -1325 1396 0
1323 -1396 0
1325 -1396 0
-1327 -1329 1398 0
1327 -1398 0
1329 -1398 0
-1331 -1333 1400 0
1331 -1400 0
1333 -1400 0
-1335 -1337 1402 0
1335 -1402 0
1337 -1402 0
-1339 -1341 1404 0
1339 -1404 0
1341 -1404 0
-1343 -1345 1406 0
1343 -1406 0
1345 -1406 0
-1347 -1349 1408 0
1347 -1408 0
1349 -1408 0
-1351 -1353 1410 0
1351 -1410 0
1353 -1410 0
-1355 -1357 1412 0
1355 -1412 0
1357 -1412 0
-1359 -1361 1414 0
1359 -1414 0
1361 -1414 0
-1363 -1365 1416 0
1363 -1416 0
1365 -1416 0
-1364 -1366 1418 0
1366 -1418 0
1364 -1418 0
-1367 -1368 1420 0
1367 -1420 0
1368 -1420 0
-1369 -1370 1422 0
1369 -1422 0
1370 -1422 0
-1371 -1372 1424 0
1371 -1424 0
1372 -1424 0
-1373 -1374 1426 0
1373 -1426 0
1374 -1426 0
-1375 -1376 1428 0
1375 -1428 0
1376 -1428 0
-1377 -1379 1430 0
1377 -1430 0
1379 -1430 0
-1381 -1383 1432 0
1381 -1432 0
1383 -1432 0
-1385 -1387 1434 0
1385 -1434 0
1387 -1434 0
-1389 -1391 1436 0
1389 -1436 0
1391 -1436 0
-1393 -1395 1438 0
1393 -1438 0
1395 -1438 0
-1397 -1399 1440 0
1397 -1440 0
1399 -1440 0
-1401 -1403 1442 0
1401 -1442 0
1403 -1442 0
-1405 -1407 1444 0
1405 -1444 0
1407 -1444 0
-1409 -1411 1446 0
1409 -1446 0
1411 -1446 0
-1413 -1415 1448 0
1413 -1448 0
1415 -1448 0
-1417 -1419 1450 0
1417 -1450 0
1419 -1450 0
-1421 -1423 1452 0
1421 -1452 0
1423 -1452 0
-1425 -1427 1454 0
1425 -1454 0
1427 -1454 0
-1429 -1431 1456 0
1429 -1456 0
1431 -1456 0
-1433 -1435 1458 0
1433 -1458 0
1435 -1458 0
-1437 -1439 1460 0
1437 -1460 0
1439 -1460 0
-1441 -1443 1462 0
1441 -1462 0
1443 -1462 0
-1445 -1447 1464 0
1445 -1464 0
1447 -1464 0
-1449 -1451 1466 0
1449 -1466 0
1451 -1466 0
-1453 -1455 1468 0
1453 -1468 0
1455 -1468 0
-1457 -1459 1470 0
1457 -1470 0
1459 -1470 0
-1461 -1463 1472 0
1461 -1472 0
1463 -1472 0
-1465 -1467 1474 0
1465 -1474 0
1467 -1474 0
-1469 -1471 1475 0
1469 -1475 0
1471 -1475 0
-1378 -1380 1587 0
1378 -1587 0
1380 -1587 0
-1382 -1384 1483 0
1382 -1483 0
1384 -1483 0
-1386 -1388 1485 0
1386 -1485 0
1388 -1485 0
-1390 -1392 1487 0
1390 -1487 0
1392 -1487 0
-1394 -1396 1489 0
1394 -1489 0
1396 -1489 0
-1398 -1400 1491 0
1398 -1491 0
1400 -1491 0
-1402 -1404 1493 0
1402 -1493 0
1404 -1493 0
-1406 -1408 1495 0
1406 -1495 0
1408 -1495 0
-1410 -1412 1497 0
1410 -1497 0
1412 -1497 0
-1414 -1416 1499 0
1414 -1499 0
1416 -1499 0
-1418 -1420 1501 0
1418 -1501 0
1420 -1501 0
-1422 -1424 1503 0
1422 -1503 0
1424 -1503 0
-1426 -1428 1505 0
1426 -1505 0
1428 -1505 0
-1430 -1432 1507 0
1430 -1507 0
1432 -1507 0
-1434 -1436 1509 0
1434 -1509 0
1436 -1509 0
-1438 -1440 1511 0
1438 -1511 0
1440 -1511 0
-1442 -1444 1513 0
1442 -1513 0
1444 -1513 0
-1446 -1448 1515 0
1446 -1515 0
1448 -1515 0
-1450 -1452 1517 0
1450 -1517 0
1452 -1517 0
-1454 -1456 1519 0
1454 -1519 0
1456 -1519 0
-1458 -1460 1521 0
1458 -1521 0
1460 -1521 0
-1462 -1464 1523 0
1462 -1523 0
1464 -1523 0
-1466 -1468 1525 0
1466 -1525 0
1468 -1525 0
-1470 -1472 1527 0
1470 -1527 0
1472 -1527 0
-1474 -1475 1529 0
1474 -1529 0
1475 -1529 0
-1473 -1476 1531 0
1473 -1531 0
1476 -1531 0
-1477 -1478 1533 0
1477 -1533 0
1478 -1533 0
-1479 -1480 1535 0
1479 -1535 0
1480 -1535 0
-1481 -1482 1537 0
1481 -1537 0
1482 -1537 0
-1484 -1486 1539 0
1484 -1539 0
1486 -1539 0
-1488 -1490 1541 0
1488 -1541 0
1490 -1541 0
-1492 -1494 1543 0
1492 -1543 0
1494 -1543 0
-1496 -1498 1545 0
1496 -1545 0
1498 -1545 0
-1500 -1502 1547 0
1500 -1547 0
1502 -1547 0
-1504 -1506 1549 0
1504 -1549 0
1506 -1549 0
-1508 -1510 1551 0
1508 -1551 0
1510 -1551 0
-1512 -1514 1553 0
1512 -1553 0
1514 -1553 0
-1516 -1518 1555 0
1516 -1555 0
1518 -1555 0
-1520 -1522 1557 0
1520 -1557 0
1522 -1557 0
-1524 -1526 1559 0
1524 -1559 0
1526 -1559 0
-1528 -1530 1561 0
1528 -1561 0
1530 -1561 0
-1532 -1534 1563 0
1532 -1563 0
1534 -1563 0
-1536 -1538 1565 0
1536 -1565 0
1538 -1565 0
-1540 -1542 1567 0
1540 -1567 0
1542 -1567 0
-1544 -1546 1569 0
1544 -1569 0
1546 -1569 0
-1548 -1550 1571 0
1548 -1571 0
1550 -1571 0
-1552 -1554 1573 0
1552 -1573 0
1554 -1573 0
-1556 -1558 1575 0
1556 -1575 0
1558 -1575 0
-1560 -1562 1577 0
1560 -1577 0
1562 -1577 0
-1564 -1566 1579 0
1564 -1579 0
1566 -1579 0
-1568 -1570 1581 0
1568 -1581 0
1570 -1581 0
-1572 -1574 1583 0
1572 -1583 0
1574 -1583 0
-1576 -1578 1585 0
1576 -1585 0
1578 -1585 0
-1580 -1582 1586 0
1580 -1586 0
1582 -1586 0
-1483 -1485 1690 0
1483 -1690 0
1485 -1690 0
-1487 -1489 1590 0
1487 -1590 0
1489 -1590 0
-1491 -1493 1592 0
1491 -1592 0
1493 -1592 0
-1495 -1497 1594 0
1495 -1594 0
1497 -1594 0
-1499 -1501 1596 0
1499 -1596 0
1501 -1596 0
-1503 -1505 1598 0
1503 -1598 0
1505 -1598 0
-1507 -1509 1600 0
1507 -1600 0
1509 -1600 0
-1511 -1513 1602 0
1511 -1602 0
1513 -1602 0
-1515 -1517 1604 0
1515 -1604 0
1517 -1604 0
-1519 -1521 1606 0
1519 -1606 0
1521 -1606 0
-1523 -1525 1608 0
1523 -1608 0
1525 -1608 0
-1527 -1529 1610 0
1527 -1610 0
1529 -1610 0
-1531 -1533 1612 0
1531 -1612 0
1533 -1612 0
-1535 -1537 1614 0
1535 -1614 0
1537 -1614 0
-1539 -1541 1616 0
1539 -1616 0
1541 -1616 0
-1543 -1545 1618 0
1543 -1618 0
1545 -1618 0
-1547 -1549 1620 0
1547 -1620 0
1549 -1620 0
-1551 -1553 1622 0
1551 -1622 0
1553 -1622 0
-1555 -1557 1624 0
1555 -1624 0
1557 -1624 0
-1559 -1561 1626 0
1559 -1626 0
1561 -1626 0
-1563 -1565 1628 0
1563 -1628 0
1565 -1628 0
-1567 -1569 1630 0
1567 -1630 0
1569 -1630 0
-1571 -1573 1632 0
1571 -1632 0
1573 -1632 0
-1575 -1577 1634 0
1575 -1634 0
1577 -1634 0
-1579 -1581 1636 0
1579 -1636 0
1581 -1636 0
-1583 -1585 1638 0
1583 -1638 0
1585 -1638 0
-1584 -1586 1640 0
1586 -1640 0
1584 -1640 0
-1587 -1588 1716 0
1587 -1716 0
1588 -1716 0
-1589 -1591 1642 0
1589 -1642 0
1591 -1642 0
-1593 -1595 1644 0
1593 -1644 0
1595 -1644 0
-1597 -1599 1646 0
1597 -1646 0
1599 -1646 0
-1601 -1603 1648 0
1601 -1648 0
1603 -1648 0
-1605 -1607 1650 0
1605 -1650 0
1607 -1650 0
-1609 -1611 1652 0
1609 -1652 0
1611 -1652 0
-1613 -1615 1654 0
1613 -1654 0
1615 -1654 0
-1617 -1619 1656 0
1617 -1656 0
1619 -1656 0
-1621 -1623 1658 0
1621 -1658 0
1623 -1658 0
-1625 -1627 1660 0
1625 -1660 0
1627 -1660 0
-1629 -1631 1662 0
1629 -1662 0
1631 -1662 0
-1633 -1635 1664 0
1633 -1664 0
1635 -1664 0
-1637 -1639 1729 0
1637 -1729 0
1639 -1729 0
-1641 -1643 1668 0
1641 -1668 0
1643 -1668 0
-1645 -1647 1670 0
1645 -1670 0
1647 -1670 0
-1649 -1651 1672 0
1649 -1672 0
1651 -1672 0
-1653 -1655 1674 0
1653 -1674 0
1655 -1674 0
-1657 -1659 1676 0
1657 -1676 0
1659 -1676 0
-1661 -1663 1678 0
1661 -1678 0
1663 -1678 0
-1665 -1666 1680 0
1665 -1680 0
1666 -1680 0
-1667 -1669 1682 0
1667 -1682 0
1669 -1682 0
-1671 -1673 1684 0
1671 -1684 0
1673 -1684 0
-1675 -1677 1686 0
1675 -1686 0
1677 -1686 0
-1679 -1681 1688 0
1679 -1688 0
1681 -1688 0
-1683 -1685 1689 0
1683 -1689 0
1685 -1689 0
-1590 -1592 1692 0
1590 -1692 0
1592 -1692 0
-1594 -1596 1694 0
1594 -1694 0
1596 -1694 0
-1598 -1600 1696 0
1598 -1696 0
1600 -1696 0
-1602 -1604 1698 0
1602 -1698 0
1604 -1698 0
-1606 -1608 1700 0
1606 -1700 0
1608 -1700 0
-1610 -1612 1702 0
1610 -1702 0
1612 -1702 0
-1614 -1616 1704 0
1614 -1704 0
1616 -1704 0
-1618 -1620 1706 0
1618 -1706 0
1620 -1706 0
-1622 -1624 1708 0
1622 -1708 0
1624 -1708 0
-1626 -1628 1710 0
1626 -1710 0
1628 -1710 0
-1630 -1632 1712 0
1630 -1712 0
1632 -1712 0
-1634 -1636 1714 0
1634 -1714 0
1636 -1714 0
-1638 -1640 1802 0
1638 -1802 0
1640 -1802 0
-1642 -1644 1718 0
1642 -1718 0
1644 -1718 0
-1646 -1648 1720 0
1646 -1720 0
1648 -1720 0
-1650 -1652 1722 0
1650 -1722 0
1652 -1722 0
-1654 -1656 1724 0
1654 -1724 0
1656 -1724 0
-1658 -1660 1726 0
1658 -1726 0
1660 -1726 0
-1662 -1664 1728 0
1662 -1728 0
1664 -1728 0
-1668 -1670 1808 0
1668 -1808 0
1670 -1808 0
-1672 -1674 1732 0
1672 -1732 0
1674 -1732 0
-1676 -1678 1734 0
1676 -1734 0
1678 -1734 0
-1680 -1682 1736 0
1680 -1736 0
1682 -1736 0
-1684 -1686 1738 0
1684 -1738 0
1686 -1738 0
-1688 -1689 1813 0
1688 -1813 0
1689 -1813 0
-1690 -1691 1741 0
1690 -1741 0
1691 -1741 0
-1693 -1695 1743 0
1693 -1743 0
1695 -1743 0
-1697 -1699 1745 0
1697 -1745 0
1699 -1745 0
-1701 -1703 1747 0
1701 -1747 0
1703 -1747 0
-1705 -1707 1749 0
1705 -1749 0
1707 -1749 0
-1709 -1711 1751 0
1709 -1751 0
1711 -1751 0
-1713 -1715 1753 0
1713 -1753 0
1715 -1753 0
-1716 -1717 1755 0
1716 -1755 0
1717 -1755 0
-1719 -1721 1757 0
1719 -1757 0
1721 -1757 0
-1723 -1725 1759 0
1723 -1759 0
1725 -1759 0
-1727 -1729 1761 0
1727 -1761 0
1729 -1761 0
-1730 -1731 1763 0
1730 -1763 0
1731 -1763 0
-1733 -1735 1765 0
1733 -1765 0
1735 -1765 0
-1737 -1739 1767 0
1737 -1767 0
1739 -1767 0
-1687 -1740 1769 0
1687 -1769 0
1740 -1769 0
-1742 -1744 1771 0
1742 -1771 0
1744 -1771 0
-1746 -1748 1773 0
1746 -1773 0
1748 -1773 0
-1750 -1752 1775 0
1750 -1775 0
1752 -1775 0
-1754 -1756 1777 0
1754 -1777 0
1756 -1777 0
-1758 -1760 1779 0
1758 -1779 0
1760 -1779 0
-1762 -1764 1781 0
1762 -1781 0
1764 -1781 0
-1766 -1768 1783 0
1766 -1783 0
1768 -1783 0
-1770 -1772 1785 0
1770 -1785 0
1772 -1785 0
-1774 -1776 1787 0
1774 -1787 0
1776 -1787 0
-1778 -1780 1789 0
1778 -1789 0
1780 -1789 0
-1782 -1784 1791 0
1782 -1791 0
1784 -1791 0
-1786 -1788 1792 0
1786 -1792 0
1788 -1792 0
-1692 -1694 1892 0
1692 -1892 0
1694 -1892 0
-1696 -1698 1794 0
1696 -1794 0
1698 -1794 0
-1700 -1702 1796 0
1700 -1796 0
1702 -1796 0
-1704 -1706 1798 0
1704 -1798 0
1706 -1798 0
-1708 -1710 1800 0
1708 -1800 0
1710 -1800 0
-1712 -1714 1895 0
1712 -1895 0
1714 -1895 0
-1718 -1720 1804 0
1718 -1804 0
1720 -1804 0
-1722 -1724 1806 0
1722 -1806 0
1724 -1806 0
-1726 -1728 1897 0
1726 -1897 0
1728 -1897 0
-1732 -1734 1810 0
1732 -1810 0
1734 -1810 0
-1736 -1738 1812 0
1736 -1812 0
1738 -1812 0
-1741 -1743 1899 0
1741 -1899 0
1743 -1899 0
-1745 -1747 1816 0
1745 -1816 0
1747 -1816 0
-1749 -1751 1818 0
1749 -1818 0
1751 -1818 0
-1753 -1755 1820 0
1753 -1820 0
1755 -1820 0
-1757 -1759 1822 0
1757 -1822 0
1759 -1822 0
-1761 -1763 1824 0
1761 -1824 0
1763 -1824 0
-1765 -1767 1826 0
1765 -1826 0
1767 -1826 0
-1769 -1771 1828 0
1769 -1828 0
1771 -1828 0
-1773 -1775 1830 0
1773 -1830 0
1775 -1830 0
-1777 -1779 1832 0
1777 -1832 0
1779 -1832 0
-1781 -1783 1834 0
1781 -1834 0
1783 -1834 0
-1785 -1787 1836 0
1785 -1836 0
1787 -1836 0
-1789 -1791 1838 0
1789 -1838 0
1791 -1838 0
-1790 -1792 1912 0
1792 -1912 0
1790 -1912 0
-1793 -1795 1842 0
1793 -1842 0
1795 -1842 0
-1797 -1799 1844 0
1797 -1844 0
1799 -1844 0
-1801 -1802 1846 0
1801 -1846 0
1802 -1846 0
-1803 -1805 1848 0
1803 -1848 0
1805 -1848 0
-1807 -1808 1850 0
1807 -1850 0
1808 -1850 0
-1809 -1811 1852 0
1809 -1852 0
1811 -1852 0
-1813 -1814 1854 0
1813 -1854 0
1814 -1854 0
-1815 -1817 1856 0
1815 -1856 0
1817 -1856 0
-1819 -1821 1858 0
1819 -1858 0
1821 -1858 0
-1823 -1825 1860 0
1823 -1860 0
1825 -1860 0
-1827 -1829 1862 0
1827 -1862 0
1829 -1862 0
-1831 -1833 1864 0
1831 -1864 0
1833 -1864 0
-1835 -1837 1866 0
1835 -1866 0
1837 -1866 0
-1839 -1840 1868 0
1839 -1868 0
1840 -1868 0
-1841 -1843 1870 0
1841 -1870 0
1843 -1870 0
-1845 -1847 1872 0
1845 -1872 0
1847 -1872 0
-1849 -1851 1874 0
1849 -1874 0
1851 -1874 0
-1853 -1855 1876 0
1853 -1876 0
1855 -1876 0
-1857 -1859 1878 0
1857 -1878 0
1859 -1878 0
-1861 -1863 1880 0
1861 -1880 0
1863 -1880 0
-1865 -1867 1882 0
1865 -1882 0
1867 -1882 0
-1869 -1871 1884 0
1869 -1884 0
1871 -1884 0
-1873 -1875 1886 0
1873 -1886 0
1875 -1886 0
-1877 -1879 1888 0
1877 -1888 0
1879 -1888 0
-1881 -1883 1890 0
1881 -1890 0
1883 -1890 0
-1885 -1887 1891 0
1885 -1891 0
1887 -1891 0
-1794 -1796 1991 0
1794 -1991 0
1796 -1991 0
-1798 -1800 1992 0
1798 -1992 0
1800 -1992 0
-1804 -1806 1993 0
1804 -1993 0
1806 -1993 0
-1810 -1812 1994 0
1810 -1994 0
1812 -1994 0
-1816 -1818 1901 0
1816 -1901 0
1818 -1901 0
-1820 -1822 1903 0
1820 -1903 0
1822 -1903 0
-1824 -1826 1905 0
1824 -1905 0
1826 -1905 0
-1828 -1830 1907 0
1828 -1907 0
1830 -1907 0
-1832 -1834 1909 0
1832 -1909 0
1834 -1909 0
-1836 -1838 1911 0
1836 -1911 0
1838 -1911 0
-1842 -1844 2000 0
1842 -2000 0
1844 -2000 0
-1846 -1848 1915 0
1846 -1915 0
1848 -1915 0
-1850 -1852 1917 0
1850 -1917 0
1852 -1917 0
-1854 -1856 1919 0
1854 -1919 0
1856 -1919 0
-1858 -1860 1921 0
1858 -1921 0
1860 -1921 0
-1862 -1864 1923 0
1862 -1923 0
1864 -1923 0
-1866 -1868 1925 0
1866 -1925 0
1868 -1925 0
-1870 -1872 1927 0
1870 -1927 0
1872 -1927 0
-1874 -1876 1929 0
1874 -1929 0
1876 -1929 0
-1878 -1880 1931 0
1878 -1931 0
1880 -1931 0
-1882 -1884 1933 0
1882 -1933 0
1884 -1933 0
-1886 -1888 1935 0
1886 -1935 0
1888 -1935 0
-1890 -1891 1937 0
1890 -1937 0
1891 -1937 0
-1889 -1892 1939 0
1889 -1939 0
1892 -1939 0
-1893 -1894 1941 0
1893 -1941 0
1894 -1941 0
-1895 -1896 1943 0
1895 -1943 0
1896 -1943 0
-1897 -1898 1945 0
1897 -1945 0
1898 -1945 0
-1899 -1900 1947 0
1899 -1947 0
1900 -1947 0
-1902 -1904 1949 0
1902 -1949 0
1904 -1949 0
-1906 -1908 1951 0
1906 -1951 0
1908 -1951 0
-1910 -1912 1953 0
1910 -1953 0
1912 -1953 0
-1913 -1914 1955 0
1913 -1955 0
1914 -1955 0
-1916 -1918 1957 0
1916 -1957 0
1918 -1957 0
-1920 -1922 1959 0
1920 -1959 0
1922 -1959 0
-1924 -1926 1961 0
1924 -1961 0
1926 -1961 0
-1928 -1930 1963 0
1928 -1963 0
1930 -1963 0
-1932 -1934 1965 0
1932 -1965 0
1934 -1965 0
-1936 -1938 1967 0
1936 -1967 0
1938 -1967 0
-1940 -1942 1969 0
1940 -1969 0
1942 -1969 0
-1944 -1946 1971 0
1944 -1971 0
1946 -1971 0
-1948 -1950 1973 0
1948 -1973 0
1950 -1973 0
-1952 -1954 1975 0
1952 -1975 0
1954 -1975 0
-1956 -1958 1977 0
1956 -1977 0
1958 -1977 0
-1960 -1962 1979 0
1960 -1979 0
1962 -1979 0
-1964 -1966 1981 0
1964 -1981 0
1966 -1981 0
-1968 -1970 1983 0
1968 -1983 0
1970 -1983 0
-1972 -1974 1985 0
1972 -1985 0
1974 -1985 0
-1976 -1978 1987 0
1976 -1987 0
1978 -1987 0
-1980 -1982 1989 0
1980 -1989 0
1982 -1989 0
-1984 -1986 1990 0
1984 -1990 0
1986 -1990 0
-1901 -1903 1996 0
1901 -1996 0
1903 -1996 0
-1905 -1907 1998 0
1905 -1998 0
1907 -1998 0
-1909 -1911 2092 0
1909 -2092 0
1911 -2092 0
-1915 -1917 2002 0
1915 -2002 0
1917 -2002 0
-1919 -1921 2004 0
1919 -2004 0
1921 -2004 0
-1923 -1925 2006 0
1923 -2006 0
1925 -2006 0
-1927 -1929 2008 0
1927 -2008 0
1929 -2008 0
-1931 -1933 2010 0
1931 -2010 0
1933 -2010 0
-1935 -1937 2012 0
1935 -2012 0
1937 -2012 0
-1939 -1941 2014 0
1939 -2014 0
1941 -2014 0
-1943 -1945 2016 0
1943 -2016 0
1945 -2016 0
-1947 -1949 2018 0
1947 -2018 0
1949 -2018 0
-1951 -1953 2020 0
1951 -2020 0
1953 -2020 0
-1955 -1957 2022 0
1955 -2022 0
1957 -2022 0
-1959 -1961 2024 0
1959 -2024 0
1961 -2024 0
-1963 -1965 2026 0
1963 -2026 0
1965 -2026 0
-1967 -1969 2028 0
1967 -2028 0
1969 -2028 0
-1971 -1973 2030 0
1971 -2030 0
1973 -2030 0
-1975 -1977 2032 0
1975 -2032 0
1977 -2032 0
-1979 -1981 2034 0
1979 -2034 0
1981 -2034 0
-1983 -1985 2036 0
1983 -2036 0
1985 -2036 0
-1987 -1989 2038 0
1987 -2038 0
1989 -2038 0
-1988 -1990 2040 0
1990 -2040 0
1988 -2040 0
-1991 -1992 2042 0
1991 -2042 0
1992 -2042 0
-1993 -1994 2044 0
1993 -2044 0
1994 -2044 0
-1995 -1997 2046 0
1995 -2046 0
1997 -2046 0
-1999 -2000 2048 0
1999 -2048 0
2000 -2048 0
-2001 -2003 2050 0
2001 -2050 0
2003 -2050 0
-2005 -2007 2052 0
2005 -2052 0
2007 -2052 0
-2009 -2011 2054 0
2009 -2054 0
2011 -2054 0
-2013 -2015 2056 0
2013 -2056 0
2015 -2056 0
-2017 -2019 2058 0
2017 -2058 0
2019 -2058 0
-2021 -2023 2060 0
2021 -2060 0
2023 -2060 0
-2025 -2027 2062 0
2025 -2062 0
2027 -2062 0
-2029 -2031 2064 0
2029 -2064 0
2031 -2064 0
-2033 -2035 2066 0
2033 -2066 0
2035 -2066 0
-2037 -2039 2068 0
2037 -2068 0
2039 -2068 0
-2041 -2043 2070 0
2041 -2070 0
2043 -2070 0
-2045 -2047 2072 0
2045 -2072 0
2047 -2072 0
-2049 -2051 2074 0
2049 -2074 0
2051 -2074 0
-2053 -2055 2076 0
2053 -2076 0
2055 -2076 0
-2057 -2059 2078 0
2057 -2078 0
2059 -2078 0
-2061 -2063 2080 0
2061 -2080 0
2063 -2080 0
-2065 -2067 2082 0
2065 -2082 0
2067 -2082 0
-2069 -2071 2084 0
2069 -2084 0
2071 -2084 0
-2073 -2075 2086 0
2073 -2086 0
2075 -2086 0
-2077 -2079 2088 0
2077 -2088 0
2079 -2088 0
-2081 -2083 2090 0
2081 -2090 0
2083 -2090 0
-2085 -2087 2091 0
2085 -2091 0
2087 -2091 0
-1996 -1998 2185 0
1996 -2185 0
1998 -2185 0
-2002 -2004 2094 0
2002 -2094 0
2004 -2094 0
-2006 -2008 2096 0
2006 -2096 0
2008 -2096 0
-2010 -2012 2098 0
2010 -2098 0
2012 -2098 0
-2014 -2016 2100 0
2014 -2100 0
2016 -2100 0
-2018 -2020 2102 0
2018 -2102 0
2020 -2102 0
-2022 -2024 2104 0
2022 -2104 0
2024 -2104 0
-2026 -2028 2106 0
2026 -2106 0
2028 -2106 0
-2030 -2032 2108 0
2030 -2108 0
2032 -2108 0
-2034 -2036 2110 0
2034 -2110 0
2036 -2110 0
-2038 -2040 2112 0
2038 -2112 0
2040 -2112 0
-2042 -2044 2114 0
2042 -2114 0
2044 -2114 0
-2046 -2048 2116 0
2046 -2116 0
2048 -2116 0
-2050 -2052 2118 0
2050 -2118 0
2052 -2118 0
-2054 -2056 2120 0
2054 -2120 0
2056 -2120 0
-2058 -2060 2122 0
2058 -2122 0
2060 -2122 0
-2062 -2064 2124 0
2062 -2124 0
2064 -2124 0
-2066 -2068 2126 0
2066 -2126 0
2068 -2126 0
-2070 -2072 2128 0
2070 -2128 0
2072 -2128 0
-2074 -2076 2130 0
2074 -2130 0
2076 -2130 0
-2078 -2080 2132 0
2078 -2132 0
2080 -2132 0
-2082 -2084 2134 0
2082 -2134 0
2084 -2134 0
-2086 -2088 2136 0
2086 -2136 0
2088 -2136 0
-2090 -2091 2207 0
2090 -2207 0
2091 -2207 0
-2092 -2093 2208 0
2092 -2208 0
2093 -2208 0
-2095 -2097 2141 0
2095 -2141 0
2097 -2141 0
-2099 -2101 2143 0
2099 -2143 0
2101 -2143 0
-2103 -2105 2145 0
2103 -2145 0
2105 -2145 0
-2107 -2109 2147 0
2107 -2147 0
2109 -2147 0
-2111 -2113 2149 0
2111 -2149 0
2113 -2149 0
-2115 -2117 2151 0
2115 -2151 0
2117 -2151 0
-2119 -2121 2153 0
2119 -2153 0
2121 -2153 0
-2123 -2125 2155 0
2123 -2155 0
2125 -2155 0
-2127 -2129 2157 0
2127 -2157 0
2129 -2157 0
-2131 -2133 2159 0
2131 -2159 0
2133 -2159 0
-2135 -2137 2161 0
2135 -2161 0
2137 -2161 0
-2089 -2138 2163 0
2089 -2163 0
2138 -2163 0
-2139 -2140 2165 0
2139 -2165 0
2140 -2165 0
-2142 -2144 2167 0
2142 -2167 0
2144 -2167 0
-2146 -2148 2169 0
2146 -2169 0
2148 -2169 0
-2150 -2152 2171 0
2150 -2171 0
2152 -2171 0
-2154 -2156 2173 0
2154 -2173 0
2156 -2173 0
-2158 -2160 2175 0
2158 -2175 0
2160 -2175 0
-2162 -2164 2177 0
2162 -2177 0
2164 -2177 0
-2166 -2168 2179 0
2166 -2179 0
2168 -2179 0
-2170 -2172 2181 0
2170 -2181 0
2172 -2181 0
-2174 -2176 2183 0
2174 -2183 0
2176 -2183 0
-2178 -2180 2184 0
2178 -2184 0
2180 -2184 0
-2094 -2096 2187 0
2094 -2187 0
2096 -2187 0
-2098 -2100 2189 0
2098 -2189 0
2100 -2189 0
-2102 -2104 2191 0
2102 -2191 0
2104 -2191 0
-2106 -2108 2193 0
2106 -2193 0
2108 -2193 0
-2110 -2112 2195 0
2110 -2195 0
2112 -2195 0
-2114 -2116 2197 0
2114 -2197 0
2116 -2197 0
-2118 -2120 2199 0
2118 -2199 0
2120 -2199 0
-2122 -2124 2201 0
2122 -2201 0
2124 -2201 0
-2126 -2128 2203 0
2126 -2203 0
2128 -2203 0
-2130 -2132 2205 0
2130 -2205 0
2132 -2205 0
-2134 -2136 2287 0
2134 -2287 0
2136 -2287 0
-2141 -2143 2288 0
2141 -2288 0
2143 -2288 0
-2145 -2147 2211 0
2145 -2211 0
2147 -2211 0
-2149 -2151 2213 0
2149 -2213 0
2151 -2213 0
-2153 -2155 2215 0
2153 -2215 0
2155 -2215 0
-2157 -2159 2217 0
2157 -2217 0
2159 -2217 0
-2161 -2163 2219 0
2161 -2219 0
2163 -2219 0
-2165 -2167 2221 0
2165 -2221 0
2167 -2221 0
-2169 -2171 2223 0
2169 -2223 0
2171 -2223 0
-2173 -2175 2225 0
2173 -2225 0
2175 -2225 0
-2177 -2179 2227 0
2177 -2227 0
2179 -2227 0
-2181 -2183 2229 0
2181 -2229 0
2183 -2229 0
-2182 -2184 2298 0
2184 -2298 0
2182 -2298 0
-2186 -2188 2232 0
2186 -2232 0
2188 -2232 0
-2190 -2192 2234 0
2190 -2234 0
2192 -2234 0
-2194 -2196 2236 0
2194 -2236 0
2196 -2236 0
-2198 -2200 2238 0
2198 -2238 0
2200 -2238 0
-2202 -2204 2240 0
2202 -2240 0
2204 -2240 0
-2206 -2207 2242 0
2206 -2242 0
2207 -2242 0
-2208 -2209 2244 0
2208 -2244 0
2209 -2244 0
-2210 -2212 2246 0
2210 -2246 0
2212 -2246 0
-2214 -2216 2248 0
2214 -2248 0
2216 -2248 0
-2218 -2220 2250 0
2218 -2250 0
2220 -2250 0
-2222 -2224 2252 0
2222 -2252 0
2224 -2252 0
-2226 -2228 2254 0
2226 -2254 0
2228 -2254 0
-2185 -2230 2256 0
2230 -2256 0
2185 -2256 0
-2231 -2233 2258 0
2231 -2258 0
2233 -2258 0
-2235 -2237 2260 0
2235 -2260 0
2237 -2260 0
-2239 -2241 2262 0
2239 -2262 0
2241 -2262 0
-2243 -2245 2264 0
2243 -2264 0
2245 -2264 0
-2247 -2249 2266 0
2247 -2266 0
2249 -2266 0
-2251 -2253 2268 0
2251 -2268 0
2253 -2268 0
-2255 -2257 2270 0
2255 -2270 0
2257 -2270 0
-2259 -2261 2272 0
2259 -2272 0
2261 -2272 0
-2263 -2265 2274 0
2263 -2274 0
2265 -2274 0
-2267 -2269 2276 0
2267 -2276 0
2269 -2276 0
-2271 -2273 2277 0
2271 -2277 0
2273 -2277 0
-2187 -2189 2369 0
2187 -2369 0
2189 -2369 0
-2191 -2193 2280 0
2191 -2280 0
2193 -2280 0
-2195 -2197 2282 0
2195 -2282 0
2197 -2282 0
-2199 -2201 2284 0
2199 -2284 0
2201 -2284 0
-2203 -2205 2286 0
2203 -2286 0
2205 -2286 0
-2211 -2213 2290 0
2211 -2290 0
2213 -2290 0
-2215 -2217 2292 0
2215 -2292 0
2217 -2292 0
-2219 -2221 2294 0
2219 -2294 0
2221 -2294 0
-2223 -2225 2296 0
2223 -2296 0
2225 -2296 0
-2227 -2229 2375 0
2227 -2375 0
2229 -2375 0
-2232 -2234 2300 0
2232 -2300 0
2234 -2300 0
-2236 -2238 2302 0
2236 -2302 0
2238 -2302 0
-2240 -2242 2304 0
2240 -2304 0
2242 -2304 0
-2244 -2246 2306 0
2244 -2306 0
2246 -2306 0
-2248 -2250 2308 0
2248 -2308 0
2250 -2308 0
-2252 -2254 2310 0
2252 -2310 0
2254 -2310 0
-2256 -2258 2312 0
2256 -2312 0
2258 -2312 0
-2260 -2262 2314 0
2260 -2314 0
2262 -2314 0
-2264 -2266 2316 0
2264 -2316 0
2266 -2316 0
-2268 -2270 2318 0
2268 -2318 0
2270 -2318 0
-2272 -2274 2320 0
2272 -2320 0
2274 -2320 0
-2276 -2277 2322 0
2276 -2322 0
2277 -2322 0
-2278 -2279 2386 0
2278 -2386 0
2279 -2386 0
-2281 -2283 2325 0
2281 -2325 0
2283 -2325 0
-2285 -2287 2327 0
2285 -2327 0
2287 -2327 0
-2288 -2289 2329 0
2288 -2329 0
2289 -2329 0
-2291 -2293 2331 0
2291 -2331 0
2293 -2331 0
-2295 -2297 2333 0
2295 -2333 0
2297 -2333 0
-2298 -2299 2335 0
2298 -2335 0
2299 -2335 0
-2301 -2303 2337 0
2301 -2337 0
2303 -2337 0
-2305 -2307 2339 0
2305 -2339 0
2307 -2339 0
-2309 -2311 2341 0
2309 -2341 0
2311 -2341 0
-2313 -2315 2343 0
2313 -2343 0
2315 -2343 0
-2317 -2319 2345 0
2317 -2345 0
2319 -2345 0
-2275 -2321 2347 0
2321 -2347 0
2275 -2347 0
-2323 -2324 2349 0
2323 -2349 0
2324 -2349 0
-2326 -2328 2351 0
2326 -2351 0
2328 -2351 0
-2330 -2332 2353 0
2330 -2353 0
2332 -2353 0
-2334 -2336 2355 0
2334 -2355 0
2336 -2355 0
-2338 -2340 2357 0
2338 -2357 0
2340 -2357 0
-2342 -2344 2359 0
2342 -2359 0
2344 -2359 0
-2346 -2348 2361 0
2346 -2361 0
2348 -2361 0
-2350 -2352 2363 0
2350 -2363 0
2352 -2363 0
-2354 -2356 2365 0
2354 -2365 0
2356 -2365 0
-2358 -2360 2367 0
2358 -2367 0
2360 -2367 0
-2362 -2364 2368 0
2362 -2368 0
2364 -2368 0
-2280 -2282 2456 0
2280 -2456 0
2282 -2456 0
-2284 -2286 2457 0
2284 -2457 0
2286 -2457 0
-2290 -2292 2372 0
2290 -2372 0
2292 -2372 0
-2294 -2296 2374 0
2294 -2374 0
2296 -2374 0
-2300 -2302 2459 0
2300 -2459 0
2302 -2459 0
-2304 -2306 2378 0
2304 -2378 0
2306 -2378 0
-2308 -2310 2380 0
2308 -2380 0
2310 -2380 0
-2312 -2314 2382 0
2312 -2382 0
2314 -2382 0
-2316 -2318 2384 0
2316 -2384 0
2318 -2384 0
-2320 -2322 2464 0
2320 -2464 0
2322 -2464 0
-2325 -2327 2388 0
2325 -2388 0
2327 -2388 0
-2329 -2331 2390 0
2329 -2390 0
2331 -2390 0
-2333 -2335 2392 0
2333 -2392 0
2335 -2392 0
-2337 -2339 2394 0
2337 -2394 0
2339 -2394 0
-2341 -2343 2396 0
2341 -2396 0
2343 -2396 0
-2345 -2347 2398 0
2345 -2398 0
2347 -2398 0
-2349 -2351 2400 0
2349 -2400 0
2351 -2400 0
-2353 -2355 2402 0
2353 -2402 0
2355 -2402 0
-2357 -2359 2404 0
2357 -2404 0
2359 -2404 0
-2361 -2363 2406 0
2361 -2406 0
2363 -2406 0
-2365 -2367 2408 0
2365 -2408 0
2367 -2408 0
-2366 -2368 2410 0
2368 -2410 0
2366 -2410 0
-2369 -2370 2475 0
2369 -2475 0
2370 -2475 0
-2371 -2373 2414 0
2371 -2414 0
2373 -2414 0
-2375 -2376 2416 0
2375 -2416 0
2376 -2416 0
-2377 -2379 2418 0
2377 -2418 0
2379 -2418 0
-2381 -2383 2420 0
2381 -2420 0
2383 -2420 0
-2385 -2386 2422 0
2385 -2422 0
2386 -2422 0
-2387 -2389 2424 0
2387 -2424 0
2389 -2424 0
-2391 -2393 2426 0
2391 -2426 0
2393 -2426 0
-2395 -2397 2428 0
2395 -2428 0
2397 -2428 0
-2399 -2401 2430 0
2399 -2430 0
2401 -2430 0
-2403 -2405 2432 0
2403 -2432 0
2405 -2432 0
-2407 -2409 2434 0
2407 -2434 0
2409 -2434 0
-2411 -2412 2436 0
2411 -2436 0
2412 -2436 0
-2413 -2415 2438 0
2413 -2438 0
2415 -2438 0
-2417 -2419 2440 0
2417 -2440 0
2419 -2440 0
-2421 -2423 2442 0
2421 -2442 0
2423 -2442 0
-2425 -2427 2444 0
2425 -2444 0
2427 -2444 0
-2429 -2431 2446 0
2429 -2446 0
2431 -2446 0
-2433 -2435 2448 0
2433 -2448 0
2435 -2448 0
-2437 -2439 2450 0
2437 -2450 0
2439 -2450 0
-2441 -2443 2452 0
2441 -2452 0
2443 -2452 0
-2445 -2447 2454 0
2445 -2454 0
2447 -2454 0
-2449 -2451 2455 0
2449 -2455 0
2451 -2455 0
-2372 -2374 2545 0
2372 -2545 0
2374 -2545 0
-2378 -2380 2461 0
2378 -2461 0
2380 -2461 0
-2382 -2384 2463 0
2382 -2463 0
2384 -2463 0
-2388 -2390 2547 0
2388 -2547 0
2390 -2547 0
-2392 -2394 2467 0
2392 -2467 0
2394 -2467 0
-2396 -2398 2469 0
2396 -2469 0
2398 -2469 0
-2400 -2402 2471 0
2400 -2471 0
2402 -2471 0
-2404 -2406 2473 0
2404 -2473 0
2406 -2473 0
-2408 -2410 2552 0
2408 -2552 0
2410 -2552 0
-2414 -2416 2477 0
2414 -2477 0
2416 -2477 0
-2418 -2420 2479 0
2418 -2479 0
2420 -2479 0
-2422 -2424 2481 0
2422 -2481 0
2424 -2481 0
-2426 -2428 2483 0
2426 -2483 0
2428 -2483 0
-2430 -2432 2485 0
2430 -2485 0
2432 -2485 0
-2434 -2436 2487 0
2434 -2487 0
2436 -2487 0
-2438 -2440 2489 0
2438 -2489 0
2440 -2489 0
-2442 -2444 2491 0
2442 -2491 0
2444 -2491 0
-2446 -2448 2493 0
2446 -2493 0
2448 -2493 0
-2450 -2452 2495 0
2450 -2495 0
2452 -2495 0
-2454 -2455 2497 0
2454 -2497 0
2455 -2497 0
-2453 -2456 2499 0
2453 -2499 0
2456 -2499 0
-2457 -2458 2501 0
2457 -2501 0
2458 -2501 0
-2459 -2460 2503 0
2459 -2503 0
2460 -2503 0
-2462 -2464 2505 0
2462 -2505 0
2464 -2505 0
-2465 -2466 2507 0
2465 -2507 0
2466 -2507 0
-2468 -2470 2509 0
2468 -2509 0
2470 -2509 0
-2472 -2474 2511 0
2472 -2511 0
2474 -2511 0
-2475 -2476 2513 0
2475 -2513 0
2476 -2513 0
-2478 -2480 2515 0
2478 -2515 0
2480 -2515 0
-2482 -2484 2517 0
2482 -2517 0
2484 -2517 0
-2486 -2488 2519 0
2486 -2519 0
2488 -2519 0
-2490 -2492 2521 0
2490 -2521 0
2492 -2521 0
-2494 -2496 2523 0
2494 -2523 0
2496 -2523 0
-2498 -2500 2525 0
2498 -2525 0
2500 -2525 0
-2502 -2504 2527 0
2502 -2527 0
2504 -2527 0
-2506 -2508 2529 0
2506 -2529 0
2508 -2529 0
-2510 -2512 2531 0
2510 -2531 0
2512 -2531 0
-2514 -2516 2533 0
2514 -2533 0
2516 -2533 0
-2518 -2520 2535 0
2518 -2535 0
2520 -2535 0
-2522 -2524 2537 0
2522 -2537 0
2524 -2537 0
-2526 -2528 2539 0
2526 -2539 0
2528 -2539 0
-2530 -2532 2541 0
2530 -2541 0
2532 -2541 0
-2534 -2536 2543 0
2534 -2543 0
2536 -2543 0
-2538 -2540 2544 0
2538 -2544 0
2540 -2544 0
-2461 -2463 2630 0
2461 -2630 0
2463 -2630 0
-2467 -2469 2549 0
2467 -2549 0
2469 -2549 0
-2471 -2473 2551 0
2471 -2551 0
2473 -2551 0
-2477 -2479 2632 0
2477 -2632 0
2479 -2632 0
-2481 -2483 2555 0
2481 -2555 0
2483 -2555 0
-2485 -2487 2557 0
2485 -2557 0
2487 -2557 0
-2489 -2491 2559 0
2489 -2559 0
2491 -2559 0
-2493 -2495 2561 0
2493 -2561 0
2495 -2561 0
-2497 -2499 2563 0
2497 -2563 0
2499 -2563 0
-2501 -2503 2565 0
2501 -2565 0
2503 -2565 0
-2505 -2507 2567 0
2505 -2567 0
2507 -2567 0
-2509 -2511 2569 0
2509 -2569 0
2511 -2569 0
-2513 -2515 2571 0
2513 -2571 0
2515 -2571 0
-2517 -2519 2573 0
2517 -2573 0
2519 -2573 0
-2521 -2523 2575 0
2521 -2575 0
2523 -2575 0
-2525 -2527 2577 0
2525 -2577 0
2527 -2577 0
-2529 -2531 2579 0
2529 -2579 0
2531 -2579 0
-2533 -2535 2581 0
2533 -2581 0
2535 -2581 0
-2537 -2539 2583 0
2537 -2583 0
2539 -2583 0
-2541 -2543 2585 0
2541 -2585 0
2543 -2585 0
-2542 -2544 2649 0
2544 -2649 0
2542 -2649 0
-2546 -2547 2588 0
2546 -2588 0
2547 -2588 0
-2548 -2550 2590 0
2548 -2590 0
2550 -2590 0
-2552 -2553 2592 0
2552 -2592 0
2553 -2592 0
-2554 -2556 2594 0
2554 -2594 0
2556 -2594 0
-2558 -2560 2596 0
2558 -2596 0
2560 -2596 0
-2562 -2564 2598 0
2562 -2598 0
2564 -2598 0
-2566 -2568 2600 0
2566 -2600 0
2568 -2600 0
-2570 -2572 2602 0
2570 -2602 0
2572 -2602 0
-2574 -2576 2604 0
2574 -2604 0
2576 -2604 0
-2578 -2580 2606 0
2578 -2606 0
2580 -2606 0
-2582 -2584 2608 0
2582 -2608 0
2584 -2608 0
-2545 -2586 2610 0
2586 -2610 0
2545 -2610 0
-2587 -2589 2612 0
2587 -2612 0
2589 -2612 0
-2591 -2593 2614 0
2591 -2614 0
2593 -2614 0
-2595 -2597 2616 0
2595 -2616 0
2597 -2616 0
-2599 -2601 2618 0
2599 -2618 0
2601 -2618 0
-2603 -2605 2620 0
2603 -2620 0
2605 -2620 0
-2607 -2609 2622 0
2607 -2622 0
2609 -2622 0
-2611 -2613 2624 0
2611 -2624 0
2613 -2624 0
-2615 -2617 2626 0
2615 -2626 0
2617 -2626 0
-2619 -2621 2628 0
2619 -2628 0
2621 -2628 0
-2623 -2625 2629 0
2623 -2629 0
2625 -2629 0
-2549 -2551 2753 0
2549 -2753 0
2551 -2753 0
-2555 -2557 2634 0
2555 -2634 0
2557 -2634 0
-2559 -2561 2636 0
2559 -2636 0
2561 -2636 0
-2563 -2565 2638 0
2563 -2638 0
2565 -2638 0
-2567 -2569 2640 0
2567 -2640 0
2569 -2640 0
-2571 -2573 2642 0
2571 -2642 0
2573 -2642 0
-2575 -2577 2644 0
2575 -2644 0
2577 -2644 0
-2579 -2581 2646 0
2579 -2646 0
2581 -2646 0
-2583 -2585 2648 0
2583 -2648 0
2585 -2648 0
-2588 -2590 2721 0
2588 -2721 0
2590 -2721 0
-2592 -2594 2652 0
2592 -2652 0
2594 -2652 0
-2596 -2598 2654 0
2596 -2654 0
2598 -2654 0
-2600 -2602 2656 0
2600 -2656 0
2602 -2656 0
-2604 -2606 2658 0
2604 -2658 0
2606 -2658 0
-2608 -2610 2660 0
2608 -2660 0
2610 -2660 0
-2612 -2614 2662 0
2612 -2662 0
2614 -2662 0
-2616 -2618 2664 0
2616 -2664 0
2618 -2664 0
-2620 -2622 2666 0
2620 -2666 0
2622 -2666 0
-2624 -2626 2668 0
2624 -2668 0
2626 -2668 0
-2628 -2629 2670 0
2628 -2670 0
2629 -2670 0
-2630 -2631 2731 0
2630 -2731 0
2631 -2731 0
-2632 -2633 2673 0
2632 -2673 0
2633 -2673 0
-2635 -2637 2675 0
2635 -2675 0
2637 -2675 0
-2639 -2641 2677 0
2639 -2677 0
2641 -2677 0
-2643 -2645 2679 0
2643 -2679 0
2645 -2679 0
-2647 -2649 2681 0
2647 -2681 0
2649 -2681 0
-2650 -2651 2683 0
2650 -2683 0
2651 -2683 0
-2653 -2655 2685 0
2653 -2685 0
2655 -2685 0
-2657 -2659 2687 0
2657 -2687 0
2659 -2687 0
-2661 -2663 2689 0
2661 -2689 0
2663 -2689 0
-2665 -2667 2691 0
2665 -2691 0
2667 -2691 0
-2627 -2669 2693 0
2669 -2693 0
2627 -2693 0
-2671 -2672 2695 0
2671 -2695 0
2672 -2695 0
-2674 -2676 2697 0
2674 -2697 0
2676 -2697 0
-2678 -2680 2699 0
2678 -2699 0
2680 -2699 0
-2682 -2684 2701 0
2682 -2701 0
2684 -2701 0
-2686 -2688 2703 0
2686 -2703 0
2688 -2703 0
-2690 -2692 2705 0
2690 -2705 0
2692 -2705 0
-2694 -2696 2707 0
2694 -2707 0
2696 -2707 0
-2698 -2700 2709 0
2698 -2709 0
2700 -2709 0
-2702 -2704 2711 0
2702 -2711 0
2704 -2711 0
-2706 -2708 2712 0
2706 -2712 0
2708 -2712 0
-2634 -2636 2714 0
2634 -2714 0
2636 -2714 0
-2638 -2640 2716 0
2638 -2716 0
2640 -2716 0
-2642 -2644 2718 0
2642 -2718 0
2644 -2718 0
-2646 -2648 2720 0
2646 -2720 0
2648 -2720 0
-2652 -2654 2796 0
2652 -2796 0
2654 -2796 0
-2656 -2658 2724 0
2656 -2724 0
2658 -2724 0
-2660 -2662 2726 0
2660 -2726 0
2662 -2726 0
-2664 -2666 2728 0
2664 -2728 0
2666 -2728 0
-2668 -2670 2730 0
2668 -2730 0
2670 -2730 0
-2673 -2675 2801 0
2673 -2801 0
2675 -2801 0
-2677 -2679 2734 0
2677 -2734 0
2679 -2734 0
-2681 -2683 2736 0
2681 -2736 0
2683 -2736 0
-2685 -2687 2738 0
2685 -2738 0
2687 -2738 0
-2689 -2691 2740 0
2689 -2740 0
2691 -2740 0
-2693 -2695 2742 0
2693 -2742 0
2695 -2742 0
-2697 -2699 2744 0
2697 -2744 0
2699 -2744 0
-2701 -2703 2746 0
2701 -2746 0
2703 -2746 0
-2705 -2707 2748 0
2705 -2748 0
2707 -2748 0
-2709 -2711 2750 0
2709 -2750 0
2711 -2750 0
-2710 -2712 2752 0
2712 -2752 0
2710 -2752 0
-2713 -2715 2811 0
2713 -2811 0
2715 -2811 0
-2717 -2719 2756 0
2717 -2756 0
2719 -2756 0
-2721 -2722 2758 0
2721 -2758 0
2722 -2758 0
-2723 -2725 2760 0
2723 -2760 0
2725 -2760 0
-2727 -2729 2762 0
2727 -2762 0
2729 -2762 0
-2731 -2732 2764 0
2731 -2764 0
2732 -2764 0
-2733 -2735 2766 0
2733 -2766 0
2735 -2766 0
-2737 -2739 2768 0
2737 -2768 0
2739 -2768 0
-2741 -2743 2770 0
2741 -2770 0
2743 -2770 0
-2745 -2747 2772 0
2745 -2772 0
2747 -2772 0
-2749 -2751 2774 0
2749 -2774 0
2751 -2774 0
-2753 -2754 2776 0
2753 -2776 0
2754 -2776 0
-2755 -2757 2778 0
2755 -2778 0
2757 -2778 0
-2759 -2761 2780 0
2759 -2780 0
2761 -2780 0
-2763 -2765 2782 0
2763 -2782 0
2765 -2782 0
-2767 -2769 2784 0
2767 -2784 0
2769 -2784 0
-2771 -2773 2786 0
2771 -2786 0
2773 -2786 0
-2775 -2777 2788 0
2775 -2788 0
2777 -2788 0
-2779 -2781 2790 0
2779 -2790 0
2781 -2790 0
-2783 -2785 2792 0
2783 -2792 0
2785 -2792 0
-2787 -2789 2793 0
2787 -2793 0
2789 -2793 0
-2714 -2716 2871 0
2714 -2871 0
2716 -2871 0
-2718 -2720 2872 0
2718 -2872 0
2720 -2872 0
-2724 -2726 2798 0
2724 -2798 0
2726 -2798 0
-2728 -2730 2800 0
2728 -2800 0
2730 -2800 0
-2734 -2736 2874 0
2734 -2874 0
2736 -2874 0
-2738 -2740 2804 0
2738 -2804 0
2740 -2804 0
-2742 -2744 2806 0
2742 -2806 0
2744 -2806 0
-2746 -2748 2808 0
2746 -2808 0
2748 -2808 0
-2750 -2752 2810 0
2750 -2810 0
2752 -2810 0
-2756 -2758 2879 0
2756 -2879 0
2758 -2879 0
-2760 -2762 2814 0
2760 -2814 0
2762 -2814 0
-2764 -2766 2816 0
2764 -2816 0
2766 -2816 0
-2768 -2770 2818 0
2768 -2818 0
2770 -2818 0
-2772 -2774 2820 0
2772 -2820 0
2774 -2820 0
-2776 -2778 2822 0
2776 -2822 0
2778 -2822 0
-2780 -2782 2824 0
2780 -2824 0
2782 -2824 0
-2784 -2786 2826 0
2784 -2826 0
2786 -2826 0
-2788 -2790 2828 0
2788 -2828 0
2790 -2828 0
-2792 -2793 2886 0
2792 -2886 0
2793 -2886 0
-2794 -2795 2831 0
2794 -2831 0
2795 -2831 0
-2796 -2797 2833 0
2796 -2833 0
2797 -2833 0
-2799 -2801 2835 0
2799 -2835 0
2801 -2835 0
-2802 -2803 2837 0
2802 -2837 0
2803 -2837 0
-2805 -2807 2839 0
2805 -2839 0
2807 -2839 0
-2809 -2811 2841 0
2809 -2841 0
2811 -2841 0
-2812 -2813 2843 0
2812 -2843 0
2813 -2843 0
-2815 -2817 2845 0
2815 -2845 0
2817 -2845 0
-2819 -2821 2847 0
2819 -2847 0
2821 -2847 0
-2823 -2825 2849 0
2823 -2849 0
2825 -2849 0
-2827 -2829 2851 0
2827 -2851 0
2829 -2851 0
-2791 -2830 2853 0
2791 -2853 0
2830 -2853 0
-2832 -2834 2855 0
2832 -2855 0
2834 -2855 0
-2836 -2838 2857 0
2836 -2857 0
2838 -2857 0
-2840 -2842 2859 0
2840 -2859 0
2842 -2859 0
-2844 -2846 2861 0
2844 -2861 0
2846 -2861 0
-2848 -2850 2863 0
2848 -2863 0
2850 -2863 0
-2852 -2854 2865 0
2852 -2865 0
2854 -2865 0
-2856 -2858 2867 0
2856 -2867 0
2858 -2867 0
-2860 -2862 2869 0
2860 -2869 0
2862 -2869 0
-2864 -2866 2870 0
2864 -2870 0
2866 -2870 0
-2798 -2800 2950 0
2798 -2950 0
2800 -2950 0
-2804 -2806 2876 0
2804 -2876 0
2806 -2876 0
-2808 -2810 2878 0
2808 -2878 0
2810 -2878 0
-2814 -2816 2952 0
2814 -2952 0
2816 -2952 0
-2818 -2820 2882 0
2818 -2882 0
2820 -2882 0
-2822 -2824 2884 0
2822 -2884 0
2824 -2884 0
-2826 -2828 2954 0
2826 -2954 0
2828 -2954 0
-2831 -2833 2888 0
2831 -2888 0
2833 -2888 0
-2835 -2837 2890 0
2835 -2890 0
2837 -2890 0
-2839 -2841 2892 0
2839 -2892 0
2841 -2892 0
-2843 -2845 2894 0
2843 -2894 0
2845 -2894 0
-2847 -2849 2896 0
2847 -2896 0
2849 -2896 0
-2851 -2853 2898 0
2851 -2898 0
2853 -2898 0
-2855 -2857 2900 0
2855 -2900 0
2857 -2900 0
-2859 -2861 2902 0
2859 -2902 0
2861 -2902 0
-2863 -2865 2904 0
2863 -2904 0
2865 -2904 0
-2867 -2869 2906 0
2867 -2906 0
2869 -2906 0
-2868 -2870 2908 0
2870 -2908 0
2868 -2908 0
-2871 -2872 2910 0
2871 -2910 0
2872 -2910 0
-2873 -2874 2912 0
2873 -2912 0
2874 -2912 0
-2875 -2877 2914 0
2875 -2914 0
2877 -2914 0
-2879 -2880 2916 0
2879 -2916 0
2880 -2916 0
-2881 -2883 2918 0
2881 -2918 0
2883 -2918 0
-2885 -2886 2920 0
2885 -2920 0
2886 -2920 0
-2887 -2889 2922 0
2887 -2922 0
2889 -2922 0
-2891 -2893 2924 0
2891 -2924 0
2893 -2924 0
-2895 -2897 2926 0
2895 -2926 0
2897 -2926 0
-2899 -2901 2928 0
2899 -2928 0
2901 -2928 0
-2903 -2905 2930 0
2903 -2930 0
2905 -2930 0
-2907 -2909 2932 0
2907 -2932 0
2909 -2932 0
-2911 -2913 2934 0
2911 -2934 0
2913 -2934 0
-2915 -2917 2936 0
2915 -2936 0
2917 -2936 0
-2919 -2921 2938 0
2919 -2938 0
2921 -2938 0
-2923 -2925 2940 0
2923 -2940 0
2925 -2940 0
-2927 -2929 2942 0
2927 -2942 0
2929 -2942 0
-2931 -2933 2944 0
2931 -2944 0
2933 -2944 0
-2935 -2937 2946 0
2935 -2946 0
2937 -2946 0
-2939 -2941 2948 0
2939 -2948 0
2941 -2948 0
-2943 -2945 2949 0
2943 -2949 0
2945 -2949 0
-2876 -2878 3025 0
2876 -3025 0
2878 -3025 0
-2882 -2884 3026 0
2882 -3026 0
2884 -3026 0
-2888 -2890 2956 0
2888 -2956 0
2890 -2956 0
-2892 -2894 2958 0
2892 -2958 0
2894 -2958 0
-2896 -2898 2960 0
2896 -2960 0
2898 -2960 0
-2900 -2902 2962 0
2900 -2962 0
2902 -2962 0
-2904 -2906 2964 0
2904 -2964 0
2906 -2964 0
-2908 -2910 2966 0
2908 -2966 0
2910 -2966 0
-2912 -2914 2968 0
2912 -2968 0
2914 -2968 0
-2916 -2918 2970 0
2916 -2970 0
2918 -2970 0
-2920 -2922 2972 0
2920 -2972 0
2922 -2972 0
-2924 -2926 2974 0
2924 -2974 0
2926 -2974 0
-2928 -2930 2976 0
2928 -2976 0
2930 -2976 0
-2932 -2934 2978 0
2932 -2978 0
2934 -2978 0
-2936 -2938 2980 0
2936 -2980 0
2938 -2980 0
-2940 -2942 2982 0
2940 -2982 0
2942 -2982 0
-2944 -2946 2984 0
2944 -2984 0
2946 -2984 0
-2948 -2949 2986 0
2948 -2986 0
2949 -2986 0
-2950 -2951 3041 0
2950 -3041 0
2951 -3041 0
-2952 -2953 2989 0
2952 -2989 0
2953 -2989 0
-2954 -2955 2991 0
2954 -2991 0
2955 -2991 0
-2957 -2959 2993 0
2957 -2993 0
2959 -2993 0
-2961 -2963 2995 0
2961 -2995 0
2963 -2995 0
-2965 -2967 2997 0
2965 -2997 0
2967 -2997 0
-2969 -2971 2999 0
2969 -2999 0
2971 -2999 0
-2973 -2975 3001 0
2973 -3001 0
2975 -3001 0
-2977 -2979 3003 0
2977 -3003 0
2979 -3003 0
-2981 -2983 3005 0
2981 -3005 0
2983 -3005 0
-2947 -2985 3007 0
2985 -3007 0
2947 -3007 0
-2987 -2988 3009 0
2987 -3009 0
2988 -3009 0
-2990 -2992 3011 0
2990 -3011 0
2992 -3011 0
-2994 -2996 3013 0
2994 -3013 0
2996 -3013 0
-2998 -3000 3015 0
2998 -3015 0
3000 -3015 0
-3002 -3004 3017 0
3002 -3017 0
3004 -3017 0
-3006 -3008 3019 0
3006 -3019 0
3008 -3019 0
-3010 -3012 3021 0
3010 -3021 0
3012 -3021 0
-3014 -3016 3023 0
3014 -3023 0
3016 -3023 0
-3018 -3020 3024 0
3018 -3024 0
3020 -3024 0
-2956 -2958 3098 0
2956 -3098 0
2958 -3098 0
-2960 -2962 3029 0
2960 -3029 0
2962 -3029 0
-2964 -2966 3031 0
2964 -3031 0
2966 -3031 0
-2968 -2970 3033 0
2968 -3033 0
2970 -3033 0
-2972 -2974 3035 0
2972 -3035 0
2974 -3035 0
-2976 -2978 3037 0
2976 -3037 0
2978 -3037 0
-2980 -2982 3039 0
2980 -3039 0
2982 -3039 0
-2984 -2986 3104 0
2984 -3104 0
2986 -3104 0
-2989 -2991 3043 0
2989 -3043 0
2991 -3043 0
-2993 -2995 3045 0
2993 -3045 0
2995 -3045 0
-2997 -2999 3047 0
2997 -3047 0
2999 -3047 0
-3001 -3003 3049 0
3001 -3049 0
3003 -3049 0
-3005 -3007 3051 0
3005 -3051 0
3007 -3051 0
-3009 -3011 3053 0
3009 -3053 0
3011 -3053 0
-3013 -3015 3055 0
3013 -3055 0
3015 -3055 0
-3017 -3019 3057 0
3017 -3057 0
3019 -3057 0
-3021 -3023 3059 0
3021 -3059 0
3023 -3059 0
-3022 -3024 3061 0
3024 -3061 0
3022 -3061 0
-3026 -3027 3114 0
3026 -3114 0
3027 -3114 0
-3028 -3030 3064 0
3028 -3064 0
3030 -3064 0
-3032 -3034 3066 0
3032 -3066 0
3034 -3066 0
-3036 -3038 3068 0
3036 -3068 0
3038 -3068 0
-3040 -3041 3070 0
3040 -3070 0
3041 -3070 0
-3042 -3044 3072 0
3042 -3072 0
3044 -3072 0
-3046 -3048 3074 0
3046 -3074 0
3048 -3074 0
-3050 -3052 3076 0
3050 -3076 0
3052 -3076 0
-3054 -3056 3078 0
3054 -3078 0
3056 -3078 0
-3058 -3060 3080 0
3058 -3080 0
3060 -3080 0
-3025 -3062 3082 0
3025 -3082 0
3062 -3082 0
-3063 -3065 3084 0
3063 -3084 0
3065 -3084 0
-3067 -3069 3086 0
3067 -3086 0
3069 -3086 0
-3071 -3073 3088 0
3071 -3088 0
3073 -3088 0
-3075 -3077 3090 0
3075 -3090 0
3077 -3090 0
-3079 -3081 3092 0
3079 -3092 0
3081 -3092 0
-3083 -3085 3094 0
3083 -3094 0
3085 -3094 0
-3087 -3089 3096 0
3087 -3096 0
3089 -3096 0
-3091 -3093 3097 0
3091 -3097 0
3093 -3097 0
-3029 -3031 3100 0
3029 -3100 0
3031 -3100 0
-3033 -3035 3102 0
3033 -3102 0
3035 -3102 0
-3037 -3039 3169 0
3037 -3169 0
3039 -3169 0
-3043 -3045 3106 0
3043 -3106 0
3045 -3106 0
-3047 -3049 3108 0
3047 -3108 0
3049 -3108 0
-3051 -3053 3110 0
3051 -3110 0
3053 -3110 0
-3055 -3057 3112 0
3055 -3112 0
3057 -3112 0
-3059 -3061 3172 0
3059 -3172 0
3061 -3172 0
-3064 -3066 3116 0
3064 -3116 0
3066 -3116 0
-3068 -3070 3118 0
3068 -3118 0
3070 -3118 0
-3072 -3074 3120 0
3072 -3120 0
3074 -3120 0
-3076 -3078 3122 0
3076 -3122 0
3078 -3122 0
-3080 -3082 3124 0
3080 -3124 0
3082 -3124 0
-3084 -3086 3126 0
3084 -3126 0
3086 -3126 0
-3088 -3090 3128 0
3088 -3128 0
3090 -3128 0
-3092 -3094 3130 0
3092 -3130 0
3094 -3130 0
-3096 -3097 3181 0
3096 -3181 0
3097 -3181 0
-3098 -3099 3133 0
3098 -3133 0
3099 -3133 0
-3101 -3103 3135 0
3101 -3135 0
3103 -3135 0
-3104 -3105 3137 0
3104 -3137 0
3105 -3137 0
-3107 -3109 3139 0
3107 -3139 0
3109 -3139 0
-3111 -3113 3141 0
3111 -3141 0
3113 -3141 0
-3114 -3115 3143 0
3114 -3143 0
3115 -3143 0
-3117 -3119 3145 0
3117 -3145 0
3119 -3145 0
-3121 -3123 3147 0
3121 -3147 0
3123 -3147 0
-3125 -3127 3149 0
3125 -3149 0
3127 -3149 0
-3129 -3131 3151 0
3129 -3151 0
3131 -3151 0
-3095 -3132 3153 0
3095 -3153 0
3132 -3153 0
-3134 -3136 3155 0
3134 -3155 0
3136 -3155 0
-3138 -3140 3157 0
3138 -3157 0
3140 -3157 0
-3142 -3144 3159 0
3142 -3159 0
3144 -3159 0
-3146 -3148 3161 0
3146 -3161 0
3148 -3161 0
-3150 -3152 3163 0
3150 -3163 0
3152 -3163 0
-3154 -3156 3165 0
3154 -3165 0
3156 -3165 0
-3158 -3160 3167 0
3158 -3167 0
3160 -3167 0
-3162 -3164 3168 0
3162 -3168 0
3164 -3168 0
-3100 -3102 3236 0
3100 -3236 0
3102 -3236 0
-3106 -3108 3237 0
3106 -3237 0
3108 -3237 0
-3110 -3112 3238 0
3110 -3238 0
3112 -3238 0
-3116 -3118 3174 0
3116 -3174 0
3118 -3174 0
-3120 -3122 3176 0
3120 -3176 0
3122 -3176 0
-3124 -3126 3178 0
3124 -3178 0
3126 -3178 0
-3128 -3130 3180 0
3128 -3180 0
3130 -3180 0
-3133 -3135 3241 0
3133 -3241 0
3135 -3241 0
-3137 -3139 3184 0
3137 -3184 0
3139 -3184 0
-3141 -3143 3186 0
3141 -3186 0
3143 -3186 0
-3145 -3147 3188 0
3145 -3188 0
3147 -3188 0
-3149 -3151 3190 0
3149 -3190 0
3151 -3190 0
-3153 -3155 3192 0
3153 -3192 0
3155 -3192 0
-3157 -3159 3194 0
3157 -3194 0
3159 -3194 0
-3161 -3163 3196 0
3161 -3196 0
3163 -3196 0
-3165 -3167 3198 0
3165 -3198 0
3167 -3198 0
-3166 -3168 3250 0
3168 -3250 0
3166 -3250 0
-3169 -3170 3202 0
3169 -3202 0
3170 -3202 0
-3171 -3172 3204 0
3171 -3204 0
3172 -3204 0
-3173 -3175 3206 0
3173 -3206 0
3175 -3206 0
-3177 -3179 3208 0
3177 -3208 0
3179 -3208 0
-3181 -3182 3210 0
3181 -3210 0
3182 -3210 0
-3183 -3185 3212 0
3183 -3212 0
3185 -3212 0
-3187 -3189 3214 0
3187 -3214 0
3189 -3214 0
-3191 -3193 3216 0
3191 -3216 0
3193 -3216 0
-3195 -3197 3218 0
3195 -3218 0
3197 -3218 0
-3199 -3200 3220 0
3199 -3220 0
3200 -3220 0
-3201 -3203 3222 0
3201 -3222 0
3203 -3222 0
-3205 -3207 3224 0
3205 -3224 0
3207 -3224 0
-3209 -3211 3226 0
3209 -3226 0
3211 -3226 0
-3213 -3215 3228 0
3213 -3228 0
3215 -3228 0
-3217 -3219 3230 0
3217 -3230 0
3219 -3230 0
-3221 -3223 3232 0
3221 -3232 0
3223 -3232 0
-3225 -3227 3234 0
3225 -3234 0
3227 -3234 0
-3229 -3231 3235 0
3229 -3235 0
3231 -3235 0
-3174 -3176 3305 0
3174 -3305 0
3176 -3305 0
-3178 -3180 3306 0
3178 -3306 0
3180 -3306 0
-3184 -3186 3243 0
3184 -3243 0
3186 -3243 0
-3188 -3190 3245 0
3188 -3245 0
3190 -3245 0
-3192 -3194 3247 0
3192 -3247 0
3194 -3247 0
-3196 -3198 3249 0
3196 -3249 0
3198 -3249 0
-3202 -3204 3309 0
3202 -3309 0
3204 -3309 0
-3206 -3208 3253 0
3206 -3253 0
3208 -3253 0
-3210 -3212 3255 0
3210 -3255 0
3212 -3255 0
-3214 -3216 3257 0
3214 -3257 0
3216 -3257 0
-3218 -3220 3259 0
3218 -3259 0
3220 -3259 0
-3222 -3224 3261 0
3222 -3261 0
3224 -3261 0
-3226 -3228 3263 0
3226 -3263 0
3228 -3263 0
-3230 -3232 3265 0
3230 -3265 0
3232 -3265 0
-3234 -3235 3267 0
3234 -3267 0
3235 -3267 0
-3233 -3236 3269 0
3233 -3269 0
3236 -3269 0
-3237 -3238 3271 0
3237 -3271 0
3238 -3271 0
-3239 -3240 3273 0
3239 -3273 0
3240 -3273 0
-3241 -3242 3275 0
3241 -3275 0
3242 -3275 0
-3244 -3246 3277 0
3244 -3277 0
3246 -3277 0
-3248 -3250 3279 0
3248 -3279 0
3250 -3279 0
-3251 -3252 3281 0
3251 -3281 0
3252 -3281 0
-3254 -3256 3283 0
3254 -3283 0
3256 -3283 0
-3258 -3260 3285 0
3258 -3285 0
3260 -3285 0
-3262 -3264 3287 0
3262 -3287 0
3264 -3287 0
-3266 -3268 3289 0
3266 -3289 0
3268 -3289 0
-3270 -3272 3291 0
3270 -3291 0
3272 -3291 0
-3274 -3276 3293 0
3274 -3293 0
3276 -3293 0
-3278 -3280 3295 0
3278 -3295 0
3280 -3295 0
-3282 -3284 3297 0
3282 -3297 0
3284 -3297 0
-3286 -3288 3299 0
3286 -3299 0
3288 -3299 0
-3290 -3292 3301 0
3290 -3301 0
3292 -3301 0
-3294 -3296 3303 0
3294 -3303 0
3296 -3303 0
-3298 -3300 3304 0
3298 -3304 0
3300 -3304 0
-3243 -3245 3370 0
3243 -3370 0
3245 -3370 0
-3247 -3249 3371 0
3247 -3371 0
3249 -3371 0
-3253 -3255 3311 0
3253 -3311 0
3255 -3311 0
-3257 -3259 3313 0
3257 -3313 0
3259 -3313 0
-3261 -3263 3315 0
3261 -3315 0
3263 -3315 0
-3265 -3267 3317 0
3265 -3317 0
3267 -3317 0
-3269 -3271 3319 0
3269 -3319 0
3271 -3319 0
-3273 -3275 3321 0
3273 -3321 0
3275 -3321 0
-3277 -3279 3323 0
3277 -3323 0
3279 -3323 0
-3281 -3283 3325 0
3281 -3325 0
3283 -3325 0
-3285 -3287 3327 0
3285 -3327 0
3287 -3327 0
-3289 -3291 3329 0
3289 -3329 0
3291 -3329 0
-3293 -3295 3331 0
3293 -3331 0
3295 -3331 0
-3297 -3299 3333 0
3297 -3333 0
3299 -3333 0
-3301 -3303 3335 0
3301 -3335 0
3303 -3335 0
-3302 -3304 3337 0
3304 -3337 0
3302 -3337 0
-3306 -3307 3385 0
3306 -3385 0
3307 -3385 0
-3308 -3309 3340 0
3308 -3340 0
3309 -3340 0
-3310 -3312 3342 0
3310 -3342 0
3312 -3342 0
-3314 -3316 3344 0
3314 -3344 0
3316 -3344 0
-3318 -3320 3346 0
3318 -3346 0
3320 -3346 0
-3322 -3324 3348 0
3322 -3348 0
3324 -3348 0
-3326 -3328 3350 0
3326 -3350 0
3328 -3350 0
-3330 -3332 3352 0
3330 -3352 0
3332 -3352 0
-3334 -3336 3354 0
3334 -3354 0
3336 -3354 0
-3305 -3338 3356 0
3305 -3356 0
3338 -3356 0
-3339 -3341 3358 0
3339 -3358 0
3341 -3358 0
-3343 -3345 3360 0
3343 -3360 0
3345 -3360 0
-3347 -3349 3362 0
3347 -3362 0
3349 -3362 0
-3351 -3353 3364 0
3351 -3364 0
3353 -3364 0
-3355 -3357 3366 0
3355 -3366 0
3357 -3366 0
-3359 -3361 3368 0
3359 -3368 0
3361 -3368 0
-3363 -3365 3369 0
3363 -3369 0
3365 -3369 0
-3311 -3313 3462 0
3311 -3462 0
3313 -3462 0
-3315 -3317 3374 0
3315 -3374 0
3317 -3374 0
-3319 -3321 3376 0
3319 -3376 0
3321 -3376 0
-3323 -3325 3378 0
3323 -3378 0
3325 -3378 0
-3327 -3329 3380 0
3327 -3380 0
3329 -3380 0
-3331 -3333 3382 0
3331 -3382 0
3333 -3382 0
-3335 -3337 3384 0
3335 -3384 0
3337 -3384 0
-3340 -3342 3438 0
3340 -3438 0
3342 -3438 0
-3344 -3346 3388 0
3344 -3388 0
3346 -3388 0
-3348 -3350 3390 0
3348 -3390 0
3350 -3390 0
-3352 -3354 3392 0
3352 -3392 0
3354 -3392 0
-3356 -3358 3394 0
3356 -3394 0
3358 -3394 0
-3360 -3362 3396 0
3360 -3396 0
3362 -3396 0
-3364 -3366 3398 0
3364 -3398 0
3366 -3398 0
-3368 -3369 3444 0
3368 -3444 0
3369 -3444 0
-3370 -3371 3401 0
3370 -3401 0
3371 -3401 0
-3372 -3373 3403 0
3372 -3403 0
3373 -3403 0
-3375 -3377 3405 0
3375 -3405 0
3377 -3405 0
-3379 -3381 3407 0
3379 -3407 0
3381 -3407 0
-3383 -3385 3409 0
3383 -3409 0
3385 -3409 0
-3386 -3387 3411 0
3386 -3411 0
3387 -3411 0
-3389 -3391 3413 0
3389 -3413 0
3391 -3413 0
-3393 -3395 3415 0
3393 -3415 0
3395 -3415 0
-3397 -3399 3417 0
3397 -3417 0
3399 -3417 0
-3367 -3400 3419 0
3367 -3419 0
3400 -3419 0
-3402 -3404 3421 0
3402 -3421 0
3404 -3421 0
-3406 -3408 3423 0
3406 -3423 0
3408 -3423 0
-3410 -3412 3425 0
3410 -3425 0
3412 -3425 0
-3414 -3416 3427 0
3414 -3427 0
3416 -3427 0
-3418 -3420 3429 0
3418 -3429 0
3420 -3429 0
-3422 -3424 3431 0
3422 -3431 0
3424 -3431 0
-3426 -3428 3432 0
3426 -3432 0
3428 -3432 0
-3374 -3376 3434 0
3374 -3434 0
3376 -3434 0
-3378 -3380 3436 0
3378 -3436 0
3380 -3436 0
-3382 -3384 3495 0
3382 -3495 0
3384 -3495 0
-3388 -3390 3440 0
3388 -3440 0
3390 -3440 0
-3392 -3394 3442 0
3392 -3442 0
3394 -3442 0
-3396 -3398 3497 0
3396 -3497 0
3398 -3497 0
-3401 -3403 3446 0
3401 -3446 0
3403 -3446 0
-3405 -3407 3448 0
3405 -3448 0
3407 -3448 0
-3409 -3411 3450 0
3409 -3450 0
3411 -3450 0
-3413 -3415 3452 0
3413 -3452 0
3415 -3452 0
-3417 -3419 3454 0
3417 -3454 0
3419 -3454 0
-3421 -3423 3456 0
3421 -3456 0
3423 -3456 0
-3425 -3427 3458 0
3425 -3458 0
3427 -3458 0
-3429 -3431 3460 0
3429 -3460 0
3431 -3460 0
-3430 -3432 3504 0
3432 -3504 0
3430 -3504 0
-3433 -3435 3464 0
3433 -3464 0
3435 -3464 0
-3437 -3438 3466 0
3437 -3466 0
3438 -3466 0
-3439 -3441 3468 0
3439 -3468 0
3441 -3468 0
-3443 -3444 3470 0
3443 -3470 0
3444 -3470 0
-3445 -3447 3472 0
3445 -3472 0
3447 -3472 0
-3449 -3451 3474 0
3449 -3474 0
3451 -3474 0
-3453 -3455 3476 0
3453 -3476 0
3455 -3476 0
-3457 -3459 3478 0
3457 -3478 0
3459 -3478 0
-3461 -3462 3480 0
3461 -3480 0
3462 -3480 0
-3463 -3465 3482 0
3463 -3482 0
3465 -3482 0
-3467 -3469 3484 0
3467 -3484 0
3469 -3484 0
-3471 -3473 3486 0
3471 -3486 0
3473 -3486 0
-3475 -3477 3488 0
3475 -3488 0
3477 -3488 0
-3479 -3481 3490 0
3479 -3490 0
3481 -3490 0
-3483 -3485 3492 0
3483 -3492 0
3485 -3492 0
-3487 -3489 3493 0
3487 -3493 0
3489 -3493 0
-3434 -3436 3551 0
3434 -3551 0
3436 -3551 0
-3440 -3442 3552 0
3440 -3552 0
3442 -3552 0
-3446 -3448 3553 0
3446 -3553 0
3448 -3553 0
-3450 -3452 3500 0
3450 -3500 0
3452 -3500 0
-3454 -3456 3502 0
3454 -3502 0
3456 -3502 0
-3458 -3460 3555 0
3458 -3555 0
3460 -3555 0
-3464 -3466 3506 0
3464 -3506 0
3466 -3506 0
-3468 -3470 3508 0
3468 -3508 0
3470 -3508 0
-3472 -3474 3510 0
3472 -3510 0
3474 -3510 0
-3476 -3478 3512 0
3476 -3512 0
3478 -3512 0
-3480 -3482 3514 0
3480 -3514 0
3482 -3514 0
-3484 -3486 3516 0
3484 -3516 0
3486 -3516 0
-3488 -3490 3518 0
3488 -3518 0
3490 -3518 0
-3492 -3493 3520 0
3492 -3520 0
3493 -3520 0
-3494 -3495 3562 0
3494 -3562 0
3495 -3562 0
-3496 -3497 3523 0
3496 -3523 0
3497 -3523 0
-3498 -3499 3525 0
3498 -3525 0
3499 -3525 0
-3501 -3503 3527 0
3501 -3527 0
3503 -3527 0
-3504 -3505 3529 0
3504 -3529 0
3505 -3529 0
-3507 -3509 3531 0
3507 -3531 0
3509 -3531 0
-3511 -3513 3533 0
3511 -3533 0
3513 -3533 0
-3515 -3517 3535 0
3515 -3535 0
3517 -3535 0
-3491 -3519 3537 0
3519 -3537 0
3491 -3537 0
-3521 -3522 3539 0
3521 -3539 0
3522 -3539 0
-3524 -3526 3541 0
3524 -3541 0
3526 -3541 0
-3528 -3530 3543 0
3528 -3543 0
3530 -3543 0
-3532 -3534 3545 0
3532 -3545 0
3534 -3545 0
-3536 -3538 3547 0
3536 -3547 0
3538 -3547 0
-3540 -3542 3549 0
3540 -3549 0
3542 -3549 0
-3544 -3546 3550 0
3544 -3550 0
3546 -3550 0
-3500 -3502 3610 0
3500 -3610 0
3502 -3610 0
-3506 -3508 3611 0
3506 -3611 0
3508 -3611 0
-3510 -3512 3558 0
3510 -3558 0
3512 -3558 0
-3514 -3516 3560 0
3514 -3560 0
3516 -3560 0
-3518 -3520 3613 0
3518 -3613 0
3520 -3613 0
-3523 -3525 3564 0
3523 -3564 0
3525 -3564 0
-3527 -3529 3566 0
3527 -3566 0
3529 -3566 0
-3531 -3533 3568 0
3531 -3568 0
3533 -3568 0
-3535 -3537 3570 0
3535 -3570 0
3537 -3570 0
-3539 -3541 3572 0
3539 -3572 0
3541 -3572 0
-3543 -3545 3574 0
3543 -3574 0
3545 -3574 0
-3547 -3549 3576 0
3547 -3576 0
3549 -3576 0
-3548 -3550 3578 0
3550 -3578 0
3548 -3578 0
-3551 -3552 3580 0
3551 -3580 0
3552 -3580 0
-3553 -3554 3582 0
3553 -3582 0
3554 -3582 0
-3555 -3556 3584 0
3555 -3584 0
3556 -3584 0
-3557 -3559 3586 0
3557 -3586 0
3559 -3586 0
-3561 -3562 3588 0
3561 -3588 0
3562 -3588 0
-3563 -3565 3590 0
3563 -3590 0
3565 -3590 0
-3567 -3569 3592 0
3567 -3592 0
3569 -3592 0
-3571 -3573 3594 0
3571 -3594 0
3573 -3594 0
-3575 -3577 3596 0
3575 -3596 0
3577 -3596 0
-3579 -3581 3598 0
3579 -3598 0
3581 -3598 0
-3583 -3585 3600 0
3583 -3600 0
3585 -3600 0
-3587 -3589 3602 0
3587 -3602 0
3589 -3602 0
-3591 -3593 3604 0
3591 -3604 0
3593 -3604 0
-3595 -3597 3606 0
3595 -3606 0
3597 -3606 0
-3599 -3601 3608 0
3599 -3608 0
3601 -3608 0
-3603 -3605 3609 0
3603 -3609 0
3605 -3609 0
-3558 -3560 3665 0
3558 -3665 0
3560 -3665 0
-3564 -3566 3666 0
3564 -3666 0
3566 -3666 0
-3568 -3570 3616 0
3568 -3616 0
3570 -3616 0
-3572 -3574 3618 0
3572 -3618 0
3574 -3618 0
-3576 -3578 3620 0
3576 -3620 0
3578 -3620 0
-3580 -3582 3622 0
3580 -3622 0
3582 -3622 0
-3584 -3586 3624 0
3584 -3624 0
3586 -3624 0
-3588 -3590 3626 0
3588 -3626 0
3590 -3626 0
-3592 -3594 3628 0
3592 -3628 0
3594 -3628 0
-3596 -3598 3630 0
3596 -3630 0
3598 -3630 0
-3600 -3602 3632 0
3600 -3632 0
3602 -3632 0
-3604 -3606 3634 0
3604 -3634 0
3606 -3634 0
-3608 -3609 3676 0
3608 -3676 0
3609 -3676 0
-3610 -3611 3637 0
3610 -3637 0
3611 -3637 0
-3612 -3613 3639 0
3612 -3639 0
3613 -3639 0
-3614 -3615 3641 0
3614 -3641 0
3615 -3641 0
-3617 -3619 3643 0
3617 -3643 0
3619 -3643 0
-3621 -3623 3645 0
3621 -3645 0
3623 -3645 0
-3625 -3627 3647 0
3625 -3647 0
3627 -3647 0
-3629 -3631 3649 0
3629 -3649 0
3631 -3649 0
-3633 -3635 3651 0
3633 -3651 0
3635 -3651 0
-3607 -3636 3653 0
3607 -3653 0
3636 -3653 0
-3638 -3640 3655 0
3638 -3655 0
3640 -3655 0
-3642 -3644 3657 0
3642 -3657 0
3644 -3657 0
-3646 -3648 3659 0
3646 -3659 0
3648 -3659 0
-3650 -3652 3661 0
3650 -3661 0
3652 -3661 0
-3654 -3656 3663 0
3654 -3663 0
3656 -3663 0
-3658 -3660 3664 0
3658 -3664 0
3660 -3664 0
-3616 -3618 3718 0
3616 -3718 0
3618 -3718 0
-3620 -3622 3669 0
3620 -3669 0
3622 -3669 0
-3624 -3626 3671 0
3624 -3671 0
3626 -3671 0
-3628 -3630 3673 0
3628 -3673 0
3630 -3673 0
-3632 -3634 3675 0
3632 -3675 0
3634 -3675 0
-3637 -3639 3723 0
3637 -3723 0
3639 -3723 0
-3641 -3643 3679 0
3641 -3679 0
3643 -3679 0
-3645 -3647 3681 0
3645 -3681 0
3647 -3681 0
-3649 -3651 3683 0
3649 -3683 0
3651 -3683 0
-3653 -3655 3685 0
3653 -3685 0
3655 -3685 0
-3657 -3659 3687 0
3657 -3687 0
3659 -3687 0
-3661 -3663 3689 0
3661 -3689 0
3663 -3689 0
-3662 -3664 3729 0
3664 -3729 0
3662 -3729 0
-3666 -3667 3692 0
3666 -3692 0
3667 -3692 0
-3668 -3670 3694 0
3668 -3694 0
3670 -3694 0
-3672 -3674 3696 0
3672 -3696 0
3674 -3696 0
-3676 -3677 3698 0
3676 -3698 0
3677 -3698 0
-3678 -3680 3700 0
3678 -3700 0
3680 -3700 0
-3682 -3684 3702 0
3682 -3702 0
3684 -3702 0
-3686 -3688 3704 0
3686 -3704 0
3688 -3704 0
-3665 -3690 3706 0
3690 -3706 0
3665 -3706 0
-3691 -3693 3708 0
3691 -3708 0
3693 -3708 0
-3695 -3697 3710 0
3695 -3710 0
3697 -3710 0
-3699 -3701 3712 0
3699 -3712 0
3701 -3712 0
-3703 -3705 3714 0
3703 -3714 0
3705 -3714 0
-3707 -3709 3716 0
3707 -3716 0
3709 -3716 0
-3711 -3713 3717 0
3711 -3717 0
3713 -3717 0
-3669 -3671 3720 0
3669 -3720 0
3671 -3720 0
-3673 -3675 3722 0
3673 -3722 0
3675 -3722 0
-3679 -3681 3769 0
3679 -3769 0
3681 -3769 0
-3683 -3685 3726 0
3683 -3726 0
3685 -3726 0
-3687 -3689 3728 0
3687 -3728 0
3689 -3728 0
-3692 -3694 3771 0
3692 -3771 0
3694 -3771 0
-3696 -3698 3732 0
3696 -3732 0
3698 -3732 0
-3700 -3702 3734 0
3700 -3734 0
3702 -3734 0
-3704 -3706 3736 0
3704 -3736 0
3706 -3736 0
-3708 -3710 3738 0
3708 -3738 0
3710 -3738 0
-3712 -3714 3740 0
3712 -3740 0
3714 -3740 0
-3716 -3717 3742 0
3716 -3742 0
3717 -3742 0
-3718 -3719 3777 0
3718 -3777 0
3719 -3777 0
-3721 -3723 3745 0
3721 -3745 0
3723 -3745 0
-3724 -3725 3747 0
3724 -3747 0
3725 -3747 0
-3727 -3729 3749 0
3727 -3749 0
3729 -3749 0
-3730 -3731 3751 0
3730 -3751 0
3731 -3751 0
-3733 -3735 3753 0
3733 -3753 0
3735 -3753 0
-3737 -3739 3755 0
3737 -3755 0
3739 -3755 0
-3715 -3741 3757 0
3741 -3757 0
3715 -3757 0
-3743 -3744 3759 0
3743 -3759 0
3744 -3759 0
-3746 -3748 3761 0
3746 -3761 0
3748 -3761 0
-3750 -3752 3763 0
3750 -3763 0
3752 -3763 0
-3754 -3756 3765 0
3754 -3765 0
3756 -3765 0
-3758 -3760 3767 0
3758 -3767 0
3760 -3767 0
-3762 -3764 3768 0
3762 -3768 0
3764 -3768 0
-3720 -3722 3816 0
3720 -3816 0
3722 -3816 0
-3726 -3728 3817 0
3726 -3817 0
3728 -3817 0
-3732 -3734 3818 0
3732 -3818 0
3734 -3818 0
-3736 -3738 3774 0
3736 -3774 0
3738 -3774 0
-3740 -3742 3776 0
3740 -3776 0
3742 -3776 0
-3745 -3747 3820 0
3745 -3820 0
3747 -3820 0
-3749 -3751 3780 0
3749 -3780 0
3751 -3780 0
-3753 -3755 3782 0
3753 -3782 0
3755 -3782 0
-3757 -3759 3784 0
3757 -3784 0
3759 -3784 0
-3761 -3763 3786 0
3761 -3786 0
3763 -3786 0
-3765 -3767 3788 0
3765 -3788 0
3767 -3788 0
-3766 -3768 3790 0
3768 -3790 0
3766 -3790 0
-3769 -3770 3826 0
3769 -3826 0
3770 -3826 0
-3771 -3772 3794 0
3771 -3794 0
3772 -3794 0
-3773 -3775 3796 0
3773 -3796 0
3775 -3796 0
-3777 -3778 3798 0
3777 -3798 0
3778 -3798 0
-3779 -3781 3800 0
3779 -3800 0
3781 -3800 0
-3783 -3785 3802 0
3783 -3802 0
3785 -3802 0
-3787 -3789 3804 0
3787 -3804 0
3789 -3804 0
-3791 -3792 3806 0
3791 -3806 0
3792 -3806 0
-3793 -3795 3808 0
3793 -3808 0
3795 -3808 0
-3797 -3799 3810 0
3797 -3810 0
3799 -3810 0
-3801 -3803 3812 0
3801 -3812 0
3803 -3812 0
-3805 -3807 3814 0
3805 -3814 0
3807 -3814 0
-3809 -3811 3815 0
3809 -3815 0
3811 -3815 0
-3774 -3776 3865 0
3774 -3865 0
3776 -3865 0
-3780 -3782 3866 0
3780 -3866 0
3782 -3866 0
-3784 -3786 3823 0
3784 -3823 0
3786 -3823 0
-3788 -3790 3825 0
3788 -3825 0
3790 -3825 0
-3794 -3796 3868 0
3794 -3868 0
3796 -3868 0
-3798 -3800 3829 0
3798 -3829 0
3800 -3829 0
-3802 -3804 3831 0
3802 -3831 0
3804 -3831 0
-3806 -3808 3833 0
3806 -3833 0
3808 -3833 0
-3810 -3812 3835 0
3810 -3835 0
3812 -3835 0
-3814 -3815 3837 0
3814 -3837 0
3815 -3837 0
-3813 -3816 3839 0
3813 -3839 0
3816 -3839 0
-3817 -3818 3841 0
3817 -3841 0
3818 -3841 0
-3819 -3820 3843 0
3819 -3843 0
3820 -3843 0
-3821 -3822 3845 0
3821 -3845 0
3822 -3845 0
-3824 -3826 3847 0
3824 -3847 0
3826 -3847 0
-3827 -3828 3849 0
3827 -3849 0
3828 -3849 0
-3830 -3832 3851 0
3830 -3851 0
3832 -3851 0
-3834 -3836 3853 0
3834 -3853 0
3836 -3853 0
-3838 -3840 3855 0
3838 -3855 0
3840 -3855 0
-3842 -3844 3857 0
3842 -3857 0
3844 -3857 0
-3846 -3848 3859 0
3846 -3859 0
3848 -3859 0
-3850 -3852 3861 0
3850 -3861 0
3852 -3861 0
-3854 -3856 3863 0
3854 -3863 0
3856 -3863 0
-3858 -3860 3864 0
3858 -3864 0
3860 -3864 0
-3823 -3825 3910 0
3823 -3910 0
3825 -3910 0
-3829 -3831 3911 0
3829 -3911 0
3831 -3911 0
-3833 -3835 3871 0
3833 -3871 0
3835 -3871 0
-3837 -3839 3873 0
3837 -3873 0
3839 -3873 0
-3841 -3843 3875 0
3841 -3875 0
3843 -3875 0
-3845 -3847 3877 0
3845 -3877 0
3847 -3877 0
-3849 -3851 3879 0
3849 -3879 0
3851 -3879 0
-3853 -3855 3881 0
3853 -3881 0
3855 -3881 0
-3857 -3859 3883 0
3857 -3883 0
3859 -3883 0
-3861 -3863 3885 0
3861 -3885 0
3863 -3885 0
-3862 -3864 3918 0
3864 -3918 0
3862 -3918 0
-3866 -3867 3888 0
3866 -3888 0
3867 -3888 0
-3868 -3869 3890 0
3868 -3890 0
3869 -3890 0
-3870 -3872 3892 0
3870 -3892 0
3872 -3892 0
-3874 -3876 3894 0
3874 -3894 0
3876 -3894 0
-3878 -3880 3896 0
3878 -3896 0
3880 -3896 0
-3882 -3884 3898 0
3882 -3898 0
3884 -3898 0
-3865 -3886 3900 0
3886 -3900 0
3865 -3900 0
-3887 -3889 3902 0
3887 -3902 0
3889 -3902 0
-3891 -3893 3904 0
3891 -3904 0
3893 -3904 0
-3895 -3897 3906 0
3895 -3906 0
3897 -3906 0
-3899 -3901 3908 0
3899 -3908 0
3901 -3908 0
-3903 -3905 3909 0
3903 -3909 0
3905 -3909 0
-3871 -3873 3973 0
3871 -3973 0
3873 -3973 0
-3875 -3877 3914 0
3875 -3914 0
3877 -3914 0
-3879 -3881 3916 0
3879 -3916 0
3881 -3916 0
-3883 -3885 3954 0
3883 -3954 0
3885 -3954 0
-3888 -3890 3920 0
3888 -3920 0
3890 -3920 0
-3892 -3894 3922 0
3892 -3922 0
3894 -3922 0
-3896 -3898 3924 0
3896 -3924 0
3898 -3924 0
-3900 -3902 3926 0
3900 -3926 0
3902 -3926 0
-3904 -3906 3928 0
3904 -3928 0
3906 -3928 0
-3908 -3909 3930 0
3908 -3930 0
3909 -3930 0
-3910 -3911 3960 0
3910 -3960 0
3911 -3960 0
-3912 -3913 3933 0
3912 -3933 0
3913 -3933 0
-3915 -3917 3935 0
3915 -3935 0
3917 -3935 0
-3918 -3919 3937 0
3918 -3937 0
3919 -3937 0
-3921 -3923 3939 0
3921 -3939 0
3923 -3939 0
-3925 -3927 3941 0
3925 -3941 0
3927 -3941 0
-3907 -3929 3943 0
3929 -3943 0
3907 -3943 0
-3931 -3932 3945 0
3931 -3945 0
3932 -3945 0
-3934 -3936 3947 0
3934 -3947 0
3936 -3947 0
-3938 -3940 3949 0
3938 -3949 0
3940 -3949 0
-3942 -3944 3951 0
3942 -3951 0
3944 -3951 0
-3946 -3948 3952 0
3946 -3952 0
3948 -3952 0
-3914 -3916 3994 0
3914 -3994 0
3916 -3994 0
-3920 -3922 3956 0
3920 -3956 0
3922 -3956 0
-3924 -3926 3958 0
3924 -3958 0
3926 -3958 0
-3928 -3930 3996 0
3928 -3996 0
3930 -3996 0
-3933 -3935 3962 0
3933 -3962 0
3935 -3962 0
-3937 -3939 3964 0
3937 -3964 0
3939 -3964 0
-3941 -3943 3966 0
3941 -3966 0
3943 -3966 0
-3945 -3947 3968 0
3945 -3968 0
3947 -3968 0
-3949 -3951 3970 0
3949 -3970 0
3951 -3970 0
-3950 -3952 3972 0
3952 -3972 0
3950 -3972 0
-3953 -3954 4002 0
3953 -4002 0
3954 -4002 0
-3955 -3957 3976 0
3955 -3976 0
3957 -3976 0
-3959 -3960 3978 0
3959 -3978 0
3960 -3978 0
-3961 -3963 3980 0
3961 -3980 0
3963 -3980 0
-3965 -3967 3982 0
3965 -3982 0
3967 -3982 0
-3969 -3971 3984 0
3969 -3984 0
3971 -3984 0
-3973 -3974 3986 0
3973 -3986 0
3974 -3986 0
-3975 -3977 3988 0
3975 -3988 0
3977 -3988 0
-3979 -3981 3990 0
3979 -3990 0
3981 -3990 0
-3983 -3985 3992 0
3983 -3992 0
3985 -3992 0
-3987 -3989 3993 0
3987 -3993 0
3989 -3993 0
-3956 -3958 4033 0
3956 -4033 0
3958 -4033 0
-3962 -3964 3998 0
3962 -3998 0
3964 -3998 0
-3966 -3968 4000 0
3966 -4000 0
3968 -4000 0
-3970 -3972 4035 0
3970 -4035 0
3972 -4035 0
-3976 -3978 4004 0
3976 -4004 0
3978 -4004 0
-3980 -3982 4006 0
3980 -4006 0
3982 -4006 0
-3984 -3986 4008 0
3984 -4008 0
3986 -4008 0
-3988 -3990 4010 0
3988 -4010 0
3990 -4010 0
-3992 -3993 4040 0
3992 -4040 0
3993 -4040 0
-3994 -3995 4013 0
3994 -4013 0
3995 -4013 0
-3996 -3997 4015 0
3996 -4015 0
3997 -4015 0
-3999 -4001 4017 0
3999 -4017 0
4001 -4017 0
-4002 -4003 4019 0
4002 -4019 0
4003 -4019 0
-4005 -4007 4021 0
4005 -4021 0
4007 -4021 0
-4009 -4011 4023 0
4009 -4023 0
4011 -4023 0
-3991 -4012 4025 0
3991 -4025 0
4012 -4025 0
-4014 -4016 4027 0
4014 -4027 0
4016 -4027 0
-4018 -4020 4029 0
4018 -4029 0
4020 -4029 0
-4022 -4024 4031 0
4022 -4031 0
4024 -4031 0
-4026 -4028 4032 0
4026 -4032 0
4028 -4032 0
-3998 -4000 4070 0
3998 -4070 0
4000 -4070 0
-4004 -4006 4037 0
4004 -4037 0
4006 -4037 0
-4008 -4010 4039 0
4008 -4039 0
4010 -4039 0
-4013 -4015 4072 0
4013 -4072 0
4015 -4072 0
-4017 -4019 4043 0
4017 -4043 0
4019 -4043 0
-4021 -4023 4045 0
4021 -4045 0
4023 -4045 0
-4025 -4027 4047 0
4025 -4047 0
4027 -4047 0
-4029 -4031 4049 0
4029 -4049 0
4031 -4049 0
-4030 -4032 4077 0
4032 -4077 0
4030 -4077 0
-4034 -4035 4052 0
4034 -4052 0
4035 -4052 0
-4036 -4038 4054 0
4036 -4054 0
4038 -4054 0
-4040 -4041 4056 0
4040 -4056 0
4041 -4056 0
-4042 -4044 4058 0
4042 -4058 0
4044 -4058 0
-4046 -4048 4060 0
4046 -4060 0
4048 -4060 0
-4033 -4050 4062 0
4050 -4062 0
4033 -4062 0
-4051 -4053 4064 0
4051 -4064 0
4053 -4064 0
-4055 -4057 4066 0
4055 -4066 0
4057 -4066 0
-4059 -4061 4068 0
4059 -4068 0
4061 -4068 0
-4063 -4065 4069 0
4063 -4069 0
4065 -4069 0
-4037 -4039 4121 0
4037 -4121 0
4039 -4121 0
-4043 -4045 4074 0
4043 -4074 0
4045 -4074 0
-4047 -4049 4076 0
4047 -4076 0
4049 -4076 0
-4052 -4054 4106 0
4052 -4106 0
4054 -4106 0
-4056 -4058 4080 0
4056 -4080 0
4058 -4080 0
-4060 -4062 4082 0
4060 -4082 0
4062 -4082 0
-4064 -4066 4084 0
4064 -4084 0
4066 -4084 0
-4068 -4069 4086 0
4068 -4086 0
4069 -4086 0
-4070 -4071 4111 0
4070 -4111 0
4071 -4111 0
-4072 -4073 4089 0
4072 -4089 0
4073 -4089 0
-4075 -4077 4091 0
4075 -4091 0
4077 -4091 0
-4078 -4079 4093 0
4078 -4093 0
4079 -4093 0
-4081 -4083 4095 0
4081 -4095 0
4083 -4095 0
-4067 -4085 4097 0
4085 -4097 0
4067 -4097 0
-4087 -4088 4099 0
4087 -4099 0
4088 -4099 0
-4090 -4092 4101 0
4090 -4101 0
4092 -4101 0
-4094 -4096 4103 0
4094 -4103 0
4096 -4103 0
-4098 -4100 4104 0
4098 -4104 0
4100 -4104 0
-4074 -4076 4138 0
4074 -4138 0
4076 -4138 0
-4080 -4082 4108 0
4080 -4108 0
4082 -4108 0
-4084 -4086 4110 0
4084 -4110 0
4086 -4110 0
-4089 -4091 4140 0
4089 -4140 0
4091 -4140 0
-4093 -4095 4114 0
4093 -4114 0
4095 -4114 0
-4097 -4099 4116 0
4097 -4116 0
4099 -4116 0
-4101 -4103 4118 0
4101 -4118 0
4103 -4118 0
-4102 -4104 4120 0
4104 -4120 0
4102 -4120 0
-4105 -4106 4145 0
4105 -4145 0
4106 -4145 0
-4107 -4109 4124 0
4107 -4124 0
4109 -4124 0
-4111 -4112 4126 0
4111 -4126 0
4112 -4126 0
-4113 -4115 4128 0
4113 -4128 0
4115 -4128 0
-4117 -4119 4130 0
4117 -4130 0
4119 -4130 0
-4121 -4122 4132 0
4121 -4132 0
4122 -4132 0
-4123 -4125 4134 0
4123 -4134 0
4125 -4134 0
-4127 -4129 4136 0
4127 -4136 0
4129 -4136 0
-4131 -4133 4137 0
4131 -4137 0
4133 -4137 0
-4108 -4110 4169 0
4108 -4169 0
4110 -4169 0
-4114 -4116 4142 0
4114 -4142 0
4116 -4142 0
-4118 -4120 4144 0
4118 -4144 0
4120 -4144 0
-4124 -4126 4171 0
4124 -4171 0
4126 -4171 0
-4128 -4130 4148 0
4128 -4148 0
4130 -4148 0
-4132 -4134 4150 0
4132 -4150 0
4134 -4150 0
-4136 -4137 4173 0
4136 -4173 0
4137 -4173 0
-4138 -4139 4153 0
4138 -4153 0
4139 -4153 0
-4140 -4141 4155 0
4140 -4155 0
4141 -4155 0
-4143 -4145 4157 0
4143 -4157 0
4145 -4157 0
-4146 -4147 4159 0
4146 -4159 0
4147 -4159 0
-4149 -4151 4161 0
4149 -4161 0
4151 -4161 0
-4135 -4152 4163 0
4135 -4163 0
4152 -4163 0
-4154 -4156 4165 0
4154 -4165 0
4156 -4165 0
-4158 -4160 4167 0
4158 -4167 0
4160 -4167 0
-4162 -4164 4168 0
4162 -4168 0
4164 -4168 0
-4142 -4144 4198 0
4142 -4198 0
4144 -4198 0
-4148 -4150 4199 0
4148 -4199 0
4150 -4199 0
-4153 -4155 4175 0
4153 -4175 0
4155 -4175 0
-4157 -4159 4177 0
4157 -4177 0
4159 -4177 0
-4161 -4163 4179 0
4161 -4179 0
4163 -4179 0
-4165 -4167 4181 0
4165 -4181 0
4167 -4181 0
-4166 -4168 4202 0
4168 -4202 0
4166 -4202 0
-4170 -4171 4184 0
4170 -4184 0
4171 -4184 0
-4172 -4173 4186 0
4172 -4186 0
4173 -4186 0
-4174 -4176 4188 0
4174 -4188 0
4176 -4188 0
-4178 -4180 4190 0
4178 -4190 0
4180 -4190 0
-4169 -4182 4192 0
4182 -4192 0
4169 -4192 0
-4183 -4185 4194 0
4183 -4194 0
4185 -4194 0
-4187 -4189 4196 0
4187 -4196 0
4189 -4196 0
-4191 -4193 4197 0
4191 -4197 0
4193 -4197 0
-4175 -4177 4237 0
4175 -4237 0
4177 -4237 0
-4179 -4181 4225 0
4179 -4225 0
4181 -4225 0
-4184 -4186 4204 0
4184 -4204 0
4186 -4204 0
-4188 -4190 4206 0
4188 -4206 0
4190 -4206 0
-4192 -4194 4208 0
4192 -4208 0
4194 -4208 0
-4196 -4197 4210 0
4196 -4210 0
4197 -4210 0
-4198 -4199 4228 0
4198 -4228 0
4199 -4228 0
-4200 -4201 4213 0
4200 -4213 0
4201 -4213 0
-4202 -4203 4215 0
4202 -4215 0
4203 -4215 0
-4205 -4207 4217 0
4205 -4217 0
4207 -4217 0
-4195 -4209 4219 0
4209 -4219 0
4195 -4219 0
-4211 -4212 4221 0
4211 -4221 0
4212 -4221 0
-4214 -4216 4223 0
4214 -4223 0
4216 -4223 0
-4218 -4220 4224 0
4218 -4224 0
4220 -4224 0
-4204 -4206 4250 0
4204 -4250 0
4206 -4250 0
-4208 -4210 4251 0
4208 -4251 0
4210 -4251 0
-4213 -4215 4230 0
4213 -4230 0
4215 -4230 0
-4217 -4219 4232 0
4217 -4232 0
4219 -4232 0
-4221 -4223 4234 0
4221 -4234 0
4223 -4234 0
-4222 -4224 4236 0
4224 -4236 0
4222 -4236 0
-4225 -4226 4254 0
4225 -4254 0
4226 -4254 0
-4227 -4228 4240 0
4227 -4240 0
4228 -4240 0
-4229 -4231 4242 0
4229 -4242 0
4231 -4242 0
-4233 -4235 4244 0
4233 -4244 0
4235 -4244 0
-4237 -4238 4246 0
4237 -4246 0
4238 -4246 0
-4239 -4241 4248 0
4239 -4248 0
4241 -4248 0
-4243 -4245 4249 0
4243 -4249 0
4245 -4249 0
-4230 -4232 4273 0
4230 -4273 0
4232 -4273 0
-4234 -4236 4274 0
4234 -4274 0
4236 -4274 0
-4240 -4242 4256 0
4240 -4256 0
4242 -4256 0
-4244 -4246 4258 0
4244 -4258 0
4246 -4258 0
-4248 -4249 4276 0
4248 -4276 0
4249 -4276 0
-4250 -4251 4261 0
4250 -4261 0
4251 -4261 0
-4252 -4253 4263 0
4252 -4263 0
4253 -4263 0
-4254 -4255 4265 0
4254 -4265 0
4255 -4265 0
-4257 -4259 4267 0
4257 -4267 0
4259 -4267 0
-4247 -4260 4269 0
4247 -4269 0
4260 -4269 0
-4262 -4264 4271 0
4262 -4271 0
4264 -4271 0
-4266 -4268 4272 0
4266 -4272 0
4268 -4272 0
-4256 -4258 4294 0
4256 -4294 0
4258 -4294 0
-4261 -4263 4295 0
4261 -4295 0
4263 -4295 0
-4265 -4267 4279 0
4265 -4279 0
4267 -4279 0
-4269 -4271 4281 0
4269 -4281 0
4271 -4281 0
-4270 -4272 4297 0
4272 -4297 0
4270 -4297 0
-4274 -4275 4284 0
4274 -4284 0
4275 -4284 0
-4276 -4277 4286 0
4276 -4286 0
4277 -4286 0
-4278 -4280 4288 0
4278 -4288 0
4280 -4288 0
-4273 -4282 4290 0
4282 -4290 0
4273 -4290 0
-4283 -4285 4292 0
4283 -4292 0
4285 -4292 0
-4287 -4289 4293 0
4287 -4293 0
4289 -4293 0
-4279 -4281 4321 0
4279 -4321 0
4281 -4321 0
-4284 -4286 4313 0
4284 -4313 0
4286 -4313 0
-4288 -4290 4300 0
4288 -4300 0
4290 -4300 0
-4292 -4293 4302 0
4292 -4302 0
4293 -4302 0
-4294 -4295 4315 0
4294 -4315 0
4295 -4315 0
-4296 -4297 4305 0
4296 -4305 0
4297 -4305 0
-4298 -4299 4307 0
4298 -4307 0
4299 -4307 0
-4291 -4301 4309 0
4301 -4309 0
4291 -4309 0
-4303 -4304 4311 0
4303 -4311 0
4304 -4311 0
-4306 -4308 4312 0
4306 -4312 0
4308 -4312 0
-4300 -4302 4330 0
4300 -4330 0
4302 -4330 0
-4305 -4307 4331 0
4305 -4331 0
4307 -4331 0
-4309 -4311 4318 0
4309 -4318 0
4311 -4318 0
-4310 -4312 4320 0
4312 -4320 0
4310 -4320 0
-4313 -4314 4333 0
4313 -4333 0
4314 -4333 0
-4315 -4316 4324 0
4315 -4324 0
4316 -4324 0
-4317 -4319 4326 0
4317 -4326 0
4319 -4326 0
-4321 -4322 4328 0
4321 -4328 0
4322 -4328 0
-4323 -4325 4329 0
4323 -4329 0
4325 -4329 0
-4318 -4320 4345 0
4318 -4345 0
4320 -4345 0
-4324 -4326 4346 0
4324 -4346 0
4326 -4346 0
-4328 -4329 4347 0
4328 -4347 0
4329 -4347 0
-4330 -4331 4337 0
4330 -4337 0
4331 -4337 0
-4332 -4333 4339 0
4332 -4339 0
4333 -4339 0
-4334 -4335 4341 0
4334 -4341 0
4335 -4341 0
-4327 -4336 4343 0
4327 -4343 0
4336 -4343 0
-4338 -4340 4344 0
4338 -4344 0
4340 -4344 0
-4337 -4339 4349 0
4337 -4349 0
4339 -4349 0
-4341 -4343 4351 0
4341 -4351 0
4343 -4351 0
-4342 -4344 4360 0
4344 -4360 0
4342 -4360 0
-4346 -4347 4354 0
4346 -4354 0
4347 -4354 0
-4348 -4350 4356 0
4348 -4356 0
4350 -4356 0
-4345 -4352 4358 0
4352 -4358 0
4345 -4358 0
-4353 -4355 4359 0
4353 -4359 0
4355 -4359 0
-4349 -4351 4371 0
4349 -4371 0
4351 -4371 0
-4354 -4356 4362 0
4354 -4362 0
4356 -4362 0
-4358 -4359 4364 0
4358 -4364 0
4359 -4364 0
-4360 -4361 4367 0
4360 -4367 0
4361 -4367 0
-4357 -4363 4369 0
4363 -4369 0
4357 -4369 0
-4365 -4366 4370 0
4365 -4370 0
4366 -4370 0
-4362 -4364 4380 0
4362 -4380 0
4364 -4380 0
-4367 -4369 4373 0
4367 -4373 0
4369 -4373 0
-4368 -4370 4375 0
4370 -4375 0
4368 -4375 0
-4372 -4374 4378 0
4372 -4378 0
4374 -4378 0
-4371 -4376 4379 0
4371 -4379 0
4376 -4379 0
-4373 -4375 4385 0
4373 -4385 0
4375 -4385 0
-4378 -4379 4386 0
4378 -4386 0
4379 -4386 0
-4380 -4381 4387 0
4380 -4387 0
4381 -4387 0
-4377 -4382 4384 0
4377 -4384 0
4382 -4384 0
-4383 -4384 4393 0
-4386 -4387 4390 0
4386 -4390 0
4387 -4390 0
-4385 -4388 4391 0
4388 -4391 0
4385 -4391 0
-4390 -4391 0
-4389 -4392 4393 0
-4393 0
-1 -2 -79 0
1 2 -79 0
1 -2 79 0
-1 2 79 0
-1 -16 -79 0
1 16 -79 0
1 -16 79 0
-1 16 79 0
-3 -9 -82 0
3 9 -82 0
-3 9 82 0
3 -9 82 0
-17 -25 -84 0
17 25 -84 0
-17 25 84 0
17 -25 84 0
-80 -81 -86 0
80 81 -86 0
-80 81 86 0
80 -81 86 0
-79 -82 -88 0
79 82 -88 0
-79 82 88 0
79 -82 88 0
-84 -86 -88 0
84 86 -88 0
-84 86 88 0
84 -86 88 0
-4 -10 -91 0
4 10 -91 0
-4 10 91 0
4 -10 91 0
-18 -26 -93 0
18 26 -93 0
-18 26 93 0
18 -26 93 0
-34 -83 -95 0
34 83 -95 0
-34 83 95 0
34 -83 95 0
-85 -87 -97 0
85 87 -97 0
-85 87 97 0
85 -87 97 0
-89 -90 -99 0
89 90 -99 0
-89 90 99 0
89 -90 99 0
-88 -91 -101 0
88 91 -101 0
-88 91 101 0
88 -91 101 0
-93 -95 -103 0
93 95 -103 0
-93 95 103 0
93 -95 103 0
-97 -99 -105 0
97 99 -105 0
-97 99 105 0
97 -99 105 0
-101 -103 -105 0
101 103 -105 0
-101 103 105 0
101 -103 105 0
-5 -11 -108 0
5 11 -108 0
-5 11 108 0
5 -11 108 0
-19 -27 -110 0
19 27 -110 0
-19 27 110 0
19 -27 110 0
-35 -43 -112 0
35 43 -112 0
-35 43 112 0
35 -43 112 0
-92 -94 -114 0
92 94 -114 0
-92 94 114 0
92 -94 114 0
-96 -98 -116 0
96 98 -116 0
-96 98 116 0
96 -98 116 0
-100 -102 -118 0
100 102 -118 0
-100 102 118 0
100 -102 118 0
-104 -106 -120 0
104 106 -120 0
-104 106 120 0
104 -106 120 0
-105 -107 -122 0
105 107 -122 0
105 -107 122 0
-105 107 122 0
-108 -110 -124 0
108 110 -124 0
-108 110 124 0
108 -110 124 0
-112 -114 -126 0
112 114 -126 0
-112 114 126 0
112 -114 126 0
-116 -118 -128 0
116 118 -128 0
-116 118 128 0
116 -118 128 0
-120 -122 -130 0
120 122 -130 0
-120 122 130 0
120 -122 130 0
-124 -126 -132 0
124 126 -132 0
-124 126 132 0
124 -126 132 0
-128 -130 -132 0
128 130 -132 0
-128 130 132 0
128 -130 132 0
-6 -12 -135 0
6 12 -135 0
-6 12 135 0
6 -12 135 0
-20 -28 -137 0
20 28 -137 0
-20 28 137 0
20 -28 137 0
-36 -44 -139 0
36 44 -139 0
-36 44 139 0
36 -44 139 0
-52 -109 -141 0
52 109 -141 0
-52 109 141 0
52 -109 141 0
-111 -113 -143 0
111 113 -143 0
-111 113 143 0
111 -113 143 0
-115 -117 -145 0
115 117 -145 0
-115 117 145 0
115 -117 145 0
-119 -121 -147 0
119 121 -147 0
-119 121 147 0
119 -121 147 0
-123 -125 -149 0
123 125 -149 0
-123 125 149 0
123 -125 149 0
-127 -129 -151 0
127 129 -151 0
-127 129 151 0
127 -129 151 0
-131 -133 -153 0
131 133 -153 0
-131 133 153 0
131 -133 153 0
-132 -134 -155 0
132 134 -155 0
132 -134 155 0
-132 134 155 0
-135 -137 -157 0
135 137 -157 0
-135 137 157 0
135 -137 157 0
-139 -141 -159 0
139 141 -159 0
-139 141 159 0
139 -141 159 0
-143 -145 -161 0
143 145 -161 0
-143 145 161 0
143 -145 161 0
-147 -149 -163 0
147 149 -163 0
-147 149 163 0
147 -149 163 0
-151 -153 -165 0
151 153 -165 0
-151 153 165 0
151 -153 165 0
-155 -157 -167 0
155 157 -167 0
-155 157 167 0
155 -157 167 0
-159 -161 -169 0
159 161 -169 0
-159 161 169 0
159 -161 169 0
-163 -165 -171 0
163 165 -171 0
-163 165 171 0
163 -165 171 0
-167 -169 171 0
167 169 171 0
-167 169 -171 0
167 -169 -171 0
-7 -13 -200 0
7 13 -200 0
-7 13 200 0
7 -13 200 0
-21 -29 -175 0
21 29 -175 0
-21 29 175 0
21 -29 175 0
-37 -45 -177 0
37 45 -177 0
-37 45 177 0
37 -45 177 0
-53 -61 -179 0
53 61 -179 0
-53 61 179 0
53 -61 179 0
-136 -138 -181 0
136 138 -181 0
-136 138 181 0
136 -138 181 0
-140 -142 -183 0
140 142 -183 0
-140 142 183 0
140 -142 183 0
-144 -146 -185 0
144 146 -185 0
-144 146 185 0
144 -146 185 0
-148 -150 -187 0
148 150 -187 0
-148 150 187 0
148 -150 187 0
-152 -154 -189 0
152 154 -189 0
-152 154 189 0
152 -154 189 0
-156 -158 -191 0
156 158 -191 0
-156 158 191 0
156 -158 191 0
-160 -162 -193 0
160 162 -193 0
-160 162 193 0
160 -162 193 0
-164 -166 -195 0
164 166 -195 0
-164 166 195 0
164 -166 195 0
-168 -170 -197 0
168 170 -197 0
-168 170 197 0
168 -170 197 0
-172 -173 -199 0
172 173 -199 0
-172 173 199 0
172 -173 199 0
-175 -177 -201 0
175 177 -201 0
-175 177 201 0
175 -177 201 0
-179 -181 -203 0
179 181 -203 0
-179 181 203 0
179 -181 203 0
-183 -185 -205 0
183 185 -205 0
-183 185 205 0
183 -185 205 0
-187 -189 -207 0
187 189 -207 0
-187 189 207 0
187 -189 207 0
-191 -193 -209 0
191 193 -209 0
-191 193 209 0
191 -193 209 0
-195 -197 -211 0
195 197 -211 0
-195 197 211 0
195 -197 211 0
-199 -200 -213 0
199 200 -213 0
-199 200 213 0
199 -200 213 0
-201 -203 -215 0
201 203 -215 0
-201 203 215 0
201 -203 215 0
-205 -207 -217 0
205 207 -217 0
-205 207 217 0
205 -207 217 0
-209 -211 -219 0
209 211 -219 0
-209 211 219 0
209 -211 219 0
-213 -215 -221 0
213 215 -221 0
-213 215 221 0
213 -215 221 0
-217 -219 -221 0
217 219 -221 0
-217 219 221 0
217 -219 221 0
-8 -14 -224 0
8 14 -224 0
-8 14 224 0
8 -14 224 0
-22 -30 -226 0
22 30 -226 0
-22 30 226 0
22 -30 226 0
-38 -46 -228 0
38 46 -228 0
-38 46 228 0
38 -46 228 0
-54 -62 -230 0
54 62 -230 0
-54 62 230 0
54 -62 230 0
-70 -174 -232 0
70 174 -232 0
-70 174 232 0
70 -174 232 0
-176 -178 -234 0
176 178 -234 0
-176 178 234 0
176 -178 234 0
-180 -182 -236 0
180 182 -236 0
-180 182 236 0
180 -182 236 0
-184 -186 -238 0
184 186 -238 0
-184 186 238 0
184 -186 238 0
-188 -190 -240 0
188 190 -240 0
-188 190 240 0
188 -190 240 0
-192 -194 -242 0
192 194 -242 0
-192 194 242 0
192 -194 242 0
-196 -198 -244 0
196 198 -244 0
-196 198 244 0
196 -198 244 0
-202 -204 -246 0
202 204 -246 0
-202 204 246 0
202 -204 246 0
-206 -208 -248 0
206 208 -248 0
-206 208 248 0
206 -208 248 0
-210 -212 -250 0
210 212 -250 0
-210 212 250 0
210 -212 250 0
-214 -216 -252 0
214 216 -252 0
-214 216 252 0
214 -216 252 0
-218 -220 -254 0
218 220 -254 0
-218 220 254 0
218 -220 254 0
-222 -223 -256 0
222 223 -256 0
-222 223 256 0
222 -223 256 0
-221 -224 -258 0
221 224 -258 0
-221 224 258 0
221 -224 258 0
-226 -228 -260 0
226 228 -260 0
-226 228 260 0
226 -228 260 0
-230 -232 -262 0
230 232 -262 0
-230 232 262 0
230 -232 262 0
-234 -236 -264 0
234 236 -264 0
-234 236 264 0
234 -236 264 0
-238 -240 -266 0
238 240 -266 0
-238 240 266 0
238 -240 266 0
-242 -244 -268 0
242 244 -268 0
-242 244 268 0
242 -244 268 0
-245 -246 -270 0
245 246 -270 0
-245 246 270 0
245 -246 270 0
-248 -250 -272 0
248 250 -272 0
-248 250 272 0
248 -250 272 0
-252 -254 -274 0
252 254 -274 0
-252 254 274 0
252 -254 274 0
-256 -258 -276 0
256 258 -276 0
-256 258 276 0
256 -258 276 0
-260 -262 -278 0
260 262 -278 0
-260 262 278 0
260 -262 278 0
-264 -266 -280 0
264 266 -280 0
-264 266 280 0
264 -266 280 0
-268 -270 -282 0
268 270 -282 0
-268 270 282 0
268 -270 282 0
-272 -274 -284 0
272 274 -284 0
-272 274 284 0
272 -274 284 0
-276 -278 -286 0
276 278 -286 0
-276 278 286 0
276 -278 286 0
-280 -282 -288 0
280 282 -288 0
-280 282 288 0
280 -282 288 0
-284 -286 -288 0
284 286 -288 0
-284 286 288 0
284 -286 288 0
-15 -23 -291 0
15 23 -291 0
-15 23 291 0
15 -23 291 0
-31 -39 -293 0
31 39 -293 0
-31 39 293 0
31 -39 293 0
-47 -55 -295 0
47 55 -295 0
-47 55 295 0
47 -55 295 0
-63 -71 -297 0
63 71 -297 0
-63 71 297 0
63 -71 297 0
-225 -227 -299 0
225 227 -299 0
-225 227 299 0
225 -227 299 0
-229 -231 -301 0
229 231 -301 0
-229 231 301 0
229 -231 301 0
-233 -235 -303 0
233 235 -303 0
-233 235 303 0
233 -235 303 0
-237 -239 -305 0
237 239 -305 0
-237 239 305 0
237 -239 305 0
-241 -243 -307 0
241 243 -307 0
-241 243 307 0
241 -243 307 0
-247 -249 -310 0
247 249 -310 0
-247 249 310 0
247 -249 310 0
-251 -253 -311 0
251 253 -311 0
-251 253 311 0
251 -253 311 0
-255 -257 -313 0
255 257 -313 0
-255 257 313 0
255 -257 313 0
-259 -261 -315 0
259 261 -315 0
-259 261 315 0
259 -261 315 0
-263 -265 -317 0
263 265 -317 0
-263 265 317 0
263 -265 317 0
-267 -269 -319 0
267 269 -319 0
-267 269 319 0
267 -269 319 0
-271 -273 -321 0
271 273 -321 0
-271 273 321 0
271 -273 321 0
-275 -277 -323 0
275 277 -323 0
-275 277 323 0
275 -277 323 0
-279 -281 -325 0
279 281 -325 0
-279 281 325 0
279 -281 325 0
-283 -285 -327 0
283 285 -327 0
-283 285 327 0
283 -285 327 0
-287 -289 -329 0
287 289 -329 0
-287 289 329 0
287 -289 329 0
-288 -290 -331 0
288 290 -331 0
288 -290 331 0
-288 290 331 0
-291 -293 -333 0
291 293 -333 0
-291 293 333 0
291 -293 333 0
-295 -297 -335 0
295 297 -335 0
-295 297 335 0
295 -297 335 0
-299 -301 -337 0
299 301 -337 0
-299 301 337 0
299 -301 337 0
-303 -305 -339 0
303 305 -339 0
-303 305 339 0
303 -305 339 0
-307 -309 -341 0
307 309 -341 0
-307 309 341 0
307 -309 341 0
-310 -311 -343 0
310 311 -343 0
-310 311 343 0
310 -311 343 0
-313 -315 -345 0
313 315 -345 0
-313 315 345 0
313 -315 345 0
-317 -319 -347 0
317 319 -347 0
-317 319 347 0
317 -319 347 0
-321 -323 -349 0
321 323 -349 0
-321 323 349 0
321 -323 349 0
-325 -327 -351 0
325 327 -351 0
-325 327 351 0
325 -327 351 0
-329 -331 -353 0
329 331 -353 0
-329 331 353 0
329 -331 353 0
-333 -335 -355 0
333 335 -355 0
-333 335 355 0
333 -335 355 0
-337 -339 -357 0
337 339 -357 0
-337 339 357 0
337 -339 357 0
-341 -343 -359 0
341 343 -359 0
-341 343 359 0
341 -343 359 0
-345 -347 -361 0
345 347 -361 0
-345 347 361 0
345 -347 361 0
-349 -351 -363 0
349 351 -363 0
-349 351 363 0
349 -351 363 0
-353 -355 -365 0
353 355 -365 0
-353 355 365 0
353 -355 365 0
-357 -359 -367 0
357 359 -367 0
-357 359 367 0
357 -359 367 0
-361 -363 -369 0
361 363 -369 0
-361 363 369 0
361 -363 369 0
-365 -367 -369 0
365 367 -369 0
-365 367 369 0
365 -367 369 0
-24 -32 -372 0
24 32 -372 0
-24 32 372 0
24 -32 372 0
-40 -48 -374 0
40 48 -374 0
-40 48 374 0
40 -48 374 0
-56 -64 -376 0
56 64 -376 0
-56 64 376 0
56 -64 376 0
-72 -292 -378 0
72 292 -378 0
-72 292 378 0
72 -292 378 0
-294 -296 -380 0
294 296 -380 0
-294 296 380 0
294 -296 380 0
-298 -300 -382 0
298 300 -382 0
-298 300 382 0
298 -300 382 0
-302 -304 -384 0
302 304 -384 0
-302 304 384 0
302 -304 384 0
-306 -308 -386 0
306 308 -386 0
-306 308 386 0
306 -308 386 0
-312 -314 -389 0
312 314 -389 0
-312 314 389 0
312 -314 389 0
-316 -318 -390 0
316 318 -390 0
-316 318 390 0
316 -318 390 0
-320 -322 -392 0
320 322 -392 0
-320 322 392 0
320 -322 392 0
-324 -326 -394 0
324 326 -394 0
-324 326 394 0
324 -326 394 0
-328 -330 -396 0
328 330 -396 0
-328 330 396 0
328 -330 396 0
-332 -334 -398 0
332 334 -398 0
-332 334 398 0
332 -334 398 0
-336 -338 -400 0
336 338 -400 0
-336 338 400 0
336 -338 400 0
-340 -342 -402 0
340 342 -402 0
-340 342 402 0
340 -342 402 0
-344 -346 -404 0
344 346 -404 0
-344 346 404 0
344 -346 404 0
-348 -350 -406 0
348 350 -406 0
-348 350 406 0
348 -350 406 0
-352 -354 -408 0
352 354 -408 0
-352 354 408 0
352 -354 408 0
-356 -358 -410 0
356 358 -410 0
-356 358 410 0
356 -358 410 0
-360 -362 -412 0
360 362 -412 0
-360 362 412 0
360 -362 412 0
-364 -366 -414 0
364 366 -414 0
-364 366 414 0
364 -366 414 0
-368 -370 -416 0
368 370 -416 0
-368 370 416 0
368 -370 416 0
-369 -371 -418 0
369 371 -418 0
369 -371 418 0
-369 371 418 0
-372 -374 -420 0
372 374 -420 0
-372 374 420 0
372 -374 420 0
-376 -378 -422 0
376 378 -422 0
-376 378 422 0
376 -378 422 0
-380 -382 -424 0
380 382 -424 0
-380 382 424 0
380 -382 424 0
-384 -386 -426 0
384 386 -426 0
-384 386 426 0
384 -386 426 0
-388 -389 -428 0
388 389 -428 0
-388 389 428 0
388 -389 428 0
-390 -392 -430 0
390 392 -430 0
-390 392 430 0
390 -392 430 0
-394 -396 -432 0
394 396 -432 0
-394 396 432 0
394 -396 432 0
-398 -400 -434 0
398 400 -434 0
-398 400 434 0
398 -400 434 0
-402 -404 -436 0
402 404 -436 0
-402 404 436 0
402 -404 436 0
-406 -408 -438 0
406 408 -438 0
-406 408 438 0
406 -408 438 0
-410 -412 -440 0
410 412 -440 0
-410 412 440 0
410 -412 440 0
-414 -416 -442 0
414 416 -442 0
-414 416 442 0
414 -416 442 0
-418 -420 -444 0
418 420 -444 0
-418 420 444 0
418 -420 444 0
-422 -424 -446 0
422 424 -446 0
-422 424 446 0
422 -424 446 0
-426 -428 -448 0
426 428 -448 0
-426 428 448 0
426 -428 448 0
-430 -432 -450 0
430 432 -450 0
-430 432 450 0
430 -432 450 0
-434 -436 -452 0
434 436 -452 0
-434 436 452 0
434 -436 452 0
-438 -440 -454 0
438 440 -454 0
-438 440 454 0
438 -440 454 0
-442 -444 -456 0
442 444 -456 0
-442 444 456 0
442 -444 456 0
-446 -448 -458 0
446 448 -458 0
-446 448 458 0
446 -448 458 0
-450 -452 -460 0
450 452 -460 0
-450 452 460 0
450 -452 460 0
-454 -456 -462 0
454 456 -462 0
-454 456 462 0
454 -456 462 0
-458 -460 -462 0
458 460 -462 0
-458 460 462 0
458 -460 462 0
-33 -41 -465 0
33 41 -465 0
-33 41 465 0
33 -41 465 0
-49 -57 -467 0
49 57 -467 0
-49 57 467 0
49 -57 467 0
-65 -73 -469 0
65 73 -469 0
-65 73 469 0
65 -73 469 0
-373 -375 -471 0
373 375 -471 0
-373 375 471 0
373 -375 471 0
-377 -379 -473 0
377 379 -473 0
-377 379 473 0
377 -379 473 0
-381 -383 -475 0
381 383 -475 0
-381 383 475 0
381 -383 475 0
-385 -387 -477 0
385 387 -477 0
-385 387 477 0
385 -387 477 0
-391 -393 -480 0
391 393 -480 0
-391 393 480 0
391 -393 480 0
-395 -397 -481 0
395 397 -481 0
-395 397 481 0
395 -397 481 0
-399 -401 -483 0
399 401 -483 0
-399 401 483 0
399 -401 483 0
-403 -405 -485 0
403 405 -485 0
-403 405 485 0
403 -405 485 0
-407 -409 -487 0
407 409 -487 0
-407 409 487 0
407 -409 487 0
-411 -413 -489 0
411 413 -489 0
-411 413 489 0
411 -413 489 0
-415 -417 -491 0
415 417 -491 0
-415 417 491 0
415 -417 491 0
-419 -421 -493 0
419 421 -493 0
-419 421 493 0
419 -421 493 0
-423 -425 -495 0
423 425 -495 0
-423 425 495 0
423 -425 495 0
-427 -429 -497 0
427 429 -497 0
-427 429 497 0
427 -429 497 0
-431 -433 -499 0
431 433 -499 0
-431 433 499 0
431 -433 499 0
-435 -437 -501 0
435 437 -501 0
-435 437 501 0
435 -437 501 0
-439 -441 -503 0
439 441 -503 0
-439 441 503 0
439 -441 503 0
-443 -445 -505 0
443 445 -505 0
-443 445 505 0
443 -445 505 0
-447 -449 -507 0
447 449 -507 0
-447 449 507 0
447 -449 507 0
-451 -453 -509 0
451 453 -509 0
-451 453 509 0
451 -453 509 0
-455 -457 -511 0
455 457 -511 0
-455 457 511 0
455 -457 511 0
-459 -461 -513 0
459 461 -513 0
-459 461 513 0
459 -461 513 0
-463 -464 -515 0
463 464 -515 0
-463 464 515 0
463 -464 515 0
-462 -465 -517 0
462 465 -517 0
-462 465 517 0
462 -465 517 0
-467 -469 -519 0
467 469 -519 0
-467 469 519 0
467 -469 519 0
-471 -473 -521 0
471 473 -521 0
-471 473 521 0
471 -473 521 0
-475 -477 -523 0
475 477 -523 0
-475 477 523 0
475 -477 523 0
-479 -480 -525 0
479 480 -525 0
-479 480 525 0
479 -480 525 0
-481 -483 -527 0
481 483 -527 0
-481 483 527 0
481 -483 527 0
-485 -487 -529 0
485 487 -529 0
-485 487 529 0
485 -487 529 0
-489 -491 -531 0
489 491 -531 0
-489 491 531 0
489 -491 531 0
-493 -495 -533 0
493 495 -533 0
-493 495 533 0
493 -495 533 0
-497 -499 -535 0
497 499 -535 0
-497 499 535 0
497 -499 535 0
-501 -503 -537 0
501 503 -537 0
-501 503 537 0
501 -503 537 0
-505 -507 -539 0
505 507 -539 0
-505 507 539 0
505 -507 539 0
-509 -511 -541 0
509 511 -541 0
-509 511 541 0
509 -511 541 0
-513 -515 -543 0
513 515 -543 0
-513 515 543 0
513 -515 543 0
-517 -519 -545 0
517 519 -545 0
-517 519 545 0
517 -519 545 0
-521 -523 -547 0
521 523 -547 0
-521 523 547 0
521 -523 547 0
-525 -527 -549 0
525 527 -549 0
-525 527 549 0
525 -527 549 0
-529 -531 -551 0
529 531 -551 0
-529 531 551 0
529 -531 551 0
-533 -535 -553 0
533 535 -553 0
-533 535 553 0
533 -535 553 0
-537 -539 -555 0
537 539 -555 0
-537 539 555 0
537 -539 555 0
-541 -543 -557 0
541 543 -557 0
-541 543 557 0
541 -543 557 0
-545 -547 -559 0
545 547 -559 0
-545 547 559 0
545 -547 559 0
-549 -551 -561 0
549 551 -561 0
-549 551 561 0
549 -551 561 0
-553 -555 -563 0
553 555 -563 0
-553 555 563 0
553 -555 563 0
-557 -559 -565 0
557 559 -565 0
-557 559 565 0
557 -559 565 0
-561 -563 565 0
561 563 565 0
-561 563 -565 0
561 -563 -565 0
-42 -50 -622 0
42 50 -622 0
-42 50 622 0
42 -50 622 0
-58 -66 -569 0
58 66 -569 0
-58 66 569 0
58 -66 569 0
-74 -466 -571 0
74 466 -571 0
-74 466 571 0
74 -466 571 0
-468 -470 -573 0
468 470 -573 0
-468 470 573 0
468 -470 573 0
-472 -474 -575 0
472 474 -575 0
-472 474 575 0
472 -474 575 0
-476 -478 -577 0
476 478 -577 0
-476 478 577 0
476 -478 577 0
-482 -484 -580 0
482 484 -580 0
-482 484 580 0
482 -484 580 0
-486 -488 -581 0
486 488 -581 0
-486 488 581 0
486 -488 581 0
-490 -492 -583 0
490 492 -583 0
-490 492 583 0
490 -492 583 0
-494 -496 -585 0
494 496 -585 0
-494 496 585 0
494 -496 585 0
-498 -500 -587 0
498 500 -587 0
-498 500 587 0
498 -500 587 0
-502 -504 -589 0
502 504 -589 0
-502 504 589 0
502 -504 589 0
-506 -508 -591 0
506 508 -591 0
-506 508 591 0
506 -508 591 0
-510 -512 -593 0
510 512 -593 0
-510 512 593 0
510 -512 593 0
-514 -516 -595 0
514 516 -595 0
-514 516 595 0
514 -516 595 0
-518 -520 -597 0
518 520 -597 0
-518 520 597 0
518 -520 597 0
-522 -524 -599 0
522 524 -599 0
-522 524 599 0
522 -524 599 0
-526 -528 -601 0
526 528 -601 0
-526 528 601 0
526 -528 601 0
-530 -532 -603 0
530 532 -603 0
-530 532 603 0
530 -532 603 0
-534 -536 -605 0
534 536 -605 0
-534 536 605 0
534 -536 605 0
-538 -540 -607 0
538 540 -607 0
-538 540 607 0
538 -540 607 0
-542 -544 -609 0
542 544 -609 0
-542 544 609 0
542 -544 609 0
-546 -548 -611 0
546 548 -611 0
-546 548 611 0
546 -548 611 0
-550 -552 -613 0
550 552 -613 0
-550 552 613 0
550 -552 613 0
-554 -556 -615 0
554 556 -615 0
-554 556 615 0
554 -556 615 0
-558 -560 -617 0
558 560 -617 0
-558 560 617 0
558 -560 617 0
-562 -564 -619 0
562 564 -619 0
-562 564 619 0
562 -564 619 0
-566 -567 -621 0
566 567 -621 0
-566 567 621 0
566 -567 621 0
-569 -571 -623 0
569 571 -623 0
-569 571 623 0
569 -571 623 0
-573 -575 -625 0
573 575 -625 0
-573 575 625 0
573 -575 625 0
-577 -579 -627 0
577 579 -627 0
-577 579 627 0
577 -579 627 0
-580 -581 -629 0
580 581 -629 0
-580 581 629 0
580 -581 629 0
-583 -585 -631 0
583 585 -631 0
-583 585 631 0
583 -585 631 0
-587 -589 -633 0
587 589 -633 0
-587 589 633 0
587 -589 633 0
-591 -593 -635 0
591 593 -635 0
-591 593 635 0
591 -593 635 0
-595 -597 -637 0
595 597 -637 0
-595 597 637 0
595 -597 637 0
-599 -601 -639 0
599 601 -639 0
-599 601 639 0
599 -601 639 0
-603 -605 -641 0
603 605 -641 0
-603 605 641 0
603 -605 641 0
-607 -609 -643 0
607 609 -643 0
-607 609 643 0
607 -609 643 0
-611 -613 -645 0
611 613 -645 0
-611 613 645 0
611 -613 645 0
-615 -617 -647 0
615 617 -647 0
-615 617 647 0
615 -617 647 0
-619 -621 -649 0
619 621 -649 0
-619 621 649 0
619 -621 649 0
-622 -623 -651 0
622 623 -651 0
-622 623 651 0
622 -623 651 0
-625 -627 -653 0
625 627 -653 0
-625 627 653 0
625 -627 653 0
-629 -631 -655 0
629 631 -655 0
-629 631 655 0
629 -631 655 0
-633 -635 -657 0
633 635 -657 0
-633 635 657 0
633 -635 657 0
-637 -639 -659 0
637 639 -659 0
-637 639 659 0
637 -639 659 0
-641 -643 -661 0
641 643 -661 0
-641 643 661 0
641 -643 661 0
-645 -647 -663 0
645 647 -663 0
-645 647 663 0
645 -647 663 0
-649 -651 -665 0
649 651 -665 0
-649 651 665 0
649 -651 665 0
-653 -655 -667 0
653 655 -667 0
-653 655 667 0
653 -655 667 0
-657 -659 -669 0
657 659 -669 0
-657 659 669 0
657 -659 669 0
-661 -663 -671 0
661 663 -671 0
-661 663 671 0
661 -663 671 0
-665 -667 -673 0
665 667 -673 0
-665 667 673 0
665 -667 673 0
-669 -671 -673 0
669 671 -673 0
-669 671 673 0
669 -671 673 0
-51 -59 -676 0
51 59 -676 0
-51 59 676 0
51 -59 676 0
-67 -75 -678 0
67 75 -678 0
-67 75 678 0
67 -75 678 0
-568 -570 -680 0
568 570 -680 0
-568 570 680 0
568 -570 680 0
-572 -574 -682 0
572 574 -682 0
-572 574 682 0
572 -574 682 0
-576 -578 -684 0
576 578 -684 0
-576 578 684 0
576 -578 684 0
-582 -584 -687 0
582 584 -687 0
-582 584 687 0
582 -584 687 0
-586 -588 -688 0
586 588 -688 0
-586 588 688 0
586 -588 688 0
-590 -592 -690 0
590 592 -690 0
-590 592 690 0
590 -592 690 0
-594 -596 -692 0
594 596 -692 0
-594 596 692 0
594 -596 692 0
-598 -600 -694 0
598 600 -694 0
-598 600 694 0
598 -600 694 0
-602 -604 -696 0
602 604 -696 0
-602 604 696 0
602 -604 696 0
-606 -608 -698 0
606 608 -698 0
-606 608 698 0
606 -608 698 0
-610 -612 -700 0
610 612 -700 0
-610 612 700 0
610 -612 700 0
-614 -616 -702 0
614 616 -702 0
-614 616 702 0
614 -616 702 0
-618 -620 -704 0
618 620 -704 0
-618 620 704 0
618 -620 704 0
-624 -626 -706 0
624 626 -706 0
-624 626 706 0
624 -626 706 0
-628 -630 -708 0
628 630 -708 0
-628 630 708 0
628 -630 708 0
-632 -634 -710 0
632 634 -710 0
-632 634 710 0
632 -634 710 0
-636 -638 -712 0
636 638 -712 0
-636 638 712 0
636 -638 712 0
-640 -642 -714 0
640 642 -714 0
-640 642 714 0
640 -642 714 0
-644 -646 -716 0
644 646 -716 0
-644 646 716 0
644 -646 716 0
-648 -650 -718 0
648 650 -718 0
-648 650 718 0
648 -650 718 0
-652 -654 -720 0
652 654 -720 0
-652 654 720 0
652 -654 720 0
-656 -658 -722 0
656 658 -722 0
-656 658 722 0
656 -658 722 0
-660 -662 -724 0
660 662 -724 0
-660 662 724 0
660 -662 724 0
-664 -666 -726 0
664 666 -726 0
-664 666 726 0
664 -666 726 0
-668 -670 -728 0
668 670 -728 0
-668 670 728 0
668 -670 728 0
-672 -674 -730 0
672 674 -730 0
-672 674 730 0
672 -674 730 0
-673 -675 -732 0
673 675 -732 0
673 -675 732 0
-673 675 732 0
-676 -678 -734 0
676 678 -734 0
-676 678 734 0
676 -678 734 0
-680 -682 -736 0
680 682 -736 0
-680 682 736 0
680 -682 736 0
-684 -686 -738 0
684 686 -738 0
-684 686 738 0
684 -686 738 0
-687 -688 -740 0
687 688 -740 0
-687 688 740 0
687 -688 740 0
-690 -692 -742 0
690 692 -742 0
-690 692 742 0
690 -692 742 0
-694 -696 -744 0
694 696 -744 0
-694 696 744 0
694 -696 744 0
-698 -700 -746 0
698 700 -746 0
-698 700 746 0
698 -700 746 0
-702 -704 -748 0
702 704 -748 0
-702 704 748 0
702 -704 748 0
-705 -706 -750 0
705 706 -750 0
-705 706 750 0
705 -706 750 0
-708 -710 -752 0
708 710 -752 0
-708 710 752 0
708 -710 752 0
-712 -714 -754 0
712 714 -754 0
-712 714 754 0
712 -714 754 0
-716 -718 -756 0
716 718 -756 0
-716 718 756 0
716 -718 756 0
-720 -722 -758 0
720 722 -758 0
-720 722 758 0
720 -722 758 0
-724 -726 -760 0
724 726 -760 0
-724 726 760 0
724 -726 760 0
-728 -730 -762 0
728 730 -762 0
-728 730 762 0
728 -730 762 0
-732 -734 -764 0
732 734 -764 0
-732 734 764 0
732 -734 764 0
-736 -738 -766 0
736 738 -766 0
-736 738 766 0
736 -738 766 0
-740 -742 -768 0
740 742 -768 0
-740 742 768 0
740 -742 768 0
-744 -746 -770 0
744 746 -770 0
-744 746 770 0
744 -746 770 0
-748 -750 -772 0
748 750 -772 0
-748 750 772 0
748 -750 772 0
-752 -754 -774 0
752 754 -774 0
-752 754 774 0
752 -754 774 0
-756 -758 -776 0
756 758 -776 0
-756 758 776 0
756 -758 776 0
-760 -762 -778 0
760 762 -778 0
-760 762 778 0
760 -762 778 0
-764 -766 -780 0
764 766 -780 0
-764 766 780 0
764 -766 780 0
-768 -770 -782 0
768 770 -782 0
-768 770 782 0
768 -770 782 0
-772 -774 -784 0
772 774 -784 0
-772 774 784 0
772 -774 784 0
-776 -778 -786 0
776 778 -786 0
-776 778 786 0
776 -778 786 0
-780 -782 -788 0
780 782 -788 0
-780 782 788 0
780 -782 788 0
-784 -786 -788 0
784 786 -788 0
-784 786 788 0
784 -786 788 0
-60 -68 -791 0
60 68 -791 0
-60 68 791 0
60 -68 791 0
-76 -677 -793 0
76 677 -793 0
-76 677 793 0
76 -677 793 0
-679 -681 -795 0
679 681 -795 0
-679 681 795 0
679 -681 795 0
-683 -685 -797 0
683 685 -797 0
-683 685 797 0
683 -685 797 0
-689 -691 -800 0
689 691 -800 0
-689 691 800 0
689 -691 800 0
-693 -695 -801 0
693 695 -801 0
-693 695 801 0
693 -695 801 0
-697 -699 -803 0
697 699 -803 0
-697 699 803 0
697 -699 803 0
-701 -703 -805 0
701 703 -805 0
-701 703 805 0
701 -703 805 0
-707 -709 -807 0
707 709 -807 0
-707 709 807 0
707 -709 807 0
-711 -713 -809 0
711 713 -809 0
-711 713 809 0
711 -713 809 0
-715 -717 -811 0
715 717 -811 0
-715 717 811 0
715 -717 811 0
-719 -721 -813 0
719 721 -813 0
-719 721 813 0
719 -721 813 0
-723 -725 -815 0
723 725 -815 0
-723 725 815 0
723 -725 815 0
-727 -729 -817 0
727 729 -817 0
-727 729 817 0
727 -729 817 0
-731 -733 -819 0
731 733 -819 0
-731 733 819 0
731 -733 819 0
-735 -737 -821 0
735 737 -821 0
-735 737 821 0
735 -737 821 0
-739 -741 -823 0
739 741 -823 0
-739 741 823 0
739 -741 823 0
-743 -745 -825 0
743 745 -825 0
-743 745 825 0
743 -745 825 0
-747 -749 -827 0
747 749 -827 0
-747 749 827 0
747 -749 827 0
-751 -753 -829 0
751 753 -829 0
-751 753 829 0
751 -753 829 0
-755 -757 -831 0
755 757 -831 0
-755 757 831 0
755 -757 831 0
-759 -761 -833 0
759 761 -833 0
-759 761 833 0
759 -761 833 0
-763 -765 -835 0
763 765 -835 0
-763 765 835 0
763 -765 835 0
-767 -769 -837 0
767 769 -837 0
-767 769 837 0
767 -769 837 0
-771 -773 -839 0
771 773 -839 0
-771 773 839 0
771 -773 839 0
-775 -777 -841 0
775 777 -841 0
-775 777 841 0
775 -777 841 0
-779 -781 -843 0
779 781 -843 0
-779 781 843 0
779 -781 843 0
-783 -785 -845 0
783 785 -845 0
-783 785 845 0
783 -785 845 0
-787 -789 -847 0
787 789 -847 0
-787 789 847 0
787 -789 847 0
-788 -790 -849 0
788 790 -849 0
788 -790 849 0
-788 790 849 0
-791 -793 -851 0
791 793 -851 0
-791 793 851 0
791 -793 851 0
-795 -797 -853 0
795 797 -853 0
-795 797 853 0
795 -797 853 0
-799 -800 -855 0
799 800 -855 0
-799 800 855 0
799 -800 855 0
-801 -803 -857 0
801 803 -857 0
-801 803 857 0
801 -803 857 0
-805 -806 -859 0
805 806 -859 0
-805 806 859 0
805 -806 859 0
-807 -809 -861 0
807 809 -861 0
-807 809 861 0
807 -809 861 0
-811 -813 -863 0
811 813 -863 0
-811 813 863 0
811 -813 863 0
-815 -817 -865 0
815 817 -865 0
-815 817 865 0
815 -817 865 0
-819 -821 -867 0
819 821 -867 0
-819 821 867 0
819 -821 867 0
-823 -825 -869 0
823 825 -869 0
-823 825 869 0
823 -825 869 0
-827 -829 -871 0
827 829 -871 0
-827 829 871 0
827 -829 871 0
-831 -833 -873 0
831 833 -873 0
-831 833 873 0
831 -833 873 0
-835 -837 -875 0
835 837 -875 0
-835 837 875 0
835 -837 875 0
-839 -841 -877 0
839 841 -877 0
-839 841 877 0
839 -841 877 0
-843 -845 -879 0
843 845 -879 0
-843 845 879 0
843 -845 879 0
-847 -849 -881 0
847 849 -881 0
-847 849 881 0
847 -849 881 0
-851 -853 -883 0
851 853 -883 0
-851 853 883 0
851 -853 883 0
-855 -857 -885 0
855 857 -885 0
-855 857 885 0
855 -857 885 0
-859 -861 -887 0
859 861 -887 0
-859 861 887 0
859 -861 887 0
-863 -865 -889 0
863 865 -889 0
-863 865 889 0
863 -865 889 0
-867 -869 -891 0
867 869 -891 0
-867 869 891 0
867 -869 891 0
-871 -873 -893 0
871 873 -893 0
-871 873 893 0
871 -873 893 0
-875 -877 -895 0
875 877 -895 0
-875 877 895 0
875 -877 895 0
-879 -881 -897 0
879 881 -897 0
-879 881 897 0
879 -881 897 0
-883 -885 -899 0
883 885 -899 0
-883 885 899 0
883 -885 899 0
-887 -889 -901 0
887 889 -901 0
-887 889 901 0
887 -889 901 0
-891 -893 -903 0
891 893 -903 0
-891 893 903 0
891 -893 903 0
-895 -897 -905 0
895 897 -905 0
-895 897 905 0
895 -897 905 0
-899 -901 -907 0
899 901 -907 0
-899 901 907 0
899 -901 907 0
-903 -905 907 0
903 905 907 0
-903 905 -907 0
903 -905 -907 0
-69 -77 -968 0
69 77 -968 0
-69 77 968 0
69 -77 968 0
-792 -794 -911 0
792 794 -911 0
-792 794 911 0
792 -794 911 0
-796 -798 -913 0
796 798 -913 0
-796 798 913 0
796 -798 913 0
-802 -804 -916 0
802 804 -916 0
-802 804 916 0
802 -804 916 0
-808 -810 -918 0
808 810 -918 0
-808 810 918 0
808 -810 918 0
-812 -814 -919 0
812 814 -919 0
-812 814 919 0
812 -814 919 0
-816 -818 -921 0
816 818 -921 0
-816 818 921 0
816 -818 921 0
-820 -822 -923 0
820 822 -923 0
-820 822 923 0
820 -822 923 0
-824 -826 -925 0
824 826 -925 0
-824 826 925 0
824 -826 925 0
-828 -830 -927 0
828 830 -927 0
-828 830 927 0
828 -830 927 0
-832 -834 -929 0
832 834 -929 0
-832 834 929 0
832 -834 929 0
-836 -838 -931 0
836 838 -931 0
-836 838 931 0
836 -838 931 0
-840 -842 -933 0
840 842 -933 0
-840 842 933 0
840 -842 933 0
-844 -846 -935 0
844 846 -935 0
-844 846 935 0
844 -846 935 0
-848 -850 -937 0
848 850 -937 0
-848 850 937 0
848 -850 937 0
-852 -854 -939 0
852 854 -939 0
-852 854 939 0
852 -854 939 0
-856 -858 -941 0
856 858 -941 0
-856 858 941 0
856 -858 941 0
-860 -862 -943 0
860 862 -943 0
-860 862 943 0
860 -862 943 0
-864 -866 -945 0
864 866 -945 0
-864 866 945 0
864 -866 945 0
-868 -870 -947 0
868 870 -947 0
-868 870 947 0
868 -870 947 0
-872 -874 -949 0
872 874 -949 0
-872 874 949 0
872 -874 949 0
-876 -878 -951 0
876 878 -951 0
-876 878 951 0
876 -878 951 0
-880 -882 -953 0
880 882 -953 0
-880 882 953 0
880 -882 953 0
-884 -886 -955 0
884 886 -955 0
-884 886 955 0
884 -886 955 0
-888 -890 -957 0
888 890 -957 0
-888 890 957 0
888 -890 957 0
-892 -894 -959 0
892 894 -959 0
-892 894 959 0
892 -894 959 0
-896 -898 -961 0
896 898 -961 0
-896 898 961 0
896 -898 961 0
-900 -902 -963 0
900 902 -963 0
-900 902 963 0
900 -902 963 0
-904 -906 -965 0
904 906 -965 0
-904 906 965 0
904 -906 965 0
-908 -909 -967 0
908 909 -967 0
-908 909 967 0
908 -909 967 0
-911 -913 -969 0
911 913 -969 0
-911 913 969 0
911 -913 969 0
-915 -916 -971 0
915 916 -971 0
-915 916 971 0
915 -916 971 0
-917 -918 -973 0
917 918 -973 0
-917 918 973 0
917 -918 973 0
-919 -921 -975 0
919 921 -975 0
-919 921 975 0
919 -921 975 0
-923 -925 -977 0
923 925 -977 0
-923 925 977 0
923 -925 977 0
-927 -929 -979 0
927 929 -979 0
-927 929 979 0
927 -929 979 0
-931 -933 -981 0
931 933 -981 0
-931 933 981 0
931 -933 981 0
-935 -937 -983 0
935 937 -983 0
-935 937 983 0
935 -937 983 0
-939 -941 -985 0
939 941 -985 0
-939 941 985 0
939 -941 985 0
-943 -945 -987 0
943 945 -987 0
-943 945 987 0
943 -945 987 0
-947 -949 -989 0
947 949 -989 0
-947 949 989 0
947 -949 989 0
-951 -953 -991 0
951 953 -991 0
-951 953 991 0
951 -953 991 0
-955 -957 -993 0
955 957 -993 0
-955 957 993 0
955 -957 993 0
-959 -961 -995 0
959 961 -995 0
-959 961 995 0
959 -961 995 0
-963 -965 -997 0
963 965 -997 0
-963 965 997 0
963 -965 997 0
-967 -968 -999 0
967 968 -999 0
-967 968 999 0
967 -968 999 0
-969 -971 -1001 0
969 971 -1001 0
-969 971 1001 0
969 -971 1001 0
-973 -975 -1003 0
973 975 -1003 0
-973 975 1003 0
973 -975 1003 0
-977 -979 -1005 0
977 979 -1005 0
-977 979 1005 0
977 -979 1005 0
-981 -983 -1007 0
981 983 -1007 0
-981 983 1007 0
981 -983 1007 0
-985 -987 -1009 0
985 987 -1009 0
-985 987 1009 0
985 -987 1009 0
-989 -991 -1011 0
989 991 -1011 0
-989 991 1011 0
989 -991 1011 0
-993 -995 -1013 0
993 995 -1013 0
-993 995 1013 0
993 -995 1013 0
-997 -999 -1015 0
997 999 -1015 0
-997 999 1015 0
997 -999 1015 0
-1001 -1003 -1017 0
1001 1003 -1017 0
-1001 1003 1017 0
1001 -1003 1017 0
-1005 -1007 -1019 0
1005 1007 -1019 0
-1005 1007 1019 0
1005 -1007 1019 0
-1009 -1011 -1021 0
1009 1011 -1021 0
-1009 1011 1021 0
1009 -1011 1021 0
-1013 -1015 -1023 0
1013 1015 -1023 0
-1013 1015 1023 0
1013 -1015 1023 0
-1017 -1019 -1025 0
1017 1019 -1025 0
-1017 1019 1025 0
1017 -1019 1025 0
-1021 -1023 1025 0
1021 1023 1025 0
-1021 1023 -1025 0
1021 -1023 -1025 0
-78 -910 -1087 0
78 910 -1087 0
-78 910 1087 0
78 -910 1087 0
-912 -914 -1029 0
912 914 -1029 0
-912 914 1029 0
912 -914 1029 0
-920 -922 -1033 0
920 922 -1033 0
-920 922 1033 0
920 -922 1033 0
-924 -926 -1035 0
924 926 -1035 0
-924 926 1035 0
924 -926 1035 0
-928 -930 -1037 0
928 930 -1037 0
-928 930 1037 0
928 -930 1037 0
-932 -934 -1039 0
932 934 -1039 0
-932 934 1039 0
932 -934 1039 0
-936 -938 -1041 0
936 938 -1041 0
-936 938 1041 0
936 -938 1041 0
-940 -942 -1043 0
940 942 -1043 0
-940 942 1043 0
940 -942 1043 0
-944 -946 -1045 0
944 946 -1045 0
-944 946 1045 0
944 -946 1045 0
-948 -950 -1047 0
948 950 -1047 0
-948 950 1047 0
948 -950 1047 0
-952 -954 -1049 0
952 954 -1049 0
-952 954 1049 0
952 -954 1049 0
-956 -958 -1051 0
956 958 -1051 0
-956 958 1051 0
956 -958 1051 0
-960 -962 -1053 0
960 962 -1053 0
-960 962 1053 0
960 -962 1053 0
-964 -966 -1055 0
964 966 -1055 0
-964 966 1055 0
964 -966 1055 0
-970 -972 -1058 0
970 972 -1058 0
-970 972 1058 0
970 -972 1058 0
-974 -976 -1059 0
974 976 -1059 0
-974 976 1059 0
974 -976 1059 0
-978 -980 -1061 0
978 980 -1061 0
-978 980 1061 0
978 -980 1061 0
-982 -984 -1063 0
982 984 -1063 0
-982 984 1063 0
982 -984 1063 0
-986 -988 -1065 0
986 988 -1065 0
-986 988 1065 0
986 -988 1065 0
-990 -992 -1067 0
990 992 -1067 0
-990 992 1067 0
990 -992 1067 0
-994 -996 -1069 0
994 996 -1069 0
-994 996 1069 0
994 -996 1069 0
-998 -1000 -1071 0
998 1000 -1071 0
-998 1000 1071 0
998 -1000 1071 0
-1002 -1004 -1073 0
1002 1004 -1073 0
-1002 1004 1073 0
1002 -1004 1073 0
-1006 -1008 -1075 0
1006 1008 -1075 0
-1006 1008 1075 0
1006 -1008 1075 0
-1010 -1012 -1077 0
1010 1012 -1077 0
-1010 1012 1077 0
1010 -1012 1077 0
-1014 -1016 -1079 0
1014 1016 -1079 0
-1014 1016 1079 0
1014 -1016 1079 0
-1018 -1020 -1081 0
1018 1020 -1081 0
-1018 1020 1081 0
1018 -1020 1081 0
-1022 -1024 -1083 0
1022 1024 -1083 0
-1022 1024 1083 0
1022 -1024 1083 0
-1026 -1027 -1085 0
1026 1027 -1085 0
-1026 1027 1085 0
1026 -1027 1085 0
-1029 -1031 -1088 0
1029 1031 -1088 0
-1029 1031 1088 0
1029 -1031 1088 0
-1032 -1033 -1089 0
1032 1033 -1089 0
-1032 1033 1089 0
1032 -1033 1089 0
-1035 -1037 -1091 0
1035 1037 -1091 0
-1035 1037 1091 0
1035 -1037 1091 0
-1039 -1041 -1093 0
1039 1041 -1093 0
-1039 1041 1093 0
1039 -1041 1093 0
-1043 -1045 -1095 0
1043 1045 -1095 0
-1043 1045 1095 0
1043 -1045 1095 0
-1047 -1049 -1097 0
1047 1049 -1097 0
-1047 1049 1097 0
1047 -1049 1097 0
-1051 -1053 -1099 0
1051 1053 -1099 0
-1051 1053 1099 0
1051 -1053 1099 0
-1055 -1057 -1101 0
1055 1057 -1101 0
-1055 1057 1101 0
1055 -1057 1101 0
-1058 -1059 -1103 0
1058 1059 -1103 0
-1058 1059 1103 0
1058 -1059 1103 0
-1061 -1063 -1105 0
1061 1063 -1105 0
-1061 1063 1105 0
1061 -1063 1105 0
-1065 -1067 -1107 0
1065 1067 -1107 0
-1065 1067 1107 0
1065 -1067 1107 0
-1069 -1071 -1109 0
1069 1071 -1109 0
-1069 1071 1109 0
1069 -1071 1109 0
-1073 -1075 -1111 0
1073 1075 -1111 0
-1073 1075 1111 0
1073 -1075 1111 0
-1077 -1079 -1113 0
1077 1079 -1113 0
-1077 1079 1113 0
1077 -1079 1113 0
-1081 -1083 -1115 0
1081 1083 -1115 0
-1081 1083 1115 0
1081 -1083 1115 0
-1085 -1087 -1117 0
1085 1087 -1117 0
-1085 1087 1117 0
1085 -1087 1117 0
-1088 -1089 -1119 0
1088 1089 -1119 0
-1088 1089 1119 0
1088 -1089 1119 0
-1091 -1093 -1121 0
1091 1093 -1121 0
-1091 1093 1121 0
1091 -1093 1121 0
-1095 -1097 -1123 0
1095 1097 -1123 0
-1095 1097 1123 0
1095 -1097 1123 0
-1099 -1101 -1125 0
1099 1101 -1125 0
-1099 1101 1125 0
1099 -1101 1125 0
-1103 -1105 -1127 0
1103 1105 -1127 0
-1103 1105 1127 0
1103 -1105 1127 0
-1107 -1109 -1129 0
1107 1109 -1129 0
-1107 1109 1129 0
1107 -1109 1129 0
-1111 -1113 -1131 0
1111 1113 -1131 0
-1111 1113 1131 0
1111 -1113 1131 0
-1115 -1117 -1133 0
1115 1117 -1133 0
-1115 1117 1133 0
1115 -1117 1133 0
-1119 -1121 -1135 0
1119 1121 -1135 0
-1119 1121 1135 0
1119 -1121 1135 0
-1123 -1125 -1137 0
1123 1125 -1137 0
-1123 1125 1137 0
1123 -1125 1137 0
-1127 -1129 -1139 0
1127 1129 -1139 0
-1127 1129 1139 0
1127 -1129 1139 0
-1131 -1133 -1141 0
1131 1133 -1141 0
-1131 1133 1141 0
1131 -1133 1141 0
-1135 -1137 -1143 0
1135 1137 -1143 0
-1135 1137 1143 0
1135 -1137 1143 0
-1139 -1141 1143 0
1139 1141 1143 0
-1139 1141 -1143 0
1139 -1141 -1143 0
-1028 -1030 -1199 0
1028 1030 -1199 0
-1028 1030 1199 0
1028 -1030 1199 0
-1034 -1036 -1145 0
1034 1036 -1145 0
-1034 1036 1145 0
1034 -1036 1145 0
-1038 -1040 -1147 0
1038 1040 -1147 0
-1038 1040 1147 0
1038 -1040 1147 0
-1042 -1044 -1149 0
1042 1044 -1149 0
-1042 1044 1149 0
1042 -1044 1149 0
-1046 -1048 -1151 0
1046 1048 -1151 0
-1046 1048 1151 0
1046 -1048 1151 0
-1050 -1052 -1153 0
1050 1052 -1153 0
-1050 1052 1153 0
1050 -1052 1153 0
-1054 -1056 -1155 0
1054 1056 -1155 0
-1054 1056 1155 0
1054 -1056 1155 0
-1060 -1062 -1158 0
1060 1062 -1158 0
-1060 1062 1158 0
1060 -1062 1158 0
-1064 -1066 -1159 0
1064 1066 -1159 0
-1064 1066 1159 0
1064 -1066 1159 0
-1068 -1070 -1161 0
1068 1070 -1161 0
-1068 1070 1161 0
1068 -1070 1161 0
-1072 -1074 -1163 0
1072 1074 -1163 0
-1072 1074 1163 0
1072 -1074 1163 0
-1076 -1078 -1165 0
1076 1078 -1165 0
-1076 1078 1165 0
1076 -1078 1165 0
-1080 -1082 -1167 0
1080 1082 -1167 0
-1080 1082 1167 0
1080 -1082 1167 0
-1084 -1086 -1169 0
1084 1086 -1169 0
-1084 1086 1169 0
1084 -1086 1169 0
-1090 -1092 -1172 0
1090 1092 -1172 0
-1090 1092 1172 0
1090 -1092 1172 0
-1094 -1096 -1173 0
1094 1096 -1173 0
-1094 1096 1173 0
1094 -1096 1173 0
-1098 -1100 -1175 0
1098 1100 -1175 0
-1098 1100 1175 0
1098 -1100 1175 0
-1102 -1104 -1177 0
1102 1104 -1177 0
-1102 1104 1177 0
1102 -1104 1177 0
-1106 -1108 -1179 0
1106 1108 -1179 0
-1106 1108 1179 0
1106 -1108 1179 0
-1110 -1112 -1181 0
1110 1112 -1181 0
-1110 1112 1181 0
1110 -1112 1181 0
-1114 -1116 -1183 0
1114 1116 -1183 0
-1114 1116 1183 0
1114 -1116 1183 0
-1118 -1120 -1185 0
1118 1120 -1185 0
-1118 1120 1185 0
1118 -1120 1185 0
-1122 -1124 -1187 0
1122 1124 -1187 0
-1122 1124 1187 0
1122 -1124 1187 0
-1126 -1128 -1189 0
1126 1128 -1189 0
-1126 1128 1189 0
1126 -1128 1189 0
-1130 -1132 -1191 0
1130 1132 -1191 0
-1130 1132 1191 0
1130 -1132 1191 0
-1134 -1136 -1193 0
1134 1136 -1193 0
-1134 1136 1193 0
1134 -1136 1193 0
-1138 -1140 -1195 0
1138 1140 -1195 0
-1138 1140 1195 0
1138 -1140 1195 0
-1142 -1144 -1197 0
1142 1144 -1197 0
-1142 1144 1197 0
1142 -1144 1197 0
-1145 -1147 -1200 0
1145 1147 -1200 0
-1145 1147 1200 0
1145 -1147 1200 0
-1149 -1151 -1201 0
1149 1151 -1201 0
-1149 1151 1201 0
1149 -1151 1201 0
-1153 -1155 -1203 0
1153 1155 -1203 0
-1153 1155 1203 0
1153 -1155 1203 0
-1157 -1158 -1205 0
1157 1158 -1205 0
-1157 1158 1205 0
1157 -1158 1205 0
-1159 -1161 -1207 0
1159 1161 -1207 0
-1159 1161 1207 0
1159 -1161 1207 0
-1163 -1165 -1209 0
1163 1165 -1209 0
-1163 1165 1209 0
1163 -1165 1209 0
-1167 -1169 -1211 0
1167 1169 -1211 0
-1167 1169 1211 0
1167 -1169 1211 0
-1171 -1172 -1213 0
1171 1172 -1213 0
-1171 1172 1213 0
1171 -1172 1213 0
-1173 -1175 -1215 0
1173 1175 -1215 0
-1173 1175 1215 0
1173 -1175 1215 0
-1177 -1179 -1217 0
1177 1179 -1217 0
-1177 1179 1217 0
1177 -1179 1217 0
-1181 -1183 -1219 0
1181 1183 -1219 0
-1181 1183 1219 0
1181 -1183 1219 0
-1185 -1187 -1221 0
1185 1187 -1221 0
-1185 1187 1221 0
1185 -1187 1221 0
-1189 -1191 -1223 0
1189 1191 -1223 0
-1189 1191 1223 0
1189 -1191 1223 0
-1193 -1195 -1225 0
1193 1195 -1225 0
-1193 1195 1225 0
1193 -1195 1225 0
-1197 -1198 -1227 0
1197 1198 -1227 0
-1197 1198 1227 0
1197 -1198 1227 0
-1199 -1200 -1229 0
1199 1200 -1229 0
-1199 1200 1229 0
1199 -1200 1229 0
-1201 -1203 -1231 0
1201 1203 -1231 0
-1201 1203 1231 0
1201 -1203 1231 0
-1205 -1207 -1233 0
1205 1207 -1233 0
-1205 1207 1233 0
1205 -1207 1233 0
-1209 -1211 -1235 0
1209 1211 -1235 0
-1209 1211 1235 0
1209 -1211 1235 0
-1213 -1215 -1237 0
1213 1215 -1237 0
-1213 1215 1237 0
1213 -1215 1237 0
-1217 -1219 -1239 0
1217 1219 -1239 0
-1217 1219 1239 0
1217 -1219 1239 0
-1221 -1223 -1241 0
1221 1223 -1241 0
-1221 1223 1241 0
1221 -1223 1241 0
-1225 -1227 -1243 0
1225 1227 -1243 0
-1225 1227 1243 0
1225 -1227 1243 0
-1229 -1231 -1245 0
1229 1231 -1245 0
-1229 1231 1245 0
1229 -1231 1245 0
-1233 -1235 -1247 0
1233 1235 -1247 0
-1233 1235 1247 0
1233 -1235 1247 0
-1237 -1239 -1249 0
1237 1239 -1249 0
-1237 1239 1249 0
1237 -1239 1249 0
-1241 -1243 -1251 0
1241 1243 -1251 0
-1241 1243 1251 0
1241 -1243 1251 0
-1245 -1247 -1253 0
1245 1247 -1253 0
-1245 1247 1253 0
1245 -1247 1253 0
-1249 -1251 -1253 0
1249 1251 -1253 0
-1249 1251 1253 0
1249 -1251 1253 0
-1146 -1148 -1257 0
1146 1148 -1257 0
-1146 1148 1257 0
1146 -1148 1257 0
-1150 -1152 -1258 0
1150 1152 -1258 0
-1150 1152 1258 0
1150 -1152 1258 0
-1154 -1156 -1260 0
1154 1156 -1260 0
-1154 1156 1260 0
1154 -1156 1260 0
-1160 -1162 -1263 0
1160 1162 -1263 0
-1160 1162 1263 0
1160 -1162 1263 0
-1164 -1166 -1264 0
1164 1166 -1264 0
-1164 1166 1264 0
1164 -1166 1264 0
-1168 -1170 -1266 0
1168 1170 -1266 0
-1168 1170 1266 0
1168 -1170 1266 0
-1174 -1176 -1269 0
1174 1176 -1269 0
-1174 1176 1269 0
1174 -1176 1269 0
-1178 -1180 -1270 0
1178 1180 -1270 0
-1178 1180 1270 0
1178 -1180 1270 0
-1182 -1184 -1272 0
1182 1184 -1272 0
-1182 1184 1272 0
1182 -1184 1272 0
-1186 -1188 -1274 0
1186 1188 -1274 0
-1186 1188 1274 0
1186 -1188 1274 0
-1190 -1192 -1276 0
1190 1192 -1276 0
-1190 1192 1276 0
1190 -1192 1276 0
-1194 -1196 -1278 0
1194 1196 -1278 0
-1194 1196 1278 0
1194 -1196 1278 0
-1202 -1204 -1281 0
1202 1204 -1281 0
-1202 1204 1281 0
1202 -1204 1281 0
-1206 -1208 -1282 0
1206 1208 -1282 0
-1206 1208 1282 0
1206 -1208 1282 0
-1210 -1212 -1284 0
1210 1212 -1284 0
-1210 1212 1284 0
1210 -1212 1284 0
-1214 -1216 -1286 0
1214 1216 -1286 0
-1214 1216 1286 0
1214 -1216 1286 0
-1218 -1220 -1288 0
1218 1220 -1288 0
-1218 1220 1288 0
1218 -1220 1288 0
-1222 -1224 -1290 0
1222 1224 -1290 0
-1222 1224 1290 0
1222 -1224 1290 0
-1226 -1228 -1292 0
1226 1228 -1292 0
-1226 1228 1292 0
1226 -1228 1292 0
-1230 -1232 -1294 0
1230 1232 -1294 0
-1230 1232 1294 0
1230 -1232 1294 0
-1234 -1236 -1296 0
1234 1236 -1296 0
-1234 1236 1296 0
1234 -1236 1296 0
-1238 -1240 -1298 0
1238 1240 -1298 0
-1238 1240 1298 0
1238 -1240 1298 0
-1242 -1244 -1300 0
1242 1244 -1300 0
-1242 1244 1300 0
1242 -1244 1300 0
-1246 -1248 -1302 0
1246 1248 -1302 0
-1246 1248 1302 0
1246 -1248 1302 0
-1250 -1252 -1304 0
1250 1252 -1304 0
-1250 1252 1304 0
1250 -1252 1304 0
-1254 -1255 -1306 0
1254 1255 -1306 0
-1254 1255 1306 0
1254 -1255 1306 0
-1253 -1256 -1308 0
1253 1256 -1308 0
-1253 1256 1308 0
1253 -1256 1308 0
-1257 -1258 -1310 0
1257 1258 -1310 0
-1257 1258 1310 0
1257 -1258 1310 0
-1260 -1262 -1312 0
1260 1262 -1312 0
-1260 1262 1312 0
1260 -1262 1312 0
-1263 -1264 -1314 0
1263 1264 -1314 0
-1263 1264 1314 0
1263 -1264 1314 0
-1266 -1268 -1316 0
1266 1268 -1316 0
-1266 1268 1316 0
1266 -1268 1316 0
-1269 -1270 -1318 0
1269 1270 -1318 0
-1269 1270 1318 0
1269 -1270 1318 0
-1272 -1274 -1320 0
1272 1274 -1320 0
-1272 1274 1320 0
1272 -1274 1320 0
-1276 -1278 -1322 0
1276 1278 -1322 0
-1276 1278 1322 0
1276 -1278 1322 0
-1279 -1280 -1324 0
1279 1280 -1324 0
-1279 1280 1324 0
1279 -1280 1324 0
-1281 -1282 -1326 0
1281 1282 -1326 0
-1281 1282 1326 0
1281 -1282 1326 0
-1284 -1286 -1328 0
1284 1286 -1328 0
-1284 1286 1328 0
1284 -1286 1328 0
-1288 -1290 -1330 0
1288 1290 -1330 0
-1288 1290 1330 0
1288 -1290 1330 0
-1292 -1294 -1332 0
1292 1294 -1332 0
-1292 1294 1332 0
1292 -1294 1332 0
-1296 -1298 -1334 0
1296 1298 -1334 0
-1296 1298 1334 0
1296 -1298 1334 0
-1300 -1302 -1336 0
1300 1302 -1336 0
-1300 1302 1336 0
1300 -1302 1336 0
-1304 -1306 -1338 0
1304 1306 -1338 0
-1304 1306 1338 0
1304 -1306 1338 0
-1308 -1310 -1340 0
1308 1310 -1340 0
-1308 1310 1340 0
1308 -1310 1340 0
-1312 -1314 -1342 0
1312 1314 -1342 0
-1312 1314 1342 0
1312 -1314 1342 0
-1316 -1318 -1344 0
1316 1318 -1344 0
-1316 1318 1344 0
1316 -1318 1344 0
-1320 -1322 -1346 0
1320 1322 -1346 0
-1320 1322 1346 0
1320 -1322 1346 0
-1324 -1326 -1348 0
1324 1326 -1348 0
-1324 1326 1348 0
1324 -1326 1348 0
-1328 -1330 -1350 0
1328 1330 -1350 0
-1328 1330 1350 0
1328 -1330 1350 0
-1332 -1334 -1352 0
1332 1334 -1352 0
-1332 1334 1352 0
1332 -1334 1352 0
-1336 -1338 -1354 0
1336 1338 -1354 0
-1336 1338 1354 0
1336 -1338 1354 0
-1340 -1342 -1356 0
1340 1342 -1356 0
-1340 1342 1356 0
1340 -1342 1356 0
-1344 -1346 -1358 0
1344 1346 -1358 0
-1344 1346 1358 0
1344 -1346 1358 0
-1348 -1350 -1360 0
1348 1350 -1360 0
-1348 1350 1360 0
1348 -1350 1360 0
-1352 -1354 -1362 0
1352 1354 -1362 0
-1352 1354 1362 0
1352 -1354 1362 0
-1356 -1358 -1364 0
1356 1358 -1364 0
-1356 1358 1364 0
1356 -1358 1364 0
-1360 -1362 -1364 0
1360 1362 -1364 0
-1360 1362 1364 0
1360 -1362 1364 0
-1259 -1261 -1368 0
1259 1261 -1368 0
-1259 1261 1368 0
1259 -1261 1368 0
-1265 -1267 -1370 0
1265 1267 -1370 0
-1265 1267 1370 0
1265 -1267 1370 0
-1271 -1273 -1372 0
1271 1273 -1372 0
-1271 1273 1372 0
1271 -1273 1372 0
-1275 -1277 -1373 0
1275 1277 -1373 0
-1275 1277 1373 0
1275 -1277 1373 0
-1283 -1285 -1376 0
1283 1285 -1376 0
-1283 1285 1376 0
1283 -1285 1376 0
-1287 -1289 -1377 0
1287 1289 -1377 0
-1287 1289 1377 0
1287 -1289 1377 0
-1291 -1293 -1379 0
1291 1293 -1379 0
-1291 1293 1379 0
1291 -1293 1379 0
-1295 -1297 -1381 0
1295 1297 -1381 0
-1295 1297 1381 0
1295 -1297 1381 0
-1299 -1301 -1383 0
1299 1301 -1383 0
-1299 1301 1383 0
1299 -1301 1383 0
-1303 -1305 -1385 0
1303 1305 -1385 0
-1303 1305 1385 0
1303 -1305 1385 0
-1307 -1309 -1387 0
1307 1309 -1387 0
-1307 1309 1387 0
1307 -1309 1387 0
-1311 -1313 -1389 0
1311 1313 -1389 0
-1311 1313 1389 0
1311 -1313 1389 0
-1315 -1317 -1391 0
1315 1317 -1391 0
-1315 1317 1391 0
1315 -1317 1391 0
-1319 -1321 -1393 0
1319 1321 -1393 0
-1319 1321 1393 0
1319 -1321 1393 0
-1323 -1325 -1395 0
1323 1325 -1395 0
-1323 1325 1395 0
1323 -1325 1395 0
-1327 -1329 -1397 0
1327 1329 -1397 0
-1327 1329 1397 0
1327 -1329 1397 0
-1331 -1333 -1399 0
1331 1333 -1399 0
-1331 1333 1399 0
1331 -1333 1399 0
-1335 -1337 -1401 0
1335 1337 -1401 0
-1335 1337 1401 0
1335 -1337 1401 0
-1339 -1341 -1403 0
1339 1341 -1403 0
-1339 1341 1403 0
1339 -1341 1403 0
-1343 -1345 -1405 0
1343 1345 -1405 0
-1343 1345 1405 0
1343 -1345 1405 0
-1347 -1349 -1407 0
1347 1349 -1407 0
-1347 1349 1407 0
1347 -1349 1407 0
-1351 -1353 -1409 0
1351 1353 -1409 0
-1351 1353 1409 0
1351 -1353 1409 0
-1355 -1357 -1411 0
1355 1357 -1411 0
-1355 1357 1411 0
1355 -1357 1411 0
-1359 -1361 -1413 0
1359 1361 -1413 0
-1359 1361 1413 0
1359 -1361 1413 0
-1363 -1365 -1415 0
1363 1365 -1415 0
-1363 1365 1415 0
1363 -1365 1415 0
-1364 -1366 -1417 0
1364 1366 -1417 0
1364 -1366 1417 0
-1364 1366 1417 0
-1367 -1368 -1419 0
1367 1368 -1419 0
-1367 1368 1419 0
1367 -1368 1419 0
-1369 -1370 -1421 0
1369 1370 -1421 0
-1369 1370 1421 0
1369 -1370 1421 0
-1371 -1372 -1423 0
1371 1372 -1423 0
-1371 1372 1423 0
1371 -1372 1423 0
-1373 -1374 -1425 0
1373 1374 -1425 0
-1373 1374 1425 0
1373 -1374 1425 0
-1375 -1376 -1427 0
1375 1376 -1427 0
-1375 1376 1427 0
1375 -1376 1427 0
-1377 -1379 -1429 0
1377 1379 -1429 0
-1377 1379 1429 0
1377 -1379 1429 0
-1381 -1383 -1431 0
1381 1383 -1431 0
-1381 1383 1431 0
1381 -1383 1431 0
-1385 -1387 -1433 0
1385 1387 -1433 0
-1385 1387 1433 0
1385 -1387 1433 0
-1389 -1391 -1435 0
1389 1391 -1435 0
-1389 1391 1435 0
1389 -1391 1435 0
-1393 -1395 -1437 0
1393 1395 -1437 0
-1393 1395 1437 0
1393 -1395 1437 0
-1397 -1399 -1439 0
1397 1399 -1439 0
-1397 1399 1439 0
1397 -1399 1439 0
-1401 -1403 -1441 0
1401 1403 -1441 0
-1401 1403 1441 0
1401 -1403 1441 0
-1405 -1407 -1443 0
1405 1407 -1443 0
-1405 1407 1443 0
1405 -1407 1443 0
-1409 -1411 -1445 0
1409 1411 -1445 0
-1409 1411 1445 0
1409 -1411 1445 0
-1413 -1415 -1447 0
1413 1415 -1447 0
-1413 1415 1447 0
1413 -1415 1447 0
-1417 -1419 -1449 0
1417 1419 -1449 0
-1417 1419 1449 0
1417 -1419 1449 0
-1421 -1423 -1451 0
1421 1423 -1451 0
-1421 1423 1451 0
1421 -1423 1451 0
-1425 -1427 -1453 0
1425 1427 -1453 0
-1425 1427 1453 0
1425 -1427 1453 0
-1429 -1431 -1455 0
1429 1431 -1455 0
-1429 1431 1455 0
1429 -1431 1455 0
-1433 -1435 -1457 0
1433 1435 -1457 0
-1433 1435 1457 0
1433 -1435 1457 0
-1437 -1439 -1459 0
1437 1439 -1459 0
-1437 1439 1459 0
1437 -1439 1459 0
-1441 -1443 -1461 0
1441 1443 -1461 0
-1441 1443 1461 0
1441 -1443 1461 0
-1445 -1447 -1463 0
1445 1447 -1463 0
-1445 1447 1463 0
1445 -1447 1463 0
-1449 -1451 -1465 0
1449 1451 -1465 0
-1449 1451 1465 0
1449 -1451 1465 0
-1453 -1455 -1467 0
1453 1455 -1467 0
-1453 1455 1467 0
1453 -1455 1467 0
-1457 -1459 -1469 0
1457 1459 -1469 0
-1457 1459 1469 0
1457 -1459 1469 0
-1461 -1463 -1471 0
1461 1463 -1471 0
-1461 1463 1471 0
1461 -1463 1471 0
-1465 -1467 -1473 0
1465 1467 -1473 0
-1465 1467 1473 0
1465 -1467 1473 0
-1469 -1471 -1473 0
1469 1471 -1473 0
-1469 1471 1473 0
1469 -1471 1473 0
-1378 -1380 -1481 0
1378 1380 -1481 0
-1378 1380 1481 0
1378 -1380 1481 0
-1382 -1384 -1482 0
1382 1384 -1482 0
-1382 1384 1482 0
1382 -1384 1482 0
-1386 -1388 -1484 0
1386 1388 -1484 0
-1386 1388 1484 0
1386 -1388 1484 0
-1390 -1392 -1486 0
1390 1392 -1486 0
-1390 1392 1486 0
1390 -1392 1486 0
-1394 -1396 -1488 0
1394 1396 -1488 0
-1394 1396 1488 0
1394 -1396 1488 0
-1398 -1400 -1490 0
1398 1400 -1490 0
-1398 1400 1490 0
1398 -1400 1490 0
-1402 -1404 -1492 0
1402 1404 -1492 0
-1402 1404 1492 0
1402 -1404 1492 0
-1406 -1408 -1494 0
1406 1408 -1494 0
-1406 1408 1494 0
1406 -1408 1494 0
-1410 -1412 -1496 0
1410 1412 -1496 0
-1410 1412 1496 0
1410 -1412 1496 0
-1414 -1416 -1498 0
1414 1416 -1498 0
-1414 1416 1498 0
1414 -1416 1498 0
-1418 -1420 -1500 0
1418 1420 -1500 0
-1418 1420 1500 0
1418 -1420 1500 0
-1422 -1424 -1502 0
1422 1424 -1502 0
-1422 1424 1502 0
1422 -1424 1502 0
-1426 -1428 -1504 0
1426 1428 -1504 0
-1426 1428 1504 0
1426 -1428 1504 0
-1430 -1432 -1506 0
1430 1432 -1506 0
-1430 1432 1506 0
1430 -1432 1506 0
-1434 -1436 -1508 0
1434 1436 -1508 0
-1434 1436 1508 0
1434 -1436 1508 0
-1438 -1440 -1510 0
1438 1440 -1510 0
-1438 1440 1510 0
1438 -1440 1510 0
-1442 -1444 -1512 0
1442 1444 -1512 0
-1442 1444 1512 0
1442 -1444 1512 0
-1446 -1448 -1514 0
1446 1448 -1514 0
-1446 1448 1514 0
1446 -1448 1514 0
-1450 -1452 -1516 0
1450 1452 -1516 0
-1450 1452 1516 0
1450 -1452 1516 0
-1454 -1456 -1518 0
1454 1456 -1518 0
-1454 1456 1518 0
1454 -1456 1518 0
-1458 -1460 -1520 0
1458 1460 -1520 0
-1458 1460 1520 0
1458 -1460 1520 0
-1462 -1464 -1522 0
1462 1464 -1522 0
-1462 1464 1522 0
1462 -1464 1522 0
-1466 -1468 -1524 0
1466 1468 -1524 0
-1466 1468 1524 0
1466 -1468 1524 0
-1470 -1472 -1526 0
1470 1472 -1526 0
-1470 1472 1526 0
1470 -1472 1526 0
-1474 -1475 -1528 0
1474 1475 -1528 0
-1474 1475 1528 0
1474 -1475 1528 0
-1473 -1476 -1530 0
1473 1476 -1530 0
-1473 1476 1530 0
1473 -1476 1530 0
-1477 -1478 -1532 0
1477 1478 -1532 0
-1477 1478 1532 0
1477 -1478 1532 0
-1479 -1480 -1534 0
1479 1480 -1534 0
-1479 1480 1534 0
1479 -1480 1534 0
-1481 -1482 -1536 0
1481 1482 -1536 0
-1481 1482 1536 0
1481 -1482 1536 0
-1484 -1486 -1538 0
1484 1486 -1538 0
-1484 1486 1538 0
1484 -1486 1538 0
-1488 -1490 -1540 0
1488 1490 -1540 0
-1488 1490 1540 0
1488 -1490 1540 0
-1492 -1494 -1542 0
1492 1494 -1542 0
-1492 1494 1542 0
1492 -1494 1542 0
-1496 -1498 -1544 0
1496 1498 -1544 0
-1496 1498 1544 0
1496 -1498 1544 0
-1500 -1502 -1546 0
1500 1502 -1546 0
-1500 1502 1546 0
1500 -1502 1546 0
-1504 -1506 -1548 0
1504 1506 -1548 0
-1504 1506 1548 0
1504 -1506 1548 0
-1508 -1510 -1550 0
1508 1510 -1550 0
-1508 1510 1550 0
1508 -1510 1550 0
-1512 -1514 -1552 0
1512 1514 -1552 0
-1512 1514 1552 0
1512 -1514 1552 0
-1516 -1518 -1554 0
1516 1518 -1554 0
-1516 1518 1554 0
1516 -1518 1554 0
-1520 -1522 -1556 0
1520 1522 -1556 0
-1520 1522 1556 0
1520 -1522 1556 0
-1524 -1526 -1558 0
1524 1526 -1558 0
-1524 1526 1558 0
1524 -1526 1558 0
-1528 -1530 -1560 0
1528 1530 -1560 0
-1528 1530 1560 0
1528 -1530 1560 0
-1532 -1534 -1562 0
1532 1534 -1562 0
-1532 1534 1562 0
1532 -1534 1562 0
-1536 -1538 -1564 0
1536 1538 -1564 0
-1536 1538 1564 0
1536 -1538 1564 0
-1540 -1542 -1566 0
1540 1542 -1566 0
-1540 1542 1566 0
1540 -1542 1566 0
-1544 -1546 -1568 0
1544 1546 -1568 0
-1544 1546 1568 0
1544 -1546 1568 0
-1548 -1550 -1570 0
1548 1550 -1570 0
-1548 1550 1570 0
1548 -1550 1570 0
-1552 -1554 -1572 0
1552 1554 -1572 0
-1552 1554 1572 0
1552 -1554 1572 0
-1556 -1558 -1574 0
1556 1558 -1574 0
-1556 1558 1574 0
1556 -1558 1574 0
-1560 -1562 -1576 0
1560 1562 -1576 0
-1560 1562 1576 0
1560 -1562 1576 0
-1564 -1566 -1578 0
1564 1566 -1578 0
-1564 1566 1578 0
1564 -1566 1578 0
-1568 -1570 -1580 0
1568 1570 -1580 0
-1568 1570 1580 0
1568 -1570 1580 0
-1572 -1574 -1582 0
1572 1574 -1582 0
-1572 1574 1582 0
1572 -1574 1582 0
-1576 -1578 -1584 0
1576 1578 -1584 0
-1576 1578 1584 0
1576 -1578 1584 0
-1580 -1582 -1584 0
1580 1582 -1584 0
-1580 1582 1584 0
1580 -1582 1584 0
-1483 -1485 -1588 0
1483 1485 -1588 0
-1483 1485 1588 0
1483 -1485 1588 0
-1487 -1489 -1589 0
1487 1489 -1589 0
-1487 1489 1589 0
1487 -1489 1589 0
-1491 -1493 -1591 0
1491 1493 -1591 0
-1491 1493 1591 0
1491 -1493 1591 0
-1495 -1497 -1593 0
1495 1497 -1593 0
-1495 1497 1593 0
1495 -1497 1593 0
-1499 -1501 -1595 0
1499 1501 -1595 0
-1499 1501 1595 0
1499 -1501 1595 0
-1503 -1505 -1597 0
1503 1505 -1597 0
-1503 1505 1597 0
1503 -1505 1597 0
-1507 -1509 -1599 0
1507 1509 -1599 0
-1507 1509 1599 0
1507 -1509 1599 0
-1511 -1513 -1601 0
1511 1513 -1601 0
-1511 1513 1601 0
1511 -1513 1601 0
-1515 -1517 -1603 0
1515 1517 -1603 0
-1515 1517 1603 0
1515 -1517 1603 0
-1519 -1521 -1605 0
1519 1521 -1605 0
-1519 1521 1605 0
1519 -1521 1605 0
-1523 -1525 -1607 0
1523 1525 -1607 0
-1523 1525 1607 0
1523 -1525 1607 0
-1527 -1529 -1609 0
1527 1529 -1609 0
-1527 1529 1609 0
1527 -1529 1609 0
-1531 -1533 -1611 0
1531 1533 -1611 0
-1531 1533 1611 0
1531 -1533 1611 0
-1535 -1537 -1613 0
1535 1537 -1613 0
-1535 1537 1613 0
1535 -1537 1613 0
-1539 -1541 -1615 0
1539 1541 -1615 0
-1539 1541 1615 0
1539 -1541 1615 0
-1543 -1545 -1617 0
1543 1545 -1617 0
-1543 1545 1617 0
1543 -1545 1617 0
-1547 -1549 -1619 0
1547 1549 -1619 0
-1547 1549 1619 0
1547 -1549 1619 0
-1551 -1553 -1621 0
1551 1553 -1621 0
-1551 1553 1621 0
1551 -1553 1621 0
-1555 -1557 -1623 0
1555 1557 -1623 0
-1555 1557 1623 0
1555 -1557 1623 0
-1559 -1561 -1625 0
1559 1561 -1625 0
-1559 1561 1625 0
1559 -1561 1625 0
-1563 -1565 -1627 0
1563 1565 -1627 0
-1563 1565 1627 0
1563 -1565 1627 0
-1567 -1569 -1629 0
1567 1569 -1629 0
-1567 1569 1629 0
1567 -1569 1629 0
-1571 -1573 -1631 0
1571 1573 -1631 0
-1571 1573 1631 0
1571 -1573 1631 0
-1575 -1577 -1633 0
1575 1577 -1633 0
-1575 1577 1633 0
1575 -1577 1633 0
-1579 -1581 -1635 0
1579 1581 -1635 0
-1579 1581 1635 0
1579 -1581 1635 0
-1583 -1585 -1637 0
1583 1585 -1637 0
-1583 1585 1637 0
1583 -1585 1637 0
-1584 -1586 -1639 0
1584 1586 -1639 0
1584 -1586 1639 0
-1584 1586 1639 0
-1587 -1588 -1666 0
1587 1588 -1666 0
-1587 1588 1666 0
1587 -1588 1666 0
-1589 -1591 -1641 0
1589 1591 -1641 0
-1589 1591 1641 0
1589 -1591 1641 0
-1593 -1595 -1643 0
1593 1595 -1643 0
-1593 1595 1643 0
1593 -1595 1643 0
-1597 -1599 -1645 0
1597 1599 -1645 0
-1597 1599 1645 0
1597 -1599 1645 0
-1601 -1603 -1647 0
1601 1603 -1647 0
-1601 1603 1647 0
1601 -1603 1647 0
-1605 -1607 -1649 0
1605 1607 -1649 0
-1605 1607 1649 0
1605 -1607 1649 0
-1609 -1611 -1651 0
1609 1611 -1651 0
-1609 1611 1651 0
1609 -1611 1651 0
-1613 -1615 -1653 0
1613 1615 -1653 0
-1613 1615 1653 0
1613 -1615 1653 0
-1617 -1619 -1655 0
1617 1619 -1655 0
-1617 1619 1655 0
1617 -1619 1655 0
-1621 -1623 -1657 0
1621 1623 -1657 0
-1621 1623 1657 0
1621 -1623 1657 0
-1625 -1627 -1659 0
1625 1627 -1659 0
-1625 1627 1659 0
1625 -1627 1659 0
-1629 -1631 -1661 0
1629 1631 -1661 0
-1629 1631 1661 0
1629 -1631 1661 0
-1633 -1635 -1663 0
1633 1635 -1663 0
-1633 1635 1663 0
1633 -1635 1663 0
-1637 -1639 -1665 0
1637 1639 -1665 0
-1637 1639 1665 0
1637 -1639 1665 0
-1641 -1643 -1667 0
1641 1643 -1667 0
-1641 1643 1667 0
1641 -1643 1667 0
-1645 -1647 -1669 0
1645 1647 -1669 0
-1645 1647 1669 0
1645 -1647 1669 0
-1649 -1651 -1671 0
1649 1651 -1671 0
-1649 1651 1671 0
1649 -1651 1671 0
-1653 -1655 -1673 0
1653 1655 -1673 0
-1653 1655 1673 0
1653 -1655 1673 0
-1657 -1659 -1675 0
1657 1659 -1675 0
-1657 1659 1675 0
1657 -1659 1675 0
-1661 -1663 -1677 0
1661 1663 -1677 0
-1661 1663 1677 0
1661 -1663 1677 0
-1665 -1666 -1679 0
1665 1666 -1679 0
-1665 1666 1679 0
1665 -1666 1679 0
-1667 -1669 -1681 0
1667 1669 -1681 0
-1667 1669 1681 0
1667 -1669 1681 0
-1671 -1673 -1683 0
1671 1673 -1683 0
-1671 1673 1683 0
1671 -1673 1683 0
-1675 -1677 -1685 0
1675 1677 -1685 0
-1675 1677 1685 0
1675 -1677 1685 0
-1679 -1681 -1687 0
1679 1681 -1687 0
-1679 1681 1687 0
1679 -1681 1687 0
-1683 -1685 -1687 0
1683 1685 -1687 0
-1683 1685 1687 0
1683 -1685 1687 0
-1590 -1592 -1691 0
1590 1592 -1691 0
-1590 1592 1691 0
1590 -1592 1691 0
-1594 -1596 -1693 0
1594 1596 -1693 0
-1594 1596 1693 0
1594 -1596 1693 0
-1598 -1600 -1695 0
1598 1600 -1695 0
-1598 1600 1695 0
1598 -1600 1695 0
-1602 -1604 -1697 0
1602 1604 -1697 0
-1602 1604 1697 0
1602 -1604 1697 0
-1606 -1608 -1699 0
1606 1608 -1699 0
-1606 1608 1699 0
1606 -1608 1699 0
-1610 -1612 -1701 0
1610 1612 -1701 0
-1610 1612 1701 0
1610 -1612 1701 0
-1614 -1616 -1703 0
1614 1616 -1703 0
-1614 1616 1703 0
1614 -1616 1703 0
-1618 -1620 -1705 0
1618 1620 -1705 0
-1618 1620 1705 0
1618 -1620 1705 0
-1622 -1624 -1707 0
1622 1624 -1707 0
-1622 1624 1707 0
1622 -1624 1707 0
-1626 -1628 -1709 0
1626 1628 -1709 0
-1626 1628 1709 0
1626 -1628 1709 0
-1630 -1632 -1711 0
1630 1632 -1711 0
-1630 1632 1711 0
1630 -1632 1711 0
-1634 -1636 -1713 0
1634 1636 -1713 0
-1634 1636 1713 0
1634 -1636 1713 0
-1638 -1640 -1715 0
1638 1640 -1715 0
-1638 1640 1715 0
1638 -1640 1715 0
-1642 -1644 -1717 0
1642 1644 -1717 0
-1642 1644 1717 0
1642 -1644 1717 0
-1646 -1648 -1719 0
1646 1648 -1719 0
-1646 1648 1719 0
1646 -1648 1719 0
-1650 -1652 -1721 0
1650 1652 -1721 0
-1650 1652 1721 0
1650 -1652 1721 0
-1654 -1656 -1723 0
1654 1656 -1723 0
-1654 1656 1723 0
1654 -1656 1723 0
-1658 -1660 -1725 0
1658 1660 -1725 0
-1658 1660 1725 0
1658 -1660 1725 0
-1662 -1664 -1727 0
1662 1664 -1727 0
-1662 1664 1727 0
1662 -1664 1727 0
-1668 -1670 -1730 0
1668 1670 -1730 0
-1668 1670 1730 0
1668 -1670 1730 0
-1672 -1674 -1731 0
1672 1674 -1731 0
-1672 1674 1731 0
1672 -1674 1731 0
-1676 -1678 -1733 0
1676 1678 -1733 0
-1676 1678 1733 0
1676 -1678 1733 0
-1680 -1682 -1735 0
1680 1682 -1735 0
-1680 1682 1735 0
1680 -1682 1735 0
-1684 -1686 -1737 0
1684 1686 -1737 0
-1684 1686 1737 0
1684 -1686 1737 0
-1688 -1689 -1739 0
1688 1689 -1739 0
-1688 1689 1739 0
1688 -1689 1739 0
-1690 -1691 -1740 0
1690 1691 -1740 0
-1690 1691 1740 0
1690 -1691 1740 0
-1693 -1695 -1742 0
1693 1695 -1742 0
-1693 1695 1742 0
1693 -1695 1742 0
-1697 -1699 -1744 0
1697 1699 -1744 0
-1697 1699 1744 0
1697 -1699 1744 0
-1701 -1703 -1746 0
1701 1703 -1746 0
-1701 1703 1746 0
1701 -1703 1746 0
-1705 -1707 -1748 0
1705 1707 -1748 0
-1705 1707 1748 0
1705 -1707 1748 0
-1709 -1711 -1750 0
1709 1711 -1750 0
-1709 1711 1750 0
1709 -1711 1750 0
-1713 -1715 -1752 0
1713 1715 -1752 0
-1713 1715 1752 0
1713 -1715 1752 0
-1716 -1717 -1754 0
1716 1717 -1754 0
-1716 1717 1754 0
1716 -1717 1754 0
-1719 -1721 -1756 0
1719 1721 -1756 0
-1719 1721 1756 0
1719 -1721 1756 0
-1723 -1725 -1758 0
1723 1725 -1758 0
-1723 1725 1758 0
1723 -1725 1758 0
-1727 -1729 -1760 0
1727 1729 -1760 0
-1727 1729 1760 0
1727 -1729 1760 0
-1730 -1731 -1762 0
1730 1731 -1762 0
-1730 1731 1762 0
1730 -1731 1762 0
-1733 -1735 -1764 0
1733 1735 -1764 0
-1733 1735 1764 0
1733 -1735 1764 0
-1737 -1739 -1766 0
1737 1739 -1766 0
-1737 1739 1766 0
1737 -1739 1766 0
-1687 -1740 -1768 0
1687 1740 -1768 0
-1687 1740 1768 0
1687 -1740 1768 0
-1742 -1744 -1770 0
1742 1744 -1770 0
-1742 1744 1770 0
1742 -1744 1770 0
-1746 -1748 -1772 0
1746 1748 -1772 0
-1746 1748 1772 0
1746 -1748 1772 0
-1750 -1752 -1774 0
1750 1752 -1774 0
-1750 1752 1774 0
1750 -1752 1774 0
-1754 -1756 -1776 0
1754 1756 -1776 0
-1754 1756 1776 0
1754 -1756 1776 0
-1758 -1760 -1778 0
1758 1760 -1778 0
-1758 1760 1778 0
1758 -1760 1778 0
-1762 -1764 -1780 0
1762 1764 -1780 0
-1762 1764 1780 0
1762 -1764 1780 0
-1766 -1768 -1782 0
1766 1768 -1782 0
-1766 1768 1782 0
1766 -1768 1782 0
-1770 -1772 -1784 0
1770 1772 -1784 0
-1770 1772 1784 0
1770 -1772 1784 0
-1774 -1776 -1786 0
1774 1776 -1786 0
-1774 1776 1786 0
1774 -1776 1786 0
-1778 -1780 -1788 0
1778 1780 -1788 0
-1778 1780 1788 0
1778 -1780 1788 0
-1782 -1784 -1790 0
1782 1784 -1790 0
-1782 1784 1790 0
1782 -1784 1790 0
-1786 -1788 -1790 0
1786 1788 -1790 0
-1786 1788 1790 0
1786 -1788 1790 0
-1692 -1694 -1840 0
1692 1694 -1840 0
-1692 1694 1840 0
1692 -1694 1840 0
-1696 -1698 -1793 0
1696 1698 -1793 0
-1696 1698 1793 0
1696 -1698 1793 0
-1700 -1702 -1795 0
1700 1702 -1795 0
-1700 1702 1795 0
1700 -1702 1795 0
-1704 -1706 -1797 0
1704 1706 -1797 0
-1704 1706 1797 0
1704 -1706 1797 0
-1708 -1710 -1799 0
1708 1710 -1799 0
-1708 1710 1799 0
1708 -1710 1799 0
-1712 -1714 -1801 0
1712 1714 -1801 0
-1712 1714 1801 0
1712 -1714 1801 0
-1718 -1720 -1803 0
1718 1720 -1803 0
-1718 1720 1803 0
1718 -1720 1803 0
-1722 -1724 -1805 0
1722 1724 -1805 0
-1722 1724 1805 0
1722 -1724 1805 0
-1726 -1728 -1807 0
1726 1728 -1807 0
-1726 1728 1807 0
1726 -1728 1807 0
-1732 -1734 -1809 0
1732 1734 -1809 0
-1732 1734 1809 0
1732 -1734 1809 0
-1736 -1738 -1811 0
1736 1738 -1811 0
-1736 1738 1811 0
1736 -1738 1811 0
-1741 -1743 -1814 0
1741 1743 -1814 0
-1741 1743 1814 0
1741 -1743 1814 0
-1745 -1747 -1815 0
1745 1747 -1815 0
-1745 1747 1815 0
1745 -1747 1815 0
-1749 -1751 -1817 0
1749 1751 -1817 0
-1749 1751 1817 0
1749 -1751 1817 0
-1753 -1755 -1819 0
1753 1755 -1819 0
-1753 1755 1819 0
1753 -1755 1819 0
-1757 -1759 -1821 0
1757 1759 -1821 0
-1757 1759 1821 0
1757 -1759 1821 0
-1761 -1763 -1823 0
1761 1763 -1823 0
-1761 1763 1823 0
1761 -1763 1823 0
-1765 -1767 -1825 0
1765 1767 -1825 0
-1765 1767 1825 0
1765 -1767 1825 0
-1769 -1771 -1827 0
1769 1771 -1827 0
-1769 1771 1827 0
1769 -1771 1827 0
-1773 -1775 -1829 0
1773 1775 -1829 0
-1773 1775 1829 0
1773 -1775 1829 0
-1777 -1779 -1831 0
1777 1779 -1831 0
-1777 1779 1831 0
1777 -1779 1831 0
-1781 -1783 -1833 0
1781 1783 -1833 0
-1781 1783 1833 0
1781 -1783 1833 0
-1785 -1787 -1835 0
1785 1787 -1835 0
-1785 1787 1835 0
1785 -1787 1835 0
-1789 -1791 -1837 0
1789 1791 -1837 0
-1789 1791 1837 0
1789 -1791 1837 0
-1790 -1792 -1839 0
1790 1792 -1839 0
1790 -1792 1839 0
-1790 1792 1839 0
-1793 -1795 -1841 0
1793 1795 -1841 0
-1793 1795 1841 0
1793 -1795 1841 0
-1797 -1799 -1843 0
1797 1799 -1843 0
-1797 1799 1843 0
1797 -1799 1843 0
-1801 -1802 -1845 0
1801 1802 -1845 0
-1801 1802 1845 0
1801 -1802 1845 0
-1803 -1805 -1847 0
1803 1805 -1847 0
-1803 1805 1847 0
1803 -1805 1847 0
-1807 -1808 -1849 0
1807 1808 -1849 0
-1807 1808 1849 0
1807 -1808 1849 0
-1809 -1811 -1851 0
1809 1811 -1851 0
-1809 1811 1851 0
1809 -1811 1851 0
-1813 -1814 -1853 0
1813 1814 -1853 0
-1813 1814 1853 0
1813 -1814 1853 0
-1815 -1817 -1855 0
1815 1817 -1855 0
-1815 1817 1855 0
1815 -1817 1855 0
-1819 -1821 -1857 0
1819 1821 -1857 0
-1819 1821 1857 0
1819 -1821 1857 0
-1823 -1825 -1859 0
1823 1825 -1859 0
-1823 1825 1859 0
1823 -1825 1859 0
-1827 -1829 -1861 0
1827 1829 -1861 0
-1827 1829 1861 0
1827 -1829 1861 0
-1831 -1833 -1863 0
1831 1833 -1863 0
-1831 1833 1863 0
1831 -1833 1863 0
-1835 -1837 -1865 0
1835 1837 -1865 0
-1835 1837 1865 0
1835 -1837 1865 0
-1839 -1840 -1867 0
1839 1840 -1867 0
-1839 1840 1867 0
1839 -1840 1867 0
-1841 -1843 -1869 0
1841 1843 -1869 0
-1841 1843 1869 0
1841 -1843 1869 0
-1845 -1847 -1871 0
1845 1847 -1871 0
-1845 1847 1871 0
1845 -1847 1871 0
-1849 -1851 -1873 0
1849 1851 -1873 0
-1849 1851 1873 0
1849 -1851 1873 0
-1853 -1855 -1875 0
1853 1855 -1875 0
-1853 1855 1875 0
1853 -1855 1875 0
-1857 -1859 -1877 0
1857 1859 -1877 0
-1857 1859 1877 0
1857 -1859 1877 0
-1861 -1863 -1879 0
1861 1863 -1879 0
-1861 1863 1879 0
1861 -1863 1879 0
-1865 -1867 -1881 0
1865 1867 -1881 0
-1865 1867 1881 0
1865 -1867 1881 0
-1869 -1871 -1883 0
1869 1871 -1883 0
-1869 1871 1883 0
1869 -1871 1883 0
-1873 -1875 -1885 0
1873 1875 -1885 0
-1873 1875 1885 0
1873 -1875 1885 0
-1877 -1879 -1887 0
1877 1879 -1887 0
-1877 1879 1887 0
1877 -1879 1887 0
-1881 -1883 -1889 0
1881 1883 -1889 0
-1881 1883 1889 0
1881 -1883 1889 0
-1885 -1887 -1889 0
1885 1887 -1889 0
-1885 1887 1889 0
1885 -1887 1889 0
-1794 -1796 -1893 0
1794 1796 -1893 0
-1794 1796 1893 0
1794 -1796 1893 0
-1798 -1800 -1894 0
1798 1800 -1894 0
-1798 1800 1894 0
1798 -1800 1894 0
-1804 -1806 -1896 0
1804 1806 -1896 0
-1804 1806 1896 0
1804 -1806 1896 0
-1810 -1812 -1898 0
1810 1812 -1898 0
-1810 1812 1898 0
1810 -1812 1898 0
-1816 -1818 -1900 0
1816 1818 -1900 0
-1816 1818 1900 0
1816 -1818 1900 0
-1820 -1822 -1902 0
1820 1822 -1902 0
-1820 1822 1902 0
1820 -1822 1902 0
-1824 -1826 -1904 0
1824 1826 -1904 0
-1824 1826 1904 0
1824 -1826 1904 0
-1828 -1830 -1906 0
1828 1830 -1906 0
-1828 1830 1906 0
1828 -1830 1906 0
-1832 -1834 -1908 0
1832 1834 -1908 0
-1832 1834 1908 0
1832 -1834 1908 0
-1836 -1838 -1910 0
1836 1838 -1910 0
-1836 1838 1910 0
1836 -1838 1910 0
-1842 -1844 -1913 0
1842 1844 -1913 0
-1842 1844 1913 0
1842 -1844 1913 0
-1846 -1848 -1914 0
1846 1848 -1914 0
-1846 1848 1914 0
1846 -1848 1914 0
-1850 -1852 -1916 0
1850 1852 -1916 0
-1850 1852 1916 0
1850 -1852 1916 0
-1854 -1856 -1918 0
1854 1856 -1918 0
-1854 1856 1918 0
1854 -1856 1918 0
-1858 -1860 -1920 0
1858 1860 -1920 0
-1858 1860 1920 0
1858 -1860 1920 0
-1862 -1864 -1922 0
1862 1864 -1922 0
-1862 1864 1922 0
1862 -1864 1922 0
-1866 -1868 -1924 0
1866 1868 -1924 0
-1866 1868 1924 0
1866 -1868 1924 0
-1870 -1872 -1926 0
1870 1872 -1926 0
-1870 1872 1926 0
1870 -1872 1926 0
-1874 -1876 -1928 0
1874 1876 -1928 0
-1874 1876 1928 0
1874 -1876 1928 0
-1878 -1880 -1930 0
1878 1880 -1930 0
-1878 1880 1930 0
1878 -1880 1930 0
-1882 -1884 -1932 0
1882 1884 -1932 0
-1882 1884 1932 0
1882 -1884 1932 0
-1886 -1888 -1934 0
1886 1888 -1934 0
-1886 1888 1934 0
1886 -1888 1934 0
-1890 -1891 -1936 0
1890 1891 -1936 0
-1890 1891 1936 0
1890 -1891 1936 0
-1889 -1892 -1938 0
1889 1892 -1938 0
-1889 1892 1938 0
1889 -1892 1938 0
-1893 -1894 -1940 0
1893 1894 -1940 0
-1893 1894 1940 0
1893 -1894 1940 0
-1895 -1896 -1942 0
1895 1896 -1942 0
-1895 1896 1942 0
1895 -1896 1942 0
-1897 -1898 -1944 0
1897 1898 -1944 0
-1897 1898 1944 0
1897 -1898 1944 0
-1899 -1900 -1946 0
1899 1900 -1946 0
-1899 1900 1946 0
1899 -1900 1946 0
-1902 -1904 -1948 0
1902 1904 -1948 0
-1902 1904 1948 0
1902 -1904 1948 0
-1906 -1908 -1950 0
1906 1908 -1950 0
-1906 1908 1950 0
1906 -1908 1950 0
-1910 -1912 -1952 0
1910 1912 -1952 0
-1910 1912 1952 0
1910 -1912 1952 0
-1913 -1914 -1954 0
1913 1914 -1954 0
-1913 1914 1954 0
1913 -1914 1954 0
-1916 -1918 -1956 0
1916 1918 -1956 0
-1916 1918 1956 0
1916 -1918 1956 0
-1920 -1922 -1958 0
1920 1922 -1958 0
-1920 1922 1958 0
1920 -1922 1958 0
-1924 -1926 -1960 0
1924 1926 -1960 0
-1924 1926 1960 0
1924 -1926 1960 0
-1928 -1930 -1962 0
1928 1930 -1962 0
-1928 1930 1962 0
1928 -1930 1962 0
-1932 -1934 -1964 0
1932 1934 -1964 0
-1932 1934 1964 0
1932 -1934 1964 0
-1936 -1938 -1966 0
1936 1938 -1966 0
-1936 1938 1966 0
1936 -1938 1966 0
-1940 -1942 -1968 0
1940 1942 -1968 0
-1940 1942 1968 0
1940 -1942 1968 0
-1944 -1946 -1970 0
1944 1946 -1970 0
-1944 1946 1970 0
1944 -1946 1970 0
-1948 -1950 -1972 0
1948 1950 -1972 0
-1948 1950 1972 0
1948 -1950 1972 0
-1952 -1954 -1974 0
1952 1954 -1974 0
-1952 1954 1974 0
1952 -1954 1974 0
-1956 -1958 -1976 0
1956 1958 -1976 0
-1956 1958 1976 0
1956 -1958 1976 0
-1960 -1962 -1978 0
1960 1962 -1978 0
-1960 1962 1978 0
1960 -1962 1978 0
-1964 -1966 -1980 0
1964 1966 -1980 0
-1964 1966 1980 0
1964 -1966 1980 0
-1968 -1970 -1982 0
1968 1970 -1982 0
-1968 1970 1982 0
1968 -1970 1982 0
-1972 -1974 -1984 0
1972 1974 -1984 0
-1972 1974 1984 0
1972 -1974 1984 0
-1976 -1978 -1986 0
1976 1978 -1986 0
-1976 1978 1986 0
1976 -1978 1986 0
-1980 -1982 -1988 0
1980 1982 -1988 0
-1980 1982 1988 0
1980 -1982 1988 0
-1984 -1986 -1988 0
1984 1986 -1988 0
-1984 1986 1988 0
1984 -1986 1988 0
-1901 -1903 -1995 0
1901 1903 -1995 0
-1901 1903 1995 0
1901 -1903 1995 0
-1905 -1907 -1997 0
1905 1907 -1997 0
-1905 1907 1997 0
1905 -1907 1997 0
-1909 -1911 -1999 0
1909 1911 -1999 0
-1909 1911 1999 0
1909 -1911 1999 0
-1915 -1917 -2001 0
1915 1917 -2001 0
-1915 1917 2001 0
1915 -1917 2001 0
-1919 -1921 -2003 0
1919 1921 -2003 0
-1919 1921 2003 0
1919 -1921 2003 0
-1923 -1925 -2005 0
1923 1925 -2005 0
-1923 1925 2005 0
1923 -1925 2005 0
-1927 -1929 -2007 0
1927 1929 -2007 0
-1927 1929 2007 0
1927 -1929 2007 0
-1931 -1933 -2009 0
1931 1933 -2009 0
-1931 1933 2009 0
1931 -1933 2009 0
-1935 -1937 -2011 0
1935 1937 -2011 0
-1935 1937 2011 0
1935 -1937 2011 0
-1939 -1941 -2013 0
1939 1941 -2013 0
-1939 1941 2013 0
1939 -1941 2013 0
-1943 -1945 -2015 0
1943 1945 -2015 0
-1943 1945 2015 0
1943 -1945 2015 0
-1947 -1949 -2017 0
1947 1949 -2017 0
-1947 1949 2017 0
1947 -1949 2017 0
-1951 -1953 -2019 0
1951 1953 -2019 0
-1951 1953 2019 0
1951 -1953 2019 0
-1955 -1957 -2021 0
1955 1957 -2021 0
-1955 1957 2021 0
1955 -1957 2021 0
-1959 -1961 -2023 0
1959 1961 -2023 0
-1959 1961 2023 0
1959 -1961 2023 0
-1963 -1965 -2025 0
1963 1965 -2025 0
-1963 1965 2025 0
1963 -1965 2025 0
-1967 -1969 -2027 0
1967 1969 -2027 0
-1967 1969 2027 0
1967 -1969 2027 0
-1971 -1973 -2029 0
1971 1973 -2029 0
-1971 1973 2029 0
1971 -1973 2029 0
-1975 -1977 -2031 0
1975 1977 -2031 0
-1975 1977 2031 0
1975 -1977 2031 0
-1979 -1981 -2033 0
1979 1981 -2033 0
-1979 1981 2033 0
1979 -1981 2033 0
-1983 -1985 -2035 0
1983 1985 -2035 0
-1983 1985 2035 0
1983 -1985 2035 0
-1987 -1989 -2037 0
1987 1989 -2037 0
-1987 1989 2037 0
1987 -1989 2037 0
-1988 -1990 -2039 0
1988 1990 -2039 0
1988 -1990 2039 0
-1988 1990 2039 0
-1991 -1992 -2041 0
1991 1992 -2041 0
-1991 1992 2041 0
1991 -1992 2041 0
-1993 -1994 -2043 0
1993 1994 -2043 0
-1993 1994 2043 0
1993 -1994 2043 0
-1995 -1997 -2045 0
1995 1997 -2045 0
-1995 1997 2045 0
1995 -1997 2045 0
-1999 -2000 -2047 0
1999 2000 -2047 0
-1999 2000 2047 0
1999 -2000 2047 0
-2001 -2003 -2049 0
2001 2003 -2049 0
-2001 2003 2049 0
2001 -2003 2049 0
-2005 -2007 -2051 0
2005 2007 -2051 0
-2005 2007 2051 0
2005 -2007 2051 0
-2009 -2011 -2053 0
2009 2011 -2053 0
-2009 2011 2053 0
2009 -2011 2053 0
-2013 -2015 -2055 0
2013 2015 -2055 0
-2013 2015 2055 0
2013 -2015 2055 0
-2017 -2019 -2057 0
2017 2019 -2057 0
-2017 2019 2057 0
2017 -2019 2057 0
-2021 -2023 -2059 0
2021 2023 -2059 0
-2021 2023 2059 0
2021 -2023 2059 0
-2025 -2027 -2061 0
2025 2027 -2061 0
-2025 2027 2061 0
2025 -2027 2061 0
-2029 -2031 -2063 0
2029 2031 -2063 0
-2029 2031 2063 0
2029 -2031 2063 0
-2033 -2035 -2065 0
2033 2035 -2065 0
-2033 2035 2065 0
2033 -2035 2065 0
-2037 -2039 -2067 0
2037 2039 -2067 0
-2037 2039 2067 0
2037 -2039 2067 0
-2041 -2043 -2069 0
2041 2043 -2069 0
-2041 2043 2069 0
2041 -2043 2069 0
-2045 -2047 -2071 0
2045 2047 -2071 0
-2045 2047 2071 0
2045 -2047 2071 0
-2049 -2051 -2073 0
2049 2051 -2073 0
-2049 2051 2073 0
2049 -2051 2073 0
-2053 -2055 -2075 0
2053 2055 -2075 0
-2053 2055 2075 0
2053 -2055 2075 0
-2057 -2059 -2077 0
2057 2059 -2077 0
-2057 2059 2077 0
2057 -2059 2077 0
-2061 -2063 -2079 0
2061 2063 -2079 0
-2061 2063 2079 0
2061 -2063 2079 0
-2065 -2067 -2081 0
2065 2067 -2081 0
-2065 2067 2081 0
2065 -2067 2081 0
-2069 -2071 -2083 0
2069 2071 -2083 0
-2069 2071 2083 0
2069 -2071 2083 0
-2073 -2075 -2085 0
2073 2075 -2085 0
-2073 2075 2085 0
2073 -2075 2085 0
-2077 -2079 -2087 0
2077 2079 -2087 0
-2077 2079 2087 0
2077 -2079 2087 0
-2081 -2083 -2089 0
2081 2083 -2089 0
-2081 2083 2089 0
2081 -2083 2089 0
-2085 -2087 -2089 0
2085 2087 -2089 0
-2085 2087 2089 0
2085 -2087 2089 0
-1996 -1998 -2138 0
1996 1998 -2138 0
-1996 1998 2138 0
1996 -1998 2138 0
-2002 -2004 -2093 0
2002 2004 -2093 0
-2002 2004 2093 0
2002 -2004 2093 0
-2006 -2008 -2095 0
2006 2008 -2095 0
-2006 2008 2095 0
2006 -2008 2095 0
-2010 -2012 -2097 0
2010 2012 -2097 0
-2010 2012 2097 0
2010 -2012 2097 0
-2014 -2016 -2099 0
2014 2016 -2099 0
-2014 2016 2099 0
2014 -2016 2099 0
-2018 -2020 -2101 0
2018 2020 -2101 0
-2018 2020 2101 0
2018 -2020 2101 0
-2022 -2024 -2103 0
2022 2024 -2103 0
-2022 2024 2103 0
2022 -2024 2103 0
-2026 -2028 -2105 0
2026 2028 -2105 0
-2026 2028 2105 0
2026 -2028 2105 0
-2030 -2032 -2107 0
2030 2032 -2107 0
-2030 2032 2107 0
2030 -2032 2107 0
-2034 -2036 -2109 0
2034 2036 -2109 0
-2034 2036 2109 0
2034 -2036 2109 0
-2038 -2040 -2111 0
2038 2040 -2111 0
-2038 2040 2111 0
2038 -2040 2111 0
-2042 -2044 -2113 0
2042 2044 -2113 0
-2042 2044 2113 0
2042 -2044 2113 0
-2046 -2048 -2115 0
2046 2048 -2115 0
-2046 2048 2115 0
2046 -2048 2115 0
-2050 -2052 -2117 0
2050 2052 -2117 0
-2050 2052 2117 0
2050 -2052 2117 0
-2054 -2056 -2119 0
2054 2056 -2119 0
-2054 2056 2119 0
2054 -2056 2119 0
-2058 -2060 -2121 0
2058 2060 -2121 0
-2058 2060 2121 0
2058 -2060 2121 0
-2062 -2064 -2123 0
2062 2064 -2123 0
-2062 2064 2123 0
2062 -2064 2123 0
-2066 -2068 -2125 0
2066 2068 -2125 0
-2066 2068 2125 0
2066 -2068 2125 0
-2070 -2072 -2127 0
2070 2072 -2127 0
-2070 2072 2127 0
2070 -2072 2127 0
-2074 -2076 -2129 0
2074 2076 -2129 0
-2074 2076 2129 0
2074 -2076 2129 0
-2078 -2080 -2131 0
2078 2080 -2131 0
-2078 2080 2131 0
2078 -2080 2131 0
-2082 -2084 -2133 0
2082 2084 -2133 0
-2082 2084 2133 0
2082 -2084 2133 0
-2086 -2088 -2135 0
2086 2088 -2135 0
-2086 2088 2135 0
2086 -2088 2135 0
-2090 -2091 -2137 0
2090 2091 -2137 0
-2090 2091 2137 0
2090 -2091 2137 0
-2092 -2093 -2139 0
2092 2093 -2139 0
-2092 2093 2139 0
2092 -2093 2139 0
-2095 -2097 -2140 0
2095 2097 -2140 0
-2095 2097 2140 0
2095 -2097 2140 0
-2099 -2101 -2142 0
2099 2101 -2142 0
-2099 2101 2142 0
2099 -2101 2142 0
-2103 -2105 -2144 0
2103 2105 -2144 0
-2103 2105 2144 0
2103 -2105 2144 0
-2107 -2109 -2146 0
2107 2109 -2146 0
-2107 2109 2146 0
2107 -2109 2146 0
-2111 -2113 -2148 0
2111 2113 -2148 0
-2111 2113 2148 0
2111 -2113 2148 0
-2115 -2117 -2150 0
2115 2117 -2150 0
-2115 2117 2150 0
2115 -2117 2150 0
-2119 -2121 -2152 0
2119 2121 -2152 0
-2119 2121 2152 0
2119 -2121 2152 0
-2123 -2125 -2154 0
2123 2125 -2154 0
-2123 2125 2154 0
2123 -2125 2154 0
-2127 -2129 -2156 0
2127 2129 -2156 0
-2127 2129 2156 0
2127 -2129 2156 0
-2131 -2133 -2158 0
2131 2133 -2158 0
-2131 2133 2158 0
2131 -2133 2158 0
-2135 -2137 -2160 0
2135 2137 -2160 0
-2135 2137 2160 0
2135 -2137 2160 0
-2089 -2138 -2162 0
2089 2138 -2162 0
-2089 2138 2162 0
2089 -2138 2162 0
-2139 -2140 -2164 0
2139 2140 -2164 0
-2139 2140 2164 0
2139 -2140 2164 0
-2142 -2144 -2166 0
2142 2144 -2166 0
-2142 2144 2166 0
2142 -2144 2166 0
-2146 -2148 -2168 0
2146 2148 -2168 0
-2146 2148 2168 0
2146 -2148 2168 0
-2150 -2152 -2170 0
2150 2152 -2170 0
-2150 2152 2170 0
2150 -2152 2170 0
-2154 -2156 -2172 0
2154 2156 -2172 0
-2154 2156 2172 0
2154 -2156 2172 0
-2158 -2160 -2174 0
2158 2160 -2174 0
-2158 2160 2174 0
2158 -2160 2174 0
-2162 -2164 -2176 0
2162 2164 -2176 0
-2162 2164 2176 0
2162 -2164 2176 0
-2166 -2168 -2178 0
2166 2168 -2178 0
-2166 2168 2178 0
2166 -2168 2178 0
-2170 -2172 -2180 0
2170 2172 -2180 0
-2170 2172 2180 0
2170 -2172 2180 0
-2174 -2176 -2182 0
2174 2176 -2182 0
-2174 2176 2182 0
2174 -2176 2182 0
-2178 -2180 -2182 0
2178 2180 -2182 0
-2178 2180 2182 0
2178 -2180 2182 0
-2094 -2096 -2186 0
2094 2096 -2186 0
-2094 2096 2186 0
2094 -2096 2186 0
-2098 -2100 -2188 0
2098 2100 -2188 0
-2098 2100 2188 0
2098 -2100 2188 0
-2102 -2104 -2190 0
2102 2104 -2190 0
-2102 2104 2190 0
2102 -2104 2190 0
-2106 -2108 -2192 0
2106 2108 -2192 0
-2106 2108 2192 0
2106 -2108 2192 0
-2110 -2112 -2194 0
2110 2112 -2194 0
-2110 2112 2194 0
2110 -2112 2194 0
-2114 -2116 -2196 0
2114 2116 -2196 0
-2114 2116 2196 0
2114 -2116 2196 0
-2118 -2120 -2198 0
2118 2120 -2198 0
-2118 2120 2198 0
2118 -2120 2198 0
-2122 -2124 -2200 0
2122 2124 -2200 0
-2122 2124 2200 0
2122 -2124 2200 0
-2126 -2128 -2202 0
2126 2128 -2202 0
-2126 2128 2202 0
2126 -2128 2202 0
-2130 -2132 -2204 0
2130 2132 -2204 0
-2130 2132 2204 0
2130 -2132 2204 0
-2134 -2136 -2206 0
2134 2136 -2206 0
-2134 2136 2206 0
2134 -2136 2206 0
-2141 -2143 -2209 0
2141 2143 -2209 0
-2141 2143 2209 0
2141 -2143 2209 0
-2145 -2147 -2210 0
2145 2147 -2210 0
-2145 2147 2210 0
2145 -2147 2210 0
-2149 -2151 -2212 0
2149 2151 -2212 0
-2149 2151 2212 0
2149 -2151 2212 0
-2153 -2155 -2214 0
2153 2155 -2214 0
-2153 2155 2214 0
2153 -2155 2214 0
-2157 -2159 -2216 0
2157 2159 -2216 0
-2157 2159 2216 0
2157 -2159 2216 0
-2161 -2163 -2218 0
2161 2163 -2218 0
-2161 2163 2218 0
2161 -2163 2218 0
-2165 -2167 -2220 0
2165 2167 -2220 0
-2165 2167 2220 0
2165 -2167 2220 0
-2169 -2171 -2222 0
2169 2171 -2222 0
-2169 2171 2222 0
2169 -2171 2222 0
-2173 -2175 -2224 0
2173 2175 -2224 0
-2173 2175 2224 0
2173 -2175 2224 0
-2177 -2179 -2226 0
2177 2179 -2226 0
-2177 2179 2226 0
2177 -2179 2226 0
-2181 -2183 -2228 0
2181 2183 -2228 0
-2181 2183 2228 0
2181 -2183 2228 0
-2182 -2184 -2230 0
2182 2184 -2230 0
2182 -2184 2230 0
-2182 2184 2230 0
-2186 -2188 -2231 0
2186 2188 -2231 0
-2186 2188 2231 0
2186 -2188 2231 0
-2190 -2192 -2233 0
2190 2192 -2233 0
-2190 2192 2233 0
2190 -2192 2233 0
-2194 -2196 -2235 0
2194 2196 -2235 0
-2194 2196 2235 0
2194 -2196 2235 0
-2198 -2200 -2237 0
2198 2200 -2237 0
-2198 2200 2237 0
2198 -2200 2237 0
-2202 -2204 -2239 0
2202 2204 -2239 0
-2202 2204 2239 0
2202 -2204 2239 0
-2206 -2207 -2241 0
2206 2207 -2241 0
-2206 2207 2241 0
2206 -2207 2241 0
-2208 -2209 -2243 0
2208 2209 -2243 0
-2208 2209 2243 0
2208 -2209 2243 0
-2210 -2212 -2245 0
2210 2212 -2245 0
-2210 2212 2245 0
2210 -2212 2245 0
-2214 -2216 -2247 0
2214 2216 -2247 0
-2214 2216 2247 0
2214 -2216 2247 0
-2218 -2220 -2249 0
2218 2220 -2249 0
-2218 2220 2249 0
2218 -2220 2249 0
-2222 -2224 -2251 0
2222 2224 -2251 0
-2222 2224 2251 0
2222 -2224 2251 0
-2226 -2228 -2253 0
2226 2228 -2253 0
-2226 2228 2253 0
2226 -2228 2253 0
-2185 -2230 -2255 0
2185 2230 -2255 0
2185 -2230 2255 0
-2185 2230 2255 0
-2231 -2233 -2257 0
2231 2233 -2257 0
-2231 2233 2257 0
2231 -2233 2257 0
-2235 -2237 -2259 0
2235 2237 -2259 0
-2235 2237 2259 0
2235 -2237 2259 0
-2239 -2241 -2261 0
2239 2241 -2261 0
-2239 2241 2261 0
2239 -2241 2261 0
-2243 -2245 -2263 0
2243 2245 -2263 0
-2243 2245 2263 0
2243 -2245 2263 0
-2247 -2249 -2265 0
2247 2249 -2265 0
-2247 2249 2265 0
2247 -2249 2265 0
-2251 -2253 -2267 0
2251 2253 -2267 0
-2251 2253 2267 0
2251 -2253 2267 0
-2255 -2257 -2269 0
2255 2257 -2269 0
-2255 2257 2269 0
2255 -2257 2269 0
-2259 -2261 -2271 0
2259 2261 -2271 0
-2259 2261 2271 0
2259 -2261 2271 0
-2263 -2265 -2273 0
2263 2265 -2273 0
-2263 2265 2273 0
2263 -2265 2273 0
-2267 -2269 -2275 0
2267 2269 -2275 0
-2267 2269 2275 0
2267 -2269 2275 0
-2271 -2273 -2275 0
2271 2273 -2275 0
-2271 2273 2275 0
2271 -2273 2275 0
-2187 -2189 -2278 0
2187 2189 -2278 0
-2187 2189 2278 0
2187 -2189 2278 0
-2191 -2193 -2279 0
2191 2193 -2279 0
-2191 2193 2279 0
2191 -2193 2279 0
-2195 -2197 -2281 0
2195 2197 -2281 0
-2195 2197 2281 0
2195 -2197 2281 0
-2199 -2201 -2283 0
2199 2201 -2283 0
-2199 2201 2283 0
2199 -2201 2283 0
-2203 -2205 -2285 0
2203 2205 -2285 0
-2203 2205 2285 0
2203 -2205 2285 0
-2211 -2213 -2289 0
2211 2213 -2289 0
-2211 2213 2289 0
2211 -2213 2289 0
-2215 -2217 -2291 0
2215 2217 -2291 0
-2215 2217 2291 0
2215 -2217 2291 0
-2219 -2221 -2293 0
2219 2221 -2293 0
-2219 2221 2293 0
2219 -2221 2293 0
-2223 -2225 -2295 0
2223 2225 -2295 0
-2223 2225 2295 0
2223 -2225 2295 0
-2227 -2229 -2297 0
2227 2229 -2297 0
-2227 2229 2297 0
2227 -2229 2297 0
-2232 -2234 -2299 0
2232 2234 -2299 0
-2232 2234 2299 0
2232 -2234 2299 0
-2236 -2238 -2301 0
2236 2238 -2301 0
-2236 2238 2301 0
2236 -2238 2301 0
-2240 -2242 -2303 0
2240 2242 -2303 0
-2240 2242 2303 0
2240 -2242 2303 0
-2244 -2246 -2305 0
2244 2246 -2305 0
-2244 2246 2305 0
2244 -2246 2305 0
-2248 -2250 -2307 0
2248 2250 -2307 0
-2248 2250 2307 0
2248 -2250 2307 0
-2252 -2254 -2309 0
2252 2254 -2309 0
-2252 2254 2309 0
2252 -2254 2309 0
-2256 -2258 -2311 0
2256 2258 -2311 0
-2256 2258 2311 0
2256 -2258 2311 0
-2260 -2262 -2313 0
2260 2262 -2313 0
-2260 2262 2313 0
2260 -2262 2313 0
-2264 -2266 -2315 0
2264 2266 -2315 0
-2264 2266 2315 0
2264 -2266 2315 0
-2268 -2270 -2317 0
2268 2270 -2317 0
-2268 2270 2317 0
2268 -2270 2317 0
-2272 -2274 -2319 0
2272 2274 -2319 0
-2272 2274 2319 0
2272 -2274 2319 0
-2276 -2277 -2321 0
2276 2277 -2321 0
-2276 2277 2321 0
2276 -2277 2321 0
-2278 -2279 -2323 0
2278 2279 -2323 0
-2278 2279 2323 0
2278 -2279 2323 0
-2281 -2283 -2324 0
2281 2283 -2324 0
-2281 2283 2324 0
2281 -2283 2324 0
-2285 -2287 -2326 0
2285 2287 -2326 0
-2285 2287 2326 0
2285 -2287 2326 0
-2288 -2289 -2328 0
2288 2289 -2328 0
-2288 2289 2328 0
2288 -2289 2328 0
-2291 -2293 -2330 0
2291 2293 -2330 0
-2291 2293 2330 0
2291 -2293 2330 0
-2295 -2297 -2332 0
2295 2297 -2332 0
-2295 2297 2332 0
2295 -2297 2332 0
-2298 -2299 -2334 0
2298 2299 -2334 0
-2298 2299 2334 0
2298 -2299 2334 0
-2301 -2303 -2336 0
2301 2303 -2336 0
-2301 2303 2336 0
2301 -2303 2336 0
-2305 -2307 -2338 0
2305 2307 -2338 0
-2305 2307 2338 0
2305 -2307 2338 0
-2309 -2311 -2340 0
2309 2311 -2340 0
-2309 2311 2340 0
2309 -2311 2340 0
-2313 -2315 -2342 0
2313 2315 -2342 0
-2313 2315 2342 0
2313 -2315 2342 0
-2317 -2319 -2344 0
2317 2319 -2344 0
-2317 2319 2344 0
2317 -2319 2344 0
-2275 -2321 -2346 0
2275 2321 -2346 0
2275 -2321 2346 0
-2275 2321 2346 0
-2323 -2324 -2348 0
2323 2324 -2348 0
-2323 2324 2348 0
2323 -2324 2348 0
-2326 -2328 -2350 0
2326 2328 -2350 0
-2326 2328 2350 0
2326 -2328 2350 0
-2330 -2332 -2352 0
2330 2332 -2352 0
-2330 2332 2352 0
2330 -2332 2352 0
-2334 -2336 -2354 0
2334 2336 -2354 0
-2334 2336 2354 0
2334 -2336 2354 0
-2338 -2340 -2356 0
2338 2340 -2356 0
-2338 2340 2356 0
2338 -2340 2356 0
-2342 -2344 -2358 0
2342 2344 -2358 0
-2342 2344 2358 0
2342 -2344 2358 0
-2346 -2348 -2360 0
2346 2348 -2360 0
-2346 2348 2360 0
2346 -2348 2360 0
-2350 -2352 -2362 0
2350 2352 -2362 0
-2350 2352 2362 0
2350 -2352 2362 0
-2354 -2356 -2364 0
2354 2356 -2364 0
-2354 2356 2364 0
2354 -2356 2364 0
-2358 -2360 -2366 0
2358 2360 -2366 0
-2358 2360 2366 0
2358 -2360 2366 0
-2362 -2364 -2366 0
2362 2364 -2366 0
-2362 2364 2366 0
2362 -2364 2366 0
-2280 -2282 -2370 0
2280 2282 -2370 0
-2280 2282 2370 0
2280 -2282 2370 0
-2284 -2286 -2412 0
2284 2286 -2412 0
-2284 2286 2412 0
2284 -2286 2412 0
-2290 -2292 -2371 0
2290 2292 -2371 0
-2290 2292 2371 0
2290 -2292 2371 0
-2294 -2296 -2373 0
2294 2296 -2373 0
-2294 2296 2373 0
2294 -2296 2373 0
-2300 -2302 -2376 0
2300 2302 -2376 0
-2300 2302 2376 0
2300 -2302 2376 0
-2304 -2306 -2377 0
2304 2306 -2377 0
-2304 2306 2377 0
2304 -2306 2377 0
-2308 -2310 -2379 0
2308 2310 -2379 0
-2308 2310 2379 0
2308 -2310 2379 0
-2312 -2314 -2381 0
2312 2314 -2381 0
-2312 2314 2381 0
2312 -2314 2381 0
-2316 -2318 -2383 0
2316 2318 -2383 0
-2316 2318 2383 0
2316 -2318 2383 0
-2320 -2322 -2385 0
2320 2322 -2385 0
-2320 2322 2385 0
2320 -2322 2385 0
-2325 -2327 -2387 0
2325 2327 -2387 0
-2325 2327 2387 0
2325 -2327 2387 0
-2329 -2331 -2389 0
2329 2331 -2389 0
-2329 2331 2389 0
2329 -2331 2389 0
-2333 -2335 -2391 0
2333 2335 -2391 0
-2333 2335 2391 0
2333 -2335 2391 0
-2337 -2339 -2393 0
2337 2339 -2393 0
-2337 2339 2393 0
2337 -2339 2393 0
-2341 -2343 -2395 0
2341 2343 -2395 0
-2341 2343 2395 0
2341 -2343 2395 0
-2345 -2347 -2397 0
2345 2347 -2397 0
-2345 2347 2397 0
2345 -2347 2397 0
-2349 -2351 -2399 0
2349 2351 -2399 0
-2349 2351 2399 0
2349 -2351 2399 0
-2353 -2355 -2401 0
2353 2355 -2401 0
-2353 2355 2401 0
2353 -2355 2401 0
-2357 -2359 -2403 0
2357 2359 -2403 0
-2357 2359 2403 0
2357 -2359 2403 0
-2361 -2363 -2405 0
2361 2363 -2405 0
-2361 2363 2405 0
2361 -2363 2405 0
-2365 -2367 -2407 0
2365 2367 -2407 0
-2365 2367 2407 0
2365 -2367 2407 0
-2366 -2368 -2409 0
2366 2368 -2409 0
2366 -2368 2409 0
-2366 2368 2409 0
-2369 -2370 -2411 0
2369 2370 -2411 0
-2369 2370 2411 0
2369 -2370 2411 0
-2371 -2373 -2413 0
2371 2373 -2413 0
-2371 2373 2413 0
2371 -2373 2413 0
-2375 -2376 -2415 0
2375 2376 -2415 0
-2375 2376 2415 0
2375 -2376 2415 0
-2377 -2379 -2417 0
2377 2379 -2417 0
-2377 2379 2417 0
2377 -2379 2417 0
-2381 -2383 -2419 0
2381 2383 -2419 0
-2381 2383 2419 0
2381 -2383 2419 0
-2385 -2386 -2421 0
2385 2386 -2421 0
-2385 2386 2421 0
2385 -2386 2421 0
-2387 -2389 -2423 0
2387 2389 -2423 0
-2387 2389 2423 0
2387 -2389 2423 0
-2391 -2393 -2425 0
2391 2393 -2425 0
-2391 2393 2425 0
2391 -2393 2425 0
-2395 -2397 -2427 0
2395 2397 -2427 0
-2395 2397 2427 0
2395 -2397 2427 0
-2399 -2401 -2429 0
2399 2401 -2429 0
-2399 2401 2429 0
2399 -2401 2429 0
-2403 -2405 -2431 0
2403 2405 -2431 0
-2403 2405 2431 0
2403 -2405 2431 0
-2407 -2409 -2433 0
2407 2409 -2433 0
-2407 2409 2433 0
2407 -2409 2433 0
-2411 -2412 -2435 0
2411 2412 -2435 0
-2411 2412 2435 0
2411 -2412 2435 0
-2413 -2415 -2437 0
2413 2415 -2437 0
-2413 2415 2437 0
2413 -2415 2437 0
-2417 -2419 -2439 0
2417 2419 -2439 0
-2417 2419 2439 0
2417 -2419 2439 0
-2421 -2423 -2441 0
2421 2423 -2441 0
-2421 2423 2441 0
2421 -2423 2441 0
-2425 -2427 -2443 0
2425 2427 -2443 0
-2425 2427 2443 0
2425 -2427 2443 0
-2429 -2431 -2445 0
2429 2431 -2445 0
-2429 2431 2445 0
2429 -2431 2445 0
-2433 -2435 -2447 0
2433 2435 -2447 0
-2433 2435 2447 0
2433 -2435 2447 0
-2437 -2439 -2449 0
2437 2439 -2449 0
-2437 2439 2449 0
2437 -2439 2449 0
-2441 -2443 -2451 0
2441 2443 -2451 0
-2441 2443 2451 0
2441 -2443 2451 0
-2445 -2447 -2453 0
2445 2447 -2453 0
-2445 2447 2453 0
2445 -2447 2453 0
-2449 -2451 -2453 0
2449 2451 -2453 0
-2449 2451 2453 0
2449 -2451 2453 0
-2372 -2374 -2458 0
2372 2374 -2458 0
-2372 2374 2458 0
2372 -2374 2458 0
-2378 -2380 -2460 0
2378 2380 -2460 0
-2378 2380 2460 0
2378 -2380 2460 0
-2382 -2384 -2462 0
2382 2384 -2462 0
-2382 2384 2462 0
2382 -2384 2462 0
-2388 -2390 -2465 0
2388 2390 -2465 0
-2388 2390 2465 0
2388 -2390 2465 0
-2392 -2394 -2466 0
2392 2394 -2466 0
-2392 2394 2466 0
2392 -2394 2466 0
-2396 -2398 -2468 0
2396 2398 -2468 0
-2396 2398 2468 0
2396 -2398 2468 0
-2400 -2402 -2470 0
2400 2402 -2470 0
-2400 2402 2470 0
2400 -2402 2470 0
-2404 -2406 -2472 0
2404 2406 -2472 0
-2404 2406 2472 0
2404 -2406 2472 0
-2408 -2410 -2474 0
2408 2410 -2474 0
-2408 2410 2474 0
2408 -2410 2474 0
-2414 -2416 -2476 0
2414 2416 -2476 0
-2414 2416 2476 0
2414 -2416 2476 0
-2418 -2420 -2478 0
2418 2420 -2478 0
-2418 2420 2478 0
2418 -2420 2478 0
-2422 -2424 -2480 0
2422 2424 -2480 0
-2422 2424 2480 0
2422 -2424 2480 0
-2426 -2428 -2482 0
2426 2428 -2482 0
-2426 2428 2482 0
2426 -2428 2482 0
-2430 -2432 -2484 0
2430 2432 -2484 0
-2430 2432 2484 0
2430 -2432 2484 0
-2434 -2436 -2486 0
2434 2436 -2486 0
-2434 2436 2486 0
2434 -2436 2486 0
-2438 -2440 -2488 0
2438 2440 -2488 0
-2438 2440 2488 0
2438 -2440 2488 0
-2442 -2444 -2490 0
2442 2444 -2490 0
-2442 2444 2490 0
2442 -2444 2490 0
-2446 -2448 -2492 0
2446 2448 -2492 0
-2446 2448 2492 0
2446 -2448 2492 0
-2450 -2452 -2494 0
2450 2452 -2494 0
-2450 2452 2494 0
2450 -2452 2494 0
-2454 -2455 -2496 0
2454 2455 -2496 0
-2454 2455 2496 0
2454 -2455 2496 0
-2453 -2456 -2498 0
2453 2456 -2498 0
-2453 2456 2498 0
2453 -2456 2498 0
-2457 -2458 -2500 0
2457 2458 -2500 0
-2457 2458 2500 0
2457 -2458 2500 0
-2459 -2460 -2502 0
2459 2460 -2502 0
-2459 2460 2502 0
2459 -2460 2502 0
-2462 -2464 -2504 0
2462 2464 -2504 0
-2462 2464 2504 0
2462 -2464 2504 0
-2465 -2466 -2506 0
2465 2466 -2506 0
-2465 2466 2506 0
2465 -2466 2506 0
-2468 -2470 -2508 0
2468 2470 -2508 0
-2468 2470 2508 0
2468 -2470 2508 0
-2472 -2474 -2510 0
2472 2474 -2510 0
-2472 2474 2510 0
2472 -2474 2510 0
-2475 -2476 -2512 0
2475 2476 -2512 0
-2475 2476 2512 0
2475 -2476 2512 0
-2478 -2480 -2514 0
2478 2480 -2514 0
-2478 2480 2514 0
2478 -2480 2514 0
-2482 -2484 -2516 0
2482 2484 -2516 0
-2482 2484 2516 0
2482 -2484 2516 0
-2486 -2488 -2518 0
2486 2488 -2518 0
-2486 2488 2518 0
2486 -2488 2518 0
-2490 -2492 -2520 0
2490 2492 -2520 0
-2490 2492 2520 0
2490 -2492 2520 0
-2494 -2496 -2522 0
2494 2496 -2522 0
-2494 2496 2522 0
2494 -2496 2522 0
-2498 -2500 -2524 0
2498 2500 -2524 0
-2498 2500 2524 0
2498 -2500 2524 0
-2502 -2504 -2526 0
2502 2504 -2526 0
-2502 2504 2526 0
2502 -2504 2526 0
-2506 -2508 -2528 0
2506 2508 -2528 0
-2506 2508 2528 0
2506 -2508 2528 0
-2510 -2512 -2530 0
2510 2512 -2530 0
-2510 2512 2530 0
2510 -2512 2530 0
-2514 -2516 -2532 0
2514 2516 -2532 0
-2514 2516 2532 0
2514 -2516 2532 0
-2518 -2520 -2534 0
2518 2520 -2534 0
-2518 2520 2534 0
2518 -2520 2534 0
-2522 -2524 -2536 0
2522 2524 -2536 0
-2522 2524 2536 0
2522 -2524 2536 0
-2526 -2528 -2538 0
2526 2528 -2538 0
-2526 2528 2538 0
2526 -2528 2538 0
-2530 -2532 -2540 0
2530 2532 -2540 0
-2530 2532 2540 0
2530 -2532 2540 0
-2534 -2536 -2542 0
2534 2536 -2542 0
-2534 2536 2542 0
2534 -2536 2542 0
-2538 -2540 -2542 0
2538 2540 -2542 0
-2538 2540 2542 0
2538 -2540 2542 0
-2461 -2463 -2546 0
2461 2463 -2546 0
-2461 2463 2546 0
2461 -2463 2546 0
-2467 -2469 -2548 0
2467 2469 -2548 0
-2467 2469 2548 0
2467 -2469 2548 0
-2471 -2473 -2550 0
2471 2473 -2550 0
-2471 2473 2550 0
2471 -2473 2550 0
-2477 -2479 -2553 0
2477 2479 -2553 0
-2477 2479 2553 0
2477 -2479 2553 0
-2481 -2483 -2554 0
2481 2483 -2554 0
-2481 2483 2554 0
2481 -2483 2554 0
-2485 -2487 -2556 0
2485 2487 -2556 0
-2485 2487 2556 0
2485 -2487 2556 0
-2489 -2491 -2558 0
2489 2491 -2558 0
-2489 2491 2558 0
2489 -2491 2558 0
-2493 -2495 -2560 0
2493 2495 -2560 0
-2493 2495 2560 0
2493 -2495 2560 0
-2497 -2499 -2562 0
2497 2499 -2562 0
-2497 2499 2562 0
2497 -2499 2562 0
-2501 -2503 -2564 0
2501 2503 -2564 0
-2501 2503 2564 0
2501 -2503 2564 0
-2505 -2507 -2566 0
2505 2507 -2566 0
-2505 2507 2566 0
2505 -2507 2566 0
-2509 -2511 -2568 0
2509 2511 -2568 0
-2509 2511 2568 0
2509 -2511 2568 0
-2513 -2515 -2570 0
2513 2515 -2570 0
-2513 2515 2570 0
2513 -2515 2570 0
-2517 -2519 -2572 0
2517 2519 -2572 0
-2517 2519 2572 0
2517 -2519 2572 0
-2521 -2523 -2574 0
2521 2523 -2574 0
-2521 2523 2574 0
2521 -2523 2574 0
-2525 -2527 -2576 0
2525 2527 -2576 0
-2525 2527 2576 0
2525 -2527 2576 0
-2529 -2531 -2578 0
2529 2531 -2578 0
-2529 2531 2578 0
2529 -2531 2578 0
-2533 -2535 -2580 0
2533 2535 -2580 0
-2533 2535 2580 0
2533 -2535 2580 0
-2537 -2539 -2582 0
2537 2539 -2582 0
-2537 2539 2582 0
2537 -2539 2582 0
-2541 -2543 -2584 0
2541 2543 -2584 0
-2541 2543 2584 0
2541 -2543 2584 0
-2542 -2544 -2586 0
2542 2544 -2586 0
2542 -2544 2586 0
-2542 2544 2586 0
-2546 -2547 -2587 0
2546 2547 -2587 0
-2546 2547 2587 0
2546 -2547 2587 0
-2548 -2550 -2589 0
2548 2550 -2589 0
-2548 2550 2589 0
2548 -2550 2589 0
-2552 -2553 -2591 0
2552 2553 -2591 0
-2552 2553 2591 0
2552 -2553 2591 0
-2554 -2556 -2593 0
2554 2556 -2593 0
-2554 2556 2593 0
2554 -2556 2593 0
-2558 -2560 -2595 0
2558 2560 -2595 0
-2558 2560 2595 0
2558 -2560 2595 0
-2562 -2564 -2597 0
2562 2564 -2597 0
-2562 2564 2597 0
2562 -2564 2597 0
-2566 -2568 -2599 0
2566 2568 -2599 0
-2566 2568 2599 0
2566 -2568 2599 0
-2570 -2572 -2601 0
2570 2572 -2601 0
-2570 2572 2601 0
2570 -2572 2601 0
-2574 -2576 -2603 0
2574 2576 -2603 0
-2574 2576 2603 0
2574 -2576 2603 0
-2578 -2580 -2605 0
2578 2580 -2605 0
-2578 2580 2605 0
2578 -2580 2605 0
-2582 -2584 -2607 0
2582 2584 -2607 0
-2582 2584 2607 0
2582 -2584 2607 0
-2545 -2586 -2609 0
2545 2586 -2609 0
2545 -2586 2609 0
-2545 2586 2609 0
-2587 -2589 -2611 0
2587 2589 -2611 0
-2587 2589 2611 0
2587 -2589 2611 0
-2591 -2593 -2613 0
2591 2593 -2613 0
-2591 2593 2613 0
2591 -2593 2613 0
-2595 -2597 -2615 0
2595 2597 -2615 0
-2595 2597 2615 0
2595 -2597 2615 0
-2599 -2601 -2617 0
2599 2601 -2617 0
-2599 2601 2617 0
2599 -2601 2617 0
-2603 -2605 -2619 0
2603 2605 -2619 0
-2603 2605 2619 0
2603 -2605 2619 0
-2607 -2609 -2621 0
2607 2609 -2621 0
-2607 2609 2621 0
2607 -2609 2621 0
-2611 -2613 -2623 0
2611 2613 -2623 0
-2611 2613 2623 0
2611 -2613 2623 0
-2615 -2617 -2625 0
2615 2617 -2625 0
-2615 2617 2625 0
2615 -2617 2625 0
-2619 -2621 -2627 0
2619 2621 -2627 0
-2619 2621 2627 0
2619 -2621 2627 0
-2623 -2625 -2627 0
2623 2625 -2627 0
-2623 2625 2627 0
2623 -2625 2627 0
-2549 -2551 -2631 0
2549 2551 -2631 0
-2549 2551 2631 0
2549 -2551 2631 0
-2555 -2557 -2633 0
2555 2557 -2633 0
-2555 2557 2633 0
2555 -2557 2633 0
-2559 -2561 -2635 0
2559 2561 -2635 0
-2559 2561 2635 0
2559 -2561 2635 0
-2563 -2565 -2637 0
2563 2565 -2637 0
-2563 2565 2637 0
2563 -2565 2637 0
-2567 -2569 -2639 0
2567 2569 -2639 0
-2567 2569 2639 0
2567 -2569 2639 0
-2571 -2573 -2641 0
2571 2573 -2641 0
-2571 2573 2641 0
2571 -2573 2641 0
-2575 -2577 -2643 0
2575 2577 -2643 0
-2575 2577 2643 0
2575 -2577 2643 0
-2579 -2581 -2645 0
2579 2581 -2645 0
-2579 2581 2645 0
2579 -2581 2645 0
-2583 -2585 -2647 0
2583 2585 -2647 0
-2583 2585 2647 0
2583 -2585 2647 0
-2588 -2590 -2650 0
2588 2590 -2650 0
-2588 2590 2650 0
2588 -2590 2650 0
-2592 -2594 -2651 0
2592 2594 -2651 0
-2592 2594 2651 0
2592 -2594 2651 0
-2596 -2598 -2653 0
2596 2598 -2653 0
-2596 2598 2653 0
2596 -2598 2653 0
-2600 -2602 -2655 0
2600 2602 -2655 0
-2600 2602 2655 0
2600 -2602 2655 0
-2604 -2606 -2657 0
2604 2606 -2657 0
-2604 2606 2657 0
2604 -2606 2657 0
-2608 -2610 -2659 0
2608 2610 -2659 0
-2608 2610 2659 0
2608 -2610 2659 0
-2612 -2614 -2661 0
2612 2614 -2661 0
-2612 2614 2661 0
2612 -2614 2661 0
-2616 -2618 -2663 0
2616 2618 -2663 0
-2616 2618 2663 0
2616 -2618 2663 0
-2620 -2622 -2665 0
2620 2622 -2665 0
-2620 2622 2665 0
2620 -2622 2665 0
-2624 -2626 -2667 0
2624 2626 -2667 0
-2624 2626 2667 0
2624 -2626 2667 0
-2628 -2629 -2669 0
2628 2629 -2669 0
-2628 2629 2669 0
2628 -2629 2669 0
-2630 -2631 -2671 0
2630 2631 -2671 0
-2630 2631 2671 0
2630 -2631 2671 0
-2632 -2633 -2672 0
2632 2633 -2672 0
-2632 2633 2672 0
2632 -2633 2672 0
-2635 -2637 -2674 0
2635 2637 -2674 0
-2635 2637 2674 0
2635 -2637 2674 0
-2639 -2641 -2676 0
2639 2641 -2676 0
-2639 2641 2676 0
2639 -2641 2676 0
-2643 -2645 -2678 0
2643 2645 -2678 0
-2643 2645 2678 0
2643 -2645 2678 0
-2647 -2649 -2680 0
2647 2649 -2680 0
-2647 2649 2680 0
2647 -2649 2680 0
-2650 -2651 -2682 0
2650 2651 -2682 0
-2650 2651 2682 0
2650 -2651 2682 0
-2653 -2655 -2684 0
2653 2655 -2684 0
-2653 2655 2684 0
2653 -2655 2684 0
-2657 -2659 -2686 0
2657 2659 -2686 0
-2657 2659 2686 0
2657 -2659 2686 0
-2661 -2663 -2688 0
2661 2663 -2688 0
-2661 2663 2688 0
2661 -2663 2688 0
-2665 -2667 -2690 0
2665 2667 -2690 0
-2665 2667 2690 0
2665 -2667 2690 0
-2627 -2669 -2692 0
2627 2669 -2692 0
2627 -2669 2692 0
-2627 2669 2692 0
-2671 -2672 -2694 0
2671 2672 -2694 0
-2671 2672 2694 0
2671 -2672 2694 0
-2674 -2676 -2696 0
2674 2676 -2696 0
-2674 2676 2696 0
2674 -2676 2696 0
-2678 -2680 -2698 0
2678 2680 -2698 0
-2678 2680 2698 0
2678 -2680 2698 0
-2682 -2684 -2700 0
2682 2684 -2700 0
-2682 2684 2700 0
2682 -2684 2700 0
-2686 -2688 -2702 0
2686 2688 -2702 0
-2686 2688 2702 0
2686 -2688 2702 0
-2690 -2692 -2704 0
2690 2692 -2704 0
-2690 2692 2704 0
2690 -2692 2704 0
-2694 -2696 -2706 0
2694 2696 -2706 0
-2694 2696 2706 0
2694 -2696 2706 0
-2698 -2700 -2708 0
2698 2700 -2708 0
-2698 2700 2708 0
2698 -2700 2708 0
-2702 -2704 -2710 0
2702 2704 -2710 0
-2702 2704 2710 0
2702 -2704 2710 0
-2706 -2708 -2710 0
2706 2708 -2710 0
-2706 2708 2710 0
2706 -2708 2710 0
-2634 -2636 -2713 0
2634 2636 -2713 0
-2634 2636 2713 0
2634 -2636 2713 0
-2638 -2640 -2715 0
2638 2640 -2715 0
-2638 2640 2715 0
2638 -2640 2715 0
-2642 -2644 -2717 0
2642 2644 -2717 0
-2642 2644 2717 0
2642 -2644 2717 0
-2646 -2648 -2719 0
2646 2648 -2719 0
-2646 2648 2719 0
2646 -2648 2719 0
-2652 -2654 -2722 0
2652 2654 -2722 0
-2652 2654 2722 0
2652 -2654 2722 0
-2656 -2658 -2723 0
2656 2658 -2723 0
-2656 2658 2723 0
2656 -2658 2723 0
-2660 -2662 -2725 0
2660 2662 -2725 0
-2660 2662 2725 0
2660 -2662 2725 0
-2664 -2666 -2727 0
2664 2666 -2727 0
-2664 2666 2727 0
2664 -2666 2727 0
-2668 -2670 -2729 0
2668 2670 -2729 0
-2668 2670 2729 0
2668 -2670 2729 0
-2673 -2675 -2732 0
2673 2675 -2732 0
-2673 2675 2732 0
2673 -2675 2732 0
-2677 -2679 -2733 0
2677 2679 -2733 0
-2677 2679 2733 0
2677 -2679 2733 0
-2681 -2683 -2735 0
2681 2683 -2735 0
-2681 2683 2735 0
2681 -2683 2735 0
-2685 -2687 -2737 0
2685 2687 -2737 0
-2685 2687 2737 0
2685 -2687 2737 0
-2689 -2691 -2739 0
2689 2691 -2739 0
-2689 2691 2739 0
2689 -2691 2739 0
-2693 -2695 -2741 0
2693 2695 -2741 0
-2693 2695 2741 0
2693 -2695 2741 0
-2697 -2699 -2743 0
2697 2699 -2743 0
-2697 2699 2743 0
2697 -2699 2743 0
-2701 -2703 -2745 0
2701 2703 -2745 0
-2701 2703 2745 0
2701 -2703 2745 0
-2705 -2707 -2747 0
2705 2707 -2747 0
-2705 2707 2747 0
2705 -2707 2747 0
-2709 -2711 -2749 0
2709 2711 -2749 0
-2709 2711 2749 0
2709 -2711 2749 0
-2710 -2712 -2751 0
2710 2712 -2751 0
2710 -2712 2751 0
-2710 2712 2751 0
-2713 -2715 -2754 0
2713 2715 -2754 0
-2713 2715 2754 0
2713 -2715 2754 0
-2717 -2719 -2755 0
2717 2719 -2755 0
-2717 2719 2755 0
2717 -2719 2755 0
-2721 -2722 -2757 0
2721 2722 -2757 0
-2721 2722 2757 0
2721 -2722 2757 0
-2723 -2725 -2759 0
2723 2725 -2759 0
-2723 2725 2759 0
2723 -2725 2759 0
-2727 -2729 -2761 0
2727 2729 -2761 0
-2727 2729 2761 0
2727 -2729 2761 0
-2731 -2732 -2763 0
2731 2732 -2763 0
-2731 2732 2763 0
2731 -2732 2763 0
-2733 -2735 -2765 0
2733 2735 -2765 0
-2733 2735 2765 0
2733 -2735 2765 0
-2737 -2739 -2767 0
2737 2739 -2767 0
-2737 2739 2767 0
2737 -2739 2767 0
-2741 -2743 -2769 0
2741 2743 -2769 0
-2741 2743 2769 0
2741 -2743 2769 0
-2745 -2747 -2771 0
2745 2747 -2771 0
-2745 2747 2771 0
2745 -2747 2771 0
-2749 -2751 -2773 0
2749 2751 -2773 0
-2749 2751 2773 0
2749 -2751 2773 0
-2753 -2754 -2775 0
2753 2754 -2775 0
-2753 2754 2775 0
2753 -2754 2775 0
-2755 -2757 -2777 0
2755 2757 -2777 0
-2755 2757 2777 0
2755 -2757 2777 0
-2759 -2761 -2779 0
2759 2761 -2779 0
-2759 2761 2779 0
2759 -2761 2779 0
-2763 -2765 -2781 0
2763 2765 -2781 0
-2763 2765 2781 0
2763 -2765 2781 0
-2767 -2769 -2783 0
2767 2769 -2783 0
-2767 2769 2783 0
2767 -2769 2783 0
-2771 -2773 -2785 0
2771 2773 -2785 0
-2771 2773 2785 0
2771 -2773 2785 0
-2775 -2777 -2787 0
2775 2777 -2787 0
-2775 2777 2787 0
2775 -2777 2787 0
-2779 -2781 -2789 0
2779 2781 -2789 0
-2779 2781 2789 0
2779 -2781 2789 0
-2783 -2785 -2791 0
2783 2785 -2791 0
-2783 2785 2791 0
2783 -2785 2791 0
-2787 -2789 -2791 0
2787 2789 -2791 0
-2787 2789 2791 0
2787 -2789 2791 0
-2714 -2716 -2794 0
2714 2716 -2794 0
-2714 2716 2794 0
2714 -2716 2794 0
-2718 -2720 -2795 0
2718 2720 -2795 0
-2718 2720 2795 0
2718 -2720 2795 0
-2724 -2726 -2797 0
2724 2726 -2797 0
-2724 2726 2797 0
2724 -2726 2797 0
-2728 -2730 -2799 0
2728 2730 -2799 0
-2728 2730 2799 0
2728 -2730 2799 0
-2734 -2736 -2802 0
2734 2736 -2802 0
-2734 2736 2802 0
2734 -2736 2802 0
-2738 -2740 -2803 0
2738 2740 -2803 0
-2738 2740 2803 0
2738 -2740 2803 0
-2742 -2744 -2805 0
2742 2744 -2805 0
-2742 2744 2805 0
2742 -2744 2805 0
-2746 -2748 -2807 0
2746 2748 -2807 0
-2746 2748 2807 0
2746 -2748 2807 0
-2750 -2752 -2809 0
2750 2752 -2809 0
-2750 2752 2809 0
2750 -2752 2809 0
-2756 -2758 -2812 0
2756 2758 -2812 0
-2756 2758 2812 0
2756 -2758 2812 0
-2760 -2762 -2813 0
2760 2762 -2813 0
-2760 2762 2813 0
2760 -2762 2813 0
-2764 -2766 -2815 0
2764 2766 -2815 0
-2764 2766 2815 0
2764 -2766 2815 0
-2768 -2770 -2817 0
2768 2770 -2817 0
-2768 2770 2817 0
2768 -2770 2817 0
-2772 -2774 -2819 0
2772 2774 -2819 0
-2772 2774 2819 0
2772 -2774 2819 0
-2776 -2778 -2821 0
2776 2778 -2821 0
-2776 2778 2821 0
2776 -2778 2821 0
-2780 -2782 -2823 0
2780 2782 -2823 0
-2780 2782 2823 0
2780 -2782 2823 0
-2784 -2786 -2825 0
2784 2786 -2825 0
-2784 2786 2825 0
2784 -2786 2825 0
-2788 -2790 -2827 0
2788 2790 -2827 0
-2788 2790 2827 0
2788 -2790 2827 0
-2792 -2793 -2829 0
2792 2793 -2829 0
-2792 2793 2829 0
2792 -2793 2829 0
-2794 -2795 -2830 0
2794 2795 -2830 0
-2794 2795 2830 0
2794 -2795 2830 0
-2796 -2797 -2832 0
2796 2797 -2832 0
-2796 2797 2832 0
2796 -2797 2832 0
-2799 -2801 -2834 0
2799 2801 -2834 0
-2799 2801 2834 0
2799 -2801 2834 0
-2802 -2803 -2836 0
2802 2803 -2836 0
-2802 2803 2836 0
2802 -2803 2836 0
-2805 -2807 -2838 0
2805 2807 -2838 0
-2805 2807 2838 0
2805 -2807 2838 0
-2809 -2811 -2840 0
2809 2811 -2840 0
-2809 2811 2840 0
2809 -2811 2840 0
-2812 -2813 -2842 0
2812 2813 -2842 0
-2812 2813 2842 0
2812 -2813 2842 0
-2815 -2817 -2844 0
2815 2817 -2844 0
-2815 2817 2844 0
2815 -2817 2844 0
-2819 -2821 -2846 0
2819 2821 -2846 0
-2819 2821 2846 0
2819 -2821 2846 0
-2823 -2825 -2848 0
2823 2825 -2848 0
-2823 2825 2848 0
2823 -2825 2848 0
-2827 -2829 -2850 0
2827 2829 -2850 0
-2827 2829 2850 0
2827 -2829 2850 0
-2791 -2830 -2852 0
2791 2830 -2852 0
-2791 2830 2852 0
2791 -2830 2852 0
-2832 -2834 -2854 0
2832 2834 -2854 0
-2832 2834 2854 0
2832 -2834 2854 0
-2836 -2838 -2856 0
2836 2838 -2856 0
-2836 2838 2856 0
2836 -2838 2856 0
-2840 -2842 -2858 0
2840 2842 -2858 0
-2840 2842 2858 0
2840 -2842 2858 0
-2844 -2846 -2860 0
2844 2846 -2860 0
-2844 2846 2860 0
2844 -2846 2860 0
-2848 -2850 -2862 0
2848 2850 -2862 0
-2848 2850 2862 0
2848 -2850 2862 0
-2852 -2854 -2864 0
2852 2854 -2864 0
-2852 2854 2864 0
2852 -2854 2864 0
-2856 -2858 -2866 0
2856 2858 -2866 0
-2856 2858 2866 0
2856 -2858 2866 0
-2860 -2862 -2868 0
2860 2862 -2868 0
-2860 2862 2868 0
2860 -2862 2868 0
-2864 -2866 -2868 0
2864 2866 -2868 0
-2864 2866 2868 0
2864 -2866 2868 0
-2798 -2800 -2873 0
2798 2800 -2873 0
-2798 2800 2873 0
2798 -2800 2873 0
-2804 -2806 -2875 0
2804 2806 -2875 0
-2804 2806 2875 0
2804 -2806 2875 0
-2808 -2810 -2877 0
2808 2810 -2877 0
-2808 2810 2877 0
2808 -2810 2877 0
-2814 -2816 -2880 0
2814 2816 -2880 0
-2814 2816 2880 0
2814 -2816 2880 0
-2818 -2820 -2881 0
2818 2820 -2881 0
-2818 2820 2881 0
2818 -2820 2881 0
-2822 -2824 -2883 0
2822 2824 -2883 0
-2822 2824 2883 0
2822 -2824 2883 0
-2826 -2828 -2885 0
2826 2828 -2885 0
-2826 2828 2885 0
2826 -2828 2885 0
-2831 -2833 -2887 0
2831 2833 -2887 0
-2831 2833 2887 0
2831 -2833 2887 0
-2835 -2837 -2889 0
2835 2837 -2889 0
-2835 2837 2889 0
2835 -2837 2889 0
-2839 -2841 -2891 0
2839 2841 -2891 0
-2839 2841 2891 0
2839 -2841 2891 0
-2843 -2845 -2893 0
2843 2845 -2893 0
-2843 2845 2893 0
2843 -2845 2893 0
-2847 -2849 -2895 0
2847 2849 -2895 0
-2847 2849 2895 0
2847 -2849 2895 0
-2851 -2853 -2897 0
2851 2853 -2897 0
-2851 2853 2897 0
2851 -2853 2897 0
-2855 -2857 -2899 0
2855 2857 -2899 0
-2855 2857 2899 0
2855 -2857 2899 0
-2859 -2861 -2901 0
2859 2861 -2901 0
-2859 2861 2901 0
2859 -2861 2901 0
-2863 -2865 -2903 0
2863 2865 -2903 0
-2863 2865 2903 0
2863 -2865 2903 0
-2867 -2869 -2905 0
2867 2869 -2905 0
-2867 2869 2905 0
2867 -2869 2905 0
-2868 -2870 -2907 0
2868 2870 -2907 0
2868 -2870 2907 0
-2868 2870 2907 0
-2871 -2872 -2909 0
2871 2872 -2909 0
-2871 2872 2909 0
2871 -2872 2909 0
-2873 -2874 -2911 0
2873 2874 -2911 0
-2873 2874 2911 0
2873 -2874 2911 0
-2875 -2877 -2913 0
2875 2877 -2913 0
-2875 2877 2913 0
2875 -2877 2913 0
-2879 -2880 -2915 0
2879 2880 -2915 0
-2879 2880 2915 0
2879 -2880 2915 0
-2881 -2883 -2917 0
2881 2883 -2917 0
-2881 2883 2917 0
2881 -2883 2917 0
-2885 -2886 -2919 0
2885 2886 -2919 0
-2885 2886 2919 0
2885 -2886 2919 0
-2887 -2889 -2921 0
2887 2889 -2921 0
-2887 2889 2921 0
2887 -2889 2921 0
-2891 -2893 -2923 0
2891 2893 -2923 0
-2891 2893 2923 0
2891 -2893 2923 0
-2895 -2897 -2925 0
2895 2897 -2925 0
-2895 2897 2925 0
2895 -2897 2925 0
-2899 -2901 -2927 0
2899 2901 -2927 0
-2899 2901 2927 0
2899 -2901 2927 0
-2903 -2905 -2929 0
2903 2905 -2929 0
-2903 2905 2929 0
2903 -2905 2929 0
-2907 -2909 -2931 0
2907 2909 -2931 0
-2907 2909 2931 0
2907 -2909 2931 0
-2911 -2913 -2933 0
2911 2913 -2933 0
-2911 2913 2933 0
2911 -2913 2933 0
-2915 -2917 -2935 0
2915 2917 -2935 0
-2915 2917 2935 0
2915 -2917 2935 0
-2919 -2921 -2937 0
2919 2921 -2937 0
-2919 2921 2937 0
2919 -2921 2937 0
-2923 -2925 -2939 0
2923 2925 -2939 0
-2923 2925 2939 0
2923 -2925 2939 0
-2927 -2929 -2941 0
2927 2929 -2941 0
-2927 2929 2941 0
2927 -2929 2941 0
-2931 -2933 -2943 0
2931 2933 -2943 0
-2931 2933 2943 0
2931 -2933 2943 0
-2935 -2937 -2945 0
2935 2937 -2945 0
-2935 2937 2945 0
2935 -2937 2945 0
-2939 -2941 -2947 0
2939 2941 -2947 0
-2939 2941 2947 0
2939 -2941 2947 0
-2943 -2945 -2947 0
2943 2945 -2947 0
-2943 2945 2947 0
2943 -2945 2947 0
-2876 -2878 -2951 0
2876 2878 -2951 0
-2876 2878 2951 0
2876 -2878 2951 0
-2882 -2884 -2953 0
2882 2884 -2953 0
-2882 2884 2953 0
2882 -2884 2953 0
-2888 -2890 -2955 0
2888 2890 -2955 0
-2888 2890 2955 0
2888 -2890 2955 0
-2892 -2894 -2957 0
2892 2894 -2957 0
-2892 2894 2957 0
2892 -2894 2957 0
-2896 -2898 -2959 0
2896 2898 -2959 0
-2896 2898 2959 0
2896 -2898 2959 0
-2900 -2902 -2961 0
2900 2902 -2961 0
-2900 2902 2961 0
2900 -2902 2961 0
-2904 -2906 -2963 0
2904 2906 -2963 0
-2904 2906 2963 0
2904 -2906 2963 0
-2908 -2910 -2965 0
2908 2910 -2965 0
-2908 2910 2965 0
2908 -2910 2965 0
-2912 -2914 -2967 0
2912 2914 -2967 0
-2912 2914 2967 0
2912 -2914 2967 0
-2916 -2918 -2969 0
2916 2918 -2969 0
-2916 2918 2969 0
2916 -2918 2969 0
-2920 -2922 -2971 0
2920 2922 -2971 0
-2920 2922 2971 0
2920 -2922 2971 0
-2924 -2926 -2973 0
2924 2926 -2973 0
-2924 2926 2973 0
2924 -2926 2973 0
-2928 -2930 -2975 0
2928 2930 -2975 0
-2928 2930 2975 0
2928 -2930 2975 0
-2932 -2934 -2977 0
2932 2934 -2977 0
-2932 2934 2977 0
2932 -2934 2977 0
-2936 -2938 -2979 0
2936 2938 -2979 0
-2936 2938 2979 0
2936 -2938 2979 0
-2940 -2942 -2981 0
2940 2942 -2981 0
-2940 2942 2981 0
2940 -2942 2981 0
-2944 -2946 -2983 0
2944 2946 -2983 0
-2944 2946 2983 0
2944 -2946 2983 0
-2948 -2949 -2985 0
2948 2949 -2985 0
-2948 2949 2985 0
2948 -2949 2985 0
-2950 -2951 -2987 0
2950 2951 -2987 0
-2950 2951 2987 0
2950 -2951 2987 0
-2952 -2953 -2988 0
2952 2953 -2988 0
-2952 2953 2988 0
2952 -2953 2988 0
-2954 -2955 -2990 0
2954 2955 -2990 0
-2954 2955 2990 0
2954 -2955 2990 0
-2957 -2959 -2992 0
2957 2959 -2992 0
-2957 2959 2992 0
2957 -2959 2992 0
-2961 -2963 -2994 0
2961 2963 -2994 0
-2961 2963 2994 0
2961 -2963 2994 0
-2965 -2967 -2996 0
2965 2967 -2996 0
-2965 2967 2996 0
2965 -2967 2996 0
-2969 -2971 -2998 0
2969 2971 -2998 0
-2969 2971 2998 0
2969 -2971 2998 0
-2973 -2975 -3000 0
2973 2975 -3000 0
-2973 2975 3000 0
2973 -2975 3000 0
-2977 -2979 -3002 0
2977 2979 -3002 0
-2977 2979 3002 0
2977 -2979 3002 0
-2981 -2983 -3004 0
2981 2983 -3004 0
-2981 2983 3004 0
2981 -2983 3004 0
-2947 -2985 -3006 0
2947 2985 -3006 0
2947 -2985 3006 0
-2947 2985 3006 0
-2987 -2988 -3008 0
2987 2988 -3008 0
-2987 2988 3008 0
2987 -2988 3008 0
-2990 -2992 -3010 0
2990 2992 -3010 0
-2990 2992 3010 0
2990 -2992 3010 0
-2994 -2996 -3012 0
2994 2996 -3012 0
-2994 2996 3012 0
2994 -2996 3012 0
-2998 -3000 -3014 0
2998 3000 -3014 0
-2998 3000 3014 0
2998 -3000 3014 0
-3002 -3004 -3016 0
3002 3004 -3016 0
-3002 3004 3016 0
3002 -3004 3016 0
-3006 -3008 -3018 0
3006 3008 -3018 0
-3006 3008 3018 0
3006 -3008 3018 0
-3010 -3012 -3020 0
3010 3012 -3020 0
-3010 3012 3020 0
3010 -3012 3020 0
-3014 -3016 -3022 0
3014 3016 -3022 0
-3014 3016 3022 0
3014 -3016 3022 0
-3018 -3020 -3022 0
3018 3020 -3022 0
-3018 3020 3022 0
3018 -3020 3022 0
-2956 -2958 -3027 0
2956 2958 -3027 0
-2956 2958 3027 0
2956 -2958 3027 0
-2960 -2962 -3028 0
2960 2962 -3028 0
-2960 2962 3028 0
2960 -2962 3028 0
-2964 -2966 -3030 0
2964 2966 -3030 0
-2964 2966 3030 0
2964 -2966 3030 0
-2968 -2970 -3032 0
2968 2970 -3032 0
-2968 2970 3032 0
2968 -2970 3032 0
-2972 -2974 -3034 0
2972 2974 -3034 0
-2972 2974 3034 0
2972 -2974 3034 0
-2976 -2978 -3036 0
2976 2978 -3036 0
-2976 2978 3036 0
2976 -2978 3036 0
-2980 -2982 -3038 0
2980 2982 -3038 0
-2980 2982 3038 0
2980 -2982 3038 0
-2984 -2986 -3040 0
2984 2986 -3040 0
-2984 2986 3040 0
2984 -2986 3040 0
-2989 -2991 -3042 0
2989 2991 -3042 0
-2989 2991 3042 0
2989 -2991 3042 0
-2993 -2995 -3044 0
2993 2995 -3044 0
-2993 2995 3044 0
2993 -2995 3044 0
-2997 -2999 -3046 0
2997 2999 -3046 0
-2997 2999 3046 0
2997 -2999 3046 0
-3001 -3003 -3048 0
3001 3003 -3048 0
-3001 3003 3048 0
3001 -3003 3048 0
-3005 -3007 -3050 0
3005 3007 -3050 0
-3005 3007 3050 0
3005 -3007 3050 0
-3009 -3011 -3052 0
3009 3011 -3052 0
-3009 3011 3052 0
3009 -3011 3052 0
-3013 -3015 -3054 0
3013 3015 -3054 0
-3013 3015 3054 0
3013 -3015 3054 0
-3017 -3019 -3056 0
3017 3019 -3056 0
-3017 3019 3056 0
3017 -3019 3056 0
-3021 -3023 -3058 0
3021 3023 -3058 0
-3021 3023 3058 0
3021 -3023 3058 0
-3022 -3024 -3060 0
3022 3024 -3060 0
3022 -3024 3060 0
-3022 3024 3060 0
-3026 -3027 -3062 0
3026 3027 -3062 0
-3026 3027 3062 0
3026 -3027 3062 0
-3028 -3030 -3063 0
3028 3030 -3063 0
-3028 3030 3063 0
3028 -3030 3063 0
-3032 -3034 -3065 0
3032 3034 -3065 0
-3032 3034 3065 0
3032 -3034 3065 0
-3036 -3038 -3067 0
3036 3038 -3067 0
-3036 3038 3067 0
3036 -3038 3067 0
-3040 -3041 -3069 0
3040 3041 -3069 0
-3040 3041 3069 0
3040 -3041 3069 0
-3042 -3044 -3071 0
3042 3044 -3071 0
-3042 3044 3071 0
3042 -3044 3071 0
-3046 -3048 -3073 0
3046 3048 -3073 0
-3046 3048 3073 0
3046 -3048 3073 0
-3050 -3052 -3075 0
3050 3052 -3075 0
-3050 3052 3075 0
3050 -3052 3075 0
-3054 -3056 -3077 0
3054 3056 -3077 0
-3054 3056 3077 0
3054 -3056 3077 0
-3058 -3060 -3079 0
3058 3060 -3079 0
-3058 3060 3079 0
3058 -3060 3079 0
-3025 -3062 -3081 0
3025 3062 -3081 0
-3025 3062 3081 0
3025 -3062 3081 0
-3063 -3065 -3083 0
3063 3065 -3083 0
-3063 3065 3083 0
3063 -3065 3083 0
-3067 -3069 -3085 0
3067 3069 -3085 0
-3067 3069 3085 0
3067 -3069 3085 0
-3071 -3073 -3087 0
3071 3073 -3087 0
-3071 3073 3087 0
3071 -3073 3087 0
-3075 -3077 -3089 0
3075 3077 -3089 0
-3075 3077 3089 0
3075 -3077 3089 0
-3079 -3081 -3091 0
3079 3081 -3091 0
-3079 3081 3091 0
3079 -3081 3091 0
-3083 -3085 -3093 0
3083 3085 -3093 0
-3083 3085 3093 0
3083 -3085 3093 0
-3087 -3089 -3095 0
3087 3089 -3095 0
-3087 3089 3095 0
3087 -3089 3095 0
-3091 -3093 -3095 0
3091 3093 -3095 0
-3091 3093 3095 0
3091 -3093 3095 0
-3029 -3031 -3099 0
3029 3031 -3099 0
-3029 3031 3099 0
3029 -3031 3099 0
-3033 -3035 -3101 0
3033 3035 -3101 0
-3033 3035 3101 0
3033 -3035 3101 0
-3037 -3039 -3103 0
3037 3039 -3103 0
-3037 3039 3103 0
3037 -3039 3103 0
-3043 -3045 -3105 0
3043 3045 -3105 0
-3043 3045 3105 0
3043 -3045 3105 0
-3047 -3049 -3107 0
3047 3049 -3107 0
-3047 3049 3107 0
3047 -3049 3107 0
-3051 -3053 -3109 0
3051 3053 -3109 0
-3051 3053 3109 0
3051 -3053 3109 0
-3055 -3057 -3111 0
3055 3057 -3111 0
-3055 3057 3111 0
3055 -3057 3111 0
-3059 -3061 -3113 0
3059 3061 -3113 0
-3059 3061 3113 0
3059 -3061 3113 0
-3064 -3066 -3115 0
3064 3066 -3115 0
-3064 3066 3115 0
3064 -3066 3115 0
-3068 -3070 -3117 0
3068 3070 -3117 0
-3068 3070 3117 0
3068 -3070 3117 0
-3072 -3074 -3119 0
3072 3074 -3119 0
-3072 3074 3119 0
3072 -3074 3119 0
-3076 -3078 -3121 0
3076 3078 -3121 0
-3076 3078 3121 0
3076 -3078 3121 0
-3080 -3082 -3123 0
3080 3082 -3123 0
-3080 3082 3123 0
3080 -3082 3123 0
-3084 -3086 -3125 0
3084 3086 -3125 0
-3084 3086 3125 0
3084 -3086 3125 0
-3088 -3090 -3127 0
3088 3090 -3127 0
-3088 3090 3127 0
3088 -3090 3127 0
-3092 -3094 -3129 0
3092 3094 -3129 0
-3092 3094 3129 0
3092 -3094 3129 0
-3096 -3097 -3131 0
3096 3097 -3131 0
-3096 3097 3131 0
3096 -3097 3131 0
-3098 -3099 -3132 0
3098 3099 -3132 0
-3098 3099 3132 0
3098 -3099 3132 0
-3101 -3103 -3134 0
3101 3103 -3134 0
-3101 3103 3134 0
3101 -3103 3134 0
-3104 -3105 -3136 0
3104 3105 -3136 0
-3104 3105 3136 0
3104 -3105 3136 0
-3107 -3109 -3138 0
3107 3109 -3138 0
-3107 3109 3138 0
3107 -3109 3138 0
-3111 -3113 -3140 0
3111 3113 -3140 0
-3111 3113 3140 0
3111 -3113 3140 0
-3114 -3115 -3142 0
3114 3115 -3142 0
-3114 3115 3142 0
3114 -3115 3142 0
-3117 -3119 -3144 0
3117 3119 -3144 0
-3117 3119 3144 0
3117 -3119 3144 0
-3121 -3123 -3146 0
3121 3123 -3146 0
-3121 3123 3146 0
3121 -3123 3146 0
-3125 -3127 -3148 0
3125 3127 -3148 0
-3125 3127 3148 0
3125 -3127 3148 0
-3129 -3131 -3150 0
3129 3131 -3150 0
-3129 3131 3150 0
3129 -3131 3150 0
-3095 -3132 -3152 0
3095 3132 -3152 0
-3095 3132 3152 0
3095 -3132 3152 0
-3134 -3136 -3154 0
3134 3136 -3154 0
-3134 3136 3154 0
3134 -3136 3154 0
-3138 -3140 -3156 0
3138 3140 -3156 0
-3138 3140 3156 0
3138 -3140 3156 0
-3142 -3144 -3158 0
3142 3144 -3158 0
-3142 3144 3158 0
3142 -3144 3158 0
-3146 -3148 -3160 0
3146 3148 -3160 0
-3146 3148 3160 0
3146 -3148 3160 0
-3150 -3152 -3162 0
3150 3152 -3162 0
-3150 3152 3162 0
3150 -3152 3162 0
-3154 -3156 -3164 0
3154 3156 -3164 0
-3154 3156 3164 0
3154 -3156 3164 0
-3158 -3160 -3166 0
3158 3160 -3166 0
-3158 3160 3166 0
3158 -3160 3166 0
-3162 -3164 -3166 0
3162 3164 -3166 0
-3162 3164 3166 0
3162 -3164 3166 0
-3100 -3102 -3200 0
3100 3102 -3200 0
-3100 3102 3200 0
3100 -3102 3200 0
-3106 -3108 -3170 0
3106 3108 -3170 0
-3106 3108 3170 0
3106 -3108 3170 0
-3110 -3112 -3171 0
3110 3112 -3171 0
-3110 3112 3171 0
3110 -3112 3171 0
-3116 -3118 -3173 0
3116 3118 -3173 0
-3116 3118 3173 0
3116 -3118 3173 0
-3120 -3122 -3175 0
3120 3122 -3175 0
-3120 3122 3175 0
3120 -3122 3175 0
-3124 -3126 -3177 0
3124 3126 -3177 0
-3124 3126 3177 0
3124 -3126 3177 0
-3128 -3130 -3179 0
3128 3130 -3179 0
-3128 3130 3179 0
3128 -3130 3179 0
-3133 -3135 -3182 0
3133 3135 -3182 0
-3133 3135 3182 0
3133 -3135 3182 0
-3137 -3139 -3183 0
3137 3139 -3183 0
-3137 3139 3183 0
3137 -3139 3183 0
-3141 -3143 -3185 0
3141 3143 -3185 0
-3141 3143 3185 0
3141 -3143 3185 0
-3145 -3147 -3187 0
3145 3147 -3187 0
-3145 3147 3187 0
3145 -3147 3187 0
-3149 -3151 -3189 0
3149 3151 -3189 0
-3149 3151 3189 0
3149 -3151 3189 0
-3153 -3155 -3191 0
3153 3155 -3191 0
-3153 3155 3191 0
3153 -3155 3191 0
-3157 -3159 -3193 0
3157 3159 -3193 0
-3157 3159 3193 0
3157 -3159 3193 0
-3161 -3163 -3195 0
3161 3163 -3195 0
-3161 3163 3195 0
3161 -3163 3195 0
-3165 -3167 -3197 0
3165 3167 -3197 0
-3165 3167 3197 0
3165 -3167 3197 0
-3166 -3168 -3199 0
3166 3168 -3199 0
3166 -3168 3199 0
-3166 3168 3199 0
-3169 -3170 -3201 0
3169 3170 -3201 0
-3169 3170 3201 0
3169 -3170 3201 0
-3171 -3172 -3203 0
3171 3172 -3203 0
-3171 3172 3203 0
3171 -3172 3203 0
-3173 -3175 -3205 0
3173 3175 -3205 0
-3173 3175 3205 0
3173 -3175 3205 0
-3177 -3179 -3207 0
3177 3179 -3207 0
-3177 3179 3207 0
3177 -3179 3207 0
-3181 -3182 -3209 0
3181 3182 -3209 0
-3181 3182 3209 0
3181 -3182 3209 0
-3183 -3185 -3211 0
3183 3185 -3211 0
-3183 3185 3211 0
3183 -3185 3211 0
-3187 -3189 -3213 0
3187 3189 -3213 0
-3187 3189 3213 0
3187 -3189 3213 0
-3191 -3193 -3215 0
3191 3193 -3215 0
-3191 3193 3215 0
3191 -3193 3215 0
-3195 -3197 -3217 0
3195 3197 -3217 0
-3195 3197 3217 0
3195 -3197 3217 0
-3199 -3200 -3219 0
3199 3200 -3219 0
-3199 3200 3219 0
3199 -3200 3219 0
-3201 -3203 -3221 0
3201 3203 -3221 0
-3201 3203 3221 0
3201 -3203 3221 0
-3205 -3207 -3223 0
3205 3207 -3223 0
-3205 3207 3223 0
3205 -3207 3223 0
-3209 -3211 -3225 0
3209 3211 -3225 0
-3209 3211 3225 0
3209 -3211 3225 0
-3213 -3215 -3227 0
3213 3215 -3227 0
-3213 3215 3227 0
3213 -3215 3227 0
-3217 -3219 -3229 0
3217 3219 -3229 0
-3217 3219 3229 0
3217 -3219 3229 0
-3221 -3223 -3231 0
3221 3223 -3231 0
-3221 3223 3231 0
3221 -3223 3231 0
-3225 -3227 -3233 0
3225 3227 -3233 0
-3225 3227 3233 0
3225 -3227 3233 0
-3229 -3231 -3233 0
3229 3231 -3233 0
-3229 3231 3233 0
3229 -3231 3233 0
-3174 -3176 -3239 0
3174 3176 -3239 0
-3174 3176 3239 0
3174 -3176 3239 0
-3178 -3180 -3240 0
3178 3180 -3240 0
-3178 3180 3240 0
3178 -3180 3240 0
-3184 -3186 -3242 0
3184 3186 -3242 0
-3184 3186 3242 0
3184 -3186 3242 0
-3188 -3190 -3244 0
3188 3190 -3244 0
-3188 3190 3244 0
3188 -3190 3244 0
-3192 -3194 -3246 0
3192 3194 -3246 0
-3192 3194 3246 0
3192 -3194 3246 0
-3196 -3198 -3248 0
3196 3198 -3248 0
-3196 3198 3248 0
3196 -3198 3248 0
-3202 -3204 -3251 0
3202 3204 -3251 0
-3202 3204 3251 0
3202 -3204 3251 0
-3206 -3208 -3252 0
3206 3208 -3252 0
-3206 3208 3252 0
3206 -3208 3252 0
-3210 -3212 -3254 0
3210 3212 -3254 0
-3210 3212 3254 0
3210 -3212 3254 0
-3214 -3216 -3256 0
3214 3216 -3256 0
-3214 3216 3256 0
3214 -3216 3256 0
-3218 -3220 -3258 0
3218 3220 -3258 0
-3218 3220 3258 0
3218 -3220 3258 0
-3222 -3224 -3260 0
3222 3224 -3260 0
-3222 3224 3260 0
3222 -3224 3260 0
-3226 -3228 -3262 0
3226 3228 -3262 0
-3226 3228 3262 0
3226 -3228 3262 0
-3230 -3232 -3264 0
3230 3232 -3264 0
-3230 3232 3264 0
3230 -3232 3264 0
-3234 -3235 -3266 0
3234 3235 -3266 0
-3234 3235 3266 0
3234 -3235 3266 0
-3233 -3236 -3268 0
3233 3236 -3268 0
-3233 3236 3268 0
3233 -3236 3268 0
-3237 -3238 -3270 0
3237 3238 -3270 0
-3237 3238 3270 0
3237 -3238 3270 0
-3239 -3240 -3272 0
3239 3240 -3272 0
-3239 3240 3272 0
3239 -3240 3272 0
-3241 -3242 -3274 0
3241 3242 -3274 0
-3241 3242 3274 0
3241 -3242 3274 0
-3244 -3246 -3276 0
3244 3246 -3276 0
-3244 3246 3276 0
3244 -3246 3276 0
-3248 -3250 -3278 0
3248 3250 -3278 0
-3248 3250 3278 0
3248 -3250 3278 0
-3251 -3252 -3280 0
3251 3252 -3280 0
-3251 3252 3280 0
3251 -3252 3280 0
-3254 -3256 -3282 0
3254 3256 -3282 0
-3254 3256 3282 0
3254 -3256 3282 0
-3258 -3260 -3284 0
3258 3260 -3284 0
-3258 3260 3284 0
3258 -3260 3284 0
-3262 -3264 -3286 0
3262 3264 -3286 0
-3262 3264 3286 0
3262 -3264 3286 0
-3266 -3268 -3288 0
3266 3268 -3288 0
-3266 3268 3288 0
3266 -3268 3288 0
-3270 -3272 -3290 0
3270 3272 -3290 0
-3270 3272 3290 0
3270 -3272 3290 0
-3274 -3276 -3292 0
3274 3276 -3292 0
-3274 3276 3292 0
3274 -3276 3292 0
-3278 -3280 -3294 0
3278 3280 -3294 0
-3278 3280 3294 0
3278 -3280 3294 0
-3282 -3284 -3296 0
3282 3284 -3296 0
-3282 3284 3296 0
3282 -3284 3296 0
-3286 -3288 -3298 0
3286 3288 -3298 0
-3286 3288 3298 0
3286 -3288 3298 0
-3290 -3292 -3300 0
3290 3292 -3300 0
-3290 3292 3300 0
3290 -3292 3300 0
-3294 -3296 -3302 0
3294 3296 -3302 0
-3294 3296 3302 0
3294 -3296 3302 0
-3298 -3300 -3302 0
3298 3300 -3302 0
-3298 3300 3302 0
3298 -3300 3302 0
-3243 -3245 -3307 0
3243 3245 -3307 0
-3243 3245 3307 0
3243 -3245 3307 0
-3247 -3249 -3308 0
3247 3249 -3308 0
-3247 3249 3308 0
3247 -3249 3308 0
-3253 -3255 -3310 0
3253 3255 -3310 0
-3253 3255 3310 0
3253 -3255 3310 0
-3257 -3259 -3312 0
3257 3259 -3312 0
-3257 3259 3312 0
3257 -3259 3312 0
-3261 -3263 -3314 0
3261 3263 -3314 0
-3261 3263 3314 0
3261 -3263 3314 0
-3265 -3267 -3316 0
3265 3267 -3316 0
-3265 3267 3316 0
3265 -3267 3316 0
-3269 -3271 -3318 0
3269 3271 -3318 0
-3269 3271 3318 0
3269 -3271 3318 0
-3273 -3275 -3320 0
3273 3275 -3320 0
-3273 3275 3320 0
3273 -3275 3320 0
-3277 -3279 -3322 0
3277 3279 -3322 0
-3277 3279 3322 0
3277 -3279 3322 0
-3281 -3283 -3324 0
3281 3283 -3324 0
-3281 3283 3324 0
3281 -3283 3324 0
-3285 -3287 -3326 0
3285 3287 -3326 0
-3285 3287 3326 0
3285 -3287 3326 0
-3289 -3291 -3328 0
3289 3291 -3328 0
-3289 3291 3328 0
3289 -3291 3328 0
-3293 -3295 -3330 0
3293 3295 -3330 0
-3293 3295 3330 0
3293 -3295 3330 0
-3297 -3299 -3332 0
3297 3299 -3332 0
-3297 3299 3332 0
3297 -3299 3332 0
-3301 -3303 -3334 0
3301 3303 -3334 0
-3301 3303 3334 0
3301 -3303 3334 0
-3302 -3304 -3336 0
3302 3304 -3336 0
3302 -3304 3336 0
-3302 3304 3336 0
-3306 -3307 -3338 0
3306 3307 -3338 0
-3306 3307 3338 0
3306 -3307 3338 0
-3308 -3309 -3339 0
3308 3309 -3339 0
-3308 3309 3339 0
3308 -3309 3339 0
-3310 -3312 -3341 0
3310 3312 -3341 0
-3310 3312 3341 0
3310 -3312 3341 0
-3314 -3316 -3343 0
3314 3316 -3343 0
-3314 3316 3343 0
3314 -3316 3343 0
-3318 -3320 -3345 0
3318 3320 -3345 0
-3318 3320 3345 0
3318 -3320 3345 0
-3322 -3324 -3347 0
3322 3324 -3347 0
-3322 3324 3347 0
3322 -3324 3347 0
-3326 -3328 -3349 0
3326 3328 -3349 0
-3326 3328 3349 0
3326 -3328 3349 0
-3330 -3332 -3351 0
3330 3332 -3351 0
-3330 3332 3351 0
3330 -3332 3351 0
-3334 -3336 -3353 0
3334 3336 -3353 0
-3334 3336 3353 0
3334 -3336 3353 0
-3305 -3338 -3355 0
3305 3338 -3355 0
-3305 3338 3355 0
3305 -3338 3355 0
-3339 -3341 -3357 0
3339 3341 -3357 0
-3339 3341 3357 0
3339 -3341 3357 0
-3343 -3345 -3359 0
3343 3345 -3359 0
-3343 3345 3359 0
3343 -3345 3359 0
-3347 -3349 -3361 0
3347 3349 -3361 0
-3347 3349 3361 0
3347 -3349 3361 0
-3351 -3353 -3363 0
3351 3353 -3363 0
-3351 3353 3363 0
3351 -3353 3363 0
-3355 -3357 -3365 0
3355 3357 -3365 0
-3355 3357 3365 0
3355 -3357 3365 0
-3359 -3361 -3367 0
3359 3361 -3367 0
-3359 3361 3367 0
3359 -3361 3367 0
-3363 -3365 -3367 0
3363 3365 -3367 0
-3363 3365 3367 0
3363 -3365 3367 0
-3311 -3313 -3372 0
3311 3313 -3372 0
-3311 3313 3372 0
3311 -3313 3372 0
-3315 -3317 -3373 0
3315 3317 -3373 0
-3315 3317 3373 0
3315 -3317 3373 0
-3319 -3321 -3375 0
3319 3321 -3375 0
-3319 3321 3375 0
3319 -3321 3375 0
-3323 -3325 -3377 0
3323 3325 -3377 0
-3323 3325 3377 0
3323 -3325 3377 0
-3327 -3329 -3379 0
3327 3329 -3379 0
-3327 3329 3379 0
3327 -3329 3379 0
-3331 -3333 -3381 0
3331 3333 -3381 0
-3331 3333 3381 0
3331 -3333 3381 0
-3335 -3337 -3383 0
3335 3337 -3383 0
-3335 3337 3383 0
3335 -3337 3383 0
-3340 -3342 -3386 0
3340 3342 -3386 0
-3340 3342 3386 0
3340 -3342 3386 0
-3344 -3346 -3387 0
3344 3346 -3387 0
-3344 3346 3387 0
3344 -3346 3387 0
-3348 -3350 -3389 0
3348 3350 -3389 0
-3348 3350 3389 0
3348 -3350 3389 0
-3352 -3354 -3391 0
3352 3354 -3391 0
-3352 3354 3391 0
3352 -3354 3391 0
-3356 -3358 -3393 0
3356 3358 -3393 0
-3356 3358 3393 0
3356 -3358 3393 0
-3360 -3362 -3395 0
3360 3362 -3395 0
-3360 3362 3395 0
3360 -3362 3395 0
-3364 -3366 -3397 0
3364 3366 -3397 0
-3364 3366 3397 0
3364 -3366 3397 0
-3368 -3369 -3399 0
3368 3369 -3399 0
-3368 3369 3399 0
3368 -3369 3399 0
-3370 -3371 -3400 0
3370 3371 -3400 0
-3370 3371 3400 0
3370 -3371 3400 0
-3372 -3373 -3402 0
3372 3373 -3402 0
-3372 3373 3402 0
3372 -3373 3402 0
-3375 -3377 -3404 0
3375 3377 -3404 0
-3375 3377 3404 0
3375 -3377 3404 0
-3379 -3381 -3406 0
3379 3381 -3406 0
-3379 3381 3406 0
3379 -3381 3406 0
-3383 -3385 -3408 0
3383 3385 -3408 0
-3383 3385 3408 0
3383 -3385 3408 0
-3386 -3387 -3410 0
3386 3387 -3410 0
-3386 3387 3410 0
3386 -3387 3410 0
-3389 -3391 -3412 0
3389 3391 -3412 0
-3389 3391 3412 0
3389 -3391 3412 0
-3393 -3395 -3414 0
3393 3395 -3414 0
-3393 3395 3414 0
3393 -3395 3414 0
-3397 -3399 -3416 0
3397 3399 -3416 0
-3397 3399 3416 0
3397 -3399 3416 0
-3367 -3400 -3418 0
3367 3400 -3418 0
-3367 3400 3418 0
3367 -3400 3418 0
-3402 -3404 -3420 0
3402 3404 -3420 0
-3402 3404 3420 0
3402 -3404 3420 0
-3406 -3408 -3422 0
3406 3408 -3422 0
-3406 3408 3422 0
3406 -3408 3422 0
-3410 -3412 -3424 0
3410 3412 -3424 0
-3410 3412 3424 0
3410 -3412 3424 0
-3414 -3416 -3426 0
3414 3416 -3426 0
-3414 3416 3426 0
3414 -3416 3426 0
-3418 -3420 -3428 0
3418 3420 -3428 0
-3418 3420 3428 0
3418 -3420 3428 0
-3422 -3424 -3430 0
3422 3424 -3430 0
-3422 3424 3430 0
3422 -3424 3430 0
-3426 -3428 -3430 0
3426 3428 -3430 0
-3426 3428 3430 0
3426 -3428 3430 0
-3374 -3376 -3433 0
3374 3376 -3433 0
-3374 3376 3433 0
3374 -3376 3433 0
-3378 -3380 -3435 0
3378 3380 -3435 0
-3378 3380 3435 0
3378 -3380 3435 0
-3382 -3384 -3437 0
3382 3384 -3437 0
-3382 3384 3437 0
3382 -3384 3437 0
-3388 -3390 -3439 0
3388 3390 -3439 0
-3388 3390 3439 0
3388 -3390 3439 0
-3392 -3394 -3441 0
3392 3394 -3441 0
-3392 3394 3441 0
3392 -3394 3441 0
-3396 -3398 -3443 0
3396 3398 -3443 0
-3396 3398 3443 0
3396 -3398 3443 0
-3401 -3403 -3445 0
3401 3403 -3445 0
-3401 3403 3445 0
3401 -3403 3445 0
-3405 -3407 -3447 0
3405 3407 -3447 0
-3405 3407 3447 0
3405 -3407 3447 0
-3409 -3411 -3449 0
3409 3411 -3449 0
-3409 3411 3449 0
3409 -3411 3449 0
-3413 -3415 -3451 0
3413 3415 -3451 0
-3413 3415 3451 0
3413 -3415 3451 0
-3417 -3419 -3453 0
3417 3419 -3453 0
-3417 3419 3453 0
3417 -3419 3453 0
-3421 -3423 -3455 0
3421 3423 -3455 0
-3421 3423 3455 0
3421 -3423 3455 0
-3425 -3427 -3457 0
3425 3427 -3457 0
-3425 3427 3457 0
3425 -3427 3457 0
-3429 -3431 -3459 0
3429 3431 -3459 0
-3429 3431 3459 0
3429 -3431 3459 0
-3430 -3432 -3461 0
3430 3432 -3461 0
3430 -3432 3461 0
-3430 3432 3461 0
-3433 -3435 -3463 0
3433 3435 -3463 0
-3433 3435 3463 0
3433 -3435 3463 0
-3437 -3438 -3465 0
3437 3438 -3465 0
-3437 3438 3465 0
3437 -3438 3465 0
-3439 -3441 -3467 0
3439 3441 -3467 0
-3439 3441 3467 0
3439 -3441 3467 0
-3443 -3444 -3469 0
3443 3444 -3469 0
-3443 3444 3469 0
3443 -3444 3469 0
-3445 -3447 -3471 0
3445 3447 -3471 0
-3445 3447 3471 0
3445 -3447 3471 0
-3449 -3451 -3473 0
3449 3451 -3473 0
-3449 3451 3473 0
3449 -3451 3473 0
-3453 -3455 -3475 0
3453 3455 -3475 0
-3453 3455 3475 0
3453 -3455 3475 0
-3457 -3459 -3477 0
3457 3459 -3477 0
-3457 3459 3477 0
3457 -3459 3477 0
-3461 -3462 -3479 0
3461 3462 -3479 0
-3461 3462 3479 0
3461 -3462 3479 0
-3463 -3465 -3481 0
3463 3465 -3481 0
-3463 3465 3481 0
3463 -3465 3481 0
-3467 -3469 -3483 0
3467 3469 -3483 0
-3467 3469 3483 0
3467 -3469 3483 0
-3471 -3473 -3485 0
3471 3473 -3485 0
-3471 3473 3485 0
3471 -3473 3485 0
-3475 -3477 -3487 0
3475 3477 -3487 0
-3475 3477 3487 0
3475 -3477 3487 0
-3479 -3481 -3489 0
3479 3481 -3489 0
-3479 3481 3489 0
3479 -3481 3489 0
-3483 -3485 -3491 0
3483 3485 -3491 0
-3483 3485 3491 0
3483 -3485 3491 0
-3487 -3489 -3491 0
3487 3489 -3491 0
-3487 3489 3491 0
3487 -3489 3491 0
-3434 -3436 -3494 0
3434 3436 -3494 0
-3434 3436 3494 0
3434 -3436 3494 0
-3440 -3442 -3496 0
3440 3442 -3496 0
-3440 3442 3496 0
3440 -3442 3496 0
-3446 -3448 -3498 0
3446 3448 -3498 0
-3446 3448 3498 0
3446 -3448 3498 0
-3450 -3452 -3499 0
3450 3452 -3499 0
-3450 3452 3499 0
3450 -3452 3499 0
-3454 -3456 -3501 0
3454 3456 -3501 0
-3454 3456 3501 0
3454 -3456 3501 0
-3458 -3460 -3503 0
3458 3460 -3503 0
-3458 3460 3503 0
3458 -3460 3503 0
-3464 -3466 -3505 0
3464 3466 -3505 0
-3464 3466 3505 0
3464 -3466 3505 0
-3468 -3470 -3507 0
3468 3470 -3507 0
-3468 3470 3507 0
3468 -3470 3507 0
-3472 -3474 -3509 0
3472 3474 -3509 0
-3472 3474 3509 0
3472 -3474 3509 0
-3476 -3478 -3511 0
3476 3478 -3511 0
-3476 3478 3511 0
3476 -3478 3511 0
-3480 -3482 -3513 0
3480 3482 -3513 0
-3480 3482 3513 0
3480 -3482 3513 0
-3484 -3486 -3515 0
3484 3486 -3515 0
-3484 3486 3515 0
3484 -3486 3515 0
-3488 -3490 -3517 0
3488 3490 -3517 0
-3488 3490 3517 0
3488 -3490 3517 0
-3492 -3493 -3519 0
3492 3493 -3519 0
-3492 3493 3519 0
3492 -3493 3519 0
-3494 -3495 -3521 0
3494 3495 -3521 0
-3494 3495 3521 0
3494 -3495 3521 0
-3496 -3497 -3522 0
3496 3497 -3522 0
-3496 3497 3522 0
3496 -3497 3522 0
-3498 -3499 -3524 0
3498 3499 -3524 0
-3498 3499 3524 0
3498 -3499 3524 0
-3501 -3503 -3526 0
3501 3503 -3526 0
-3501 3503 3526 0
3501 -3503 3526 0
-3504 -3505 -3528 0
3504 3505 -3528 0
-3504 3505 3528 0
3504 -3505 3528 0
-3507 -3509 -3530 0
3507 3509 -3530 0
-3507 3509 3530 0
3507 -3509 3530 0
-3511 -3513 -3532 0
3511 3513 -3532 0
-3511 3513 3532 0
3511 -3513 3532 0
-3515 -3517 -3534 0
3515 3517 -3534 0
-3515 3517 3534 0
3515 -3517 3534 0
-3491 -3519 -3536 0
3491 3519 -3536 0
3491 -3519 3536 0
-3491 3519 3536 0
-3521 -3522 -3538 0
3521 3522 -3538 0
-3521 3522 3538 0
3521 -3522 3538 0
-3524 -3526 -3540 0
3524 3526 -3540 0
-3524 3526 3540 0
3524 -3526 3540 0
-3528 -3530 -3542 0
3528 3530 -3542 0
-3528 3530 3542 0
3528 -3530 3542 0
-3532 -3534 -3544 0
3532 3534 -3544 0
-3532 3534 3544 0
3532 -3534 3544 0
-3536 -3538 -3546 0
3536 3538 -3546 0
-3536 3538 3546 0
3536 -3538 3546 0
-3540 -3542 -3548 0
3540 3542 -3548 0
-3540 3542 3548 0
3540 -3542 3548 0
-3544 -3546 -3548 0
3544 3546 -3548 0
-3544 3546 3548 0
3544 -3546 3548 0
-3500 -3502 -3554 0
3500 3502 -3554 0
-3500 3502 3554 0
3500 -3502 3554 0
-3506 -3508 -3556 0
3506 3508 -3556 0
-3506 3508 3556 0
3506 -3508 3556 0
-3510 -3512 -3557 0
3510 3512 -3557 0
-3510 3512 3557 0
3510 -3512 3557 0
-3514 -3516 -3559 0
3514 3516 -3559 0
-3514 3516 3559 0
3514 -3516 3559 0
-3518 -3520 -3561 0
3518 3520 -3561 0
-3518 3520 3561 0
3518 -3520 3561 0
-3523 -3525 -3563 0
3523 3525 -3563 0
-3523 3525 3563 0
3523 -3525 3563 0
-3527 -3529 -3565 0
3527 3529 -3565 0
-3527 3529 3565 0
3527 -3529 3565 0
-3531 -3533 -3567 0
3531 3533 -3567 0
-3531 3533 3567 0
3531 -3533 3567 0
-3535 -3537 -3569 0
3535 3537 -3569 0
-3535 3537 3569 0
3535 -3537 3569 0
-3539 -3541 -3571 0
3539 3541 -3571 0
-3539 3541 3571 0
3539 -3541 3571 0
-3543 -3545 -3573 0
3543 3545 -3573 0
-3543 3545 3573 0
3543 -3545 3573 0
-3547 -3549 -3575 0
3547 3549 -3575 0
-3547 3549 3575 0
3547 -3549 3575 0
-3548 -3550 -3577 0
3548 3550 -3577 0
3548 -3550 3577 0
-3548 3550 3577 0
-3551 -3552 -3579 0
3551 3552 -3579 0
-3551 3552 3579 0
3551 -3552 3579 0
-3553 -3554 -3581 0
3553 3554 -3581 0
-3553 3554 3581 0
3553 -3554 3581 0
-3555 -3556 -3583 0
3555 3556 -3583 0
-3555 3556 3583 0
3555 -3556 3583 0
-3557 -3559 -3585 0
3557 3559 -3585 0
-3557 3559 3585 0
3557 -3559 3585 0
-3561 -3562 -3587 0
3561 3562 -3587 0
-3561 3562 3587 0
3561 -3562 3587 0
-3563 -3565 -3589 0
3563 3565 -3589 0
-3563 3565 3589 0
3563 -3565 3589 0
-3567 -3569 -3591 0
3567 3569 -3591 0
-3567 3569 3591 0
3567 -3569 3591 0
-3571 -3573 -3593 0
3571 3573 -3593 0
-3571 3573 3593 0
3571 -3573 3593 0
-3575 -3577 -3595 0
3575 3577 -3595 0
-3575 3577 3595 0
3575 -3577 3595 0
-3579 -3581 -3597 0
3579 3581 -3597 0
-3579 3581 3597 0
3579 -3581 3597 0
-3583 -3585 -3599 0
3583 3585 -3599 0
-3583 3585 3599 0
3583 -3585 3599 0
-3587 -3589 -3601 0
3587 3589 -3601 0
-3587 3589 3601 0
3587 -3589 3601 0
-3591 -3593 -3603 0
3591 3593 -3603 0
-3591 3593 3603 0
3591 -3593 3603 0
-3595 -3597 -3605 0
3595 3597 -3605 0
-3595 3597 3605 0
3595 -3597 3605 0
-3599 -3601 -3607 0
3599 3601 -3607 0
-3599 3601 3607 0
3599 -3601 3607 0
-3603 -3605 -3607 0
3603 3605 -3607 0
-3603 3605 3607 0
3603 -3605 3607 0
-3558 -3560 -3612 0
3558 3560 -3612 0
-3558 3560 3612 0
3558 -3560 3612 0
-3564 -3566 -3614 0
3564 3566 -3614 0
-3564 3566 3614 0
3564 -3566 3614 0
-3568 -3570 -3615 0
3568 3570 -3615 0
-3568 3570 3615 0
3568 -3570 3615 0
-3572 -3574 -3617 0
3572 3574 -3617 0
-3572 3574 3617 0
3572 -3574 3617 0
-3576 -3578 -3619 0
3576 3578 -3619 0
-3576 3578 3619 0
3576 -3578 3619 0
-3580 -3582 -3621 0
3580 3582 -3621 0
-3580 3582 3621 0
3580 -3582 3621 0
-3584 -3586 -3623 0
3584 3586 -3623 0
-3584 3586 3623 0
3584 -3586 3623 0
-3588 -3590 -3625 0
3588 3590 -3625 0
-3588 3590 3625 0
3588 -3590 3625 0
-3592 -3594 -3627 0
3592 3594 -3627 0
-3592 3594 3627 0
3592 -3594 3627 0
-3596 -3598 -3629 0
3596 3598 -3629 0
-3596 3598 3629 0
3596 -3598 3629 0
-3600 -3602 -3631 0
3600 3602 -3631 0
-3600 3602 3631 0
3600 -3602 3631 0
-3604 -3606 -3633 0
3604 3606 -3633 0
-3604 3606 3633 0
3604 -3606 3633 0
-3608 -3609 -3635 0
3608 3609 -3635 0
-3608 3609 3635 0
3608 -3609 3635 0
-3610 -3611 -3636 0
3610 3611 -3636 0
-3610 3611 3636 0
3610 -3611 3636 0
-3612 -3613 -3638 0
3612 3613 -3638 0
-3612 3613 3638 0
3612 -3613 3638 0
-3614 -3615 -3640 0
3614 3615 -3640 0
-3614 3615 3640 0
3614 -3615 3640 0
-3617 -3619 -3642 0
3617 3619 -3642 0
-3617 3619 3642 0
3617 -3619 3642 0
-3621 -3623 -3644 0
3621 3623 -3644 0
-3621 3623 3644 0
3621 -3623 3644 0
-3625 -3627 -3646 0
3625 3627 -3646 0
-3625 3627 3646 0
3625 -3627 3646 0
-3629 -3631 -3648 0
3629 3631 -3648 0
-3629 3631 3648 0
3629 -3631 3648 0
-3633 -3635 -3650 0
3633 3635 -3650 0
-3633 3635 3650 0
3633 -3635 3650 0
-3607 -3636 -3652 0
3607 3636 -3652 0
-3607 3636 3652 0
3607 -3636 3652 0
-3638 -3640 -3654 0
3638 3640 -3654 0
-3638 3640 3654 0
3638 -3640 3654 0
-3642 -3644 -3656 0
3642 3644 -3656 0
-3642 3644 3656 0
3642 -3644 3656 0
-3646 -3648 -3658 0
3646 3648 -3658 0
-3646 3648 3658 0
3646 -3648 3658 0
-3650 -3652 -3660 0
3650 3652 -3660 0
-3650 3652 3660 0
3650 -3652 3660 0
-3654 -3656 -3662 0
3654 3656 -3662 0
-3654 3656 3662 0
3654 -3656 3662 0
-3658 -3660 -3662 0
3658 3660 -3662 0
-3658 3660 3662 0
3658 -3660 3662 0
-3616 -3618 -3667 0
3616 3618 -3667 0
-3616 3618 3667 0
3616 -3618 3667 0
-3620 -3622 -3668 0
3620 3622 -3668 0
-3620 3622 3668 0
3620 -3622 3668 0
-3624 -3626 -3670 0
3624 3626 -3670 0
-3624 3626 3670 0
3624 -3626 3670 0
-3628 -3630 -3672 0
3628 3630 -3672 0
-3628 3630 3672 0
3628 -3630 3672 0
-3632 -3634 -3674 0
3632 3634 -3674 0
-3632 3634 3674 0
3632 -3634 3674 0
-3637 -3639 -3677 0
3637 3639 -3677 0
-3637 3639 3677 0
3637 -3639 3677 0
-3641 -3643 -3678 0
3641 3643 -3678 0
-3641 3643 3678 0
3641 -3643 3678 0
-3645 -3647 -3680 0
3645 3647 -3680 0
-3645 3647 3680 0
3645 -3647 3680 0
-3649 -3651 -3682 0
3649 3651 -3682 0
-3649 3651 3682 0
3649 -3651 3682 0
-3653 -3655 -3684 0
3653 3655 -3684 0
-3653 3655 3684 0
3653 -3655 3684 0
-3657 -3659 -3686 0
3657 3659 -3686 0
-3657 3659 3686 0
3657 -3659 3686 0
-3661 -3663 -3688 0
3661 3663 -3688 0
-3661 3663 3688 0
3661 -3663 3688 0
-3662 -3664 -3690 0
3662 3664 -3690 0
3662 -3664 3690 0
-3662 3664 3690 0
-3666 -3667 -3691 0
3666 3667 -3691 0
-3666 3667 3691 0
3666 -3667 3691 0
-3668 -3670 -3693 0
3668 3670 -3693 0
-3668 3670 3693 0
3668 -3670 3693 0
-3672 -3674 -3695 0
3672 3674 -3695 0
-3672 3674 3695 0
3672 -3674 3695 0
-3676 -3677 -3697 0
3676 3677 -3697 0
-3676 3677 3697 0
3676 -3677 3697 0
-3678 -3680 -3699 0
3678 3680 -3699 0
-3678 3680 3699 0
3678 -3680 3699 0
-3682 -3684 -3701 0
3682 3684 -3701 0
-3682 3684 3701 0
3682 -3684 3701 0
-3686 -3688 -3703 0
3686 3688 -3703 0
-3686 3688 3703 0
3686 -3688 3703 0
-3665 -3690 -3705 0
3665 3690 -3705 0
3665 -3690 3705 0
-3665 3690 3705 0
-3691 -3693 -3707 0
3691 3693 -3707 0
-3691 3693 3707 0
3691 -3693 3707 0
-3695 -3697 -3709 0
3695 3697 -3709 0
-3695 3697 3709 0
3695 -3697 3709 0
-3699 -3701 -3711 0
3699 3701 -3711 0
-3699 3701 3711 0
3699 -3701 3711 0
-3703 -3705 -3713 0
3703 3705 -3713 0
-3703 3705 3713 0
3703 -3705 3713 0
-3707 -3709 -3715 0
3707 3709 -3715 0
-3707 3709 3715 0
3707 -3709 3715 0
-3711 -3713 -3715 0
3711 3713 -3715 0
-3711 3713 3715 0
3711 -3713 3715 0
-3669 -3671 -3719 0
3669 3671 -3719 0
-3669 3671 3719 0
3669 -3671 3719 0
-3673 -3675 -3721 0
3673 3675 -3721 0
-3673 3675 3721 0
3673 -3675 3721 0
-3679 -3681 -3724 0
3679 3681 -3724 0
-3679 3681 3724 0
3679 -3681 3724 0
-3683 -3685 -3725 0
3683 3685 -3725 0
-3683 3685 3725 0
3683 -3685 3725 0
-3687 -3689 -3727 0
3687 3689 -3727 0
-3687 3689 3727 0
3687 -3689 3727 0
-3692 -3694 -3730 0
3692 3694 -3730 0
-3692 3694 3730 0
3692 -3694 3730 0
-3696 -3698 -3731 0
3696 3698 -3731 0
-3696 3698 3731 0
3696 -3698 3731 0
-3700 -3702 -3733 0
3700 3702 -3733 0
-3700 3702 3733 0
3700 -3702 3733 0
-3704 -3706 -3735 0
3704 3706 -3735 0
-3704 3706 3735 0
3704 -3706 3735 0
-3708 -3710 -3737 0
3708 3710 -3737 0
-3708 3710 3737 0
3708 -3710 3737 0
-3712 -3714 -3739 0
3712 3714 -3739 0
-3712 3714 3739 0
3712 -3714 3739 0
-3716 -3717 -3741 0
3716 3717 -3741 0
-3716 3717 3741 0
3716 -3717 3741 0
-3718 -3719 -3743 0
3718 3719 -3743 0
-3718 3719 3743 0
3718 -3719 3743 0
-3721 -3723 -3744 0
3721 3723 -3744 0
-3721 3723 3744 0
3721 -3723 3744 0
-3724 -3725 -3746 0
3724 3725 -3746 0
-3724 3725 3746 0
3724 -3725 3746 0
-3727 -3729 -3748 0
3727 3729 -3748 0
-3727 3729 3748 0
3727 -3729 3748 0
-3730 -3731 -3750 0
3730 3731 -3750 0
-3730 3731 3750 0
3730 -3731 3750 0
-3733 -3735 -3752 0
3733 3735 -3752 0
-3733 3735 3752 0
3733 -3735 3752 0
-3737 -3739 -3754 0
3737 3739 -3754 0
-3737 3739 3754 0
3737 -3739 3754 0
-3715 -3741 -3756 0
3715 3741 -3756 0
3715 -3741 3756 0
-3715 3741 3756 0
-3743 -3744 -3758 0
3743 3744 -3758 0
-3743 3744 3758 0
3743 -3744 3758 0
-3746 -3748 -3760 0
3746 3748 -3760 0
-3746 3748 3760 0
3746 -3748 3760 0
-3750 -3752 -3762 0
3750 3752 -3762 0
-3750 3752 3762 0
3750 -3752 3762 0
-3754 -3756 -3764 0
3754 3756 -3764 0
-3754 3756 3764 0
3754 -3756 3764 0
-3758 -3760 -3766 0
3758 3760 -3766 0
-3758 3760 3766 0
3758 -3760 3766 0
-3762 -3764 -3766 0
3762 3764 -3766 0
-3762 3764 3766 0
3762 -3764 3766 0
-3720 -3722 -3791 0
3720 3722 -3791 0
-3720 3722 3791 0
3720 -3722 3791 0
-3726 -3728 -3770 0
3726 3728 -3770 0
-3726 3728 3770 0
3726 -3728 3770 0
-3732 -3734 -3772 0
3732 3734 -3772 0
-3732 3734 3772 0
3732 -3734 3772 0
-3736 -3738 -3773 0
3736 3738 -3773 0
-3736 3738 3773 0
3736 -3738 3773 0
-3740 -3742 -3775 0
3740 3742 -3775 0
-3740 3742 3775 0
3740 -3742 3775 0
-3745 -3747 -3778 0
3745 3747 -3778 0
-3745 3747 3778 0
3745 -3747 3778 0
-3749 -3751 -3779 0
3749 3751 -3779 0
-3749 3751 3779 0
3749 -3751 3779 0
-3753 -3755 -3781 0
3753 3755 -3781 0
-3753 3755 3781 0
3753 -3755 3781 0
-3757 -3759 -3783 0
3757 3759 -3783 0
-3757 3759 3783 0
3757 -3759 3783 0
-3761 -3763 -3785 0
3761 3763 -3785 0
-3761 3763 3785 0
3761 -3763 3785 0
-3765 -3767 -3787 0
3765 3767 -3787 0
-3765 3767 3787 0
3765 -3767 3787 0
-3766 -3768 -3789 0
3766 3768 -3789 0
3766 -3768 3789 0
-3766 3768 3789 0
-3769 -3770 -3792 0
3769 3770 -3792 0
-3769 3770 3792 0
3769 -3770 3792 0
-3771 -3772 -3793 0
3771 3772 -3793 0
-3771 3772 3793 0
3771 -3772 3793 0
-3773 -3775 -3795 0
3773 3775 -3795 0
-3773 3775 3795 0
3773 -3775 3795 0
-3777 -3778 -3797 0
3777 3778 -3797 0
-3777 3778 3797 0
3777 -3778 3797 0
-3779 -3781 -3799 0
3779 3781 -3799 0
-3779 3781 3799 0
3779 -3781 3799 0
-3783 -3785 -3801 0
3783 3785 -3801 0
-3783 3785 3801 0
3783 -3785 3801 0
-3787 -3789 -3803 0
3787 3789 -3803 0
-3787 3789 3803 0
3787 -3789 3803 0
-3791 -3792 -3805 0
3791 3792 -3805 0
-3791 3792 3805 0
3791 -3792 3805 0
-3793 -3795 -3807 0
3793 3795 -3807 0
-3793 3795 3807 0
3793 -3795 3807 0
-3797 -3799 -3809 0
3797 3799 -3809 0
-3797 3799 3809 0
3797 -3799 3809 0
-3801 -3803 -3811 0
3801 3803 -3811 0
-3801 3803 3811 0
3801 -3803 3811 0
-3805 -3807 -3813 0
3805 3807 -3813 0
-3805 3807 3813 0
3805 -3807 3813 0
-3809 -3811 -3813 0
3809 3811 -3813 0
-3809 3811 3813 0
3809 -3811 3813 0
-3774 -3776 -3819 0
3774 3776 -3819 0
-3774 3776 3819 0
3774 -3776 3819 0
-3780 -3782 -3821 0
3780 3782 -3821 0
-3780 3782 3821 0
3780 -3782 3821 0
-3784 -3786 -3822 0
3784 3786 -3822 0
-3784 3786 3822 0
3784 -3786 3822 0
-3788 -3790 -3824 0
3788 3790 -3824 0
-3788 3790 3824 0
3788 -3790 3824 0
-3794 -3796 -3827 0
3794 3796 -3827 0
-3794 3796 3827 0
3794 -3796 3827 0
-3798 -3800 -3828 0
3798 3800 -3828 0
-3798 3800 3828 0
3798 -3800 3828 0
-3802 -3804 -3830 0
3802 3804 -3830 0
-3802 3804 3830 0
3802 -3804 3830 0
-3806 -3808 -3832 0
3806 3808 -3832 0
-3806 3808 3832 0
3806 -3808 3832 0
-3810 -3812 -3834 0
3810 3812 -3834 0
-3810 3812 3834 0
3810 -3812 3834 0
-3814 -3815 -3836 0
3814 3815 -3836 0
-3814 3815 3836 0
3814 -3815 3836 0
-3813 -3816 -3838 0
3813 3816 -3838 0
-3813 3816 3838 0
3813 -3816 3838 0
-3817 -3818 -3840 0
3817 3818 -3840 0
-3817 3818 3840 0
3817 -3818 3840 0
-3819 -3820 -3842 0
3819 3820 -3842 0
-3819 3820 3842 0
3819 -3820 3842 0
-3821 -3822 -3844 0
3821 3822 -3844 0
-3821 3822 3844 0
3821 -3822 3844 0
-3824 -3826 -3846 0
3824 3826 -3846 0
-3824 3826 3846 0
3824 -3826 3846 0
-3827 -3828 -3848 0
3827 3828 -3848 0
-3827 3828 3848 0
3827 -3828 3848 0
-3830 -3832 -3850 0
3830 3832 -3850 0
-3830 3832 3850 0
3830 -3832 3850 0
-3834 -3836 -3852 0
3834 3836 -3852 0
-3834 3836 3852 0
3834 -3836 3852 0
-3838 -3840 -3854 0
3838 3840 -3854 0
-3838 3840 3854 0
3838 -3840 3854 0
-3842 -3844 -3856 0
3842 3844 -3856 0
-3842 3844 3856 0
3842 -3844 3856 0
-3846 -3848 -3858 0
3846 3848 -3858 0
-3846 3848 3858 0
3846 -3848 3858 0
-3850 -3852 -3860 0
3850 3852 -3860 0
-3850 3852 3860 0
3850 -3852 3860 0
-3854 -3856 -3862 0
3854 3856 -3862 0
-3854 3856 3862 0
3854 -3856 3862 0
-3858 -3860 -3862 0
3858 3860 -3862 0
-3858 3860 3862 0
3858 -3860 3862 0
-3823 -3825 -3867 0
3823 3825 -3867 0
-3823 3825 3867 0
3823 -3825 3867 0
-3829 -3831 -3869 0
3829 3831 -3869 0
-3829 3831 3869 0
3829 -3831 3869 0
-3833 -3835 -3870 0
3833 3835 -3870 0
-3833 3835 3870 0
3833 -3835 3870 0
-3837 -3839 -3872 0
3837 3839 -3872 0
-3837 3839 3872 0
3837 -3839 3872 0
-3841 -3843 -3874 0
3841 3843 -3874 0
-3841 3843 3874 0
3841 -3843 3874 0
-3845 -3847 -3876 0
3845 3847 -3876 0
-3845 3847 3876 0
3845 -3847 3876 0
-3849 -3851 -3878 0
3849 3851 -3878 0
-3849 3851 3878 0
3849 -3851 3878 0
-3853 -3855 -3880 0
3853 3855 -3880 0
-3853 3855 3880 0
3853 -3855 3880 0
-3857 -3859 -3882 0
3857 3859 -3882 0
-3857 3859 3882 0
3857 -3859 3882 0
-3861 -3863 -3884 0
3861 3863 -3884 0
-3861 3863 3884 0
3861 -3863 3884 0
-3862 -3864 -3886 0
3862 3864 -3886 0
3862 -3864 3886 0
-3862 3864 3886 0
-3866 -3867 -3887 0
3866 3867 -3887 0
-3866 3867 3887 0
3866 -3867 3887 0
-3868 -3869 -3889 0
3868 3869 -3889 0
-3868 3869 3889 0
3868 -3869 3889 0
-3870 -3872 -3891 0
3870 3872 -3891 0
-3870 3872 3891 0
3870 -3872 3891 0
-3874 -3876 -3893 0
3874 3876 -3893 0
-3874 3876 3893 0
3874 -3876 3893 0
-3878 -3880 -3895 0
3878 3880 -3895 0
-3878 3880 3895 0
3878 -3880 3895 0
-3882 -3884 -3897 0
3882 3884 -3897 0
-3882 3884 3897 0
3882 -3884 3897 0
-3865 -3886 -3899 0
3865 3886 -3899 0
3865 -3886 3899 0
-3865 3886 3899 0
-3887 -3889 -3901 0
3887 3889 -3901 0
-3887 3889 3901 0
3887 -3889 3901 0
-3891 -3893 -3903 0
3891 3893 -3903 0
-3891 3893 3903 0
3891 -3893 3903 0
-3895 -3897 -3905 0
3895 3897 -3905 0
-3895 3897 3905 0
3895 -3897 3905 0
-3899 -3901 -3907 0
3899 3901 -3907 0
-3899 3901 3907 0
3899 -3901 3907 0
-3903 -3905 -3907 0
3903 3905 -3907 0
-3903 3905 3907 0
3903 -3905 3907 0
-3871 -3873 -3912 0
3871 3873 -3912 0
-3871 3873 3912 0
3871 -3873 3912 0
-3875 -3877 -3913 0
3875 3877 -3913 0
-3875 3877 3913 0
3875 -3877 3913 0
-3879 -3881 -3915 0
3879 3881 -3915 0
-3879 3881 3915 0
3879 -3881 3915 0
-3883 -3885 -3917 0
3883 3885 -3917 0
-3883 3885 3917 0
3883 -3885 3917 0
-3888 -3890 -3919 0
3888 3890 -3919 0
-3888 3890 3919 0
3888 -3890 3919 0
-3892 -3894 -3921 0
3892 3894 -3921 0
-3892 3894 3921 0
3892 -3894 3921 0
-3896 -3898 -3923 0
3896 3898 -3923 0
-3896 3898 3923 0
3896 -3898 3923 0
-3900 -3902 -3925 0
3900 3902 -3925 0
-3900 3902 3925 0
3900 -3902 3925 0
-3904 -3906 -3927 0
3904 3906 -3927 0
-3904 3906 3927 0
3904 -3906 3927 0
-3908 -3909 -3929 0
3908 3909 -3929 0
-3908 3909 3929 0
3908 -3909 3929 0
-3910 -3911 -3931 0
3910 3911 -3931 0
-3910 3911 3931 0
3910 -3911 3931 0
-3912 -3913 -3932 0
3912 3913 -3932 0
-3912 3913 3932 0
3912 -3913 3932 0
-3915 -3917 -3934 0
3915 3917 -3934 0
-3915 3917 3934 0
3915 -3917 3934 0
-3918 -3919 -3936 0
3918 3919 -3936 0
-3918 3919 3936 0
3918 -3919 3936 0
-3921 -3923 -3938 0
3921 3923 -3938 0
-3921 3923 3938 0
3921 -3923 3938 0
-3925 -3927 -3940 0
3925 3927 -3940 0
-3925 3927 3940 0
3925 -3927 3940 0
-3907 -3929 -3942 0
3907 3929 -3942 0
3907 -3929 3942 0
-3907 3929 3942 0
-3931 -3932 -3944 0
3931 3932 -3944 0
-3931 3932 3944 0
3931 -3932 3944 0
-3934 -3936 -3946 0
3934 3936 -3946 0
-3934 3936 3946 0
3934 -3936 3946 0
-3938 -3940 -3948 0
3938 3940 -3948 0
-3938 3940 3948 0
3938 -3940 3948 0
-3942 -3944 -3950 0
3942 3944 -3950 0
-3942 3944 3950 0
3942 -3944 3950 0
-3946 -3948 -3950 0
3946 3948 -3950 0
-3946 3948 3950 0
3946 -3948 3950 0
-3914 -3916 -3953 0
3914 3916 -3953 0
-3914 3916 3953 0
3914 -3916 3953 0
-3920 -3922 -3955 0
3920 3922 -3955 0
-3920 3922 3955 0
3920 -3922 3955 0
-3924 -3926 -3957 0
3924 3926 -3957 0
-3924 3926 3957 0
3924 -3926 3957 0
-3928 -3930 -3959 0
3928 3930 -3959 0
-3928 3930 3959 0
3928 -3930 3959 0
-3933 -3935 -3961 0
3933 3935 -3961 0
-3933 3935 3961 0
3933 -3935 3961 0
-3937 -3939 -3963 0
3937 3939 -3963 0
-3937 3939 3963 0
3937 -3939 3963 0
-3941 -3943 -3965 0
3941 3943 -3965 0
-3941 3943 3965 0
3941 -3943 3965 0
-3945 -3947 -3967 0
3945 3947 -3967 0
-3945 3947 3967 0
3945 -3947 3967 0
-3949 -3951 -3969 0
3949 3951 -3969 0
-3949 3951 3969 0
3949 -3951 3969 0
-3950 -3952 -3971 0
3950 3952 -3971 0
3950 -3952 3971 0
-3950 3952 3971 0
-3953 -3954 -3974 0
3953 3954 -3974 0
-3953 3954 3974 0
3953 -3954 3974 0
-3955 -3957 -3975 0
3955 3957 -3975 0
-3955 3957 3975 0
3955 -3957 3975 0
-3959 -3960 -3977 0
3959 3960 -3977 0
-3959 3960 3977 0
3959 -3960 3977 0
-3961 -3963 -3979 0
3961 3963 -3979 0
-3961 3963 3979 0
3961 -3963 3979 0
-3965 -3967 -3981 0
3965 3967 -3981 0
-3965 3967 3981 0
3965 -3967 3981 0
-3969 -3971 -3983 0
3969 3971 -3983 0
-3969 3971 3983 0
3969 -3971 3983 0
-3973 -3974 -3985 0
3973 3974 -3985 0
-3973 3974 3985 0
3973 -3974 3985 0
-3975 -3977 -3987 0
3975 3977 -3987 0
-3975 3977 3987 0
3975 -3977 3987 0
-3979 -3981 -3989 0
3979 3981 -3989 0
-3979 3981 3989 0
3979 -3981 3989 0
-3983 -3985 -3991 0
3983 3985 -3991 0
-3983 3985 3991 0
3983 -3985 3991 0
-3987 -3989 -3991 0
3987 3989 -3991 0
-3987 3989 3991 0
3987 -3989 3991 0
-3956 -3958 -3995 0
3956 3958 -3995 0
-3956 3958 3995 0
3956 -3958 3995 0
-3962 -3964 -3997 0
3962 3964 -3997 0
-3962 3964 3997 0
3962 -3964 3997 0
-3966 -3968 -3999 0
3966 3968 -3999 0
-3966 3968 3999 0
3966 -3968 3999 0
-3970 -3972 -4001 0
3970 3972 -4001 0
-3970 3972 4001 0
3970 -3972 4001 0
-3976 -3978 -4003 0
3976 3978 -4003 0
-3976 3978 4003 0
3976 -3978 4003 0
-3980 -3982 -4005 0
3980 3982 -4005 0
-3980 3982 4005 0
3980 -3982 4005 0
-3984 -3986 -4007 0
3984 3986 -4007 0
-3984 3986 4007 0
3984 -3986 4007 0
-3988 -3990 -4009 0
3988 3990 -4009 0
-3988 3990 4009 0
3988 -3990 4009 0
-3992 -3993 -4011 0
3992 3993 -4011 0
-3992 3993 4011 0
3992 -3993 4011 0
-3994 -3995 -4012 0
3994 3995 -4012 0
-3994 3995 4012 0
3994 -3995 4012 0
-3996 -3997 -4014 0
3996 3997 -4014 0
-3996 3997 4014 0
3996 -3997 4014 0
-3999 -4001 -4016 0
3999 4001 -4016 0
-3999 4001 4016 0
3999 -4001 4016 0
-4002 -4003 -4018 0
4002 4003 -4018 0
-4002 4003 4018 0
4002 -4003 4018 0
-4005 -4007 -4020 0
4005 4007 -4020 0
-4005 4007 4020 0
4005 -4007 4020 0
-4009 -4011 -4022 0
4009 4011 -4022 0
-4009 4011 4022 0
4009 -4011 4022 0
-3991 -4012 -4024 0
3991 4012 -4024 0
-3991 4012 4024 0
3991 -4012 4024 0
-4014 -4016 -4026 0
4014 4016 -4026 0
-4014 4016 4026 0
4014 -4016 4026 0
-4018 -4020 -4028 0
4018 4020 -4028 0
-4018 4020 4028 0
4018 -4020 4028 0
-4022 -4024 -4030 0
4022 4024 -4030 0
-4022 4024 4030 0
4022 -4024 4030 0
-4026 -4028 -4030 0
4026 4028 -4030 0
-4026 4028 4030 0
4026 -4028 4030 0
-3998 -4000 -4034 0
3998 4000 -4034 0
-3998 4000 4034 0
3998 -4000 4034 0
-4004 -4006 -4036 0
4004 4006 -4036 0
-4004 4006 4036 0
4004 -4006 4036 0
-4008 -4010 -4038 0
4008 4010 -4038 0
-4008 4010 4038 0
4008 -4010 4038 0
-4013 -4015 -4041 0
4013 4015 -4041 0
-4013 4015 4041 0
4013 -4015 4041 0
-4017 -4019 -4042 0
4017 4019 -4042 0
-4017 4019 4042 0
4017 -4019 4042 0
-4021 -4023 -4044 0
4021 4023 -4044 0
-4021 4023 4044 0
4021 -4023 4044 0
-4025 -4027 -4046 0
4025 4027 -4046 0
-4025 4027 4046 0
4025 -4027 4046 0
-4029 -4031 -4048 0
4029 4031 -4048 0
-4029 4031 4048 0
4029 -4031 4048 0
-4030 -4032 -4050 0
4030 4032 -4050 0
4030 -4032 4050 0
-4030 4032 4050 0
-4034 -4035 -4051 0
4034 4035 -4051 0
-4034 4035 4051 0
4034 -4035 4051 0
-4036 -4038 -4053 0
4036 4038 -4053 0
-4036 4038 4053 0
4036 -4038 4053 0
-4040 -4041 -4055 0
4040 4041 -4055 0
-4040 4041 4055 0
4040 -4041 4055 0
-4042 -4044 -4057 0
4042 4044 -4057 0
-4042 4044 4057 0
4042 -4044 4057 0
-4046 -4048 -4059 0
4046 4048 -4059 0
-4046 4048 4059 0
4046 -4048 4059 0
-4033 -4050 -4061 0
4033 4050 -4061 0
4033 -4050 4061 0
-4033 4050 4061 0
-4051 -4053 -4063 0
4051 4053 -4063 0
-4051 4053 4063 0
4051 -4053 4063 0
-4055 -4057 -4065 0
4055 4057 -4065 0
-4055 4057 4065 0
4055 -4057 4065 0
-4059 -4061 -4067 0
4059 4061 -4067 0
-4059 4061 4067 0
4059 -4061 4067 0
-4063 -4065 -4067 0
4063 4065 -4067 0
-4063 4065 4067 0
4063 -4065 4067 0
-4037 -4039 -4071 0
4037 4039 -4071 0
-4037 4039 4071 0
4037 -4039 4071 0
-4043 -4045 -4073 0
4043 4045 -4073 0
-4043 4045 4073 0
4043 -4045 4073 0
-4047 -4049 -4075 0
4047 4049 -4075 0
-4047 4049 4075 0
4047 -4049 4075 0
-4052 -4054 -4078 0
4052 4054 -4078 0
-4052 4054 4078 0
4052 -4054 4078 0
-4056 -4058 -4079 0
4056 4058 -4079 0
-4056 4058 4079 0
4056 -4058 4079 0
-4060 -4062 -4081 0
4060 4062 -4081 0
-4060 4062 4081 0
4060 -4062 4081 0
-4064 -4066 -4083 0
4064 4066 -4083 0
-4064 4066 4083 0
4064 -4066 4083 0
-4068 -4069 -4085 0
4068 4069 -4085 0
-4068 4069 4085 0
4068 -4069 4085 0
-4070 -4071 -4087 0
4070 4071 -4087 0
-4070 4071 4087 0
4070 -4071 4087 0
-4072 -4073 -4088 0
4072 4073 -4088 0
-4072 4073 4088 0
4072 -4073 4088 0
-4075 -4077 -4090 0
4075 4077 -4090 0
-4075 4077 4090 0
4075 -4077 4090 0
-4078 -4079 -4092 0
4078 4079 -4092 0
-4078 4079 4092 0
4078 -4079 4092 0
-4081 -4083 -4094 0
4081 4083 -4094 0
-4081 4083 4094 0
4081 -4083 4094 0
-4067 -4085 -4096 0
4067 4085 -4096 0
4067 -4085 4096 0
-4067 4085 4096 0
-4087 -4088 -4098 0
4087 4088 -4098 0
-4087 4088 4098 0
4087 -4088 4098 0
-4090 -4092 -4100 0
4090 4092 -4100 0
-4090 4092 4100 0
4090 -4092 4100 0
-4094 -4096 -4102 0
4094 4096 -4102 0
-4094 4096 4102 0
4094 -4096 4102 0
-4098 -4100 -4102 0
4098 4100 -4102 0
-4098 4100 4102 0
4098 -4100 4102 0
-4074 -4076 -4105 0
4074 4076 -4105 0
-4074 4076 4105 0
4074 -4076 4105 0
-4080 -4082 -4107 0
4080 4082 -4107 0
-4080 4082 4107 0
4080 -4082 4107 0
-4084 -4086 -4109 0
4084 4086 -4109 0
-4084 4086 4109 0
4084 -4086 4109 0
-4089 -4091 -4112 0
4089 4091 -4112 0
-4089 4091 4112 0
4089 -4091 4112 0
-4093 -4095 -4113 0
4093 4095 -4113 0
-4093 4095 4113 0
4093 -4095 4113 0
-4097 -4099 -4115 0
4097 4099 -4115 0
-4097 4099 4115 0
4097 -4099 4115 0
-4101 -4103 -4117 0
4101 4103 -4117 0
-4101 4103 4117 0
4101 -4103 4117 0
-4102 -4104 -4119 0
4102 4104 -4119 0
4102 -4104 4119 0
-4102 4104 4119 0
-4105 -4106 -4122 0
4105 4106 -4122 0
-4105 4106 4122 0
4105 -4106 4122 0
-4107 -4109 -4123 0
4107 4109 -4123 0
-4107 4109 4123 0
4107 -4109 4123 0
-4111 -4112 -4125 0
4111 4112 -4125 0
-4111 4112 4125 0
4111 -4112 4125 0
-4113 -4115 -4127 0
4113 4115 -4127 0
-4113 4115 4127 0
4113 -4115 4127 0
-4117 -4119 -4129 0
4117 4119 -4129 0
-4117 4119 4129 0
4117 -4119 4129 0
-4121 -4122 -4131 0
4121 4122 -4131 0
-4121 4122 4131 0
4121 -4122 4131 0
-4123 -4125 -4133 0
4123 4125 -4133 0
-4123 4125 4133 0
4123 -4125 4133 0
-4127 -4129 -4135 0
4127 4129 -4135 0
-4127 4129 4135 0
4127 -4129 4135 0
-4131 -4133 -4135 0
4131 4133 -4135 0
-4131 4133 4135 0
4131 -4133 4135 0
-4108 -4110 -4139 0
4108 4110 -4139 0
-4108 4110 4139 0
4108 -4110 4139 0
-4114 -4116 -4141 0
4114 4116 -4141 0
-4114 4116 4141 0
4114 -4116 4141 0
-4118 -4120 -4143 0
4118 4120 -4143 0
-4118 4120 4143 0
4118 -4120 4143 0
-4124 -4126 -4146 0
4124 4126 -4146 0
-4124 4126 4146 0
4124 -4126 4146 0
-4128 -4130 -4147 0
4128 4130 -4147 0
-4128 4130 4147 0
4128 -4130 4147 0
-4132 -4134 -4149 0
4132 4134 -4149 0
-4132 4134 4149 0
4132 -4134 4149 0
-4136 -4137 -4151 0
4136 4137 -4151 0
-4136 4137 4151 0
4136 -4137 4151 0
-4138 -4139 -4152 0
4138 4139 -4152 0
-4138 4139 4152 0
4138 -4139 4152 0
-4140 -4141 -4154 0
4140 4141 -4154 0
-4140 4141 4154 0
4140 -4141 4154 0
-4143 -4145 -4156 0
4143 4145 -4156 0
-4143 4145 4156 0
4143 -4145 4156 0
-4146 -4147 -4158 0
4146 4147 -4158 0
-4146 4147 4158 0
4146 -4147 4158 0
-4149 -4151 -4160 0
4149 4151 -4160 0
-4149 4151 4160 0
4149 -4151 4160 0
-4135 -4152 -4162 0
4135 4152 -4162 0
-4135 4152 4162 0
4135 -4152 4162 0
-4154 -4156 -4164 0
4154 4156 -4164 0
-4154 4156 4164 0
4154 -4156 4164 0
-4158 -4160 -4166 0
4158 4160 -4166 0
-4158 4160 4166 0
4158 -4160 4166 0
-4162 -4164 -4166 0
4162 4164 -4166 0
-4162 4164 4166 0
4162 -4164 4166 0
-4142 -4144 -4170 0
4142 4144 -4170 0
-4142 4144 4170 0
4142 -4144 4170 0
-4148 -4150 -4172 0
4148 4150 -4172 0
-4148 4150 4172 0
4148 -4150 4172 0
-4153 -4155 -4174 0
4153 4155 -4174 0
-4153 4155 4174 0
4153 -4155 4174 0
-4157 -4159 -4176 0
4157 4159 -4176 0
-4157 4159 4176 0
4157 -4159 4176 0
-4161 -4163 -4178 0
4161 4163 -4178 0
-4161 4163 4178 0
4161 -4163 4178 0
-4165 -4167 -4180 0
4165 4167 -4180 0
-4165 4167 4180 0
4165 -4167 4180 0
-4166 -4168 -4182 0
4166 4168 -4182 0
4166 -4168 4182 0
-4166 4168 4182 0
-4170 -4171 -4183 0
4170 4171 -4183 0
-4170 4171 4183 0
4170 -4171 4183 0
-4172 -4173 -4185 0
4172 4173 -4185 0
-4172 4173 4185 0
4172 -4173 4185 0
-4174 -4176 -4187 0
4174 4176 -4187 0
-4174 4176 4187 0
4174 -4176 4187 0
-4178 -4180 -4189 0
4178 4180 -4189 0
-4178 4180 4189 0
4178 -4180 4189 0
-4169 -4182 -4191 0
4169 4182 -4191 0
4169 -4182 4191 0
-4169 4182 4191 0
-4183 -4185 -4193 0
4183 4185 -4193 0
-4183 4185 4193 0
4183 -4185 4193 0
-4187 -4189 -4195 0
4187 4189 -4195 0
-4187 4189 4195 0
4187 -4189 4195 0
-4191 -4193 -4195 0
4191 4193 -4195 0
-4191 4193 4195 0
4191 -4193 4195 0
-4175 -4177 -4200 0
4175 4177 -4200 0
-4175 4177 4200 0
4175 -4177 4200 0
-4179 -4181 -4201 0
4179 4181 -4201 0
-4179 4181 4201 0
4179 -4181 4201 0
-4184 -4186 -4203 0
4184 4186 -4203 0
-4184 4186 4203 0
4184 -4186 4203 0
-4188 -4190 -4205 0
4188 4190 -4205 0
-4188 4190 4205 0
4188 -4190 4205 0
-4192 -4194 -4207 0
4192 4194 -4207 0
-4192 4194 4207 0
4192 -4194 4207 0
-4196 -4197 -4209 0
4196 4197 -4209 0
-4196 4197 4209 0
4196 -4197 4209 0
-4198 -4199 -4211 0
4198 4199 -4211 0
-4198 4199 4211 0
4198 -4199 4211 0
-4200 -4201 -4212 0
4200 4201 -4212 0
-4200 4201 4212 0
4200 -4201 4212 0
-4202 -4203 -4214 0
4202 4203 -4214 0
-4202 4203 4214 0
4202 -4203 4214 0
-4205 -4207 -4216 0
4205 4207 -4216 0
-4205 4207 4216 0
4205 -4207 4216 0
-4195 -4209 -4218 0
4195 4209 -4218 0
4195 -4209 4218 0
-4195 4209 4218 0
-4211 -4212 -4220 0
4211 4212 -4220 0
-4211 4212 4220 0
4211 -4212 4220 0
-4214 -4216 -4222 0
4214 4216 -4222 0
-4214 4216 4222 0
4214 -4216 4222 0
-4218 -4220 -4222 0
4218 4220 -4222 0
-4218 4220 4222 0
4218 -4220 4222 0
-4204 -4206 -4226 0
4204 4206 -4226 0
-4204 4206 4226 0
4204 -4206 4226 0
-4208 -4210 -4227 0
4208 4210 -4227 0
-4208 4210 4227 0
4208 -4210 4227 0
-4213 -4215 -4229 0
4213 4215 -4229 0
-4213 4215 4229 0
4213 -4215 4229 0
-4217 -4219 -4231 0
4217 4219 -4231 0
-4217 4219 4231 0
4217 -4219 4231 0
-4221 -4223 -4233 0
4221 4223 -4233 0
-4221 4223 4233 0
4221 -4223 4233 0
-4222 -4224 -4235 0
4222 4224 -4235 0
4222 -4224 4235 0
-4222 4224 4235 0
-4225 -4226 -4238 0
4225 4226 -4238 0
-4225 4226 4238 0
4225 -4226 4238 0
-4227 -4228 -4239 0
4227 4228 -4239 0
-4227 4228 4239 0
4227 -4228 4239 0
-4229 -4231 -4241 0
4229 4231 -4241 0
-4229 4231 4241 0
4229 -4231 4241 0
-4233 -4235 -4243 0
4233 4235 -4243 0
-4233 4235 4243 0
4233 -4235 4243 0
-4237 -4238 -4245 0
4237 4238 -4245 0
-4237 4238 4245 0
4237 -4238 4245 0
-4239 -4241 -4247 0
4239 4241 -4247 0
-4239 4241 4247 0
4239 -4241 4247 0
-4243 -4245 -4247 0
4243 4245 -4247 0
-4243 4245 4247 0
4243 -4245 4247 0
-4230 -4232 -4252 0
4230 4232 -4252 0
-4230 4232 4252 0
4230 -4232 4252 0
-4234 -4236 -4253 0
4234 4236 -4253 0
-4234 4236 4253 0
4234 -4236 4253 0
-4240 -4242 -4255 0
4240 4242 -4255 0
-4240 4242 4255 0
4240 -4242 4255 0
-4244 -4246 -4257 0
4244 4246 -4257 0
-4244 4246 4257 0
4244 -4246 4257 0
-4248 -4249 -4259 0
4248 4249 -4259 0
-4248 4249 4259 0
4248 -4249 4259 0
-4250 -4251 -4260 0
4250 4251 -4260 0
-4250 4251 4260 0
4250 -4251 4260 0
-4252 -4253 -4262 0
4252 4253 -4262 0
-4252 4253 4262 0
4252 -4253 4262 0
-4254 -4255 -4264 0
4254 4255 -4264 0
-4254 4255 4264 0
4254 -4255 4264 0
-4257 -4259 -4266 0
4257 4259 -4266 0
-4257 4259 4266 0
4257 -4259 4266 0
-4247 -4260 -4268 0
4247 4260 -4268 0
-4247 4260 4268 0
4247 -4260 4268 0
-4262 -4264 -4270 0
4262 4264 -4270 0
-4262 4264 4270 0
4262 -4264 4270 0
-4266 -4268 -4270 0
4266 4268 -4270 0
-4266 4268 4270 0
4266 -4268 4270 0
-4256 -4258 -4275 0
4256 4258 -4275 0
-4256 4258 4275 0
4256 -4258 4275 0
-4261 -4263 -4277 0
4261 4263 -4277 0
-4261 4263 4277 0
4261 -4263 4277 0
-4265 -4267 -4278 0
4265 4267 -4278 0
-4265 4267 4278 0
4265 -4267 4278 0
-4269 -4271 -4280 0
4269 4271 -4280 0
-4269 4271 4280 0
4269 -4271 4280 0
-4270 -4272 -4282 0
4270 4272 -4282 0
4270 -4272 4282 0
-4270 4272 4282 0
-4274 -4275 -4283 0
4274 4275 -4283 0
-4274 4275 4283 0
4274 -4275 4283 0
-4276 -4277 -4285 0
4276 4277 -4285 0
-4276 4277 4285 0
4276 -4277 4285 0
-4278 -4280 -4287 0
4278 4280 -4287 0
-4278 4280 4287 0
4278 -4280 4287 0
-4273 -4282 -4289 0
4273 4282 -4289 0
4273 -4282 4289 0
-4273 4282 4289 0
-4283 -4285 -4291 0
4283 4285 -4291 0
-4283 4285 4291 0
4283 -4285 4291 0
-4287 -4289 -4291 0
4287 4289 -4291 0
-4287 4289 4291 0
4287 -4289 4291 0
-4279 -4281 -4296 0
4279 4281 -4296 0
-4279 4281 4296 0
4279 -4281 4296 0
-4284 -4286 -4298 0
4284 4286 -4298 0
-4284 4286 4298 0
4284 -4286 4298 0
-4288 -4290 -4299 0
4288 4290 -4299 0
-4288 4290 4299 0
4288 -4290 4299 0
-4292 -4293 -4301 0
4292 4293 -4301 0
-4292 4293 4301 0
4292 -4293 4301 0
-4294 -4295 -4303 0
4294 4295 -4303 0
-4294 4295 4303 0
4294 -4295 4303 0
-4296 -4297 -4304 0
4296 4297 -4304 0
-4296 4297 4304 0
4296 -4297 4304 0
-4298 -4299 -4306 0
4298 4299 -4306 0
-4298 4299 4306 0
4298 -4299 4306 0
-4291 -4301 -4308 0
4291 4301 -4308 0
4291 -4301 4308 0
-4291 4301 4308 0
-4303 -4304 -4310 0
4303 4304 -4310 0
-4303 4304 4310 0
4303 -4304 4310 0
-4306 -4308 -4310 0
4306 4308 -4310 0
-4306 4308 4310 0
4306 -4308 4310 0
-4300 -4302 -4314 0
4300 4302 -4314 0
-4300 4302 4314 0
4300 -4302 4314 0
-4305 -4307 -4316 0
4305 4307 -4316 0
-4305 4307 4316 0
4305 -4307 4316 0
-4309 -4311 -4317 0
4309 4311 -4317 0
-4309 4311 4317 0
4309 -4311 4317 0
-4310 -4312 -4319 0
4310 4312 -4319 0
4310 -4312 4319 0
-4310 4312 4319 0
-4313 -4314 -4322 0
4313 4314 -4322 0
-4313 4314 4322 0
4313 -4314 4322 0
-4315 -4316 -4323 0
4315 4316 -4323 0
-4315 4316 4323 0
4315 -4316 4323 0
-4317 -4319 -4325 0
4317 4319 -4325 0
-4317 4319 4325 0
4317 -4319 4325 0
-4321 -4322 -4327 0
4321 4322 -4327 0
-4321 4322 4327 0
4321 -4322 4327 0
-4323 -4325 -4327 0
4323 4325 -4327 0
-4323 4325 4327 0
4323 -4325 4327 0
-4318 -4320 -4332 0
4318 4320 -4332 0
-4318 4320 4332 0
4318 -4320 4332 0
-4324 -4326 -4334 0
4324 4326 -4334 0
-4324 4326 4334 0
4324 -4326 4334 0
-4328 -4329 -4335 0
4328 4329 -4335 0
-4328 4329 4335 0
4328 -4329 4335 0
-4330 -4331 -4336 0
4330 4331 -4336 0
-4330 4331 4336 0
4330 -4331 4336 0
-4332 -4333 -4338 0
4332 4333 -4338 0
-4332 4333 4338 0
4332 -4333 4338 0
-4334 -4335 -4340 0
4334 4335 -4340 0
-4334 4335 4340 0
4334 -4335 4340 0
-4327 -4336 -4342 0
4327 4336 -4342 0
-4327 4336 4342 0
4327 -4336 4342 0
-4338 -4340 -4342 0
4338 4340 -4342 0
-4338 4340 4342 0
4338 -4340 4342 0
-4337 -4339 -4348 0
4337 4339 -4348 0
-4337 4339 4348 0
4337 -4339 4348 0
-4341 -4343 -4350 0
4341 4343 -4350 0
-4341 4343 4350 0
4341 -4343 4350 0
-4342 -4344 -4352 0
4342 4344 -4352 0
4342 -4344 4352 0
-4342 4344 4352 0
-4346 -4347 -4353 0
4346 4347 -4353 0
-4346 4347 4353 0
4346 -4347 4353 0
-4348 -4350 -4355 0
4348 4350 -4355 0
-4348 4350 4355 0
4348 -4350 4355 0
-4345 -4352 -4357 0
4345 4352 -4357 0
4345 -4352 4357 0
-4345 4352 4357 0
-4353 -4355 -4357 0
4353 4355 -4357 0
-4353 4355 4357 0
4353 -4355 4357 0
-4349 -4351 -4365 0
4349 4351 -4365 0
-4349 4351 4365 0
4349 -4351 4365 0
-4354 -4356 -4361 0
4354 4356 -4361 0
-4354 4356 4361 0
4354 -4356 4361 0
-4358 -4359 -4363 0
4358 4359 -4363 0
-4358 4359 4363 0
4358 -4359 4363 0
-4360 -4361 -4366 0
4360 4361 -4366 0
-4360 4361 4366 0
4360 -4361 4366 0
-4357 -4363 -4368 0
4357 4363 -4368 0
4357 -4363 4368 0
-4357 4363 4368 0
-4365 -4366 -4368 0
4365 4366 -4368 0
-4365 4366 4368 0
4365 -4366 4368 0
-4362 -4364 -4376 0
4362 4364 -4376 0
-4362 4364 4376 0
4362 -4364 4376 0
-4367 -4369 -4372 0
4367 4369 -4372 0
-4367 4369 4372 0
4367 -4369 4372 0
-4368 -4370 -4374 0
4368 4370 -4374 0
4368 -4370 4374 0
-4368 4370 4374 0
-4372 -4374 -4377 0
4372 4374 -4377 0
-4372 4374 4377 0
4372 -4374 4377 0
-4371 -4376 -4377 0
4371 4376 -4377 0
-4371 4376 4377 0
4371 -4376 4377 0
-4373 -4375 -4381 0
4373 4375 -4381 0
-4373 4375 4381 0
4373 -4375 4381 0
-4378 -4379 -4383 0
4378 4379 -4383 0
-4378 4379 4383 0
4378 -4379 4383 0
-4380 -4381 -4382 0
4380 4381 -4382 0
-4380 4381 4382 0
4380 -4381 4382 0
-4377 -4382 -4383 0
4377 4382 -4383 0
-4377 4382 4383 0
4377 -4382 4383 0
-4383 -4384 -4388 0
4383 4384 -4388 0
4383 -4384 4388 0
-4383 4384 4388 0
-4386 -4387 -4389 0
4386 4387 -4389 0
-4386 4387 4389 0
4386 -4387 4389 0
-4385 -4388 -4389 0
4385 4388 -4389 0
4385 -4388 4389 0
-4385 4388 4389 0
4390 4391 -4392 0
-4390 4391 4392 0
4390 -4391 4392 0
4389 -4392 4393 0
-4389 4392 4393 0
