c Factorization SAT instance #32: N = 376111 = 457 x 823
c p = 457 (9 bits), q = 823 (10 bits)
c N = 376111 (19 bits)
c Generator: generate_instances.py  d=3, k=50, seed=None
p cnf 4299 15206
1 9 -84 0
-1 -9 0
-9 84 0
1 -2 10 0
-1 -10 0
2 -10 0
1 -3 11 0
-1 -11 0
3 -11 0
1 -4 12 0
-1 -12 0
4 -12 0
1 -5 13 0
-1 -13 0
5 -13 0
1 -6 14 0
-1 -14 0
6 -14 0
1 -7 15 0
-1 -15 0
7 -15 0
1 -8 16 0
-1 -16 0
8 -16 0
-1 17 84 0
-17 -84 0
1 -17 0
-2 18 84 0
-18 -84 0
2 -18 0
-3 19 84 0
-19 -84 0
3 -19 0
-4 20 84 0
-20 -84 0
4 -20 0
-5 21 84 0
-21 -84 0
5 -21 0
-6 22 84 0
-22 -84 0
6 -22 0
-7 23 84 0
-23 -84 0
7 -23 0
-8 24 84 0
-24 -84 0
8 -24 0
-1 -25 87 0
25 -87 0
1 -87 0
-25 26 -84 0
25 -26 0
-26 84 0
-2 -25 27 0
25 -27 0
2 -27 0
-3 -25 28 0
25 -28 0
3 -28 0
-4 -25 29 0
25 -29 0
4 -29 0
-5 -25 30 0
25 -30 0
5 -30 0
-6 -25 31 0
25 -31 0
6 -31 0
-7 -25 32 0
25 -32 0
7 -32 0
-8 -25 33 0
25 -33 0
8 -33 0
-1 -34 35 0
34 -35 0
1 -35 0
-34 36 -84 0
34 -36 0
-36 84 0
-2 -34 37 0
34 -37 0
2 -37 0
-3 -34 38 0
34 -38 0
3 -38 0
-4 -34 39 0
34 -39 0
4 -39 0
-5 -34 40 0
34 -40 0
5 -40 0
-6 -34 41 0
34 -41 0
6 -41 0
-7 -34 42 0
34 -42 0
7 -42 0
-8 -34 43 0
34 -43 0
8 -43 0
-1 -44 45 0
44 -45 0
1 -45 0
-44 46 -84 0
44 -46 0
-46 84 0
-2 -44 47 0
44 -47 0
2 -47 0
-3 -44 48 0
44 -48 0
3 -48 0
-4 -44 49 0
44 -49 0
4 -49 0
-5 -44 50 0
44 -50 0
5 -50 0
-6 -44 51 0
44 -51 0
6 -51 0
-7 -44 52 0
44 -52 0
7 -52 0
-8 -44 53 0
44 -53 0
8 -53 0
-1 -54 55 0
54 -55 0
1 -55 0
-54 56 -84 0
54 -56 0
-56 84 0
-2 -54 57 0
54 -57 0
2 -57 0
-3 -54 58 0
54 -58 0
3 -58 0
-4 -54 59 0
54 -59 0
4 -59 0
-5 -54 60 0
54 -60 0
5 -60 0
-6 -54 61 0
54 -61 0
6 -61 0
-7 -54 62 0
54 -62 0
7 -62 0
-8 -54 63 0
54 -63 0
8 -63 0
-1 -64 65 0
64 -65 0
1 -65 0
-64 66 -84 0
64 -66 0
-66 84 0
-2 -64 67 0
64 -67 0
2 -67 0
-3 -64 68 0
64 -68 0
3 -68 0
-4 -64 69 0
64 -69 0
4 -69 0
-5 -64 70 0
64 -70 0
5 -70 0
-6 -64 71 0
64 -71 0
6 -71 0
-7 -64 72 0
64 -72 0
7 -72 0
-8 -64 73 0
64 -73 0
8 -73 0
-1 -74 75 0
74 -75 0
1 -75 0
-74 76 -84 0
74 -76 0
-76 84 0
-2 -74 77 0
74 -77 0
2 -77 0
-3 -74 78 0
74 -78 0
3 -78 0
-4 -74 79 0
74 -79 0
4 -79 0
-5 -74 80 0
74 -80 0
5 -80 0
-6 -74 81 0
74 -81 0
6 -81 0
-7 -74 82 0
74 -82 0
7 -82 0
-8 -74 83 0
74 -83 0
8 -83 0
-2 -9 85 0
2 -85 0
9 -85 0
-17 -25 91 0
17 -91 0
25 -91 0
-3 -10 99 0
3 -99 0
10 -99 0
-34 -85 100 0
34 -100 0
85 -100 0
-87 -88 101 0
87 -101 0
88 -101 0
-89 -90 92 0
89 -92 0
90 -92 0
-4 -11 94 0
4 -94 0
11 -94 0
-18 -26 96 0
18 -96 0
26 -96 0
-35 -44 98 0
35 -98 0
44 -98 0
-91 -92 103 0
92 -103 0
91 -103 0
-93 -95 105 0
93 -105 0
95 -105 0
-97 -99 119 0
97 -119 0
99 -119 0
-101 -102 108 0
101 -108 0
102 -108 0
-104 -106 110 0
104 -110 0
106 -110 0
-100 -107 121 0
100 -121 0
107 -121 0
-5 -12 112 0
5 -112 0
12 -112 0
-19 -27 114 0
19 -114 0
27 -114 0
-36 -45 116 0
36 -116 0
45 -116 0
-54 -94 118 0
54 -118 0
94 -118 0
-96 -98 145 0
96 -145 0
98 -145 0
-103 -105 146 0
103 -146 0
105 -146 0
-108 -110 147 0
108 -147 0
110 -147 0
-111 -113 148 0
111 -148 0
113 -148 0
-115 -117 149 0
115 -149 0
117 -149 0
-119 -120 150 0
119 -150 0
120 -150 0
-121 -122 128 0
121 -128 0
122 -128 0
-123 -124 130 0
123 -130 0
124 -130 0
-125 -126 132 0
125 -132 0
126 -132 0
-127 -129 133 0
127 -133 0
129 -133 0
-6 -13 135 0
6 -135 0
13 -135 0
-20 -28 137 0
20 -137 0
28 -137 0
-37 -46 139 0
37 -139 0
46 -139 0
-55 -64 141 0
55 -141 0
64 -141 0
-112 -114 143 0
112 -143 0
114 -143 0
-116 -118 193 0
116 -193 0
118 -193 0
-128 -130 194 0
128 -194 0
130 -194 0
-132 -133 153 0
132 -153 0
133 -153 0
-131 -134 155 0
131 -155 0
134 -155 0
-136 -138 157 0
136 -157 0
138 -157 0
-140 -142 159 0
140 -159 0
142 -159 0
-144 -145 161 0
144 -161 0
145 -161 0
-146 -147 163 0
146 -163 0
147 -163 0
-148 -149 165 0
148 -165 0
149 -165 0
-150 -151 167 0
150 -167 0
151 -167 0
-152 -154 169 0
152 -169 0
154 -169 0
-156 -158 171 0
156 -171 0
158 -171 0
-160 -162 173 0
160 -173 0
162 -173 0
-164 -166 175 0
164 -175 0
166 -175 0
-168 -170 177 0
168 -177 0
170 -177 0
-172 -174 178 0
172 -178 0
174 -178 0
-7 -14 180 0
7 -180 0
14 -180 0
-21 -29 182 0
21 -182 0
29 -182 0
-38 -47 184 0
38 -184 0
47 -184 0
-56 -65 186 0
56 -186 0
65 -186 0
-74 -135 188 0
74 -188 0
135 -188 0
-137 -139 190 0
137 -190 0
139 -190 0
-141 -143 192 0
141 -192 0
143 -192 0
-153 -155 196 0
153 -196 0
155 -196 0
-157 -159 198 0
157 -198 0
159 -198 0
-161 -163 200 0
161 -200 0
163 -200 0
-165 -167 202 0
165 -202 0
167 -202 0
-169 -171 204 0
169 -204 0
171 -204 0
-173 -175 206 0
173 -206 0
175 -206 0
-177 -178 208 0
177 -208 0
178 -208 0
-176 -179 210 0
176 -210 0
179 -210 0
-181 -183 212 0
181 -212 0
183 -212 0
-185 -187 214 0
185 -214 0
187 -214 0
-189 -191 258 0
189 -258 0
191 -258 0
-195 -197 259 0
195 -259 0
197 -259 0
-199 -201 218 0
199 -218 0
201 -218 0
-203 -205 220 0
203 -220 0
205 -220 0
-207 -209 222 0
207 -222 0
209 -222 0
-211 -213 224 0
211 -224 0
213 -224 0
-193 -215 226 0
215 -226 0
193 -226 0
-194 -216 228 0
194 -228 0
216 -228 0
-217 -219 230 0
217 -230 0
219 -230 0
-221 -223 232 0
221 -232 0
223 -232 0
-225 -227 234 0
225 -234 0
227 -234 0
-229 -231 235 0
229 -235 0
231 -235 0
-8 -15 236 0
8 -236 0
15 -236 0
-22 -30 238 0
22 -238 0
30 -238 0
-39 -48 240 0
39 -240 0
48 -240 0
-57 -66 242 0
57 -242 0
66 -242 0
-75 -180 244 0
75 -244 0
180 -244 0
-182 -184 246 0
182 -246 0
184 -246 0
-186 -188 248 0
186 -248 0
188 -248 0
-190 -192 249 0
190 -249 0
192 -249 0
-196 -198 250 0
196 -250 0
198 -250 0
-200 -202 252 0
200 -252 0
202 -252 0
-204 -206 254 0
204 -254 0
206 -254 0
-208 -210 256 0
208 -256 0
210 -256 0
-212 -214 324 0
212 -324 0
214 -324 0
-218 -220 325 0
218 -325 0
220 -325 0
-222 -224 262 0
222 -262 0
224 -262 0
-226 -228 264 0
226 -264 0
228 -264 0
-230 -232 266 0
230 -266 0
232 -266 0
-234 -235 268 0
234 -268 0
235 -268 0
-237 -239 330 0
237 -330 0
239 -330 0
-241 -243 272 0
241 -272 0
243 -272 0
-245 -247 274 0
245 -274 0
247 -274 0
-251 -253 278 0
251 -278 0
253 -278 0
-255 -257 280 0
255 -280 0
257 -280 0
-258 -259 282 0
258 -282 0
259 -282 0
-260 -261 284 0
260 -284 0
261 -284 0
-263 -265 286 0
263 -286 0
265 -286 0
-267 -269 288 0
267 -288 0
269 -288 0
-270 -271 290 0
270 -290 0
271 -290 0
-273 -275 292 0
273 -292 0
275 -292 0
-276 -277 294 0
276 -294 0
277 -294 0
-279 -281 296 0
279 -296 0
281 -296 0
-283 -285 298 0
283 -298 0
285 -298 0
-287 -289 300 0
287 -300 0
289 -300 0
-291 -293 302 0
291 -302 0
293 -302 0
-295 -297 304 0
295 -304 0
297 -304 0
-299 -301 305 0
299 -305 0
301 -305 0
-16 -23 307 0
16 -307 0
23 -307 0
-31 -40 309 0
31 -309 0
40 -309 0
-49 -58 311 0
49 -311 0
58 -311 0
-67 -76 313 0
67 -313 0
76 -313 0
-236 -238 315 0
236 -315 0
238 -315 0
-240 -242 317 0
240 -317 0
242 -317 0
-244 -246 319 0
244 -319 0
246 -319 0
-248 -249 401 0
248 -401 0
249 -401 0
-250 -252 321 0
250 -321 0
252 -321 0
-254 -256 323 0
254 -323 0
256 -323 0
-262 -264 327 0
262 -327 0
264 -327 0
-266 -268 329 0
266 -329 0
268 -329 0
-272 -274 403 0
272 -403 0
274 -403 0
-278 -280 404 0
278 -404 0
280 -404 0
-282 -284 333 0
282 -333 0
284 -333 0
-286 -288 335 0
286 -335 0
288 -335 0
-290 -292 337 0
290 -337 0
292 -337 0
-294 -296 339 0
294 -339 0
296 -339 0
-298 -300 341 0
298 -341 0
300 -341 0
-302 -304 343 0
302 -343 0
304 -343 0
-303 -305 345 0
305 -345 0
303 -345 0
-306 -308 347 0
306 -347 0
308 -347 0
-310 -312 349 0
310 -349 0
312 -349 0
-314 -316 351 0
314 -351 0
316 -351 0
-318 -320 414 0
318 -414 0
320 -414 0
-322 -324 355 0
322 -355 0
324 -355 0
-325 -326 357 0
325 -357 0
326 -357 0
-328 -330 416 0
328 -416 0
330 -416 0
-331 -332 361 0
331 -361 0
332 -361 0
-334 -336 363 0
334 -363 0
336 -363 0
-338 -340 365 0
338 -365 0
340 -365 0
-342 -344 367 0
342 -367 0
344 -367 0
-346 -348 369 0
346 -369 0
348 -369 0
-350 -352 371 0
350 -371 0
352 -371 0
-353 -354 373 0
353 -373 0
354 -373 0
-356 -358 375 0
356 -375 0
358 -375 0
-359 -360 377 0
359 -377 0
360 -377 0
-362 -364 379 0
362 -379 0
364 -379 0
-366 -368 381 0
366 -381 0
368 -381 0
-370 -372 383 0
370 -383 0
372 -383 0
-374 -376 385 0
374 -385 0
376 -385 0
-378 -380 387 0
378 -387 0
380 -387 0
-382 -384 430 0
382 -430 0
384 -430 0
-24 -32 389 0
24 -389 0
32 -389 0
-41 -50 391 0
41 -391 0
50 -391 0
-59 -68 393 0
59 -393 0
68 -393 0
-77 -307 395 0
77 -395 0
307 -395 0
-309 -311 397 0
309 -397 0
311 -397 0
-313 -315 399 0
313 -399 0
315 -399 0
-317 -319 491 0
317 -491 0
319 -491 0
-321 -323 492 0
321 -492 0
323 -492 0
-327 -329 493 0
327 -493 0
329 -493 0
-333 -335 494 0
333 -494 0
335 -494 0
-337 -339 407 0
337 -407 0
339 -407 0
-341 -343 409 0
341 -409 0
343 -409 0
-345 -347 411 0
345 -411 0
347 -411 0
-349 -351 413 0
349 -413 0
351 -413 0
-355 -357 497 0
355 -497 0
357 -497 0
-361 -363 498 0
361 -498 0
363 -498 0
-365 -367 419 0
365 -419 0
367 -419 0
-369 -371 421 0
369 -421 0
371 -421 0
-373 -375 423 0
373 -423 0
375 -423 0
-377 -379 425 0
377 -425 0
379 -425 0
-381 -383 427 0
381 -427 0
383 -427 0
-385 -387 429 0
385 -429 0
387 -429 0
-388 -390 504 0
388 -504 0
390 -504 0
-392 -394 433 0
392 -433 0
394 -433 0
-396 -398 435 0
396 -435 0
398 -435 0
-400 -401 506 0
400 -506 0
401 -506 0
-402 -403 439 0
402 -439 0
403 -439 0
-404 -405 441 0
404 -441 0
405 -441 0
-406 -408 443 0
406 -443 0
408 -443 0
-410 -412 445 0
410 -445 0
412 -445 0
-414 -415 447 0
414 -447 0
415 -447 0
-416 -417 449 0
416 -449 0
417 -449 0
-418 -420 451 0
418 -451 0
420 -451 0
-422 -424 453 0
422 -453 0
424 -453 0
-426 -428 455 0
426 -455 0
428 -455 0
-430 -431 457 0
430 -457 0
431 -457 0
-432 -434 459 0
432 -459 0
434 -459 0
-436 -437 461 0
436 -461 0
437 -461 0
-438 -440 463 0
438 -463 0
440 -463 0
-442 -444 465 0
442 -465 0
444 -465 0
-446 -448 467 0
446 -467 0
448 -467 0
-450 -452 469 0
450 -469 0
452 -469 0
-454 -456 471 0
454 -471 0
456 -471 0
-458 -460 473 0
458 -473 0
460 -473 0
-462 -464 475 0
462 -475 0
464 -475 0
-466 -468 477 0
466 -477 0
468 -477 0
-470 -472 479 0
470 -479 0
472 -479 0
-474 -476 480 0
474 -480 0
476 -480 0
-33 -42 481 0
33 -481 0
42 -481 0
-51 -60 483 0
51 -483 0
60 -483 0
-69 -78 485 0
69 -485 0
78 -485 0
-389 -391 487 0
389 -487 0
391 -487 0
-393 -395 489 0
393 -489 0
395 -489 0
-397 -399 593 0
397 -593 0
399 -593 0
-407 -409 594 0
407 -594 0
409 -594 0
-411 -413 595 0
411 -595 0
413 -595 0
-419 -421 596 0
419 -596 0
421 -596 0
-423 -425 501 0
423 -501 0
425 -501 0
-427 -429 503 0
427 -503 0
429 -503 0
-433 -435 598 0
433 -598 0
435 -598 0
-439 -441 599 0
439 -599 0
441 -599 0
-443 -445 509 0
443 -509 0
445 -509 0
-447 -449 511 0
447 -511 0
449 -511 0
-451 -453 513 0
451 -513 0
453 -513 0
-455 -457 515 0
455 -515 0
457 -515 0
-459 -461 517 0
459 -517 0
461 -517 0
-463 -465 519 0
463 -519 0
465 -519 0
-467 -469 521 0
467 -521 0
469 -521 0
-471 -473 523 0
471 -523 0
473 -523 0
-475 -477 525 0
475 -525 0
477 -525 0
-479 -480 527 0
479 -527 0
480 -527 0
-482 -484 609 0
482 -609 0
484 -609 0
-486 -488 531 0
486 -531 0
488 -531 0
-490 -491 533 0
490 -533 0
491 -533 0
-492 -493 535 0
492 -535 0
493 -535 0
-494 -495 537 0
494 -537 0
495 -537 0
-496 -497 539 0
496 -539 0
497 -539 0
-498 -499 541 0
498 -541 0
499 -541 0
-500 -502 543 0
500 -543 0
502 -543 0
-504 -505 545 0
504 -545 0
505 -545 0
-506 -507 547 0
506 -547 0
507 -547 0
-508 -510 549 0
508 -549 0
510 -549 0
-512 -514 551 0
512 -551 0
514 -551 0
-516 -518 553 0
516 -553 0
518 -553 0
-520 -522 555 0
520 -555 0
522 -555 0
-524 -526 557 0
524 -557 0
526 -557 0
-528 -529 559 0
528 -559 0
529 -559 0
-530 -532 561 0
530 -561 0
532 -561 0
-534 -536 563 0
534 -563 0
536 -563 0
-538 -540 565 0
538 -565 0
540 -565 0
-542 -544 567 0
542 -567 0
544 -567 0
-546 -548 569 0
546 -569 0
548 -569 0
-550 -552 571 0
550 -571 0
552 -571 0
-554 -556 573 0
554 -573 0
556 -573 0
-558 -560 575 0
558 -575 0
560 -575 0
-562 -564 577 0
562 -577 0
564 -577 0
-566 -568 579 0
566 -579 0
568 -579 0
-570 -572 581 0
570 -581 0
572 -581 0
-574 -576 583 0
574 -583 0
576 -583 0
-578 -580 584 0
578 -584 0
580 -584 0
-43 -52 585 0
43 -585 0
52 -585 0
-61 -70 587 0
61 -587 0
70 -587 0
-79 -481 589 0
79 -589 0
481 -589 0
-483 -485 591 0
483 -591 0
485 -591 0
-487 -489 701 0
487 -701 0
489 -701 0
-501 -503 702 0
501 -702 0
503 -702 0
-509 -511 703 0
509 -703 0
511 -703 0
-513 -515 602 0
513 -602 0
515 -602 0
-517 -519 604 0
517 -604 0
519 -604 0
-521 -523 606 0
521 -606 0
523 -606 0
-525 -527 608 0
525 -608 0
527 -608 0
-531 -533 708 0
531 -708 0
533 -708 0
-535 -537 612 0
535 -612 0
537 -612 0
-539 -541 614 0
539 -614 0
541 -614 0
-543 -545 616 0
543 -616 0
545 -616 0
-547 -549 618 0
547 -618 0
549 -618 0
-551 -553 620 0
551 -620 0
553 -620 0
-555 -557 622 0
555 -622 0
557 -622 0
-559 -561 624 0
559 -624 0
561 -624 0
-563 -565 626 0
563 -626 0
565 -626 0
-567 -569 628 0
567 -628 0
569 -628 0
-571 -573 630 0
571 -630 0
573 -630 0
-575 -577 632 0
575 -632 0
577 -632 0
-579 -581 634 0
579 -634 0
581 -634 0
-583 -584 719 0
583 -719 0
584 -719 0
-586 -588 638 0
586 -638 0
588 -638 0
-590 -592 640 0
590 -640 0
592 -640 0
-594 -595 721 0
594 -721 0
595 -721 0
-596 -597 643 0
596 -643 0
597 -643 0
-598 -599 645 0
598 -645 0
599 -645 0
-600 -601 647 0
600 -647 0
601 -647 0
-603 -605 649 0
603 -649 0
605 -649 0
-607 -609 651 0
607 -651 0
609 -651 0
-610 -611 653 0
610 -653 0
611 -653 0
-613 -615 655 0
613 -655 0
615 -655 0
-617 -619 657 0
617 -657 0
619 -657 0
-621 -623 659 0
621 -659 0
623 -659 0
-625 -627 661 0
625 -661 0
627 -661 0
-629 -631 663 0
629 -663 0
631 -663 0
-633 -635 665 0
633 -665 0
635 -665 0
-636 -637 667 0
636 -667 0
637 -667 0
-593 -639 669 0
639 -669 0
593 -669 0
-641 -642 671 0
641 -671 0
642 -671 0
-644 -646 673 0
644 -673 0
646 -673 0
-648 -650 675 0
648 -675 0
650 -675 0
-652 -654 677 0
652 -677 0
654 -677 0
-656 -658 679 0
656 -679 0
658 -679 0
-660 -662 681 0
660 -681 0
662 -681 0
-664 -666 683 0
664 -683 0
666 -683 0
-668 -670 685 0
668 -685 0
670 -685 0
-672 -674 687 0
672 -687 0
674 -687 0
-676 -678 689 0
676 -689 0
678 -689 0
-680 -682 691 0
680 -691 0
682 -691 0
-684 -686 693 0
684 -693 0
686 -693 0
-688 -690 747 0
688 -747 0
690 -747 0
-53 -62 695 0
53 -695 0
62 -695 0
-71 -80 697 0
71 -697 0
80 -697 0
-585 -587 699 0
585 -699 0
587 -699 0
-589 -591 814 0
589 -814 0
591 -814 0
-602 -604 705 0
602 -705 0
604 -705 0
-606 -608 707 0
606 -707 0
608 -707 0
-612 -614 816 0
612 -816 0
614 -816 0
-616 -618 711 0
616 -711 0
618 -711 0
-620 -622 713 0
620 -713 0
622 -713 0
-624 -626 715 0
624 -715 0
626 -715 0
-628 -630 717 0
628 -717 0
630 -717 0
-632 -634 821 0
632 -821 0
634 -821 0
-638 -640 822 0
638 -822 0
640 -822 0
-643 -645 723 0
643 -723 0
645 -723 0
-647 -649 725 0
647 -725 0
649 -725 0
-651 -653 727 0
651 -727 0
653 -727 0
-655 -657 729 0
655 -729 0
657 -729 0
-659 -661 731 0
659 -731 0
661 -731 0
-663 -665 733 0
663 -733 0
665 -733 0
-667 -669 735 0
667 -735 0
669 -735 0
-671 -673 737 0
671 -737 0
673 -737 0
-675 -677 739 0
675 -739 0
677 -739 0
-679 -681 741 0
679 -741 0
681 -741 0
-683 -685 743 0
683 -743 0
685 -743 0
-687 -689 745 0
687 -745 0
689 -745 0
-691 -693 835 0
691 -835 0
693 -835 0
-694 -696 749 0
694 -749 0
696 -749 0
-698 -700 751 0
698 -751 0
700 -751 0
-703 -704 753 0
703 -753 0
704 -753 0
-706 -708 755 0
706 -755 0
708 -755 0
-709 -710 757 0
709 -757 0
710 -757 0
-712 -714 759 0
712 -759 0
714 -759 0
-716 -718 761 0
716 -761 0
718 -761 0
-719 -720 763 0
719 -763 0
720 -763 0
-721 -722 765 0
721 -765 0
722 -765 0
-724 -726 767 0
724 -767 0
726 -767 0
-728 -730 769 0
728 -769 0
730 -769 0
-732 -734 771 0
732 -771 0
734 -771 0
-736 -738 773 0
736 -773 0
738 -773 0
-740 -742 775 0
740 -775 0
742 -775 0
-744 -746 777 0
744 -777 0
746 -777 0
-747 -748 779 0
747 -779 0
748 -779 0
-701 -750 781 0
750 -781 0
701 -781 0
-702 -752 783 0
702 -783 0
752 -783 0
-754 -756 785 0
754 -785 0
756 -785 0
-758 -760 787 0
758 -787 0
760 -787 0
-762 -764 789 0
762 -789 0
764 -789 0
-766 -768 791 0
766 -791 0
768 -791 0
-770 -772 793 0
770 -793 0
772 -793 0
-774 -776 795 0
774 -795 0
776 -795 0
-778 -780 797 0
778 -797 0
780 -797 0
-782 -784 799 0
782 -799 0
784 -799 0
-786 -788 801 0
786 -801 0
788 -801 0
-790 -792 803 0
790 -803 0
792 -803 0
-794 -796 805 0
794 -805 0
796 -805 0
-798 -800 807 0
798 -807 0
800 -807 0
-802 -804 808 0
802 -808 0
804 -808 0
-63 -72 810 0
63 -810 0
72 -810 0
-81 -695 812 0
81 -812 0
695 -812 0
-697 -699 926 0
697 -926 0
699 -926 0
-705 -707 927 0
705 -927 0
707 -927 0
-711 -713 818 0
711 -818 0
713 -818 0
-715 -717 820 0
715 -820 0
717 -820 0
-723 -725 824 0
723 -824 0
725 -824 0
-727 -729 826 0
727 -826 0
729 -826 0
-731 -733 828 0
731 -828 0
733 -828 0
-735 -737 830 0
735 -830 0
737 -830 0
-739 -741 832 0
739 -832 0
741 -832 0
-743 -745 834 0
743 -834 0
745 -834 0
-749 -751 933 0
749 -933 0
751 -933 0
-753 -755 934 0
753 -934 0
755 -934 0
-757 -759 838 0
757 -838 0
759 -838 0
-761 -763 840 0
761 -840 0
763 -840 0
-765 -767 842 0
765 -842 0
767 -842 0
-769 -771 844 0
769 -844 0
771 -844 0
-773 -775 846 0
773 -846 0
775 -846 0
-777 -779 848 0
777 -848 0
779 -848 0
-781 -783 850 0
781 -850 0
783 -850 0
-785 -787 852 0
785 -852 0
787 -852 0
-789 -791 854 0
789 -854 0
791 -854 0
-793 -795 856 0
793 -856 0
795 -856 0
-797 -799 858 0
797 -858 0
799 -858 0
-801 -803 860 0
801 -860 0
803 -860 0
-805 -807 862 0
805 -862 0
807 -862 0
-806 -808 864 0
808 -864 0
806 -864 0
-809 -811 866 0
809 -866 0
811 -866 0
-813 -814 868 0
813 -868 0
814 -868 0
-815 -816 949 0
815 -949 0
816 -949 0
-817 -819 870 0
817 -870 0
819 -870 0
-821 -822 872 0
821 -872 0
822 -872 0
-823 -825 874 0
823 -874 0
825 -874 0
-827 -829 876 0
827 -876 0
829 -876 0
-831 -833 878 0
831 -878 0
833 -878 0
-835 -836 880 0
835 -880 0
836 -880 0
-837 -839 955 0
837 -955 0
839 -955 0
-841 -843 884 0
841 -884 0
843 -884 0
-845 -847 886 0
845 -886 0
847 -886 0
-849 -851 888 0
849 -888 0
851 -888 0
-853 -855 890 0
853 -890 0
855 -890 0
-857 -859 892 0
857 -892 0
859 -892 0
-861 -863 894 0
861 -894 0
863 -894 0
-865 -867 961 0
865 -961 0
867 -961 0
-869 -871 898 0
869 -898 0
871 -898 0
-873 -875 900 0
873 -900 0
875 -900 0
-877 -879 902 0
877 -902 0
879 -902 0
-881 -882 904 0
881 -904 0
882 -904 0
-883 -885 906 0
883 -906 0
885 -906 0
-887 -889 908 0
887 -908 0
889 -908 0
-891 -893 910 0
891 -910 0
893 -910 0
-895 -896 912 0
895 -912 0
896 -912 0
-897 -899 914 0
897 -914 0
899 -914 0
-901 -903 916 0
901 -916 0
903 -916 0
-905 -907 918 0
905 -918 0
907 -918 0
-909 -911 920 0
909 -920 0
911 -920 0
-913 -915 922 0
913 -922 0
915 -922 0
-917 -919 923 0
917 -923 0
919 -923 0
-73 -82 924 0
73 -924 0
82 -924 0
-810 -812 1038 0
810 -1038 0
812 -1038 0
-818 -820 1039 0
818 -1039 0
820 -1039 0
-824 -826 929 0
824 -929 0
826 -929 0
-828 -830 931 0
828 -931 0
830 -931 0
-832 -834 1041 0
832 -1041 0
834 -1041 0
-838 -840 1042 0
838 -1042 0
840 -1042 0
-842 -844 937 0
842 -937 0
844 -937 0
-846 -848 939 0
846 -939 0
848 -939 0
-850 -852 941 0
850 -941 0
852 -941 0
-854 -856 943 0
854 -943 0
856 -943 0
-858 -860 945 0
858 -945 0
860 -945 0
-862 -864 947 0
862 -947 0
864 -947 0
-866 -868 1048 0
866 -1048 0
868 -1048 0
-870 -872 951 0
870 -951 0
872 -951 0
-874 -876 953 0
874 -953 0
876 -953 0
-878 -880 1050 0
878 -1050 0
880 -1050 0
-884 -886 957 0
884 -957 0
886 -957 0
-888 -890 959 0
888 -959 0
890 -959 0
-892 -894 1052 0
892 -1052 0
894 -1052 0
-898 -900 963 0
898 -963 0
900 -963 0
-902 -904 965 0
902 -965 0
904 -965 0
-906 -908 967 0
906 -967 0
908 -967 0
-910 -912 969 0
910 -969 0
912 -969 0
-914 -916 971 0
914 -971 0
916 -971 0
-918 -920 973 0
918 -973 0
920 -973 0
-922 -923 1058 0
922 -1058 0
923 -1058 0
-925 -926 1059 0
925 -1059 0
926 -1059 0
-928 -930 1060 0
928 -1060 0
930 -1060 0
-932 -933 980 0
932 -980 0
933 -980 0
-934 -935 982 0
934 -982 0
935 -982 0
-936 -938 984 0
936 -984 0
938 -984 0
-940 -942 986 0
940 -986 0
942 -986 0
-944 -946 988 0
944 -988 0
946 -988 0
-948 -949 990 0
948 -990 0
949 -990 0
-950 -952 992 0
950 -992 0
952 -992 0
-954 -955 994 0
954 -994 0
955 -994 0
-956 -958 996 0
956 -996 0
958 -996 0
-960 -961 998 0
960 -998 0
961 -998 0
-962 -964 1000 0
962 -1000 0
964 -1000 0
-966 -968 1002 0
966 -1002 0
968 -1002 0
-970 -972 1004 0
970 -1004 0
972 -1004 0
-974 -975 1006 0
974 -1006 0
975 -1006 0
-927 -976 1008 0
976 -1008 0
927 -1008 0
-977 -978 1010 0
977 -1010 0
978 -1010 0
-979 -981 1012 0
979 -1012 0
981 -1012 0
-983 -985 1014 0
983 -1014 0
985 -1014 0
-987 -989 1016 0
987 -1016 0
989 -1016 0
-991 -993 1018 0
991 -1018 0
993 -1018 0
-995 -997 1020 0
995 -1020 0
997 -1020 0
-999 -1001 1022 0
999 -1022 0
1001 -1022 0
-1003 -1005 1024 0
1003 -1024 0
1005 -1024 0
-1007 -1009 1026 0
1007 -1026 0
1009 -1026 0
-1011 -1013 1028 0
1011 -1028 0
1013 -1028 0
-1015 -1017 1030 0
1015 -1030 0
1017 -1030 0
-1019 -1021 1032 0
1019 -1032 0
1021 -1032 0
-1023 -1025 1034 0
1023 -1034 0
1025 -1034 0
-1027 -1029 1036 0
1027 -1036 0
1029 -1036 0
-1031 -1033 1037 0
1031 -1037 0
1033 -1037 0
-83 -924 1156 0
83 -1156 0
924 -1156 0
-929 -931 1157 0
929 -1157 0
931 -1157 0
-937 -939 1158 0
937 -1158 0
939 -1158 0
-941 -943 1045 0
941 -1045 0
943 -1045 0
-945 -947 1047 0
945 -1047 0
947 -1047 0
-951 -953 1160 0
951 -1160 0
953 -1160 0
-957 -959 1161 0
957 -1161 0
959 -1161 0
-963 -965 1162 0
963 -1162 0
965 -1162 0
-967 -969 1055 0
967 -1055 0
969 -1055 0
-971 -973 1057 0
971 -1057 0
973 -1057 0
-980 -982 1163 0
980 -1163 0
982 -1163 0
-984 -986 1063 0
984 -1063 0
986 -1063 0
-988 -990 1065 0
988 -1065 0
990 -1065 0
-992 -994 1067 0
992 -1067 0
994 -1067 0
-996 -998 1069 0
996 -1069 0
998 -1069 0
-1000 -1002 1071 0
1000 -1071 0
1002 -1071 0
-1004 -1006 1073 0
1004 -1073 0
1006 -1073 0
-1008 -1010 1075 0
1008 -1075 0
1010 -1075 0
-1012 -1014 1077 0
1012 -1077 0
1014 -1077 0
-1016 -1018 1079 0
1016 -1079 0
1018 -1079 0
-1020 -1022 1081 0
1020 -1081 0
1022 -1081 0
-1024 -1026 1083 0
1024 -1083 0
1026 -1083 0
-1028 -1030 1085 0
1028 -1085 0
1030 -1085 0
-1032 -1034 1087 0
1032 -1087 0
1034 -1087 0
-1036 -1037 1089 0
1036 -1089 0
1037 -1089 0
-1039 -1040 1092 0
1039 -1092 0
1040 -1092 0
-1041 -1042 1094 0
1041 -1094 0
1042 -1094 0
-1043 -1044 1096 0
1043 -1096 0
1044 -1096 0
-1046 -1048 1098 0
1046 -1098 0
1048 -1098 0
-1049 -1050 1100 0
1049 -1100 0
1050 -1100 0
-1051 -1052 1102 0
1051 -1102 0
1052 -1102 0
-1053 -1054 1104 0
1053 -1104 0
1054 -1104 0
-1056 -1058 1106 0
1056 -1106 0
1058 -1106 0
-1059 -1060 1108 0
1059 -1108 0
1060 -1108 0
-1061 -1062 1110 0
1061 -1110 0
1062 -1110 0
-1064 -1066 1112 0
1064 -1112 0
1066 -1112 0
-1068 -1070 1114 0
1068 -1114 0
1070 -1114 0
-1072 -1074 1116 0
1072 -1116 0
1074 -1116 0
-1076 -1078 1118 0
1076 -1118 0
1078 -1118 0
-1080 -1082 1120 0
1080 -1120 0
1082 -1120 0
-1084 -1086 1122 0
1084 -1122 0
1086 -1122 0
-1088 -1090 1124 0
1088 -1124 0
1090 -1124 0
-1038 -1091 1126 0
1038 -1126 0
1091 -1126 0
-1093 -1095 1128 0
1093 -1128 0
1095 -1128 0
-1097 -1099 1130 0
1097 -1130 0
1099 -1130 0
-1101 -1103 1132 0
1101 -1132 0
1103 -1132 0
-1105 -1107 1134 0
1105 -1134 0
1107 -1134 0
-1109 -1111 1136 0
1109 -1136 0
1111 -1136 0
-1113 -1115 1138 0
1113 -1138 0
1115 -1138 0
-1117 -1119 1140 0
1117 -1140 0
1119 -1140 0
-1121 -1123 1142 0
1121 -1142 0
1123 -1142 0
-1125 -1127 1144 0
1125 -1144 0
1127 -1144 0
-1129 -1131 1146 0
1129 -1146 0
1131 -1146 0
-1133 -1135 1148 0
1133 -1148 0
1135 -1148 0
-1137 -1139 1150 0
1137 -1150 0
1139 -1150 0
-1141 -1143 1152 0
1141 -1152 0
1143 -1152 0
-1145 -1147 1154 0
1145 -1154 0
1147 -1154 0
-1149 -1151 1155 0
1149 -1155 0
1151 -1155 0
-1045 -1047 1349 0
1045 -1349 0
1047 -1349 0
-1055 -1057 1269 0
1055 -1269 0
1057 -1269 0
-1063 -1065 1270 0
1063 -1270 0
1065 -1270 0
-1067 -1069 1166 0
1067 -1166 0
1069 -1166 0
-1071 -1073 1168 0
1071 -1168 0
1073 -1168 0
-1075 -1077 1170 0
1075 -1170 0
1077 -1170 0
-1079 -1081 1172 0
1079 -1172 0
1081 -1172 0
-1083 -1085 1174 0
1083 -1174 0
1085 -1174 0
-1087 -1089 1176 0
1087 -1176 0
1089 -1176 0
-1092 -1094 1276 0
1092 -1276 0
1094 -1276 0
-1096 -1098 1178 0
1096 -1178 0
1098 -1178 0
-1100 -1102 1180 0
1100 -1180 0
1102 -1180 0
-1104 -1106 1182 0
1104 -1182 0
1106 -1182 0
-1108 -1110 1184 0
1108 -1184 0
1110 -1184 0
-1112 -1114 1186 0
1112 -1186 0
1114 -1186 0
-1116 -1118 1188 0
1116 -1188 0
1118 -1188 0
-1120 -1122 1190 0
1120 -1190 0
1122 -1190 0
-1124 -1126 1192 0
1124 -1192 0
1126 -1192 0
-1128 -1130 1194 0
1128 -1194 0
1130 -1194 0
-1132 -1134 1196 0
1132 -1196 0
1134 -1196 0
-1136 -1138 1198 0
1136 -1198 0
1138 -1198 0
-1140 -1142 1200 0
1140 -1200 0
1142 -1200 0
-1144 -1146 1202 0
1144 -1202 0
1146 -1202 0
-1148 -1150 1204 0
1148 -1204 0
1150 -1204 0
-1152 -1154 1206 0
1152 -1206 0
1154 -1206 0
-1153 -1155 1208 0
1155 -1208 0
1153 -1208 0
-1157 -1158 1293 0
1157 -1293 0
1158 -1293 0
-1159 -1160 1211 0
1159 -1211 0
1160 -1211 0
-1161 -1162 1213 0
1161 -1213 0
1162 -1213 0
-1163 -1164 1295 0
1163 -1295 0
1164 -1295 0
-1165 -1167 1217 0
1165 -1217 0
1167 -1217 0
-1169 -1171 1219 0
1169 -1219 0
1171 -1219 0
-1173 -1175 1297 0
1173 -1297 0
1175 -1297 0
-1177 -1179 1223 0
1177 -1223 0
1179 -1223 0
-1181 -1183 1225 0
1181 -1225 0
1183 -1225 0
-1185 -1187 1227 0
1185 -1227 0
1187 -1227 0
-1189 -1191 1229 0
1189 -1229 0
1191 -1229 0
-1193 -1195 1231 0
1193 -1231 0
1195 -1231 0
-1197 -1199 1233 0
1197 -1233 0
1199 -1233 0
-1201 -1203 1235 0
1201 -1235 0
1203 -1235 0
-1205 -1207 1237 0
1205 -1237 0
1207 -1237 0
-1156 -1209 1239 0
1156 -1239 0
1209 -1239 0
-1210 -1212 1241 0
1210 -1241 0
1212 -1241 0
-1214 -1215 1243 0
1214 -1243 0
1215 -1243 0
-1216 -1218 1245 0
1216 -1245 0
1218 -1245 0
-1220 -1221 1247 0
1220 -1247 0
1221 -1247 0
-1222 -1224 1249 0
1222 -1249 0
1224 -1249 0
-1226 -1228 1251 0
1226 -1251 0
1228 -1251 0
-1230 -1232 1253 0
1230 -1253 0
1232 -1253 0
-1234 -1236 1255 0
1234 -1255 0
1236 -1255 0
-1238 -1240 1257 0
1238 -1257 0
1240 -1257 0
-1242 -1244 1259 0
1242 -1259 0
1244 -1259 0
-1246 -1248 1261 0
1246 -1261 0
1248 -1261 0
-1250 -1252 1263 0
1250 -1263 0
1252 -1263 0
-1254 -1256 1265 0
1254 -1265 0
1256 -1265 0
-1258 -1260 1267 0
1258 -1267 0
1260 -1267 0
-1262 -1264 1268 0
1262 -1268 0
1264 -1268 0
-1166 -1168 1272 0
1166 -1272 0
1168 -1272 0
-1170 -1172 1274 0
1170 -1274 0
1172 -1274 0
-1174 -1176 1379 0
1174 -1379 0
1176 -1379 0
-1178 -1180 1278 0
1178 -1278 0
1180 -1278 0
-1182 -1184 1280 0
1182 -1280 0
1184 -1280 0
-1186 -1188 1282 0
1186 -1282 0
1188 -1282 0
-1190 -1192 1284 0
1190 -1284 0
1192 -1284 0
-1194 -1196 1286 0
1194 -1286 0
1196 -1286 0
-1198 -1200 1288 0
1198 -1288 0
1200 -1288 0
-1202 -1204 1290 0
1202 -1290 0
1204 -1290 0
-1206 -1208 1292 0
1206 -1292 0
1208 -1292 0
-1211 -1213 1386 0
1211 -1386 0
1213 -1386 0
-1217 -1219 1387 0
1217 -1387 0
1219 -1387 0
-1223 -1225 1388 0
1223 -1388 0
1225 -1388 0
-1227 -1229 1300 0
1227 -1300 0
1229 -1300 0
-1231 -1233 1302 0
1231 -1302 0
1233 -1302 0
-1235 -1237 1304 0
1235 -1304 0
1237 -1304 0
-1239 -1241 1306 0
1239 -1306 0
1241 -1306 0
-1243 -1245 1308 0
1243 -1308 0
1245 -1308 0
-1247 -1249 1310 0
1247 -1310 0
1249 -1310 0
-1251 -1253 1312 0
1251 -1312 0
1253 -1312 0
-1255 -1257 1314 0
1255 -1314 0
1257 -1314 0
-1259 -1261 1316 0
1259 -1316 0
1261 -1316 0
-1263 -1265 1318 0
1263 -1318 0
1265 -1318 0
-1267 -1268 1398 0
1267 -1398 0
1268 -1398 0
-1270 -1271 1321 0
1270 -1321 0
1271 -1321 0
-1273 -1275 1323 0
1273 -1323 0
1275 -1323 0
-1276 -1277 1325 0
1276 -1325 0
1277 -1325 0
-1279 -1281 1327 0
1279 -1327 0
1281 -1327 0
-1283 -1285 1329 0
1283 -1329 0
1285 -1329 0
-1287 -1289 1331 0
1287 -1331 0
1289 -1331 0
-1291 -1293 1333 0
1291 -1333 0
1293 -1333 0
-1294 -1295 1335 0
1294 -1335 0
1295 -1335 0
-1296 -1297 1337 0
1296 -1337 0
1297 -1337 0
-1298 -1299 1339 0
1298 -1339 0
1299 -1339 0
-1301 -1303 1341 0
1301 -1341 0
1303 -1341 0
-1305 -1307 1343 0
1305 -1343 0
1307 -1343 0
-1309 -1311 1345 0
1309 -1345 0
1311 -1345 0
-1313 -1315 1347 0
1313 -1347 0
1315 -1347 0
-1317 -1319 1411 0
1317 -1411 0
1319 -1411 0
-1269 -1320 1351 0
1269 -1351 0
1320 -1351 0
-1322 -1324 1353 0
1322 -1353 0
1324 -1353 0
-1326 -1328 1355 0
1326 -1355 0
1328 -1355 0
-1330 -1332 1357 0
1330 -1357 0
1332 -1357 0
-1334 -1336 1359 0
1334 -1359 0
1336 -1359 0
-1338 -1340 1361 0
1338 -1361 0
1340 -1361 0
-1342 -1344 1363 0
1342 -1363 0
1344 -1363 0
-1346 -1348 1365 0
1346 -1365 0
1348 -1365 0
-1349 -1350 1367 0
1349 -1367 0
1350 -1367 0
-1352 -1354 1369 0
1352 -1369 0
1354 -1369 0
-1356 -1358 1371 0
1356 -1371 0
1358 -1371 0
-1360 -1362 1373 0
1360 -1373 0
1362 -1373 0
-1364 -1366 1375 0
1364 -1375 0
1366 -1375 0
-1368 -1370 1377 0
1368 -1377 0
1370 -1377 0
-1372 -1374 1378 0
1372 -1378 0
1374 -1378 0
-1272 -1274 1482 0
1272 -1482 0
1274 -1482 0
-1278 -1280 1483 0
1278 -1483 0
1280 -1483 0
-1282 -1284 1382 0
1282 -1382 0
1284 -1382 0
-1286 -1288 1384 0
1286 -1384 0
1288 -1384 0
-1290 -1292 1485 0
1290 -1485 0
1292 -1485 0
-1300 -1302 1390 0
1300 -1390 0
1302 -1390 0
-1304 -1306 1392 0
1304 -1392 0
1306 -1392 0
-1308 -1310 1394 0
1308 -1394 0
1310 -1394 0
-1312 -1314 1396 0
1312 -1396 0
1314 -1396 0
-1316 -1318 1489 0
1316 -1489 0
1318 -1489 0
-1321 -1323 1490 0
1321 -1490 0
1323 -1490 0
-1325 -1327 1400 0
1325 -1400 0
1327 -1400 0
-1329 -1331 1402 0
1329 -1402 0
1331 -1402 0
-1333 -1335 1404 0
1333 -1404 0
1335 -1404 0
-1337 -1339 1406 0
1337 -1406 0
1339 -1406 0
-1341 -1343 1408 0
1341 -1408 0
1343 -1408 0
-1345 -1347 1410 0
1345 -1410 0
1347 -1410 0
-1351 -1353 1496 0
1351 -1496 0
1353 -1496 0
-1355 -1357 1414 0
1355 -1414 0
1357 -1414 0
-1359 -1361 1416 0
1359 -1416 0
1361 -1416 0
-1363 -1365 1418 0
1363 -1418 0
1365 -1418 0
-1367 -1369 1420 0
1367 -1420 0
1369 -1420 0
-1371 -1373 1422 0
1371 -1422 0
1373 -1422 0
-1375 -1377 1424 0
1375 -1424 0
1377 -1424 0
-1376 -1378 1502 0
1378 -1502 0
1376 -1502 0
-1379 -1380 1503 0
1379 -1503 0
1380 -1503 0
-1381 -1383 1428 0
1381 -1428 0
1383 -1428 0
-1385 -1386 1430 0
1385 -1430 0
1386 -1430 0
-1387 -1388 1432 0
1387 -1432 0
1388 -1432 0
-1389 -1391 1434 0
1389 -1434 0
1391 -1434 0
-1393 -1395 1436 0
1393 -1436 0
1395 -1436 0
-1397 -1398 1438 0
1397 -1438 0
1398 -1438 0
-1399 -1401 1509 0
1399 -1509 0
1401 -1509 0
-1403 -1405 1442 0
1403 -1442 0
1405 -1442 0
-1407 -1409 1444 0
1407 -1444 0
1409 -1444 0
-1411 -1412 1446 0
1411 -1446 0
1412 -1446 0
-1413 -1415 1448 0
1413 -1448 0
1415 -1448 0
-1417 -1419 1450 0
1417 -1450 0
1419 -1450 0
-1421 -1423 1452 0
1421 -1452 0
1423 -1452 0
-1425 -1426 1515 0
1425 -1515 0
1426 -1515 0
-1427 -1429 1456 0
1427 -1456 0
1429 -1456 0
-1431 -1433 1458 0
1431 -1458 0
1433 -1458 0
-1435 -1437 1460 0
1435 -1460 0
1437 -1460 0
-1439 -1440 1462 0
1439 -1462 0
1440 -1462 0
-1441 -1443 1464 0
1441 -1464 0
1443 -1464 0
-1445 -1447 1466 0
1445 -1466 0
1447 -1466 0
-1449 -1451 1468 0
1449 -1468 0
1451 -1468 0
-1453 -1454 1470 0
1453 -1470 0
1454 -1470 0
-1455 -1457 1472 0
1455 -1472 0
1457 -1472 0
-1459 -1461 1474 0
1459 -1474 0
1461 -1474 0
-1463 -1465 1476 0
1463 -1476 0
1465 -1476 0
-1467 -1469 1478 0
1467 -1478 0
1469 -1478 0
-1471 -1473 1480 0
1471 -1480 0
1473 -1480 0
-1475 -1477 1481 0
1475 -1481 0
1477 -1481 0
-1382 -1384 1589 0
1382 -1589 0
1384 -1589 0
-1390 -1392 1486 0
1390 -1486 0
1392 -1486 0
-1394 -1396 1488 0
1394 -1488 0
1396 -1488 0
-1400 -1402 1492 0
1400 -1492 0
1402 -1492 0
-1404 -1406 1494 0
1404 -1494 0
1406 -1494 0
-1408 -1410 1590 0
1408 -1590 0
1410 -1590 0
-1414 -1416 1498 0
1414 -1498 0
1416 -1498 0
-1418 -1420 1500 0
1418 -1500 0
1420 -1500 0
-1422 -1424 1592 0
1422 -1592 0
1424 -1592 0
-1428 -1430 1593 0
1428 -1593 0
1430 -1593 0
-1432 -1434 1506 0
1432 -1506 0
1434 -1506 0
-1436 -1438 1508 0
1436 -1508 0
1438 -1508 0
-1442 -1444 1595 0
1442 -1595 0
1444 -1595 0
-1446 -1448 1512 0
1446 -1512 0
1448 -1512 0
-1450 -1452 1514 0
1450 -1514 0
1452 -1514 0
-1456 -1458 1597 0
1456 -1597 0
1458 -1597 0
-1460 -1462 1518 0
1460 -1518 0
1462 -1518 0
-1464 -1466 1520 0
1464 -1520 0
1466 -1520 0
-1468 -1470 1522 0
1468 -1522 0
1470 -1522 0
-1472 -1474 1524 0
1472 -1524 0
1474 -1524 0
-1476 -1478 1526 0
1476 -1526 0
1478 -1526 0
-1480 -1481 1528 0
1480 -1528 0
1481 -1528 0
-1482 -1483 1603 0
1482 -1603 0
1483 -1603 0
-1484 -1485 1604 0
1484 -1604 0
1485 -1604 0
-1487 -1489 1533 0
1487 -1533 0
1489 -1533 0
-1490 -1491 1535 0
1490 -1535 0
1491 -1535 0
-1493 -1495 1537 0
1493 -1537 0
1495 -1537 0
-1496 -1497 1539 0
1496 -1539 0
1497 -1539 0
-1499 -1501 1541 0
1499 -1541 0
1501 -1541 0
-1502 -1503 1543 0
1502 -1543 0
1503 -1543 0
-1504 -1505 1545 0
1504 -1545 0
1505 -1545 0
-1507 -1509 1547 0
1507 -1547 0
1509 -1547 0
-1510 -1511 1549 0
1510 -1549 0
1511 -1549 0
-1513 -1515 1551 0
1513 -1551 0
1515 -1551 0
-1516 -1517 1553 0
1516 -1553 0
1517 -1553 0
-1519 -1521 1555 0
1519 -1555 0
1521 -1555 0
-1523 -1525 1557 0
1523 -1557 0
1525 -1557 0
-1479 -1527 1559 0
1527 -1559 0
1479 -1559 0
-1529 -1530 1561 0
1529 -1561 0
1530 -1561 0
-1531 -1532 1563 0
1531 -1563 0
1532 -1563 0
-1534 -1536 1565 0
1534 -1565 0
1536 -1565 0
-1538 -1540 1567 0
1538 -1567 0
1540 -1567 0
-1542 -1544 1569 0
1542 -1569 0
1544 -1569 0
-1546 -1548 1571 0
1546 -1571 0
1548 -1571 0
-1550 -1552 1573 0
1550 -1573 0
1552 -1573 0
-1554 -1556 1575 0
1554 -1575 0
1556 -1575 0
-1558 -1560 1577 0
1558 -1577 0
1560 -1577 0
-1562 -1564 1579 0
1562 -1579 0
1564 -1579 0
-1566 -1568 1581 0
1566 -1581 0
1568 -1581 0
-1570 -1572 1583 0
1570 -1583 0
1572 -1583 0
-1574 -1576 1585 0
1574 -1585 0
1576 -1585 0
-1578 -1580 1587 0
1578 -1587 0
1580 -1587 0
-1582 -1584 1588 0
1582 -1588 0
1584 -1588 0
-1486 -1488 1692 0
1486 -1692 0
1488 -1692 0
-1492 -1494 1693 0
1492 -1693 0
1494 -1693 0
-1498 -1500 1694 0
1498 -1694 0
1500 -1694 0
-1506 -1508 1695 0
1506 -1695 0
1508 -1695 0
-1512 -1514 1696 0
1512 -1696 0
1514 -1696 0
-1518 -1520 1599 0
1518 -1599 0
1520 -1599 0
-1522 -1524 1601 0
1522 -1601 0
1524 -1601 0
-1526 -1528 1698 0
1526 -1698 0
1528 -1698 0
-1533 -1535 1699 0
1533 -1699 0
1535 -1699 0
-1537 -1539 1607 0
1537 -1607 0
1539 -1607 0
-1541 -1543 1609 0
1541 -1609 0
1543 -1609 0
-1545 -1547 1611 0
1545 -1611 0
1547 -1611 0
-1549 -1551 1613 0
1549 -1613 0
1551 -1613 0
-1553 -1555 1615 0
1553 -1615 0
1555 -1615 0
-1557 -1559 1617 0
1557 -1617 0
1559 -1617 0
-1561 -1563 1619 0
1561 -1619 0
1563 -1619 0
-1565 -1567 1621 0
1565 -1621 0
1567 -1621 0
-1569 -1571 1623 0
1569 -1623 0
1571 -1623 0
-1573 -1575 1625 0
1573 -1625 0
1575 -1625 0
-1577 -1579 1627 0
1577 -1627 0
1579 -1627 0
-1581 -1583 1629 0
1581 -1629 0
1583 -1629 0
-1585 -1587 1631 0
1585 -1631 0
1587 -1631 0
-1586 -1588 1633 0
1588 -1633 0
1586 -1633 0
-1590 -1591 1713 0
1590 -1713 0
1591 -1713 0
-1592 -1593 1638 0
1592 -1638 0
1593 -1638 0
-1594 -1595 1640 0
1594 -1640 0
1595 -1640 0
-1596 -1597 1642 0
1596 -1642 0
1597 -1642 0
-1598 -1600 1644 0
1598 -1644 0
1600 -1644 0
-1602 -1603 1646 0
1602 -1646 0
1603 -1646 0
-1604 -1605 1648 0
1604 -1648 0
1605 -1648 0
-1606 -1608 1650 0
1606 -1650 0
1608 -1650 0
-1610 -1612 1652 0
1610 -1652 0
1612 -1652 0
-1614 -1616 1654 0
1614 -1654 0
1616 -1654 0
-1618 -1620 1656 0
1618 -1656 0
1620 -1656 0
-1622 -1624 1658 0
1622 -1658 0
1624 -1658 0
-1626 -1628 1660 0
1626 -1660 0
1628 -1660 0
-1630 -1632 1662 0
1630 -1662 0
1632 -1662 0
-1589 -1634 1664 0
1589 -1664 0
1634 -1664 0
-1635 -1636 1666 0
1635 -1666 0
1636 -1666 0
-1637 -1639 1668 0
1637 -1668 0
1639 -1668 0
-1641 -1643 1670 0
1641 -1670 0
1643 -1670 0
-1645 -1647 1672 0
1645 -1672 0
1647 -1672 0
-1649 -1651 1674 0
1649 -1674 0
1651 -1674 0
-1653 -1655 1676 0
1653 -1676 0
1655 -1676 0
-1657 -1659 1678 0
1657 -1678 0
1659 -1678 0
-1661 -1663 1680 0
1661 -1680 0
1663 -1680 0
-1665 -1667 1682 0
1665 -1682 0
1667 -1682 0
-1669 -1671 1684 0
1669 -1684 0
1671 -1684 0
-1673 -1675 1686 0
1673 -1686 0
1675 -1686 0
-1677 -1679 1688 0
1677 -1688 0
1679 -1688 0
-1681 -1683 1690 0
1681 -1690 0
1683 -1690 0
-1685 -1687 1691 0
1685 -1691 0
1687 -1691 0
-1599 -1601 1795 0
1599 -1795 0
1601 -1795 0
-1607 -1609 1701 0
1607 -1701 0
1609 -1701 0
-1611 -1613 1703 0
1611 -1703 0
1613 -1703 0
-1615 -1617 1705 0
1615 -1705 0
1617 -1705 0
-1619 -1621 1707 0
1619 -1707 0
1621 -1707 0
-1623 -1625 1709 0
1623 -1709 0
1625 -1709 0
-1627 -1629 1711 0
1627 -1711 0
1629 -1711 0
-1631 -1633 1800 0
1631 -1800 0
1633 -1800 0
-1638 -1640 1801 0
1638 -1801 0
1640 -1801 0
-1642 -1644 1716 0
1642 -1716 0
1644 -1716 0
-1646 -1648 1718 0
1646 -1718 0
1648 -1718 0
-1650 -1652 1720 0
1650 -1720 0
1652 -1720 0
-1654 -1656 1722 0
1654 -1722 0
1656 -1722 0
-1658 -1660 1724 0
1658 -1724 0
1660 -1724 0
-1662 -1664 1726 0
1662 -1726 0
1664 -1726 0
-1666 -1668 1728 0
1666 -1728 0
1668 -1728 0
-1670 -1672 1730 0
1670 -1730 0
1672 -1730 0
-1674 -1676 1732 0
1674 -1732 0
1676 -1732 0
-1678 -1680 1734 0
1678 -1734 0
1680 -1734 0
-1682 -1684 1736 0
1682 -1736 0
1684 -1736 0
-1686 -1688 1738 0
1686 -1738 0
1688 -1738 0
-1690 -1691 1814 0
1690 -1814 0
1691 -1814 0
-1692 -1693 1815 0
1692 -1815 0
1693 -1815 0
-1695 -1696 1742 0
1695 -1742 0
1696 -1742 0
-1697 -1698 1744 0
1697 -1744 0
1698 -1744 0
-1699 -1700 1746 0
1699 -1746 0
1700 -1746 0
-1702 -1704 1748 0
1702 -1748 0
1704 -1748 0
-1706 -1708 1750 0
1706 -1750 0
1708 -1750 0
-1710 -1712 1752 0
1710 -1752 0
1712 -1752 0
-1714 -1715 1821 0
1714 -1821 0
1715 -1821 0
-1717 -1719 1755 0
1717 -1755 0
1719 -1755 0
-1721 -1723 1757 0
1721 -1757 0
1723 -1757 0
-1725 -1727 1759 0
1725 -1759 0
1727 -1759 0
-1729 -1731 1761 0
1729 -1761 0
1731 -1761 0
-1733 -1735 1763 0
1733 -1763 0
1735 -1763 0
-1737 -1739 1765 0
1737 -1765 0
1739 -1765 0
-1689 -1740 1767 0
1689 -1767 0
1740 -1767 0
-1694 -1741 1769 0
1694 -1769 0
1741 -1769 0
-1743 -1745 1771 0
1743 -1771 0
1745 -1771 0
-1747 -1749 1773 0
1747 -1773 0
1749 -1773 0
-1713 -1751 1775 0
1751 -1775 0
1713 -1775 0
-1753 -1754 1777 0
1753 -1777 0
1754 -1777 0
-1756 -1758 1779 0
1756 -1779 0
1758 -1779 0
-1760 -1762 1781 0
1760 -1781 0
1762 -1781 0
-1764 -1766 1783 0
1764 -1783 0
1766 -1783 0
-1768 -1770 1785 0
1768 -1785 0
1770 -1785 0
-1772 -1774 1787 0
1772 -1787 0
1774 -1787 0
-1776 -1778 1789 0
1776 -1789 0
1778 -1789 0
-1780 -1782 1791 0
1780 -1791 0
1782 -1791 0
-1784 -1786 1793 0
1784 -1793 0
1786 -1793 0
-1788 -1790 1794 0
1788 -1794 0
1790 -1794 0
-1701 -1703 1896 0
1701 -1896 0
1703 -1896 0
-1705 -1707 1797 0
1705 -1797 0
1707 -1797 0
-1709 -1711 1799 0
1709 -1799 0
1711 -1799 0
-1716 -1718 1803 0
1716 -1803 0
1718 -1803 0
-1720 -1722 1805 0
1720 -1805 0
1722 -1805 0
-1724 -1726 1807 0
1724 -1807 0
1726 -1807 0
-1728 -1730 1809 0
1728 -1809 0
1730 -1809 0
-1732 -1734 1811 0
1732 -1811 0
1734 -1811 0
-1736 -1738 1813 0
1736 -1813 0
1738 -1813 0
-1742 -1744 1817 0
1742 -1817 0
1744 -1817 0
-1746 -1748 1819 0
1746 -1819 0
1748 -1819 0
-1750 -1752 1902 0
1750 -1902 0
1752 -1902 0
-1755 -1757 1823 0
1755 -1823 0
1757 -1823 0
-1759 -1761 1825 0
1759 -1825 0
1761 -1825 0
-1763 -1765 1827 0
1763 -1827 0
1765 -1827 0
-1767 -1769 1829 0
1767 -1829 0
1769 -1829 0
-1771 -1773 1831 0
1771 -1831 0
1773 -1831 0
-1775 -1777 1833 0
1775 -1833 0
1777 -1833 0
-1779 -1781 1835 0
1779 -1835 0
1781 -1835 0
-1783 -1785 1837 0
1783 -1837 0
1785 -1837 0
-1787 -1789 1839 0
1787 -1839 0
1789 -1839 0
-1791 -1793 1841 0
1791 -1841 0
1793 -1841 0
-1792 -1794 1912 0
1794 -1912 0
1792 -1912 0
-1796 -1798 1844 0
1796 -1844 0
1798 -1844 0
-1800 -1801 1846 0
1800 -1846 0
1801 -1846 0
-1802 -1804 1848 0
1802 -1848 0
1804 -1848 0
-1806 -1808 1850 0
1806 -1850 0
1808 -1850 0
-1810 -1812 1852 0
1810 -1852 0
1812 -1852 0
-1814 -1815 1854 0
1814 -1854 0
1815 -1854 0
-1816 -1818 1856 0
1816 -1856 0
1818 -1856 0
-1820 -1821 1858 0
1820 -1858 0
1821 -1858 0
-1822 -1824 1860 0
1822 -1860 0
1824 -1860 0
-1826 -1828 1862 0
1826 -1862 0
1828 -1862 0
-1830 -1832 1864 0
1830 -1864 0
1832 -1864 0
-1834 -1836 1866 0
1834 -1866 0
1836 -1866 0
-1838 -1840 1924 0
1838 -1924 0
1840 -1924 0
-1795 -1842 1870 0
1795 -1870 0
1842 -1870 0
-1843 -1845 1872 0
1843 -1872 0
1845 -1872 0
-1847 -1849 1874 0
1847 -1874 0
1849 -1874 0
-1851 -1853 1876 0
1851 -1876 0
1853 -1876 0
-1855 -1857 1878 0
1855 -1878 0
1857 -1878 0
-1859 -1861 1880 0
1859 -1880 0
1861 -1880 0
-1863 -1865 1882 0
1863 -1882 0
1865 -1882 0
-1867 -1868 1884 0
1867 -1884 0
1868 -1884 0
-1869 -1871 1886 0
1869 -1886 0
1871 -1886 0
-1873 -1875 1888 0
1873 -1888 0
1875 -1888 0
-1877 -1879 1890 0
1877 -1890 0
1879 -1890 0
-1881 -1883 1892 0
1881 -1892 0
1883 -1892 0
-1885 -1887 1894 0
1885 -1894 0
1887 -1894 0
-1889 -1891 1895 0
1889 -1895 0
1891 -1895 0
-1797 -1799 1989 0
1797 -1989 0
1799 -1989 0
-1803 -1805 1990 0
1803 -1990 0
1805 -1990 0
-1807 -1809 1899 0
1807 -1899 0
1809 -1899 0
-1811 -1813 1900 0
1811 -1900 0
1813 -1900 0
-1817 -1819 1992 0
1817 -1992 0
1819 -1992 0
-1823 -1825 1993 0
1823 -1993 0
1825 -1993 0
-1827 -1829 1905 0
1827 -1905 0
1829 -1905 0
-1831 -1833 1907 0
1831 -1907 0
1833 -1907 0
-1835 -1837 1909 0
1835 -1909 0
1837 -1909 0
-1839 -1841 1911 0
1839 -1911 0
1841 -1911 0
-1844 -1846 1913 0
1844 -1913 0
1846 -1913 0
-1848 -1850 1915 0
1848 -1915 0
1850 -1915 0
-1852 -1854 1917 0
1852 -1917 0
1854 -1917 0
-1856 -1858 1919 0
1856 -1919 0
1858 -1919 0
-1860 -1862 1921 0
1860 -1921 0
1862 -1921 0
-1864 -1866 1923 0
1864 -1923 0
1866 -1923 0
-1870 -1872 2002 0
1870 -2002 0
1872 -2002 0
-1874 -1876 1927 0
1874 -1927 0
1876 -1927 0
-1878 -1880 1929 0
1878 -1929 0
1880 -1929 0
-1882 -1884 1931 0
1882 -1931 0
1884 -1931 0
-1886 -1888 1933 0
1886 -1933 0
1888 -1933 0
-1890 -1892 1935 0
1890 -1935 0
1892 -1935 0
-1894 -1895 1937 0
1894 -1937 0
1895 -1937 0
-1897 -1898 2008 0
1897 -2008 0
1898 -2008 0
-1901 -1902 2009 0
1901 -2009 0
1902 -2009 0
-1903 -1904 1943 0
1903 -1943 0
1904 -1943 0
-1906 -1908 1945 0
1906 -1945 0
1908 -1945 0
-1910 -1912 2011 0
1910 -2011 0
1912 -2011 0
-1914 -1916 1949 0
1914 -1949 0
1916 -1949 0
-1918 -1920 1951 0
1918 -1951 0
1920 -1951 0
-1922 -1924 1953 0
1922 -1953 0
1924 -1953 0
-1925 -1926 1955 0
1925 -1955 0
1926 -1955 0
-1928 -1930 1957 0
1928 -1957 0
1930 -1957 0
-1932 -1934 1959 0
1932 -1959 0
1934 -1959 0
-1893 -1936 1961 0
1936 -1961 0
1893 -1961 0
-1896 -1938 1963 0
1896 -1963 0
1938 -1963 0
-1939 -1940 1965 0
1939 -1965 0
1940 -1965 0
-1941 -1942 1967 0
1941 -1967 0
1942 -1967 0
-1944 -1946 1969 0
1944 -1969 0
1946 -1969 0
-1947 -1948 1971 0
1947 -1971 0
1948 -1971 0
-1950 -1952 1973 0
1950 -1973 0
1952 -1973 0
-1954 -1956 1975 0
1954 -1975 0
1956 -1975 0
-1958 -1960 1977 0
1958 -1977 0
1960 -1977 0
-1962 -1964 1979 0
1962 -1979 0
1964 -1979 0
-1966 -1968 1981 0
1966 -1981 0
1968 -1981 0
-1970 -1972 1983 0
1970 -1983 0
1972 -1983 0
-1974 -1976 1985 0
1974 -1985 0
1976 -1985 0
-1978 -1980 1987 0
1978 -1987 0
1980 -1987 0
-1982 -1984 1988 0
1982 -1988 0
1984 -1988 0
-1899 -1900 2084 0
1899 -2084 0
1900 -2084 0
-1905 -1907 1995 0
1905 -1995 0
1907 -1995 0
-1909 -1911 1997 0
1909 -1997 0
1911 -1997 0
-1913 -1915 2086 0
1913 -2086 0
1915 -2086 0
-1917 -1919 1999 0
1917 -1999 0
1919 -1999 0
-1921 -1923 2001 0
1921 -2001 0
1923 -2001 0
-1927 -1929 2088 0
1927 -2088 0
1929 -2088 0
-1931 -1933 2005 0
1931 -2005 0
1933 -2005 0
-1935 -1937 2007 0
1935 -2007 0
1937 -2007 0
-1943 -1945 2089 0
1943 -2089 0
1945 -2089 0
-1949 -1951 2090 0
1949 -2090 0
1951 -2090 0
-1953 -1955 2014 0
1953 -2014 0
1955 -2014 0
-1957 -1959 2016 0
1957 -2016 0
1959 -2016 0
-1961 -1963 2018 0
1961 -2018 0
1963 -2018 0
-1965 -1967 2020 0
1965 -2020 0
1967 -2020 0
-1969 -1971 2022 0
1969 -2022 0
1971 -2022 0
-1973 -1975 2024 0
1973 -2024 0
1975 -2024 0
-1977 -1979 2026 0
1977 -2026 0
1979 -2026 0
-1981 -1983 2028 0
1981 -2028 0
1983 -2028 0
-1985 -1987 2030 0
1985 -2030 0
1987 -2030 0
-1986 -1988 2032 0
1988 -2032 0
1986 -2032 0
-1990 -1991 2100 0
1990 -2100 0
1991 -2100 0
-1992 -1993 2035 0
1992 -2035 0
1993 -2035 0
-1994 -1996 2037 0
1994 -2037 0
1996 -2037 0
-1998 -2000 2102 0
1998 -2102 0
2000 -2102 0
-2002 -2003 2041 0
2002 -2041 0
2003 -2041 0
-2004 -2006 2043 0
2004 -2043 0
2006 -2043 0
-2009 -2010 2104 0
2009 -2104 0
2010 -2104 0
-2011 -2012 2046 0
2011 -2046 0
2012 -2046 0
-2013 -2015 2048 0
2013 -2048 0
2015 -2048 0
-2017 -2019 2050 0
2017 -2050 0
2019 -2050 0
-2021 -2023 2052 0
2021 -2052 0
2023 -2052 0
-2025 -2027 2054 0
2025 -2054 0
2027 -2054 0
-2029 -2031 2056 0
2029 -2056 0
2031 -2056 0
-1989 -2033 2058 0
1989 -2058 0
2033 -2058 0
-2034 -2036 2060 0
2034 -2060 0
2036 -2060 0
-2038 -2039 2062 0
2038 -2062 0
2039 -2062 0
-2040 -2042 2064 0
2040 -2064 0
2042 -2064 0
-2008 -2044 2066 0
2008 -2066 0
2044 -2066 0
-2045 -2047 2068 0
2045 -2068 0
2047 -2068 0
-2049 -2051 2070 0
2049 -2070 0
2051 -2070 0
-2053 -2055 2072 0
2053 -2072 0
2055 -2072 0
-2057 -2059 2074 0
2057 -2074 0
2059 -2074 0
-2061 -2063 2076 0
2061 -2076 0
2063 -2076 0
-2065 -2067 2078 0
2065 -2078 0
2067 -2078 0
-2069 -2071 2080 0
2069 -2080 0
2071 -2080 0
-2073 -2075 2082 0
2073 -2082 0
2075 -2082 0
-2077 -2079 2083 0
2077 -2083 0
2079 -2083 0
-1995 -1997 2175 0
1995 -2175 0
1997 -2175 0
-1999 -2001 2176 0
1999 -2176 0
2001 -2176 0
-2005 -2007 2177 0
2005 -2177 0
2007 -2177 0
-2014 -2016 2220 0
2014 -2220 0
2016 -2220 0
-2018 -2020 2093 0
2018 -2093 0
2020 -2093 0
-2022 -2024 2095 0
2022 -2095 0
2024 -2095 0
-2026 -2028 2097 0
2026 -2097 0
2028 -2097 0
-2030 -2032 2099 0
2030 -2099 0
2032 -2099 0
-2035 -2037 2182 0
2035 -2182 0
2037 -2182 0
-2041 -2043 2183 0
2041 -2183 0
2043 -2183 0
-2046 -2048 2184 0
2046 -2184 0
2048 -2184 0
-2050 -2052 2107 0
2050 -2107 0
2052 -2107 0
-2054 -2056 2109 0
2054 -2109 0
2056 -2109 0
-2058 -2060 2111 0
2058 -2111 0
2060 -2111 0
-2062 -2064 2113 0
2062 -2113 0
2064 -2113 0
-2066 -2068 2115 0
2066 -2115 0
2068 -2115 0
-2070 -2072 2117 0
2070 -2117 0
2072 -2117 0
-2074 -2076 2119 0
2074 -2119 0
2076 -2119 0
-2078 -2080 2121 0
2078 -2121 0
2080 -2121 0
-2082 -2083 2191 0
2082 -2191 0
2083 -2191 0
-2085 -2086 2192 0
2085 -2192 0
2086 -2192 0
-2087 -2088 2193 0
2087 -2193 0
2088 -2193 0
-2089 -2090 2127 0
2089 -2127 0
2090 -2127 0
-2091 -2092 2129 0
2091 -2129 0
2092 -2129 0
-2094 -2096 2131 0
2094 -2131 0
2096 -2131 0
-2098 -2100 2133 0
2098 -2133 0
2100 -2133 0
-2101 -2102 2135 0
2101 -2135 0
2102 -2135 0
-2103 -2104 2137 0
2103 -2137 0
2104 -2137 0
-2105 -2106 2139 0
2105 -2139 0
2106 -2139 0
-2108 -2110 2141 0
2108 -2141 0
2110 -2141 0
-2112 -2114 2143 0
2112 -2143 0
2114 -2143 0
-2116 -2118 2145 0
2116 -2145 0
2118 -2145 0
-2120 -2122 2147 0
2120 -2147 0
2122 -2147 0
-2081 -2084 2149 0
2081 -2149 0
2084 -2149 0
-2123 -2124 2151 0
2123 -2151 0
2124 -2151 0
-2125 -2126 2153 0
2125 -2153 0
2126 -2153 0
-2128 -2130 2155 0
2128 -2155 0
2130 -2155 0
-2132 -2134 2157 0
2132 -2157 0
2134 -2157 0
-2136 -2138 2159 0
2136 -2159 0
2138 -2159 0
-2140 -2142 2161 0
2140 -2161 0
2142 -2161 0
-2144 -2146 2163 0
2144 -2163 0
2146 -2163 0
-2148 -2150 2165 0
2148 -2165 0
2150 -2165 0
-2152 -2154 2167 0
2152 -2167 0
2154 -2167 0
-2156 -2158 2169 0
2156 -2169 0
2158 -2169 0
-2160 -2162 2171 0
2160 -2171 0
2162 -2171 0
-2164 -2166 2173 0
2164 -2173 0
2166 -2173 0
-2168 -2170 2174 0
2168 -2174 0
2170 -2174 0
-2093 -2095 2179 0
2093 -2179 0
2095 -2179 0
-2097 -2099 2181 0
2097 -2181 0
2099 -2181 0
-2107 -2109 2272 0
2107 -2272 0
2109 -2272 0
-2111 -2113 2187 0
2111 -2187 0
2113 -2187 0
-2115 -2117 2189 0
2115 -2189 0
2117 -2189 0
-2119 -2121 2274 0
2119 -2274 0
2121 -2274 0
-2127 -2129 2195 0
2127 -2195 0
2129 -2195 0
-2131 -2133 2197 0
2131 -2197 0
2133 -2197 0
-2135 -2137 2199 0
2135 -2199 0
2137 -2199 0
-2139 -2141 2201 0
2139 -2201 0
2141 -2201 0
-2143 -2145 2203 0
2143 -2203 0
2145 -2203 0
-2147 -2149 2205 0
2147 -2205 0
2149 -2205 0
-2151 -2153 2207 0
2151 -2207 0
2153 -2207 0
-2155 -2157 2209 0
2155 -2209 0
2157 -2209 0
-2159 -2161 2211 0
2159 -2211 0
2161 -2211 0
-2163 -2165 2213 0
2163 -2213 0
2165 -2213 0
-2167 -2169 2215 0
2167 -2215 0
2169 -2215 0
-2171 -2173 2217 0
2171 -2217 0
2173 -2217 0
-2172 -2174 2285 0
2174 -2285 0
2172 -2285 0
-2176 -2177 2286 0
2176 -2286 0
2177 -2286 0
-2178 -2180 2222 0
2178 -2222 0
2180 -2222 0
-2182 -2183 2224 0
2182 -2224 0
2183 -2224 0
-2184 -2185 2226 0
2184 -2226 0
2185 -2226 0
-2186 -2188 2228 0
2186 -2228 0
2188 -2228 0
-2190 -2191 2230 0
2190 -2230 0
2191 -2230 0
-2192 -2193 2232 0
2192 -2232 0
2193 -2232 0
-2194 -2196 2234 0
2194 -2234 0
2196 -2234 0
-2198 -2200 2236 0
2198 -2236 0
2200 -2236 0
-2202 -2204 2238 0
2202 -2238 0
2204 -2238 0
-2206 -2208 2240 0
2206 -2240 0
2208 -2240 0
-2210 -2212 2242 0
2210 -2242 0
2212 -2242 0
-2214 -2216 2244 0
2214 -2244 0
2216 -2244 0
-2175 -2218 2246 0
2218 -2246 0
2175 -2246 0
-2219 -2220 2248 0
2219 -2248 0
2220 -2248 0
-2221 -2223 2250 0
2221 -2250 0
2223 -2250 0
-2225 -2227 2252 0
2225 -2252 0
2227 -2252 0
-2229 -2231 2254 0
2229 -2254 0
2231 -2254 0
-2233 -2235 2256 0
2233 -2256 0
2235 -2256 0
-2237 -2239 2258 0
2237 -2258 0
2239 -2258 0
-2241 -2243 2260 0
2241 -2260 0
2243 -2260 0
-2245 -2247 2262 0
2245 -2262 0
2247 -2262 0
-2249 -2251 2264 0
2249 -2264 0
2251 -2264 0
-2253 -2255 2266 0
2253 -2266 0
2255 -2266 0
-2257 -2259 2268 0
2257 -2268 0
2259 -2268 0
-2261 -2263 2270 0
2261 -2270 0
2263 -2270 0
-2265 -2267 2271 0
2265 -2271 0
2267 -2271 0
-2179 -2181 2357 0
2179 -2357 0
2181 -2357 0
-2187 -2189 2358 0
2187 -2358 0
2189 -2358 0
-2195 -2197 2359 0
2195 -2359 0
2197 -2359 0
-2199 -2201 2277 0
2199 -2277 0
2201 -2277 0
-2203 -2205 2279 0
2203 -2279 0
2205 -2279 0
-2207 -2209 2281 0
2207 -2281 0
2209 -2281 0
-2211 -2213 2283 0
2211 -2283 0
2213 -2283 0
-2215 -2217 2362 0
2215 -2362 0
2217 -2362 0
-2222 -2224 2363 0
2222 -2363 0
2224 -2363 0
-2226 -2228 2289 0
2226 -2289 0
2228 -2289 0
-2230 -2232 2291 0
2230 -2291 0
2232 -2291 0
-2234 -2236 2293 0
2234 -2293 0
2236 -2293 0
-2238 -2240 2295 0
2238 -2295 0
2240 -2295 0
-2242 -2244 2297 0
2242 -2297 0
2244 -2297 0
-2246 -2248 2299 0
2246 -2299 0
2248 -2299 0
-2250 -2252 2301 0
2250 -2301 0
2252 -2301 0
-2254 -2256 2303 0
2254 -2303 0
2256 -2303 0
-2258 -2260 2305 0
2258 -2305 0
2260 -2305 0
-2262 -2264 2307 0
2262 -2307 0
2264 -2307 0
-2266 -2268 2309 0
2266 -2309 0
2268 -2309 0
-2270 -2271 2311 0
2270 -2311 0
2271 -2311 0
-2272 -2273 2373 0
2272 -2373 0
2273 -2373 0
-2275 -2276 2374 0
2275 -2374 0
2276 -2374 0
-2278 -2280 2316 0
2278 -2316 0
2280 -2316 0
-2282 -2284 2318 0
2282 -2318 0
2284 -2318 0
-2285 -2286 2320 0
2285 -2320 0
2286 -2320 0
-2287 -2288 2322 0
2287 -2322 0
2288 -2322 0
-2290 -2292 2324 0
2290 -2324 0
2292 -2324 0
-2294 -2296 2326 0
2294 -2326 0
2296 -2326 0
-2298 -2300 2328 0
2298 -2328 0
2300 -2328 0
-2302 -2304 2330 0
2302 -2330 0
2304 -2330 0
-2306 -2308 2332 0
2306 -2332 0
2308 -2332 0
-2269 -2310 2334 0
2310 -2334 0
2269 -2334 0
-2274 -2313 2384 0
2313 -2384 0
2274 -2384 0
-2314 -2315 2337 0
2314 -2337 0
2315 -2337 0
-2317 -2319 2339 0
2317 -2339 0
2319 -2339 0
-2321 -2323 2341 0
2321 -2341 0
2323 -2341 0
-2325 -2327 2343 0
2325 -2343 0
2327 -2343 0
-2329 -2331 2345 0
2329 -2345 0
2331 -2345 0
-2312 -2333 2347 0
2333 -2347 0
2312 -2347 0
-2335 -2336 2349 0
2335 -2349 0
2336 -2349 0
-2338 -2340 2351 0
2338 -2351 0
2340 -2351 0
-2342 -2344 2353 0
2342 -2353 0
2344 -2353 0
-2346 -2348 2355 0
2346 -2355 0
2348 -2355 0
-2350 -2352 2356 0
2350 -2356 0
2352 -2356 0
-2277 -2279 2481 0
2277 -2481 0
2279 -2481 0
-2281 -2283 2446 0
2281 -2446 0
2283 -2446 0
-2289 -2291 2447 0
2289 -2447 0
2291 -2447 0
-2293 -2295 2366 0
2293 -2366 0
2295 -2366 0
-2297 -2299 2368 0
2297 -2368 0
2299 -2368 0
-2301 -2303 2370 0
2301 -2370 0
2303 -2370 0
-2305 -2307 2372 0
2305 -2372 0
2307 -2372 0
-2309 -2311 2450 0
2309 -2450 0
2311 -2450 0
-2316 -2318 2376 0
2316 -2376 0
2318 -2376 0
-2320 -2322 2378 0
2320 -2378 0
2322 -2378 0
-2324 -2326 2380 0
2324 -2380 0
2326 -2380 0
-2328 -2330 2382 0
2328 -2382 0
2330 -2382 0
-2332 -2334 2453 0
2332 -2453 0
2334 -2453 0
-2337 -2339 2386 0
2337 -2386 0
2339 -2386 0
-2341 -2343 2388 0
2341 -2388 0
2343 -2388 0
-2345 -2347 2390 0
2345 -2390 0
2347 -2390 0
-2349 -2351 2392 0
2349 -2392 0
2351 -2392 0
-2353 -2355 2394 0
2353 -2394 0
2355 -2394 0
-2354 -2356 2396 0
2356 -2396 0
2354 -2396 0
-2359 -2360 2398 0
2359 -2398 0
2360 -2398 0
-2361 -2362 2400 0
2361 -2400 0
2362 -2400 0
-2363 -2364 2402 0
2363 -2402 0
2364 -2402 0
-2365 -2367 2404 0
2365 -2404 0
2367 -2404 0
-2369 -2371 2462 0
2369 -2462 0
2371 -2462 0
-2373 -2374 2408 0
2373 -2408 0
2374 -2408 0
-2375 -2377 2410 0
2375 -2410 0
2377 -2410 0
-2379 -2381 2412 0
2379 -2412 0
2381 -2412 0
-2383 -2384 2414 0
2383 -2414 0
2384 -2414 0
-2385 -2387 2416 0
2385 -2416 0
2387 -2416 0
-2389 -2391 2418 0
2389 -2418 0
2391 -2418 0
-2393 -2395 2420 0
2393 -2420 0
2395 -2420 0
-2357 -2358 2422 0
2357 -2422 0
2358 -2422 0
-2397 -2399 2424 0
2397 -2424 0
2399 -2424 0
-2401 -2403 2426 0
2401 -2426 0
2403 -2426 0
-2405 -2406 2428 0
2405 -2428 0
2406 -2428 0
-2407 -2409 2430 0
2407 -2430 0
2409 -2430 0
-2411 -2413 2432 0
2411 -2432 0
2413 -2432 0
-2415 -2417 2434 0
2415 -2434 0
2417 -2434 0
-2419 -2421 2436 0
2419 -2436 0
2421 -2436 0
-2423 -2425 2438 0
2423 -2438 0
2425 -2438 0
-2427 -2429 2440 0
2427 -2440 0
2429 -2440 0
-2431 -2433 2442 0
2431 -2442 0
2433 -2442 0
-2435 -2437 2444 0
2435 -2444 0
2437 -2444 0
-2439 -2441 2445 0
2439 -2445 0
2441 -2445 0
-2366 -2368 2527 0
2366 -2527 0
2368 -2527 0
-2370 -2372 2528 0
2370 -2528 0
2372 -2528 0
-2376 -2378 2529 0
2376 -2529 0
2378 -2529 0
-2380 -2382 2530 0
2380 -2530 0
2382 -2530 0
-2386 -2388 2455 0
2386 -2455 0
2388 -2455 0
-2390 -2392 2457 0
2390 -2457 0
2392 -2457 0
-2394 -2396 2532 0
2394 -2532 0
2396 -2532 0
-2398 -2400 2459 0
2398 -2459 0
2400 -2459 0
-2402 -2404 2461 0
2402 -2461 0
2404 -2461 0
-2408 -2410 2534 0
2408 -2534 0
2410 -2534 0
-2412 -2414 2465 0
2412 -2465 0
2414 -2465 0
-2416 -2418 2467 0
2416 -2467 0
2418 -2467 0
-2420 -2422 2469 0
2420 -2469 0
2422 -2469 0
-2424 -2426 2471 0
2424 -2471 0
2426 -2471 0
-2428 -2430 2473 0
2428 -2473 0
2430 -2473 0
-2432 -2434 2475 0
2432 -2475 0
2434 -2475 0
-2436 -2438 2477 0
2436 -2477 0
2438 -2477 0
-2440 -2442 2479 0
2440 -2479 0
2442 -2479 0
-2444 -2445 2543 0
2444 -2543 0
2445 -2543 0
-2446 -2447 2544 0
2446 -2544 0
2447 -2544 0
-2448 -2449 2545 0
2448 -2545 0
2449 -2545 0
-2451 -2452 2485 0
2451 -2485 0
2452 -2485 0
-2453 -2454 2487 0
2453 -2487 0
2454 -2487 0
-2456 -2458 2547 0
2456 -2547 0
2458 -2547 0
-2460 -2462 2491 0
2460 -2491 0
2462 -2491 0
-2463 -2464 2493 0
2463 -2493 0
2464 -2493 0
-2466 -2468 2495 0
2466 -2495 0
2468 -2495 0
-2470 -2472 2497 0
2470 -2497 0
2472 -2497 0
-2474 -2476 2499 0
2474 -2499 0
2476 -2499 0
-2478 -2480 2501 0
2478 -2501 0
2480 -2501 0
-2443 -2481 2503 0
2443 -2503 0
2481 -2503 0
-2482 -2483 2505 0
2482 -2505 0
2483 -2505 0
-2450 -2484 2507 0
2450 -2507 0
2484 -2507 0
-2486 -2488 2509 0
2486 -2509 0
2488 -2509 0
-2489 -2490 2511 0
2489 -2511 0
2490 -2511 0
-2492 -2494 2513 0
2492 -2513 0
2494 -2513 0
-2496 -2498 2515 0
2496 -2515 0
2498 -2515 0
-2500 -2502 2517 0
2500 -2517 0
2502 -2517 0
-2504 -2506 2519 0
2504 -2519 0
2506 -2519 0
-2508 -2510 2521 0
2508 -2521 0
2510 -2521 0
-2512 -2514 2523 0
2512 -2523 0
2514 -2523 0
-2516 -2518 2525 0
2516 -2525 0
2518 -2525 0
-2520 -2522 2526 0
2520 -2526 0
2522 -2526 0
-2455 -2457 2614 0
2455 -2614 0
2457 -2614 0
-2459 -2461 2615 0
2459 -2615 0
2461 -2615 0
-2465 -2467 2536 0
2465 -2536 0
2467 -2536 0
-2469 -2471 2538 0
2469 -2538 0
2471 -2538 0
-2473 -2475 2540 0
2473 -2540 0
2475 -2540 0
-2477 -2479 2542 0
2477 -2542 0
2479 -2542 0
-2485 -2487 2654 0
2485 -2654 0
2487 -2654 0
-2491 -2493 2618 0
2491 -2618 0
2493 -2618 0
-2495 -2497 2550 0
2495 -2550 0
2497 -2550 0
-2499 -2501 2552 0
2499 -2552 0
2501 -2552 0
-2503 -2505 2554 0
2503 -2554 0
2505 -2554 0
-2507 -2509 2556 0
2507 -2556 0
2509 -2556 0
-2511 -2513 2558 0
2511 -2558 0
2513 -2558 0
-2515 -2517 2560 0
2515 -2560 0
2517 -2560 0
-2519 -2521 2562 0
2519 -2562 0
2521 -2562 0
-2523 -2525 2564 0
2523 -2564 0
2525 -2564 0
-2524 -2526 2627 0
2526 -2627 0
2524 -2627 0
-2527 -2528 2566 0
2527 -2566 0
2528 -2566 0
-2529 -2530 2568 0
2529 -2568 0
2530 -2568 0
-2531 -2532 2570 0
2531 -2570 0
2532 -2570 0
-2533 -2534 2572 0
2533 -2572 0
2534 -2572 0
-2535 -2537 2574 0
2535 -2574 0
2537 -2574 0
-2539 -2541 2576 0
2539 -2576 0
2541 -2576 0
-2543 -2544 2578 0
2543 -2578 0
2544 -2578 0
-2545 -2546 2580 0
2545 -2580 0
2546 -2580 0
-2547 -2548 2582 0
2547 -2582 0
2548 -2582 0
-2549 -2551 2584 0
2549 -2584 0
2551 -2584 0
-2553 -2555 2586 0
2553 -2586 0
2555 -2586 0
-2557 -2559 2588 0
2557 -2588 0
2559 -2588 0
-2561 -2563 2638 0
2561 -2638 0
2563 -2638 0
-2565 -2567 2592 0
2565 -2592 0
2567 -2592 0
-2569 -2571 2594 0
2569 -2594 0
2571 -2594 0
-2573 -2575 2596 0
2573 -2596 0
2575 -2596 0
-2577 -2579 2598 0
2577 -2598 0
2579 -2598 0
-2581 -2583 2600 0
2581 -2600 0
2583 -2600 0
-2585 -2587 2602 0
2585 -2602 0
2587 -2602 0
-2589 -2590 2604 0
2589 -2604 0
2590 -2604 0
-2591 -2593 2606 0
2591 -2606 0
2593 -2606 0
-2595 -2597 2608 0
2595 -2608 0
2597 -2608 0
-2599 -2601 2610 0
2599 -2610 0
2601 -2610 0
-2603 -2605 2612 0
2603 -2612 0
2605 -2612 0
-2607 -2609 2613 0
2607 -2613 0
2609 -2613 0
-2536 -2538 2695 0
2536 -2695 0
2538 -2695 0
-2540 -2542 2696 0
2540 -2696 0
2542 -2696 0
-2550 -2552 2620 0
2550 -2620 0
2552 -2620 0
-2554 -2556 2622 0
2554 -2622 0
2556 -2622 0
-2558 -2560 2624 0
2558 -2624 0
2560 -2624 0
-2562 -2564 2626 0
2562 -2626 0
2564 -2626 0
-2566 -2568 2698 0
2566 -2698 0
2568 -2698 0
-2570 -2572 2630 0
2570 -2630 0
2572 -2630 0
-2574 -2576 2632 0
2574 -2632 0
2576 -2632 0
-2578 -2580 2634 0
2578 -2634 0
2580 -2634 0
-2582 -2584 2636 0
2582 -2636 0
2584 -2636 0
-2586 -2588 2703 0
2586 -2703 0
2588 -2703 0
-2592 -2594 2640 0
2592 -2640 0
2594 -2640 0
-2596 -2598 2642 0
2596 -2642 0
2598 -2642 0
-2600 -2602 2644 0
2600 -2644 0
2602 -2644 0
-2604 -2606 2646 0
2604 -2646 0
2606 -2646 0
-2608 -2610 2648 0
2608 -2648 0
2610 -2648 0
-2612 -2613 2650 0
2612 -2650 0
2613 -2650 0
-2614 -2615 2651 0
2614 -2651 0
2615 -2651 0
-2616 -2617 2653 0
2616 -2653 0
2617 -2653 0
-2618 -2619 2709 0
2618 -2709 0
2619 -2709 0
-2621 -2623 2657 0
2621 -2657 0
2623 -2657 0
-2625 -2627 2659 0
2625 -2659 0
2627 -2659 0
-2628 -2629 2661 0
2628 -2661 0
2629 -2661 0
-2631 -2633 2663 0
2631 -2663 0
2633 -2663 0
-2635 -2637 2665 0
2635 -2665 0
2637 -2665 0
-2638 -2639 2667 0
2638 -2667 0
2639 -2667 0
-2641 -2643 2669 0
2641 -2669 0
2643 -2669 0
-2645 -2647 2671 0
2645 -2671 0
2647 -2671 0
-2611 -2649 2716 0
2649 -2716 0
2611 -2716 0
-2652 -2654 2675 0
2652 -2675 0
2654 -2675 0
-2655 -2656 2677 0
2655 -2677 0
2656 -2677 0
-2658 -2660 2679 0
2658 -2679 0
2660 -2679 0
-2662 -2664 2681 0
2662 -2681 0
2664 -2681 0
-2666 -2668 2683 0
2666 -2683 0
2668 -2683 0
-2670 -2672 2685 0
2670 -2685 0
2672 -2685 0
-2673 -2674 2687 0
2673 -2687 0
2674 -2687 0
-2676 -2678 2689 0
2676 -2689 0
2678 -2689 0
-2680 -2682 2691 0
2680 -2691 0
2682 -2691 0
-2684 -2686 2693 0
2684 -2693 0
2686 -2693 0
-2688 -2690 2694 0
2688 -2694 0
2690 -2694 0
-2620 -2622 2770 0
2620 -2770 0
2622 -2770 0
-2624 -2626 2771 0
2624 -2771 0
2626 -2771 0
-2630 -2632 2700 0
2630 -2700 0
2632 -2700 0
-2634 -2636 2702 0
2634 -2702 0
2636 -2702 0
-2640 -2642 2773 0
2640 -2773 0
2642 -2773 0
-2644 -2646 2706 0
2644 -2706 0
2646 -2706 0
-2648 -2650 2708 0
2648 -2708 0
2650 -2708 0
-2651 -2653 2775 0
2651 -2775 0
2653 -2775 0
-2657 -2659 2776 0
2657 -2776 0
2659 -2776 0
-2661 -2663 2712 0
2661 -2712 0
2663 -2712 0
-2665 -2667 2714 0
2665 -2714 0
2667 -2714 0
-2669 -2671 2778 0
2669 -2778 0
2671 -2778 0
-2675 -2677 2718 0
2675 -2718 0
2677 -2718 0
-2679 -2681 2720 0
2679 -2720 0
2681 -2720 0
-2683 -2685 2722 0
2683 -2722 0
2685 -2722 0
-2687 -2689 2724 0
2687 -2724 0
2689 -2724 0
-2691 -2693 2726 0
2691 -2726 0
2693 -2726 0
-2692 -2694 2728 0
2694 -2728 0
2692 -2728 0
-2695 -2696 2784 0
2695 -2784 0
2696 -2784 0
-2697 -2698 2785 0
2697 -2785 0
2698 -2785 0
-2699 -2701 2732 0
2699 -2732 0
2701 -2732 0
-2703 -2704 2734 0
2703 -2734 0
2704 -2734 0
-2705 -2707 2787 0
2705 -2787 0
2707 -2787 0
-2709 -2710 2738 0
2709 -2738 0
2710 -2738 0
-2711 -2713 2740 0
2711 -2740 0
2713 -2740 0
-2715 -2716 2742 0
2715 -2742 0
2716 -2742 0
-2717 -2719 2744 0
2717 -2744 0
2719 -2744 0
-2721 -2723 2746 0
2721 -2746 0
2723 -2746 0
-2725 -2727 2748 0
2725 -2748 0
2727 -2748 0
-2729 -2730 2793 0
2729 -2793 0
2730 -2793 0
-2731 -2733 2752 0
2731 -2752 0
2733 -2752 0
-2735 -2736 2754 0
2735 -2754 0
2736 -2754 0
-2737 -2739 2756 0
2737 -2756 0
2739 -2756 0
-2741 -2743 2758 0
2741 -2758 0
2743 -2758 0
-2745 -2747 2760 0
2745 -2760 0
2747 -2760 0
-2749 -2750 2762 0
2749 -2762 0
2750 -2762 0
-2751 -2753 2764 0
2751 -2764 0
2753 -2764 0
-2755 -2757 2766 0
2755 -2766 0
2757 -2766 0
-2759 -2761 2768 0
2759 -2768 0
2761 -2768 0
-2763 -2765 2769 0
2763 -2769 0
2765 -2769 0
-2700 -2702 2849 0
2700 -2849 0
2702 -2849 0
-2706 -2708 2850 0
2706 -2850 0
2708 -2850 0
-2712 -2714 2851 0
2712 -2851 0
2714 -2851 0
-2718 -2720 2852 0
2718 -2852 0
2720 -2852 0
-2722 -2724 2781 0
2722 -2781 0
2724 -2781 0
-2726 -2728 2783 0
2726 -2783 0
2728 -2783 0
-2732 -2734 2853 0
2732 -2853 0
2734 -2853 0
-2738 -2740 2789 0
2738 -2789 0
2740 -2789 0
-2742 -2744 2791 0
2742 -2791 0
2744 -2791 0
-2746 -2748 2855 0
2746 -2855 0
2748 -2855 0
-2752 -2754 2795 0
2752 -2795 0
2754 -2795 0
-2756 -2758 2797 0
2756 -2797 0
2758 -2797 0
-2760 -2762 2799 0
2760 -2799 0
2762 -2799 0
-2764 -2766 2801 0
2764 -2801 0
2766 -2801 0
-2768 -2769 2858 0
2768 -2858 0
2769 -2858 0
-2771 -2772 2859 0
2771 -2859 0
2772 -2859 0
-2773 -2774 2805 0
2773 -2805 0
2774 -2805 0
-2775 -2776 2807 0
2775 -2807 0
2776 -2807 0
-2777 -2778 2809 0
2777 -2809 0
2778 -2809 0
-2779 -2780 2811 0
2779 -2811 0
2780 -2811 0
-2782 -2784 2813 0
2782 -2813 0
2784 -2813 0
-2785 -2786 2815 0
2785 -2815 0
2786 -2815 0
-2787 -2788 2817 0
2787 -2817 0
2788 -2817 0
-2790 -2792 2819 0
2790 -2819 0
2792 -2819 0
-2793 -2794 2821 0
2793 -2821 0
2794 -2821 0
-2796 -2798 2823 0
2796 -2823 0
2798 -2823 0
-2800 -2802 2825 0
2800 -2825 0
2802 -2825 0
-2767 -2770 2827 0
2767 -2827 0
2770 -2827 0
-2803 -2804 2829 0
2803 -2829 0
2804 -2829 0
-2806 -2808 2831 0
2806 -2831 0
2808 -2831 0
-2810 -2812 2833 0
2810 -2833 0
2812 -2833 0
-2814 -2816 2835 0
2814 -2835 0
2816 -2835 0
-2818 -2820 2837 0
2818 -2837 0
2820 -2837 0
-2822 -2824 2839 0
2822 -2839 0
2824 -2839 0
-2826 -2828 2841 0
2826 -2841 0
2828 -2841 0
-2830 -2832 2843 0
2830 -2843 0
2832 -2843 0
-2834 -2836 2845 0
2834 -2845 0
2836 -2845 0
-2838 -2840 2847 0
2838 -2847 0
2840 -2847 0
-2842 -2844 2848 0
2842 -2848 0
2844 -2848 0
-2781 -2783 2924 0
2781 -2924 0
2783 -2924 0
-2789 -2791 2925 0
2789 -2925 0
2791 -2925 0
-2795 -2797 2926 0
2795 -2926 0
2797 -2926 0
-2799 -2801 2927 0
2799 -2927 0
2801 -2927 0
-2805 -2807 2928 0
2805 -2928 0
2807 -2928 0
-2809 -2811 2862 0
2809 -2862 0
2811 -2862 0
-2813 -2815 2864 0
2813 -2864 0
2815 -2864 0
-2817 -2819 2866 0
2817 -2866 0
2819 -2866 0
-2821 -2823 2868 0
2821 -2868 0
2823 -2868 0
-2825 -2827 2870 0
2825 -2870 0
2827 -2870 0
-2829 -2831 2872 0
2829 -2872 0
2831 -2872 0
-2833 -2835 2874 0
2833 -2874 0
2835 -2874 0
-2837 -2839 2876 0
2837 -2876 0
2839 -2876 0
-2841 -2843 2878 0
2841 -2878 0
2843 -2878 0
-2845 -2847 2880 0
2845 -2880 0
2847 -2880 0
-2846 -2848 2938 0
2848 -2938 0
2846 -2938 0
-2849 -2850 2882 0
2849 -2882 0
2850 -2882 0
-2851 -2852 2884 0
2851 -2884 0
2852 -2884 0
-2853 -2854 2940 0
2853 -2940 0
2854 -2940 0
-2855 -2856 2888 0
2855 -2888 0
2856 -2888 0
-2857 -2858 2890 0
2857 -2890 0
2858 -2890 0
-2859 -2860 2892 0
2859 -2892 0
2860 -2892 0
-2861 -2863 2894 0
2861 -2894 0
2863 -2894 0
-2865 -2867 2896 0
2865 -2896 0
2867 -2896 0
-2869 -2871 2898 0
2869 -2898 0
2871 -2898 0
-2873 -2875 2900 0
2873 -2900 0
2875 -2900 0
-2877 -2879 2902 0
2877 -2902 0
2879 -2902 0
-2881 -2883 2949 0
2881 -2949 0
2883 -2949 0
-2885 -2886 2906 0
2885 -2906 0
2886 -2906 0
-2887 -2889 2908 0
2887 -2908 0
2889 -2908 0
-2891 -2893 2910 0
2891 -2910 0
2893 -2910 0
-2895 -2897 2912 0
2895 -2912 0
2897 -2912 0
-2899 -2901 2914 0
2899 -2914 0
2901 -2914 0
-2903 -2904 2916 0
2903 -2916 0
2904 -2916 0
-2905 -2907 2918 0
2905 -2918 0
2907 -2918 0
-2909 -2911 2920 0
2909 -2920 0
2911 -2920 0
-2913 -2915 2922 0
2913 -2922 0
2915 -2922 0
-2917 -2919 2923 0
2917 -2923 0
2919 -2923 0
-2862 -2864 2930 0
2862 -2930 0
2864 -2930 0
-2866 -2868 2932 0
2866 -2932 0
2868 -2932 0
-2870 -2872 2934 0
2870 -2934 0
2872 -2934 0
-2874 -2876 2936 0
2874 -2936 0
2876 -2936 0
-2878 -2880 3005 0
2878 -3005 0
2880 -3005 0
-2882 -2884 3006 0
2882 -3006 0
2884 -3006 0
-2888 -2890 2942 0
2888 -2942 0
2890 -2942 0
-2892 -2894 2944 0
2892 -2944 0
2894 -2944 0
-2896 -2898 2946 0
2896 -2946 0
2898 -2946 0
-2900 -2902 2948 0
2900 -2948 0
2902 -2948 0
-2906 -2908 3011 0
2906 -3011 0
2908 -3011 0
-2910 -2912 2952 0
2910 -2952 0
2912 -2952 0
-2914 -2916 2954 0
2914 -2954 0
2916 -2954 0
-2918 -2920 2956 0
2918 -2956 0
2920 -2956 0
-2922 -2923 2958 0
2922 -2958 0
2923 -2958 0
-2924 -2925 2959 0
2924 -2959 0
2925 -2959 0
-2926 -2927 2961 0
2926 -2961 0
2927 -2961 0
-2928 -2929 2963 0
2928 -2963 0
2929 -2963 0
-2931 -2933 2965 0
2931 -2965 0
2933 -2965 0
-2935 -2937 2967 0
2935 -2967 0
2937 -2967 0
-2938 -2939 2969 0
2938 -2969 0
2939 -2969 0
-2940 -2941 2971 0
2940 -2971 0
2941 -2971 0
-2943 -2945 2973 0
2943 -2973 0
2945 -2973 0
-2947 -2949 2975 0
2947 -2975 0
2949 -2975 0
-2950 -2951 2977 0
2950 -2977 0
2951 -2977 0
-2953 -2955 2979 0
2953 -2979 0
2955 -2979 0
-2921 -2957 2981 0
2957 -2981 0
2921 -2981 0
-2960 -2962 3025 0
2960 -3025 0
2962 -3025 0
-2964 -2966 2985 0
2964 -2985 0
2966 -2985 0
-2968 -2970 2987 0
2968 -2987 0
2970 -2987 0
-2972 -2974 2989 0
2972 -2989 0
2974 -2989 0
-2976 -2978 2991 0
2976 -2991 0
2978 -2991 0
-2980 -2982 2993 0
2980 -2993 0
2982 -2993 0
-2983 -2984 2995 0
2983 -2995 0
2984 -2995 0
-2986 -2988 2997 0
2986 -2997 0
2988 -2997 0
-2990 -2992 2999 0
2990 -2999 0
2992 -2999 0
-2994 -2996 3000 0
2994 -3000 0
2996 -3000 0
-2930 -2932 3002 0
2930 -3002 0
2932 -3002 0
-2934 -2936 3004 0
2934 -3004 0
2936 -3004 0
-2942 -2944 3008 0
2942 -3008 0
2944 -3008 0
-2946 -2948 3010 0
2946 -3010 0
2948 -3010 0
-2952 -2954 3070 0
2952 -3070 0
2954 -3070 0
-2956 -2958 3071 0
2956 -3071 0
2958 -3071 0
-2959 -2961 3014 0
2959 -3014 0
2961 -3014 0
-2963 -2965 3016 0
2963 -3016 0
2965 -3016 0
-2967 -2969 3018 0
2967 -3018 0
2969 -3018 0
-2971 -2973 3020 0
2971 -3020 0
2973 -3020 0
-2975 -2977 3022 0
2975 -3022 0
2977 -3022 0
-2979 -2981 3024 0
2979 -3024 0
2981 -3024 0
-2985 -2987 3077 0
2985 -3077 0
2987 -3077 0
-2989 -2991 3028 0
2989 -3028 0
2991 -3028 0
-2993 -2995 3030 0
2993 -3030 0
2995 -3030 0
-2997 -2999 3032 0
2997 -3032 0
2999 -3032 0
-2998 -3000 3034 0
3000 -3034 0
2998 -3034 0
-3001 -3003 3036 0
3001 -3036 0
3003 -3036 0
-3005 -3006 3038 0
3005 -3038 0
3006 -3038 0
-3007 -3009 3040 0
3007 -3040 0
3009 -3040 0
-3011 -3012 3042 0
3011 -3042 0
3012 -3042 0
-3013 -3015 3083 0
3013 -3083 0
3015 -3083 0
-3017 -3019 3046 0
3017 -3046 0
3019 -3046 0
-3021 -3023 3048 0
3021 -3048 0
3023 -3048 0
-3025 -3026 3050 0
3025 -3050 0
3026 -3050 0
-3027 -3029 3052 0
3027 -3052 0
3029 -3052 0
-3031 -3033 3086 0
3031 -3086 0
3033 -3086 0
-3035 -3037 3054 0
3035 -3054 0
3037 -3054 0
-3039 -3041 3056 0
3039 -3056 0
3041 -3056 0
-3043 -3044 3058 0
3043 -3058 0
3044 -3058 0
-3045 -3047 3060 0
3045 -3060 0
3047 -3060 0
-3049 -3051 3091 0
3049 -3091 0
3051 -3091 0
-3053 -3055 3064 0
3053 -3064 0
3055 -3064 0
-3057 -3059 3066 0
3057 -3066 0
3059 -3066 0
-3061 -3062 3068 0
3061 -3068 0
3062 -3068 0
-3063 -3065 3069 0
3063 -3069 0
3065 -3069 0
-3002 -3004 3135 0
3002 -3135 0
3004 -3135 0
-3008 -3010 3136 0
3008 -3136 0
3010 -3136 0
-3014 -3016 3137 0
3014 -3137 0
3016 -3137 0
-3018 -3020 3074 0
3018 -3074 0
3020 -3074 0
-3022 -3024 3076 0
3022 -3076 0
3024 -3076 0
-3028 -3030 3139 0
3028 -3139 0
3030 -3139 0
-3032 -3034 3140 0
3032 -3140 0
3034 -3140 0
-3036 -3038 3080 0
3036 -3080 0
3038 -3080 0
-3040 -3042 3082 0
3040 -3082 0
3042 -3082 0
-3046 -3048 3142 0
3046 -3142 0
3048 -3142 0
-3050 -3052 3143 0
3050 -3143 0
3052 -3143 0
-3054 -3056 3088 0
3054 -3088 0
3056 -3088 0
-3058 -3060 3090 0
3058 -3090 0
3060 -3090 0
-3064 -3066 3145 0
3064 -3145 0
3066 -3145 0
-3068 -3069 3146 0
3068 -3146 0
3069 -3146 0
-3070 -3071 3097 0
3070 -3097 0
3071 -3097 0
-3072 -3073 3099 0
3072 -3099 0
3073 -3099 0
-3075 -3077 3101 0
3075 -3101 0
3077 -3101 0
-3078 -3079 3103 0
3078 -3103 0
3079 -3103 0
-3081 -3083 3151 0
3081 -3151 0
3083 -3151 0
-3084 -3085 3107 0
3084 -3107 0
3085 -3107 0
-3086 -3087 3109 0
3086 -3109 0
3087 -3109 0
-3089 -3091 3111 0
3089 -3111 0
3091 -3111 0
-3092 -3093 3113 0
3092 -3113 0
3093 -3113 0
-3067 -3094 3115 0
3067 -3115 0
3094 -3115 0
-3095 -3096 3117 0
3095 -3117 0
3096 -3117 0
-3098 -3100 3119 0
3098 -3119 0
3100 -3119 0
-3102 -3104 3121 0
3102 -3121 0
3104 -3121 0
-3105 -3106 3123 0
3105 -3123 0
3106 -3123 0
-3108 -3110 3125 0
3108 -3125 0
3110 -3125 0
-3112 -3114 3127 0
3112 -3127 0
3114 -3127 0
-3116 -3118 3129 0
3116 -3129 0
3118 -3129 0
-3120 -3122 3131 0
3120 -3131 0
3122 -3131 0
-3124 -3126 3133 0
3124 -3133 0
3126 -3133 0
-3128 -3130 3134 0
3128 -3134 0
3130 -3134 0
-3074 -3076 3234 0
3074 -3234 0
3076 -3234 0
-3080 -3082 3206 0
3080 -3206 0
3082 -3206 0
-3088 -3090 3235 0
3088 -3235 0
3090 -3235 0
-3097 -3099 3148 0
3097 -3148 0
3099 -3148 0
-3101 -3103 3150 0
3101 -3150 0
3103 -3150 0
-3107 -3109 3208 0
3107 -3208 0
3109 -3208 0
-3111 -3113 3154 0
3111 -3154 0
3113 -3154 0
-3115 -3117 3156 0
3115 -3156 0
3117 -3156 0
-3119 -3121 3158 0
3119 -3158 0
3121 -3158 0
-3123 -3125 3160 0
3123 -3160 0
3125 -3160 0
-3127 -3129 3162 0
3127 -3162 0
3129 -3162 0
-3131 -3133 3164 0
3131 -3164 0
3133 -3164 0
-3132 -3134 3214 0
3134 -3214 0
3132 -3214 0
-3136 -3137 3167 0
3136 -3167 0
3137 -3167 0
-3138 -3139 3169 0
3138 -3169 0
3139 -3169 0
-3140 -3141 3171 0
3140 -3171 0
3141 -3171 0
-3142 -3143 3173 0
3142 -3173 0
3143 -3173 0
-3144 -3145 3217 0
3144 -3217 0
3145 -3217 0
-3147 -3149 3176 0
3147 -3176 0
3149 -3176 0
-3151 -3152 3178 0
3151 -3178 0
3152 -3178 0
-3153 -3155 3180 0
3153 -3180 0
3155 -3180 0
-3157 -3159 3182 0
3157 -3182 0
3159 -3182 0
-3161 -3163 3184 0
3161 -3184 0
3163 -3184 0
-3135 -3165 3186 0
3165 -3186 0
3135 -3186 0
-3166 -3168 3188 0
3166 -3188 0
3168 -3188 0
-3170 -3172 3190 0
3170 -3190 0
3172 -3190 0
-3146 -3174 3192 0
3174 -3192 0
3146 -3192 0
-3175 -3177 3194 0
3175 -3194 0
3177 -3194 0
-3179 -3181 3196 0
3179 -3196 0
3181 -3196 0
-3183 -3185 3198 0
3183 -3198 0
3185 -3198 0
-3187 -3189 3200 0
3187 -3200 0
3189 -3200 0
-3191 -3193 3202 0
3191 -3202 0
3193 -3202 0
-3195 -3197 3204 0
3195 -3204 0
3197 -3204 0
-3199 -3201 3205 0
3199 -3205 0
3201 -3205 0
-3148 -3150 3273 0
3148 -3273 0
3150 -3273 0
-3154 -3156 3274 0
3154 -3274 0
3156 -3274 0
-3158 -3160 3211 0
3158 -3211 0
3160 -3211 0
-3162 -3164 3213 0
3162 -3213 0
3164 -3213 0
-3167 -3169 3276 0
3167 -3276 0
3169 -3276 0
-3171 -3173 3277 0
3171 -3277 0
3173 -3277 0
-3176 -3178 3219 0
3176 -3219 0
3178 -3219 0
-3180 -3182 3221 0
3180 -3221 0
3182 -3221 0
-3184 -3186 3223 0
3184 -3223 0
3186 -3223 0
-3188 -3190 3225 0
3188 -3225 0
3190 -3225 0
-3192 -3194 3227 0
3192 -3227 0
3194 -3227 0
-3196 -3198 3229 0
3196 -3229 0
3198 -3229 0
-3200 -3202 3231 0
3200 -3231 0
3202 -3231 0
-3204 -3205 3233 0
3204 -3233 0
3205 -3233 0
-3207 -3208 3237 0
3207 -3237 0
3208 -3237 0
-3209 -3210 3239 0
3209 -3239 0
3210 -3239 0
-3212 -3214 3241 0
3212 -3241 0
3214 -3241 0
-3215 -3216 3243 0
3215 -3243 0
3216 -3243 0
-3217 -3218 3245 0
3217 -3245 0
3218 -3245 0
-3220 -3222 3247 0
3220 -3247 0
3222 -3247 0
-3224 -3226 3249 0
3224 -3249 0
3226 -3249 0
-3228 -3230 3251 0
3228 -3251 0
3230 -3251 0
-3203 -3232 3253 0
3232 -3253 0
3203 -3253 0
-3206 -3234 3255 0
3234 -3255 0
3206 -3255 0
-3235 -3236 3257 0
3235 -3257 0
3236 -3257 0
-3238 -3240 3259 0
3238 -3259 0
3240 -3259 0
-3242 -3244 3261 0
3242 -3261 0
3244 -3261 0
-3246 -3248 3263 0
3246 -3263 0
3248 -3263 0
-3250 -3252 3265 0
3250 -3265 0
3252 -3265 0
-3254 -3256 3267 0
3254 -3267 0
3256 -3267 0
-3258 -3260 3269 0
3258 -3269 0
3260 -3269 0
-3262 -3264 3271 0
3262 -3271 0
3264 -3271 0
-3266 -3268 3272 0
3266 -3272 0
3268 -3272 0
-3211 -3213 3336 0
3211 -3336 0
3213 -3336 0
-3219 -3221 3279 0
3219 -3279 0
3221 -3279 0
-3223 -3225 3281 0
3223 -3281 0
3225 -3281 0
-3227 -3229 3283 0
3227 -3283 0
3229 -3283 0
-3231 -3233 3285 0
3231 -3285 0
3233 -3285 0
-3237 -3239 3287 0
3237 -3287 0
3239 -3287 0
-3241 -3243 3289 0
3241 -3289 0
3243 -3289 0
-3245 -3247 3291 0
3245 -3291 0
3247 -3291 0
-3249 -3251 3293 0
3249 -3293 0
3251 -3293 0
-3253 -3255 3295 0
3253 -3295 0
3255 -3295 0
-3257 -3259 3297 0
3257 -3297 0
3259 -3297 0
-3261 -3263 3299 0
3261 -3299 0
3263 -3299 0
-3265 -3267 3301 0
3265 -3301 0
3267 -3301 0
-3269 -3271 3303 0
3269 -3303 0
3271 -3303 0
-3270 -3272 3305 0
3272 -3305 0
3270 -3305 0
-3274 -3275 3307 0
3274 -3307 0
3275 -3307 0
-3276 -3277 3309 0
3276 -3309 0
3277 -3309 0
-3278 -3280 3311 0
3278 -3311 0
3280 -3311 0
-3282 -3284 3313 0
3282 -3313 0
3284 -3313 0
-3286 -3288 3349 0
3286 -3349 0
3288 -3349 0
-3290 -3292 3315 0
3290 -3315 0
3292 -3315 0
-3294 -3296 3317 0
3294 -3317 0
3296 -3317 0
-3298 -3300 3319 0
3298 -3319 0
3300 -3319 0
-3302 -3304 3321 0
3302 -3321 0
3304 -3321 0
-3306 -3308 3354 0
3306 -3354 0
3308 -3354 0
-3310 -3312 3355 0
3310 -3355 0
3312 -3355 0
-3314 -3316 3326 0
3314 -3326 0
3316 -3326 0
-3318 -3320 3328 0
3318 -3328 0
3320 -3328 0
-3273 -3322 3330 0
3273 -3330 0
3322 -3330 0
-3323 -3324 3332 0
3323 -3332 0
3324 -3332 0
-3325 -3327 3334 0
3325 -3334 0
3327 -3334 0
-3329 -3331 3335 0
3329 -3335 0
3331 -3335 0
-3279 -3281 3337 0
3279 -3337 0
3281 -3337 0
-3283 -3285 3338 0
3283 -3338 0
3285 -3338 0
-3287 -3289 3396 0
3287 -3396 0
3289 -3396 0
-3291 -3293 3341 0
3291 -3341 0
3293 -3341 0
-3295 -3297 3343 0
3295 -3343 0
3297 -3343 0
-3299 -3301 3345 0
3299 -3345 0
3301 -3345 0
-3303 -3305 3346 0
3303 -3346 0
3305 -3346 0
-3307 -3309 3401 0
3307 -3401 0
3309 -3401 0
-3311 -3313 3402 0
3311 -3402 0
3313 -3402 0
-3315 -3317 3351 0
3315 -3351 0
3317 -3351 0
-3319 -3321 3353 0
3319 -3353 0
3321 -3353 0
-3326 -3328 3357 0
3326 -3357 0
3328 -3357 0
-3330 -3332 3359 0
3330 -3359 0
3332 -3359 0
-3334 -3335 3404 0
3334 -3404 0
3335 -3404 0
-3339 -3340 3405 0
3339 -3405 0
3340 -3405 0
-3342 -3344 3406 0
3342 -3406 0
3344 -3406 0
-3347 -3348 3367 0
3347 -3367 0
3348 -3367 0
-3349 -3350 3369 0
3349 -3369 0
3350 -3369 0
-3352 -3354 3371 0
3352 -3371 0
3354 -3371 0
-3355 -3356 3373 0
3355 -3373 0
3356 -3373 0
-3358 -3360 3375 0
3358 -3375 0
3360 -3375 0
-3333 -3336 3377 0
3333 -3377 0
3336 -3377 0
-3361 -3362 3379 0
3361 -3379 0
3362 -3379 0
-3363 -3364 3381 0
3363 -3381 0
3364 -3381 0
-3365 -3366 3383 0
3365 -3383 0
3366 -3383 0
-3368 -3370 3385 0
3368 -3385 0
3370 -3385 0
-3372 -3374 3387 0
3372 -3387 0
3374 -3387 0
-3376 -3378 3389 0
3376 -3389 0
3378 -3389 0
-3380 -3382 3391 0
3380 -3391 0
3382 -3391 0
-3384 -3386 3393 0
3384 -3393 0
3386 -3393 0
-3388 -3390 3394 0
3388 -3394 0
3390 -3394 0
-3337 -3338 3452 0
3337 -3452 0
3338 -3452 0
-3341 -3343 3398 0
3341 -3398 0
3343 -3398 0
-3345 -3346 3400 0
3345 -3400 0
3346 -3400 0
-3351 -3353 3477 0
3351 -3477 0
3353 -3477 0
-3357 -3359 3454 0
3357 -3454 0
3359 -3454 0
-3367 -3369 3455 0
3367 -3455 0
3369 -3455 0
-3371 -3373 3409 0
3371 -3409 0
3373 -3409 0
-3375 -3377 3411 0
3375 -3411 0
3377 -3411 0
-3379 -3381 3413 0
3379 -3413 0
3381 -3413 0
-3383 -3385 3415 0
3383 -3415 0
3385 -3415 0
-3387 -3389 3417 0
3387 -3417 0
3389 -3417 0
-3391 -3393 3419 0
3391 -3419 0
3393 -3419 0
-3392 -3394 3461 0
3394 -3461 0
3392 -3461 0
-3395 -3396 3421 0
3395 -3421 0
3396 -3421 0
-3397 -3399 3423 0
3397 -3423 0
3399 -3423 0
-3401 -3402 3463 0
3401 -3463 0
3402 -3463 0
-3403 -3404 3464 0
3403 -3464 0
3404 -3464 0
-3406 -3407 3428 0
3406 -3428 0
3407 -3428 0
-3408 -3410 3430 0
3408 -3430 0
3410 -3430 0
-3412 -3414 3432 0
3412 -3432 0
3414 -3432 0
-3416 -3418 3434 0
3416 -3434 0
3418 -3434 0
-3420 -3422 3467 0
3420 -3467 0
3422 -3467 0
-3424 -3425 3438 0
3424 -3438 0
3425 -3438 0
-3405 -3426 3440 0
3426 -3440 0
3405 -3440 0
-3427 -3429 3442 0
3427 -3442 0
3429 -3442 0
-3431 -3433 3444 0
3431 -3444 0
3433 -3444 0
-3435 -3436 3446 0
3435 -3446 0
3436 -3446 0
-3437 -3439 3448 0
3437 -3448 0
3439 -3448 0
-3441 -3443 3450 0
3441 -3450 0
3443 -3450 0
-3445 -3447 3451 0
3445 -3451 0
3447 -3451 0
-3398 -3400 3511 0
3398 -3511 0
3400 -3511 0
-3409 -3411 3457 0
3409 -3457 0
3411 -3457 0
-3413 -3415 3459 0
3413 -3459 0
3415 -3459 0
-3417 -3419 3513 0
3417 -3513 0
3419 -3513 0
-3421 -3423 3514 0
3421 -3514 0
3423 -3514 0
-3428 -3430 3515 0
3428 -3515 0
3430 -3515 0
-3432 -3434 3516 0
3432 -3516 0
3434 -3516 0
-3438 -3440 3469 0
3438 -3469 0
3440 -3469 0
-3442 -3444 3471 0
3442 -3471 0
3444 -3471 0
-3446 -3448 3473 0
3446 -3473 0
3448 -3473 0
-3450 -3451 3475 0
3450 -3475 0
3451 -3475 0
-3452 -3453 3519 0
3452 -3519 0
3453 -3519 0
-3455 -3456 3479 0
3455 -3479 0
3456 -3479 0
-3458 -3460 3481 0
3458 -3481 0
3460 -3481 0
-3461 -3462 3483 0
3461 -3483 0
3462 -3483 0
-3463 -3464 3485 0
3463 -3485 0
3464 -3485 0
-3465 -3466 3487 0
3465 -3487 0
3466 -3487 0
-3467 -3468 3489 0
3467 -3489 0
3468 -3489 0
-3470 -3472 3491 0
3470 -3491 0
3472 -3491 0
-3449 -3474 3493 0
3474 -3493 0
3449 -3493 0
-3476 -3477 3495 0
3476 -3495 0
3477 -3495 0
-3454 -3478 3497 0
3454 -3497 0
3478 -3497 0
-3480 -3482 3499 0
3480 -3499 0
3482 -3499 0
-3484 -3486 3501 0
3484 -3501 0
3486 -3501 0
-3488 -3490 3503 0
3488 -3503 0
3490 -3503 0
-3492 -3494 3505 0
3492 -3505 0
3494 -3505 0
-3496 -3498 3507 0
3496 -3507 0
3498 -3507 0
-3500 -3502 3509 0
3500 -3509 0
3502 -3509 0
-3504 -3506 3510 0
3504 -3510 0
3506 -3510 0
-3457 -3459 3566 0
3457 -3566 0
3459 -3566 0
-3469 -3471 3567 0
3469 -3567 0
3471 -3567 0
-3473 -3475 3568 0
3473 -3568 0
3475 -3568 0
-3479 -3481 3569 0
3479 -3569 0
3481 -3569 0
-3483 -3485 3521 0
3483 -3521 0
3485 -3521 0
-3487 -3489 3523 0
3487 -3523 0
3489 -3523 0
-3491 -3493 3525 0
3491 -3525 0
3493 -3525 0
-3495 -3497 3527 0
3495 -3527 0
3497 -3527 0
-3499 -3501 3529 0
3499 -3529 0
3501 -3529 0
-3503 -3505 3531 0
3503 -3531 0
3505 -3531 0
-3507 -3509 3533 0
3507 -3533 0
3509 -3533 0
-3508 -3510 3535 0
3510 -3535 0
3508 -3535 0
-3512 -3513 3537 0
3512 -3537 0
3513 -3537 0
-3514 -3515 3539 0
3514 -3539 0
3515 -3539 0
-3516 -3517 3541 0
3516 -3541 0
3517 -3541 0
-3518 -3519 3543 0
3518 -3543 0
3519 -3543 0
-3520 -3522 3579 0
3520 -3579 0
3522 -3579 0
-3524 -3526 3547 0
3524 -3547 0
3526 -3547 0
-3528 -3530 3549 0
3528 -3549 0
3530 -3549 0
-3532 -3534 3581 0
3532 -3581 0
3534 -3581 0
-3536 -3538 3552 0
3536 -3552 0
3538 -3552 0
-3540 -3542 3554 0
3540 -3554 0
3542 -3554 0
-3544 -3545 3556 0
3544 -3556 0
3545 -3556 0
-3546 -3548 3558 0
3546 -3558 0
3548 -3558 0
-3511 -3550 3560 0
3550 -3560 0
3511 -3560 0
-3551 -3553 3562 0
3551 -3562 0
3553 -3562 0
-3555 -3557 3564 0
3555 -3564 0
3557 -3564 0
-3559 -3561 3565 0
3559 -3565 0
3561 -3565 0
-3521 -3523 3619 0
3521 -3619 0
3523 -3619 0
-3525 -3527 3572 0
3525 -3572 0
3527 -3572 0
-3529 -3531 3574 0
3529 -3574 0
3531 -3574 0
-3533 -3535 3621 0
3533 -3621 0
3535 -3621 0
-3537 -3539 3576 0
3537 -3576 0
3539 -3576 0
-3541 -3543 3578 0
3541 -3578 0
3543 -3578 0
-3547 -3549 3623 0
3547 -3623 0
3549 -3623 0
-3552 -3554 3624 0
3552 -3624 0
3554 -3624 0
-3556 -3558 3584 0
3556 -3584 0
3558 -3584 0
-3560 -3562 3586 0
3560 -3586 0
3562 -3586 0
-3564 -3565 3626 0
3564 -3626 0
3565 -3626 0
-3568 -3569 3589 0
3568 -3589 0
3569 -3589 0
-3570 -3571 3591 0
3570 -3591 0
3571 -3591 0
-3573 -3575 3628 0
3573 -3628 0
3575 -3628 0
-3577 -3579 3595 0
3577 -3595 0
3579 -3595 0
-3580 -3581 3597 0
3580 -3597 0
3581 -3597 0
-3582 -3583 3599 0
3582 -3599 0
3583 -3599 0
-3585 -3587 3601 0
3585 -3601 0
3587 -3601 0
-3563 -3566 3603 0
3563 -3603 0
3566 -3603 0
-3567 -3588 3605 0
3567 -3605 0
3588 -3605 0
-3590 -3592 3607 0
3590 -3607 0
3592 -3607 0
-3593 -3594 3609 0
3593 -3609 0
3594 -3609 0
-3596 -3598 3611 0
3596 -3611 0
3598 -3611 0
-3600 -3602 3613 0
3600 -3613 0
3602 -3613 0
-3604 -3606 3615 0
3604 -3615 0
3606 -3615 0
-3608 -3610 3617 0
3608 -3617 0
3610 -3617 0
-3612 -3614 3618 0
3612 -3618 0
3614 -3618 0
-3572 -3574 3668 0
3572 -3668 0
3574 -3668 0
-3576 -3578 3669 0
3576 -3669 0
3578 -3669 0
-3584 -3586 3670 0
3584 -3670 0
3586 -3670 0
-3589 -3591 3691 0
3589 -3691 0
3591 -3691 0
-3595 -3597 3630 0
3595 -3630 0
3597 -3630 0
-3599 -3601 3632 0
3599 -3632 0
3601 -3632 0
-3603 -3605 3634 0
3603 -3634 0
3605 -3634 0
-3607 -3609 3636 0
3607 -3636 0
3609 -3636 0
-3611 -3613 3638 0
3611 -3638 0
3613 -3638 0
-3615 -3617 3640 0
3615 -3640 0
3617 -3640 0
-3616 -3618 3676 0
3618 -3676 0
3616 -3676 0
-3620 -3621 3677 0
3620 -3677 0
3621 -3677 0
-3622 -3623 3643 0
3622 -3643 0
3623 -3643 0
-3624 -3625 3645 0
3624 -3645 0
3625 -3645 0
-3627 -3628 3679 0
3627 -3679 0
3628 -3679 0
-3629 -3631 3648 0
3629 -3648 0
3631 -3648 0
-3633 -3635 3650 0
3633 -3650 0
3635 -3650 0
-3637 -3639 3681 0
3637 -3681 0
3639 -3681 0
-3619 -3641 3654 0
3619 -3654 0
3641 -3654 0
-3642 -3644 3656 0
3642 -3656 0
3644 -3656 0
-3626 -3646 3658 0
3626 -3658 0
3646 -3658 0
-3647 -3649 3660 0
3647 -3660 0
3649 -3660 0
-3651 -3652 3662 0
3651 -3662 0
3652 -3662 0
-3653 -3655 3664 0
3653 -3664 0
3655 -3664 0
-3657 -3659 3666 0
3657 -3666 0
3659 -3666 0
-3661 -3663 3667 0
3661 -3667 0
3663 -3667 0
-3630 -3632 3755 0
3630 -3755 0
3632 -3755 0
-3634 -3636 3673 0
3634 -3673 0
3636 -3673 0
-3638 -3640 3675 0
3638 -3675 0
3640 -3675 0
-3643 -3645 3721 0
3643 -3721 0
3645 -3721 0
-3648 -3650 3722 0
3648 -3722 0
3650 -3722 0
-3654 -3656 3683 0
3654 -3683 0
3656 -3683 0
-3658 -3660 3685 0
3658 -3685 0
3660 -3685 0
-3662 -3664 3687 0
3662 -3687 0
3664 -3687 0
-3666 -3667 3689 0
3666 -3689 0
3667 -3689 0
-3669 -3670 3727 0
3669 -3727 0
3670 -3727 0
-3671 -3672 3693 0
3671 -3693 0
3672 -3693 0
-3674 -3676 3695 0
3674 -3695 0
3676 -3695 0
-3677 -3678 3697 0
3677 -3697 0
3678 -3697 0
-3679 -3680 3699 0
3679 -3699 0
3680 -3699 0
-3681 -3682 3701 0
3681 -3701 0
3682 -3701 0
-3684 -3686 3703 0
3684 -3703 0
3686 -3703 0
-3665 -3688 3705 0
3688 -3705 0
3665 -3705 0
-3668 -3690 3707 0
3668 -3707 0
3690 -3707 0
-3691 -3692 3709 0
3691 -3709 0
3692 -3709 0
-3694 -3696 3711 0
3694 -3711 0
3696 -3711 0
-3698 -3700 3713 0
3698 -3713 0
3700 -3713 0
-3702 -3704 3715 0
3702 -3715 0
3704 -3715 0
-3706 -3708 3717 0
3706 -3717 0
3708 -3717 0
-3710 -3712 3719 0
3710 -3719 0
3712 -3719 0
-3714 -3716 3720 0
3714 -3720 0
3716 -3720 0
-3673 -3675 3768 0
3673 -3768 0
3675 -3768 0
-3683 -3685 3724 0
3683 -3724 0
3685 -3724 0
-3687 -3689 3726 0
3687 -3726 0
3689 -3726 0
-3693 -3695 3729 0
3693 -3729 0
3695 -3729 0
-3697 -3699 3731 0
3697 -3731 0
3699 -3731 0
-3701 -3703 3733 0
3701 -3733 0
3703 -3733 0
-3705 -3707 3735 0
3705 -3735 0
3707 -3735 0
-3709 -3711 3737 0
3709 -3737 0
3711 -3737 0
-3713 -3715 3739 0
3713 -3739 0
3715 -3739 0
-3717 -3719 3741 0
3717 -3741 0
3719 -3741 0
-3718 -3720 3743 0
3720 -3743 0
3718 -3743 0
-3721 -3722 3775 0
3721 -3775 0
3722 -3775 0
-3723 -3725 3776 0
3723 -3776 0
3725 -3776 0
-3728 -3730 3748 0
3728 -3748 0
3730 -3748 0
-3732 -3734 3750 0
3732 -3750 0
3734 -3750 0
-3736 -3738 3752 0
3736 -3752 0
3738 -3752 0
-3740 -3742 3754 0
3740 -3754 0
3742 -3754 0
-3744 -3745 3779 0
3744 -3779 0
3745 -3779 0
-3727 -3746 3758 0
3746 -3758 0
3727 -3758 0
-3747 -3749 3760 0
3747 -3760 0
3749 -3760 0
-3751 -3753 3762 0
3751 -3762 0
3753 -3762 0
-3755 -3756 3764 0
3755 -3764 0
3756 -3764 0
-3757 -3759 3766 0
3757 -3766 0
3759 -3766 0
-3761 -3763 3767 0
3761 -3767 0
3763 -3767 0
-3724 -3726 3811 0
3724 -3811 0
3726 -3811 0
-3729 -3731 3769 0
3729 -3769 0
3731 -3769 0
-3733 -3735 3771 0
3733 -3771 0
3735 -3771 0
-3737 -3739 3773 0
3737 -3773 0
3739 -3773 0
-3741 -3743 3774 0
3741 -3774 0
3743 -3774 0
-3748 -3750 3813 0
3748 -3813 0
3750 -3813 0
-3752 -3754 3814 0
3752 -3814 0
3754 -3814 0
-3758 -3760 3781 0
3758 -3781 0
3760 -3781 0
-3762 -3764 3783 0
3762 -3783 0
3764 -3783 0
-3766 -3767 3816 0
3766 -3816 0
3767 -3816 0
-3770 -3772 3817 0
3770 -3817 0
3772 -3817 0
-3775 -3776 3818 0
3775 -3818 0
3776 -3818 0
-3777 -3778 3791 0
3777 -3791 0
3778 -3791 0
-3779 -3780 3793 0
3779 -3793 0
3780 -3793 0
-3782 -3784 3795 0
3782 -3795 0
3784 -3795 0
-3765 -3768 3797 0
3765 -3797 0
3768 -3797 0
-3785 -3786 3799 0
3785 -3799 0
3786 -3799 0
-3787 -3788 3801 0
3787 -3801 0
3788 -3801 0
-3789 -3790 3803 0
3789 -3803 0
3790 -3803 0
-3792 -3794 3805 0
3792 -3805 0
3794 -3805 0
-3796 -3798 3807 0
3796 -3807 0
3798 -3807 0
-3800 -3802 3809 0
3800 -3809 0
3802 -3809 0
-3804 -3806 3810 0
3804 -3810 0
3806 -3810 0
-3769 -3771 3852 0
3769 -3852 0
3771 -3852 0
-3773 -3774 3853 0
3773 -3853 0
3774 -3853 0
-3781 -3783 3854 0
3781 -3854 0
3783 -3854 0
-3791 -3793 3869 0
3791 -3869 0
3793 -3869 0
-3795 -3797 3821 0
3795 -3821 0
3797 -3821 0
-3799 -3801 3823 0
3799 -3823 0
3801 -3823 0
-3803 -3805 3825 0
3803 -3825 0
3805 -3825 0
-3807 -3809 3827 0
3807 -3827 0
3809 -3827 0
-3808 -3810 3857 0
3810 -3857 0
3808 -3857 0
-3811 -3812 3858 0
3811 -3858 0
3812 -3858 0
-3813 -3814 3831 0
3813 -3831 0
3814 -3831 0
-3815 -3816 3833 0
3815 -3833 0
3816 -3833 0
-3818 -3819 3860 0
3818 -3860 0
3819 -3860 0
-3820 -3822 3836 0
3820 -3836 0
3822 -3836 0
-3824 -3826 3838 0
3824 -3838 0
3826 -3838 0
-3828 -3829 3862 0
3828 -3862 0
3829 -3862 0
-3830 -3832 3842 0
3830 -3842 0
3832 -3842 0
-3817 -3834 3844 0
3817 -3844 0
3834 -3844 0
-3835 -3837 3846 0
3835 -3846 0
3837 -3846 0
-3839 -3840 3848 0
3839 -3848 0
3840 -3848 0
-3841 -3843 3850 0
3841 -3850 0
3843 -3850 0
-3845 -3847 3851 0
3845 -3851 0
3847 -3851 0
-3821 -3823 3913 0
3821 -3913 0
3823 -3913 0
-3825 -3827 3895 0
3825 -3895 0
3827 -3895 0
-3831 -3833 3896 0
3831 -3896 0
3833 -3896 0
-3836 -3838 3897 0
3836 -3897 0
3838 -3897 0
-3842 -3844 3898 0
3842 -3898 0
3844 -3898 0
-3846 -3848 3865 0
3846 -3865 0
3848 -3865 0
-3850 -3851 3867 0
3850 -3867 0
3851 -3867 0
-3852 -3853 3900 0
3852 -3900 0
3853 -3900 0
-3855 -3856 3871 0
3855 -3871 0
3856 -3871 0
-3857 -3858 3873 0
3857 -3873 0
3858 -3873 0
-3859 -3860 3875 0
3859 -3875 0
3860 -3875 0
-3861 -3862 3877 0
3861 -3877 0
3862 -3877 0
-3863 -3864 3879 0
3863 -3879 0
3864 -3879 0
-3849 -3866 3881 0
3866 -3881 0
3849 -3881 0
-3854 -3868 3883 0
3868 -3883 0
3854 -3883 0
-3869 -3870 3885 0
3869 -3885 0
3870 -3885 0
-3872 -3874 3887 0
3872 -3887 0
3874 -3887 0
-3876 -3878 3889 0
3876 -3889 0
3878 -3889 0
-3880 -3882 3891 0
3880 -3891 0
3882 -3891 0
-3884 -3886 3893 0
3884 -3893 0
3886 -3893 0
-3888 -3890 3894 0
3888 -3894 0
3890 -3894 0
-3865 -3867 3936 0
3865 -3936 0
3867 -3936 0
-3871 -3873 3937 0
3871 -3937 0
3873 -3937 0
-3875 -3877 3902 0
3875 -3902 0
3877 -3902 0
-3879 -3881 3904 0
3879 -3904 0
3881 -3904 0
-3883 -3885 3906 0
3883 -3906 0
3885 -3906 0
-3887 -3889 3908 0
3887 -3908 0
3889 -3908 0
-3891 -3893 3910 0
3891 -3910 0
3893 -3910 0
-3892 -3894 3912 0
3894 -3912 0
3892 -3912 0
-3895 -3896 3915 0
3895 -3915 0
3896 -3915 0
-3897 -3898 3917 0
3897 -3917 0
3898 -3917 0
-3899 -3900 3943 0
3899 -3943 0
3900 -3943 0
-3901 -3903 3921 0
3901 -3921 0
3903 -3921 0
-3905 -3907 3923 0
3905 -3923 0
3907 -3923 0
-3909 -3911 3945 0
3909 -3945 0
3911 -3945 0
-3914 -3916 3926 0
3914 -3926 0
3916 -3926 0
-3918 -3919 3928 0
3918 -3928 0
3919 -3928 0
-3920 -3922 3930 0
3920 -3930 0
3922 -3930 0
-3913 -3924 3932 0
3924 -3932 0
3913 -3932 0
-3925 -3927 3934 0
3925 -3934 0
3927 -3934 0
-3929 -3931 3935 0
3929 -3935 0
3931 -3935 0
-3902 -3904 3939 0
3902 -3939 0
3904 -3939 0
-3906 -3908 3941 0
3906 -3941 0
3908 -3941 0
-3910 -3912 3971 0
3910 -3971 0
3912 -3971 0
-3915 -3917 3972 0
3915 -3972 0
3917 -3972 0
-3921 -3923 3973 0
3921 -3973 0
3923 -3973 0
-3926 -3928 3947 0
3926 -3947 0
3928 -3947 0
-3930 -3932 3949 0
3930 -3949 0
3932 -3949 0
-3934 -3935 3975 0
3934 -3975 0
3935 -3975 0
-3937 -3938 3952 0
3937 -3952 0
3938 -3952 0
-3940 -3942 3954 0
3940 -3954 0
3942 -3954 0
-3943 -3944 3977 0
3943 -3977 0
3944 -3977 0
-3945 -3946 3958 0
3945 -3958 0
3946 -3958 0
-3948 -3950 3960 0
3948 -3960 0
3950 -3960 0
-3936 -3951 3979 0
3936 -3979 0
3951 -3979 0
-3953 -3955 3963 0
3953 -3963 0
3955 -3963 0
-3956 -3957 3965 0
3956 -3965 0
3957 -3965 0
-3933 -3959 3967 0
3959 -3967 0
3933 -3967 0
-3961 -3962 3969 0
3961 -3969 0
3962 -3969 0
-3964 -3966 3970 0
3964 -3970 0
3966 -3970 0
-3939 -3941 4004 0
3939 -4004 0
3941 -4004 0
-3947 -3949 4005 0
3947 -4005 0
3949 -4005 0
-3952 -3954 4006 0
3952 -4006 0
3954 -4006 0
-3958 -3960 4007 0
3958 -4007 0
3960 -4007 0
-3963 -3965 3981 0
3963 -3981 0
3965 -3981 0
-3967 -3969 3983 0
3967 -3983 0
3969 -3983 0
-3968 -3970 4009 0
3970 -4009 0
3968 -4009 0
-3971 -3972 4010 0
3971 -4010 0
3972 -4010 0
-3973 -3974 4011 0
3973 -4011 0
3974 -4011 0
-3976 -3977 3988 0
3976 -3988 0
3977 -3988 0
-3978 -3979 3990 0
3978 -3990 0
3979 -3990 0
-3980 -3982 4013 0
3980 -4013 0
3982 -4013 0
-3984 -3985 3994 0
3984 -3994 0
3985 -3994 0
-3975 -3986 3996 0
3986 -3996 0
3975 -3996 0
-3987 -3989 3998 0
3987 -3998 0
3989 -3998 0
-3991 -3992 4000 0
3991 -4000 0
3992 -4000 0
-3993 -3995 4002 0
3993 -4002 0
3995 -4002 0
-3997 -3999 4003 0
3997 -4003 0
3999 -4003 0
-3981 -3983 4056 0
3981 -4056 0
3983 -4056 0
-3988 -3990 4057 0
3988 -4057 0
3990 -4057 0
-3994 -3996 4041 0
3994 -4041 0
3996 -4041 0
-3998 -4000 4016 0
3998 -4016 0
4000 -4016 0
-4002 -4003 4018 0
4002 -4018 0
4003 -4018 0
-4006 -4007 4043 0
4006 -4043 0
4007 -4043 0
-4008 -4009 4021 0
4008 -4021 0
4009 -4021 0
-4010 -4011 4023 0
4010 -4023 0
4011 -4023 0
-4012 -4013 4025 0
4012 -4025 0
4013 -4025 0
-4014 -4015 4027 0
4014 -4027 0
4015 -4027 0
-4001 -4017 4029 0
4017 -4029 0
4001 -4029 0
-4004 -4005 4031 0
4004 -4031 0
4005 -4031 0
-4019 -4020 4033 0
4019 -4033 0
4020 -4033 0
-4022 -4024 4035 0
4022 -4035 0
4024 -4035 0
-4026 -4028 4037 0
4026 -4037 0
4028 -4037 0
-4030 -4032 4039 0
4030 -4039 0
4032 -4039 0
-4034 -4036 4040 0
4034 -4040 0
4036 -4040 0
-4016 -4018 4082 0
4016 -4082 0
4018 -4082 0
-4021 -4023 4045 0
4021 -4045 0
4023 -4045 0
-4025 -4027 4047 0
4025 -4047 0
4027 -4047 0
-4029 -4031 4049 0
4029 -4049 0
4031 -4049 0
-4033 -4035 4051 0
4033 -4051 0
4035 -4051 0
-4037 -4039 4053 0
4037 -4053 0
4039 -4053 0
-4038 -4040 4055 0
4040 -4055 0
4038 -4055 0
-4041 -4042 4076 0
4041 -4076 0
4042 -4076 0
-4044 -4046 4077 0
4044 -4077 0
4046 -4077 0
-4048 -4050 4061 0
4048 -4061 0
4050 -4061 0
-4052 -4054 4063 0
4052 -4063 0
4054 -4063 0
-4057 -4058 4079 0
4057 -4079 0
4058 -4079 0
-4043 -4059 4066 0
4043 -4066 0
4059 -4066 0
-4060 -4062 4068 0
4060 -4068 0
4062 -4068 0
-4056 -4064 4070 0
4056 -4070 0
4064 -4070 0
-4065 -4067 4071 0
4065 -4071 0
4067 -4071 0
-4045 -4047 4099 0
4045 -4099 0
4047 -4099 0
-4049 -4051 4074 0
4049 -4074 0
4051 -4074 0
-4053 -4055 4075 0
4053 -4075 0
4055 -4075 0
-4061 -4063 4111 0
4061 -4111 0
4063 -4111 0
-4066 -4068 4101 0
4066 -4101 0
4068 -4101 0
-4070 -4071 4102 0
4070 -4102 0
4071 -4102 0
-4072 -4073 4103 0
4072 -4103 0
4073 -4103 0
-4076 -4077 4086 0
4076 -4086 0
4077 -4086 0
-4078 -4079 4088 0
4078 -4088 0
4079 -4088 0
-4080 -4081 4105 0
4080 -4105 0
4081 -4105 0
-4082 -4083 4091 0
4082 -4091 0
4083 -4091 0
-4084 -4085 4093 0
4084 -4093 0
4085 -4093 0
-4087 -4089 4095 0
4087 -4095 0
4089 -4095 0
-4069 -4090 4097 0
4069 -4097 0
4090 -4097 0
-4092 -4094 4098 0
4092 -4098 0
4094 -4098 0
-4074 -4075 4146 0
4074 -4146 0
4075 -4146 0
-4086 -4088 4126 0
4086 -4126 0
4088 -4126 0
-4091 -4093 4107 0
4091 -4107 0
4093 -4107 0
-4095 -4097 4109 0
4095 -4109 0
4097 -4109 0
-4096 -4098 4128 0
4098 -4128 0
4096 -4128 0
-4099 -4100 4129 0
4099 -4129 0
4100 -4129 0
-4101 -4102 4130 0
4101 -4130 0
4102 -4130 0
-4104 -4105 4114 0
4104 -4114 0
4105 -4114 0
-4106 -4108 4116 0
4106 -4116 0
4108 -4116 0
-4110 -4111 4132 0
4110 -4132 0
4111 -4132 0
-4103 -4112 4120 0
4112 -4120 0
4103 -4120 0
-4113 -4115 4122 0
4113 -4122 0
4115 -4122 0
-4117 -4118 4124 0
4117 -4124 0
4118 -4124 0
-4119 -4121 4125 0
4119 -4125 0
4121 -4125 0
-4107 -4109 4168 0
4107 -4168 0
4109 -4168 0
-4114 -4116 4153 0
4114 -4153 0
4116 -4153 0
-4120 -4122 4134 0
4120 -4134 0
4122 -4134 0
-4124 -4125 4136 0
4124 -4136 0
4125 -4136 0
-4126 -4127 4154 0
4126 -4154 0
4127 -4154 0
-4128 -4129 4139 0
4128 -4139 0
4129 -4139 0
-4130 -4131 4141 0
4130 -4141 0
4131 -4141 0
-4132 -4133 4143 0
4132 -4143 0
4133 -4143 0
-4123 -4135 4145 0
4135 -4145 0
4123 -4145 0
-4137 -4138 4157 0
4137 -4157 0
4138 -4157 0
-4140 -4142 4149 0
4140 -4149 0
4142 -4149 0
-4144 -4146 4151 0
4144 -4151 0
4146 -4151 0
-4147 -4148 4152 0
4147 -4152 0
4148 -4152 0
-4134 -4136 4176 0
4134 -4176 0
4136 -4176 0
-4139 -4141 4177 0
4139 -4177 0
4141 -4177 0
-4143 -4145 4178 0
4143 -4178 0
4145 -4178 0
-4149 -4151 4159 0
4149 -4159 0
4151 -4159 0
-4150 -4152 4161 0
4152 -4161 0
4150 -4161 0
-4154 -4155 4164 0
4154 -4164 0
4155 -4164 0
-4156 -4157 4166 0
4156 -4166 0
4157 -4166 0
-4158 -4160 4181 0
4158 -4181 0
4160 -4181 0
-4153 -4162 4170 0
4153 -4170 0
4162 -4170 0
-4163 -4165 4172 0
4163 -4172 0
4165 -4172 0
-4167 -4168 4174 0
4167 -4174 0
4168 -4174 0
-4169 -4171 4175 0
4169 -4175 0
4171 -4175 0
-4159 -4161 4193 0
4159 -4193 0
4161 -4193 0
-4164 -4166 4194 0
4164 -4194 0
4166 -4194 0
-4170 -4172 4195 0
4170 -4195 0
4172 -4195 0
-4174 -4175 4196 0
4174 -4196 0
4175 -4196 0
-4176 -4177 4197 0
4176 -4197 0
4177 -4197 0
-4178 -4179 4198 0
4178 -4198 0
4179 -4198 0
-4180 -4181 4186 0
4180 -4186 0
4181 -4186 0
-4182 -4183 4188 0
4182 -4188 0
4183 -4188 0
-4184 -4185 4200 0
4184 -4200 0
4185 -4200 0
-4173 -4187 4201 0
4187 -4201 0
4173 -4201 0
-4189 -4190 4192 0
4189 -4192 0
4190 -4192 0
-4186 -4188 4224 0
4186 -4224 0
4188 -4224 0
-4191 -4192 4216 0
4192 -4216 0
4191 -4216 0
-4194 -4195 4217 0
4194 -4217 0
4195 -4217 0
-4196 -4197 4204 0
4196 -4204 0
4197 -4204 0
-4198 -4199 4206 0
4198 -4206 0
4199 -4206 0
-4200 -4201 4219 0
4200 -4219 0
4201 -4219 0
-4193 -4202 4210 0
4193 -4210 0
4202 -4210 0
-4203 -4205 4212 0
4203 -4212 0
4205 -4212 0
-4207 -4208 4214 0
4207 -4214 0
4208 -4214 0
-4209 -4211 4215 0
4209 -4215 0
4211 -4215 0
-4204 -4206 4235 0
4204 -4235 0
4206 -4235 0
-4210 -4212 4221 0
4210 -4221 0
4212 -4221 0
-4214 -4215 4223 0
4214 -4223 0
4215 -4223 0
-4217 -4218 4226 0
4217 -4226 0
4218 -4226 0
-4219 -4220 4228 0
4219 -4228 0
4220 -4228 0
-4213 -4222 4238 0
4222 -4238 0
4213 -4238 0
-4216 -4225 4231 0
4216 -4231 0
4225 -4231 0
-4227 -4229 4233 0
4227 -4233 0
4229 -4233 0
-4224 -4230 4234 0
4224 -4234 0
4230 -4234 0
-4221 -4223 4248 0
4221 -4248 0
4223 -4248 0
-4226 -4228 4252 0
4226 -4252 0
4228 -4252 0
-4231 -4233 4240 0
4231 -4240 0
4233 -4240 0
-4232 -4234 4242 0
4234 -4242 0
4232 -4242 0
-4235 -4236 4249 0
4235 -4249 0
4236 -4249 0
-4237 -4238 4244 0
4237 -4244 0
4238 -4244 0
-4239 -4241 4246 0
4239 -4246 0
4241 -4246 0
-4243 -4245 4251 0
4243 -4251 0
4245 -4251 0
-4240 -4242 4265 0
4240 -4265 0
4242 -4265 0
-4244 -4246 4261 0
4244 -4261 0
4246 -4261 0
-4249 -4250 4262 0
4249 -4262 0
4250 -4262 0
-4247 -4248 4263 0
4247 -4263 0
4248 -4263 0
-4252 -4253 4257 0
4252 -4257 0
4253 -4257 0
-4251 -4254 4259 0
4254 -4259 0
4251 -4259 0
-4255 -4256 4260 0
4255 -4260 0
4256 -4260 0
-4257 -4259 4276 0
4257 -4276 0
4259 -4276 0
-4258 -4260 4272 0
4260 -4272 0
4258 -4272 0
-4263 -4264 4273 0
4263 -4273 0
4264 -4273 0
-4261 -4265 4274 0
4265 -4274 0
4261 -4274 0
-4262 -4266 4270 0
4262 -4270 0
4266 -4270 0
-4267 -4268 4271 0
4267 -4271 0
4268 -4271 0
-4270 -4271 4285 0
4270 -4285 0
4271 -4285 0
-4273 -4274 4278 0
4273 -4278 0
4274 -4278 0
-4269 -4275 4280 0
4275 -4280 0
4269 -4280 0
-4272 -4277 4283 0
4272 -4283 0
4277 -4283 0
-4276 -4279 4282 0
4279 -4282 0
4276 -4282 0
-4278 -4280 4288 0
4278 -4288 0
4280 -4288 0
-4281 -4282 4289 0
4282 -4289 0
4281 -4289 0
-4283 -4284 4290 0
4283 -4290 0
4284 -4290 0
-4285 -4286 4291 0
4285 -4291 0
4286 -4291 0
-4288 -4289 4297 0
4288 -4297 0
4289 -4297 0
-4290 -4291 4295 0
4290 -4295 0
4291 -4295 0
-4287 -4292 4294 0
4292 -4294 0
4287 -4294 0
-4293 -4294 4299 0
-4295 -4296 4298 0
4295 -4298 0
4296 -4298 0
-4297 -4298 4299 0
-4299 0
-2 -9 -86 0
2 9 -86 0
-2 9 86 0
2 -9 86 0
-17 -25 86 0
17 25 86 0
-17 25 -86 0
17 -25 -86 0
-3 -10 -89 0
3 10 -89 0
-3 10 89 0
3 -10 89 0
-34 -85 -88 0
34 85 -88 0
-34 85 88 0
34 -85 88 0
-87 -88 -90 0
87 88 -90 0
-87 88 90 0
87 -88 90 0
-89 -90 -91 0
89 90 -91 0
-89 90 91 0
89 -90 91 0
-4 -11 -93 0
4 11 -93 0
-4 11 93 0
4 -11 93 0
-18 -26 -95 0
18 26 -95 0
-18 26 95 0
18 -26 95 0
-35 -44 -97 0
35 44 -97 0
-35 44 97 0
35 -44 97 0
-91 -92 -102 0
91 92 -102 0
91 -92 102 0
-91 92 102 0
-93 -95 -104 0
93 95 -104 0
-93 95 104 0
93 -95 104 0
-97 -99 -106 0
97 99 -106 0
-97 99 106 0
97 -99 106 0
-101 -102 -107 0
101 102 -107 0
-101 102 107 0
101 -102 107 0
-104 -106 -109 0
104 106 -109 0
-104 106 109 0
104 -106 109 0
-100 -107 109 0
100 107 109 0
-100 107 -109 0
100 -107 -109 0
-5 -12 -111 0
5 12 -111 0
-5 12 111 0
5 -12 111 0
-19 -27 -113 0
19 27 -113 0
-19 27 113 0
19 -27 113 0
-36 -45 -115 0
36 45 -115 0
-36 45 115 0
36 -45 115 0
-54 -94 -117 0
54 94 -117 0
-54 94 117 0
54 -94 117 0
-96 -98 -124 0
96 98 -124 0
-96 98 124 0
96 -98 124 0
-103 -105 -125 0
103 105 -125 0
-103 105 125 0
103 -105 125 0
-108 -110 -120 0
108 110 -120 0
-108 110 120 0
108 -110 120 0
-111 -113 -122 0
111 113 -122 0
-111 113 122 0
111 -113 122 0
-115 -117 -123 0
115 117 -123 0
-115 117 123 0
115 -117 123 0
-119 -120 -126 0
119 120 -126 0
-119 120 126 0
119 -120 126 0
-121 -122 -127 0
121 122 -127 0
-121 122 127 0
121 -122 127 0
-123 -124 -129 0
123 124 -129 0
-123 124 129 0
123 -124 129 0
-125 -126 -131 0
125 126 -131 0
-125 126 131 0
125 -126 131 0
-127 -129 -131 0
127 129 -131 0
-127 129 131 0
127 -129 131 0
-6 -13 -134 0
6 13 -134 0
-6 13 134 0
6 -13 134 0
-20 -28 -136 0
20 28 -136 0
-20 28 136 0
20 -28 136 0
-37 -46 -138 0
37 46 -138 0
-37 46 138 0
37 -46 138 0
-55 -64 -140 0
55 64 -140 0
-55 64 140 0
55 -64 140 0
-112 -114 -142 0
112 114 -142 0
-112 114 142 0
112 -114 142 0
-116 -118 -144 0
116 118 -144 0
-116 118 144 0
116 -118 144 0
-128 -130 -151 0
128 130 -151 0
-128 130 151 0
128 -130 151 0
-132 -133 -152 0
132 133 -152 0
-132 133 152 0
132 -133 152 0
-131 -134 -154 0
131 134 -154 0
-131 134 154 0
131 -134 154 0
-136 -138 -156 0
136 138 -156 0
-136 138 156 0
136 -138 156 0
-140 -142 -158 0
140 142 -158 0
-140 142 158 0
140 -142 158 0
-144 -145 -160 0
144 145 -160 0
-144 145 160 0
144 -145 160 0
-146 -147 -162 0
146 147 -162 0
-146 147 162 0
146 -147 162 0
-148 -149 -164 0
148 149 -164 0
-148 149 164 0
148 -149 164 0
-150 -151 -166 0
150 151 -166 0
-150 151 166 0
150 -151 166 0
-152 -154 -168 0
152 154 -168 0
-152 154 168 0
152 -154 168 0
-156 -158 -170 0
156 158 -170 0
-156 158 170 0
156 -158 170 0
-160 -162 -172 0
160 162 -172 0
-160 162 172 0
160 -162 172 0
-164 -166 -174 0
164 166 -174 0
-164 166 174 0
164 -166 174 0
-168 -170 -176 0
168 170 -176 0
-168 170 176 0
168 -170 176 0
-172 -174 -176 0
172 174 -176 0
-172 174 176 0
172 -174 176 0
-7 -14 -179 0
7 14 -179 0
-7 14 179 0
7 -14 179 0
-21 -29 -181 0
21 29 -181 0
-21 29 181 0
21 -29 181 0
-38 -47 -183 0
38 47 -183 0
-38 47 183 0
38 -47 183 0
-56 -65 -185 0
56 65 -185 0
-56 65 185 0
56 -65 185 0
-74 -135 -187 0
74 135 -187 0
-74 135 187 0
74 -135 187 0
-137 -139 -189 0
137 139 -189 0
-137 139 189 0
137 -139 189 0
-141 -143 -191 0
141 143 -191 0
-141 143 191 0
141 -143 191 0
-153 -155 -195 0
153 155 -195 0
-153 155 195 0
153 -155 195 0
-157 -159 -197 0
157 159 -197 0
-157 159 197 0
157 -159 197 0
-161 -163 -199 0
161 163 -199 0
-161 163 199 0
161 -163 199 0
-165 -167 -201 0
165 167 -201 0
-165 167 201 0
165 -167 201 0
-169 -171 -203 0
169 171 -203 0
-169 171 203 0
169 -171 203 0
-173 -175 -205 0
173 175 -205 0
-173 175 205 0
173 -175 205 0
-177 -178 -207 0
177 178 -207 0
-177 178 207 0
177 -178 207 0
-176 -179 -209 0
176 179 -209 0
-176 179 209 0
176 -179 209 0
-181 -183 -211 0
181 183 -211 0
-181 183 211 0
181 -183 211 0
-185 -187 -213 0
185 187 -213 0
-185 187 213 0
185 -187 213 0
-189 -191 -215 0
189 191 -215 0
-189 191 215 0
189 -191 215 0
-195 -197 -216 0
195 197 -216 0
-195 197 216 0
195 -197 216 0
-199 -201 -217 0
199 201 -217 0
-199 201 217 0
199 -201 217 0
-203 -205 -219 0
203 205 -219 0
-203 205 219 0
203 -205 219 0
-207 -209 -221 0
207 209 -221 0
-207 209 221 0
207 -209 221 0
-211 -213 -223 0
211 213 -223 0
-211 213 223 0
211 -213 223 0
-193 -215 -225 0
193 215 -225 0
193 -215 225 0
-193 215 225 0
-194 -216 -227 0
194 216 -227 0
-194 216 227 0
194 -216 227 0
-217 -219 -229 0
217 219 -229 0
-217 219 229 0
217 -219 229 0
-221 -223 -231 0
221 223 -231 0
-221 223 231 0
221 -223 231 0
-225 -227 -233 0
225 227 -233 0
-225 227 233 0
225 -227 233 0
-229 -231 233 0
229 231 233 0
-229 231 -233 0
229 -231 -233 0
-8 -15 -269 0
8 15 -269 0
-8 15 269 0
8 -15 269 0
-22 -30 -237 0
22 30 -237 0
-22 30 237 0
22 -30 237 0
-39 -48 -239 0
39 48 -239 0
-39 48 239 0
39 -48 239 0
-57 -66 -241 0
57 66 -241 0
-57 66 241 0
57 -66 241 0
-75 -180 -243 0
75 180 -243 0
-75 180 243 0
75 -180 243 0
-182 -184 -245 0
182 184 -245 0
-182 184 245 0
182 -184 245 0
-186 -188 -247 0
186 188 -247 0
-186 188 247 0
186 -188 247 0
-190 -192 -275 0
190 192 -275 0
-190 192 275 0
190 -192 275 0
-196 -198 -276 0
196 198 -276 0
-196 198 276 0
196 -198 276 0
-200 -202 -251 0
200 202 -251 0
-200 202 251 0
200 -202 251 0
-204 -206 -253 0
204 206 -253 0
-204 206 253 0
204 -206 253 0
-208 -210 -255 0
208 210 -255 0
-208 210 255 0
208 -210 255 0
-212 -214 -257 0
212 214 -257 0
-212 214 257 0
212 -214 257 0
-218 -220 -260 0
218 220 -260 0
-218 220 260 0
218 -220 260 0
-222 -224 -261 0
222 224 -261 0
-222 224 261 0
222 -224 261 0
-226 -228 -263 0
226 228 -263 0
-226 228 263 0
226 -228 263 0
-230 -232 -265 0
230 232 -265 0
-230 232 265 0
230 -232 265 0
-234 -235 -267 0
234 235 -267 0
-234 235 267 0
234 -235 267 0
-237 -239 -270 0
237 239 -270 0
-237 239 270 0
237 -239 270 0
-241 -243 -271 0
241 243 -271 0
-241 243 271 0
241 -243 271 0
-245 -247 -273 0
245 247 -273 0
-245 247 273 0
245 -247 273 0
-251 -253 -277 0
251 253 -277 0
-251 253 277 0
251 -253 277 0
-255 -257 -279 0
255 257 -279 0
-255 257 279 0
255 -257 279 0
-258 -259 -281 0
258 259 -281 0
-258 259 281 0
258 -259 281 0
-260 -261 -283 0
260 261 -283 0
-260 261 283 0
260 -261 283 0
-263 -265 -285 0
263 265 -285 0
-263 265 285 0
263 -265 285 0
-267 -269 -287 0
267 269 -287 0
-267 269 287 0
267 -269 287 0
-270 -271 -289 0
270 271 -289 0
-270 271 289 0
270 -271 289 0
-273 -275 -291 0
273 275 -291 0
-273 275 291 0
273 -275 291 0
-276 -277 -293 0
276 277 -293 0
-276 277 293 0
276 -277 293 0
-279 -281 -295 0
279 281 -295 0
-279 281 295 0
279 -281 295 0
-283 -285 -297 0
283 285 -297 0
-283 285 297 0
283 -285 297 0
-287 -289 -299 0
287 289 -299 0
-287 289 299 0
287 -289 299 0
-291 -293 -301 0
291 293 -301 0
-291 293 301 0
291 -293 301 0
-295 -297 -303 0
295 297 -303 0
-295 297 303 0
295 -297 303 0
-299 -301 -303 0
299 301 -303 0
-299 301 303 0
299 -301 303 0
-16 -23 -306 0
16 23 -306 0
-16 23 306 0
16 -23 306 0
-31 -40 -308 0
31 40 -308 0
-31 40 308 0
31 -40 308 0
-49 -58 -310 0
49 58 -310 0
-49 58 310 0
49 -58 310 0
-67 -76 -312 0
67 76 -312 0
-67 76 312 0
67 -76 312 0
-236 -238 -314 0
236 238 -314 0
-236 238 314 0
236 -238 314 0
-240 -242 -316 0
240 242 -316 0
-240 242 316 0
240 -242 316 0
-244 -246 -318 0
244 246 -318 0
-244 246 318 0
244 -246 318 0
-248 -249 -320 0
248 249 -320 0
-248 249 320 0
248 -249 320 0
-250 -252 -353 0
250 252 -353 0
-250 252 353 0
250 -252 353 0
-254 -256 -322 0
254 256 -322 0
-254 256 322 0
254 -256 322 0
-262 -264 -326 0
262 264 -326 0
-262 264 326 0
262 -264 326 0
-266 -268 -328 0
266 268 -328 0
-266 268 328 0
266 -268 328 0
-272 -274 -359 0
272 274 -359 0
-272 274 359 0
272 -274 359 0
-278 -280 -331 0
278 280 -331 0
-278 280 331 0
278 -280 331 0
-282 -284 -332 0
282 284 -332 0
-282 284 332 0
282 -284 332 0
-286 -288 -334 0
286 288 -334 0
-286 288 334 0
286 -288 334 0
-290 -292 -336 0
290 292 -336 0
-290 292 336 0
290 -292 336 0
-294 -296 -338 0
294 296 -338 0
-294 296 338 0
294 -296 338 0
-298 -300 -340 0
298 300 -340 0
-298 300 340 0
298 -300 340 0
-302 -304 -342 0
302 304 -342 0
-302 304 342 0
302 -304 342 0
-303 -305 -344 0
303 305 -344 0
303 -305 344 0
-303 305 344 0
-306 -308 -346 0
306 308 -346 0
-306 308 346 0
306 -308 346 0
-310 -312 -348 0
310 312 -348 0
-310 312 348 0
310 -312 348 0
-314 -316 -350 0
314 316 -350 0
-314 316 350 0
314 -316 350 0
-318 -320 -352 0
318 320 -352 0
-318 320 352 0
318 -320 352 0
-322 -324 -354 0
322 324 -354 0
-322 324 354 0
322 -324 354 0
-325 -326 -356 0
325 326 -356 0
-325 326 356 0
325 -326 356 0
-328 -330 -358 0
328 330 -358 0
-328 330 358 0
328 -330 358 0
-331 -332 -360 0
331 332 -360 0
-331 332 360 0
331 -332 360 0
-334 -336 -362 0
334 336 -362 0
-334 336 362 0
334 -336 362 0
-338 -340 -364 0
338 340 -364 0
-338 340 364 0
338 -340 364 0
-342 -344 -366 0
342 344 -366 0
-342 344 366 0
342 -344 366 0
-346 -348 -368 0
346 348 -368 0
-346 348 368 0
346 -348 368 0
-350 -352 -370 0
350 352 -370 0
-350 352 370 0
350 -352 370 0
-353 -354 -372 0
353 354 -372 0
-353 354 372 0
353 -354 372 0
-356 -358 -374 0
356 358 -374 0
-356 358 374 0
356 -358 374 0
-359 -360 -376 0
359 360 -376 0
-359 360 376 0
359 -360 376 0
-362 -364 -378 0
362 364 -378 0
-362 364 378 0
362 -364 378 0
-366 -368 -380 0
366 368 -380 0
-366 368 380 0
366 -368 380 0
-370 -372 -382 0
370 372 -382 0
-370 372 382 0
370 -372 382 0
-374 -376 -384 0
374 376 -384 0
-374 376 384 0
374 -376 384 0
-378 -380 -386 0
378 380 -386 0
-378 380 386 0
378 -380 386 0
-382 -384 386 0
382 384 386 0
-382 384 -386 0
382 -384 -386 0
-24 -32 -388 0
24 32 -388 0
-24 32 388 0
24 -32 388 0
-41 -50 -390 0
41 50 -390 0
-41 50 390 0
41 -50 390 0
-59 -68 -392 0
59 68 -392 0
-59 68 392 0
59 -68 392 0
-77 -307 -394 0
77 307 -394 0
-77 307 394 0
77 -307 394 0
-309 -311 -396 0
309 311 -396 0
-309 311 396 0
309 -311 396 0
-313 -315 -398 0
313 315 -398 0
-313 315 398 0
313 -315 398 0
-317 -319 -400 0
317 319 -400 0
-317 319 400 0
317 -319 400 0
-321 -323 -437 0
321 323 -437 0
-321 323 437 0
321 -323 437 0
-327 -329 -402 0
327 329 -402 0
-327 329 402 0
327 -329 402 0
-333 -335 -405 0
333 335 -405 0
-333 335 405 0
333 -335 405 0
-337 -339 -406 0
337 339 -406 0
-337 339 406 0
337 -339 406 0
-341 -343 -408 0
341 343 -408 0
-341 343 408 0
341 -343 408 0
-345 -347 -410 0
345 347 -410 0
-345 347 410 0
345 -347 410 0
-349 -351 -412 0
349 351 -412 0
-349 351 412 0
349 -351 412 0
-355 -357 -415 0
355 357 -415 0
-355 357 415 0
355 -357 415 0
-361 -363 -417 0
361 363 -417 0
-361 363 417 0
361 -363 417 0
-365 -367 -418 0
365 367 -418 0
-365 367 418 0
365 -367 418 0
-369 -371 -420 0
369 371 -420 0
-369 371 420 0
369 -371 420 0
-373 -375 -422 0
373 375 -422 0
-373 375 422 0
373 -375 422 0
-377 -379 -424 0
377 379 -424 0
-377 379 424 0
377 -379 424 0
-381 -383 -426 0
381 383 -426 0
-381 383 426 0
381 -383 426 0
-385 -387 -428 0
385 387 -428 0
-385 387 428 0
385 -387 428 0
-388 -390 -431 0
388 390 -431 0
-388 390 431 0
388 -390 431 0
-392 -394 -432 0
392 394 -432 0
-392 394 432 0
392 -394 432 0
-396 -398 -434 0
396 398 -434 0
-396 398 434 0
396 -398 434 0
-400 -401 -436 0
400 401 -436 0
-400 401 436 0
400 -401 436 0
-402 -403 -438 0
402 403 -438 0
-402 403 438 0
402 -403 438 0
-404 -405 -440 0
404 405 -440 0
-404 405 440 0
404 -405 440 0
-406 -408 -442 0
406 408 -442 0
-406 408 442 0
406 -408 442 0
-410 -412 -444 0
410 412 -444 0
-410 412 444 0
410 -412 444 0
-414 -415 -446 0
414 415 -446 0
-414 415 446 0
414 -415 446 0
-416 -417 -448 0
416 417 -448 0
-416 417 448 0
416 -417 448 0
-418 -420 -450 0
418 420 -450 0
-418 420 450 0
418 -420 450 0
-422 -424 -452 0
422 424 -452 0
-422 424 452 0
422 -424 452 0
-426 -428 -454 0
426 428 -454 0
-426 428 454 0
426 -428 454 0
-430 -431 -456 0
430 431 -456 0
-430 431 456 0
430 -431 456 0
-432 -434 -458 0
432 434 -458 0
-432 434 458 0
432 -434 458 0
-436 -437 -460 0
436 437 -460 0
-436 437 460 0
436 -437 460 0
-438 -440 -462 0
438 440 -462 0
-438 440 462 0
438 -440 462 0
-442 -444 -464 0
442 444 -464 0
-442 444 464 0
442 -444 464 0
-446 -448 -466 0
446 448 -466 0
-446 448 466 0
446 -448 466 0
-450 -452 -468 0
450 452 -468 0
-450 452 468 0
450 -452 468 0
-454 -456 -470 0
454 456 -470 0
-454 456 470 0
454 -456 470 0
-458 -460 -472 0
458 460 -472 0
-458 460 472 0
458 -460 472 0
-462 -464 -474 0
462 464 -474 0
-462 464 474 0
462 -464 474 0
-466 -468 -476 0
466 468 -476 0
-466 468 476 0
466 -468 476 0
-470 -472 -478 0
470 472 -478 0
-470 472 478 0
470 -472 478 0
-474 -476 478 0
474 476 478 0
-474 476 -478 0
474 -476 -478 0
-33 -42 -528 0
33 42 -528 0
-33 42 528 0
33 -42 528 0
-51 -60 -482 0
51 60 -482 0
-51 60 482 0
51 -60 482 0
-69 -78 -484 0
69 78 -484 0
-69 78 484 0
69 -78 484 0
-389 -391 -486 0
389 391 -486 0
-389 391 486 0
389 -391 486 0
-393 -395 -488 0
393 395 -488 0
-393 395 488 0
393 -395 488 0
-397 -399 -490 0
397 399 -490 0
-397 399 490 0
397 -399 490 0
-407 -409 -495 0
407 409 -495 0
-407 409 495 0
407 -409 495 0
-411 -413 -496 0
411 413 -496 0
-411 413 496 0
411 -413 496 0
-419 -421 -499 0
419 421 -499 0
-419 421 499 0
419 -421 499 0
-423 -425 -500 0
423 425 -500 0
-423 425 500 0
423 -425 500 0
-427 -429 -502 0
427 429 -502 0
-427 429 502 0
427 -429 502 0
-433 -435 -505 0
433 435 -505 0
-433 435 505 0
433 -435 505 0
-439 -441 -507 0
439 441 -507 0
-439 441 507 0
439 -441 507 0
-443 -445 -508 0
443 445 -508 0
-443 445 508 0
443 -445 508 0
-447 -449 -510 0
447 449 -510 0
-447 449 510 0
447 -449 510 0
-451 -453 -512 0
451 453 -512 0
-451 453 512 0
451 -453 512 0
-455 -457 -514 0
455 457 -514 0
-455 457 514 0
455 -457 514 0
-459 -461 -516 0
459 461 -516 0
-459 461 516 0
459 -461 516 0
-463 -465 -518 0
463 465 -518 0
-463 465 518 0
463 -465 518 0
-467 -469 -520 0
467 469 -520 0
-467 469 520 0
467 -469 520 0
-471 -473 -522 0
471 473 -522 0
-471 473 522 0
471 -473 522 0
-475 -477 -524 0
475 477 -524 0
-475 477 524 0
475 -477 524 0
-479 -480 -526 0
479 480 -526 0
-479 480 526 0
479 -480 526 0
-482 -484 -529 0
482 484 -529 0
-482 484 529 0
482 -484 529 0
-486 -488 -530 0
486 488 -530 0
-486 488 530 0
486 -488 530 0
-490 -491 -532 0
490 491 -532 0
-490 491 532 0
490 -491 532 0
-492 -493 -534 0
492 493 -534 0
-492 493 534 0
492 -493 534 0
-494 -495 -536 0
494 495 -536 0
-494 495 536 0
494 -495 536 0
-496 -497 -538 0
496 497 -538 0
-496 497 538 0
496 -497 538 0
-498 -499 -540 0
498 499 -540 0
-498 499 540 0
498 -499 540 0
-500 -502 -542 0
500 502 -542 0
-500 502 542 0
500 -502 542 0
-504 -505 -544 0
504 505 -544 0
-504 505 544 0
504 -505 544 0
-506 -507 -546 0
506 507 -546 0
-506 507 546 0
506 -507 546 0
-508 -510 -548 0
508 510 -548 0
-508 510 548 0
508 -510 548 0
-512 -514 -550 0
512 514 -550 0
-512 514 550 0
512 -514 550 0
-516 -518 -552 0
516 518 -552 0
-516 518 552 0
516 -518 552 0
-520 -522 -554 0
520 522 -554 0
-520 522 554 0
520 -522 554 0
-524 -526 -556 0
524 526 -556 0
-524 526 556 0
524 -526 556 0
-528 -529 -558 0
528 529 -558 0
-528 529 558 0
528 -529 558 0
-530 -532 -560 0
530 532 -560 0
-530 532 560 0
530 -532 560 0
-534 -536 -562 0
534 536 -562 0
-534 536 562 0
534 -536 562 0
-538 -540 -564 0
538 540 -564 0
-538 540 564 0
538 -540 564 0
-542 -544 -566 0
542 544 -566 0
-542 544 566 0
542 -544 566 0
-546 -548 -568 0
546 548 -568 0
-546 548 568 0
546 -548 568 0
-550 -552 -570 0
550 552 -570 0
-550 552 570 0
550 -552 570 0
-554 -556 -572 0
554 556 -572 0
-554 556 572 0
554 -556 572 0
-558 -560 -574 0
558 560 -574 0
-558 560 574 0
558 -560 574 0
-562 -564 -576 0
562 564 -576 0
-562 564 576 0
562 -564 576 0
-566 -568 -578 0
566 568 -578 0
-566 568 578 0
566 -568 578 0
-570 -572 -580 0
570 572 -580 0
-570 572 580 0
570 -572 580 0
-574 -576 -582 0
574 576 -582 0
-574 576 582 0
574 -576 582 0
-578 -580 582 0
578 580 582 0
-578 580 -582 0
578 -580 -582 0
-43 -52 -636 0
43 52 -636 0
-43 52 636 0
43 -52 636 0
-61 -70 -586 0
61 70 -586 0
-61 70 586 0
61 -70 586 0
-79 -481 -588 0
79 481 -588 0
-79 481 588 0
79 -481 588 0
-483 -485 -590 0
483 485 -590 0
-483 485 590 0
483 -485 590 0
-487 -489 -592 0
487 489 -592 0
-487 489 592 0
487 -489 592 0
-501 -503 -597 0
501 503 -597 0
-501 503 597 0
501 -503 597 0
-509 -511 -600 0
509 511 -600 0
-509 511 600 0
509 -511 600 0
-513 -515 -601 0
513 515 -601 0
-513 515 601 0
513 -515 601 0
-517 -519 -603 0
517 519 -603 0
-517 519 603 0
517 -519 603 0
-521 -523 -605 0
521 523 -605 0
-521 523 605 0
521 -523 605 0
-525 -527 -607 0
525 527 -607 0
-525 527 607 0
525 -527 607 0
-531 -533 -610 0
531 533 -610 0
-531 533 610 0
531 -533 610 0
-535 -537 -611 0
535 537 -611 0
-535 537 611 0
535 -537 611 0
-539 -541 -613 0
539 541 -613 0
-539 541 613 0
539 -541 613 0
-543 -545 -615 0
543 545 -615 0
-543 545 615 0
543 -545 615 0
-547 -549 -617 0
547 549 -617 0
-547 549 617 0
547 -549 617 0
-551 -553 -619 0
551 553 -619 0
-551 553 619 0
551 -553 619 0
-555 -557 -621 0
555 557 -621 0
-555 557 621 0
555 -557 621 0
-559 -561 -623 0
559 561 -623 0
-559 561 623 0
559 -561 623 0
-563 -565 -625 0
563 565 -625 0
-563 565 625 0
563 -565 625 0
-567 -569 -627 0
567 569 -627 0
-567 569 627 0
567 -569 627 0
-571 -573 -629 0
571 573 -629 0
-571 573 629 0
571 -573 629 0
-575 -577 -631 0
575 577 -631 0
-575 577 631 0
575 -577 631 0
-579 -581 -633 0
579 581 -633 0
-579 581 633 0
579 -581 633 0
-583 -584 -635 0
583 584 -635 0
-583 584 635 0
583 -584 635 0
-586 -588 -637 0
586 588 -637 0
-586 588 637 0
586 -588 637 0
-590 -592 -639 0
590 592 -639 0
-590 592 639 0
590 -592 639 0
-594 -595 -641 0
594 595 -641 0
-594 595 641 0
594 -595 641 0
-596 -597 -642 0
596 597 -642 0
-596 597 642 0
596 -597 642 0
-598 -599 -644 0
598 599 -644 0
-598 599 644 0
598 -599 644 0
-600 -601 -646 0
600 601 -646 0
-600 601 646 0
600 -601 646 0
-603 -605 -648 0
603 605 -648 0
-603 605 648 0
603 -605 648 0
-607 -609 -650 0
607 609 -650 0
-607 609 650 0
607 -609 650 0
-610 -611 -652 0
610 611 -652 0
-610 611 652 0
610 -611 652 0
-613 -615 -654 0
613 615 -654 0
-613 615 654 0
613 -615 654 0
-617 -619 -656 0
617 619 -656 0
-617 619 656 0
617 -619 656 0
-621 -623 -658 0
621 623 -658 0
-621 623 658 0
621 -623 658 0
-625 -627 -660 0
625 627 -660 0
-625 627 660 0
625 -627 660 0
-629 -631 -662 0
629 631 -662 0
-629 631 662 0
629 -631 662 0
-633 -635 -664 0
633 635 -664 0
-633 635 664 0
633 -635 664 0
-636 -637 -666 0
636 637 -666 0
-636 637 666 0
636 -637 666 0
-593 -639 -668 0
593 639 -668 0
593 -639 668 0
-593 639 668 0
-641 -642 -670 0
641 642 -670 0
-641 642 670 0
641 -642 670 0
-644 -646 -672 0
644 646 -672 0
-644 646 672 0
644 -646 672 0
-648 -650 -674 0
648 650 -674 0
-648 650 674 0
648 -650 674 0
-652 -654 -676 0
652 654 -676 0
-652 654 676 0
652 -654 676 0
-656 -658 -678 0
656 658 -678 0
-656 658 678 0
656 -658 678 0
-660 -662 -680 0
660 662 -680 0
-660 662 680 0
660 -662 680 0
-664 -666 -682 0
664 666 -682 0
-664 666 682 0
664 -666 682 0
-668 -670 -684 0
668 670 -684 0
-668 670 684 0
668 -670 684 0
-672 -674 -686 0
672 674 -686 0
-672 674 686 0
672 -674 686 0
-676 -678 -688 0
676 678 -688 0
-676 678 688 0
676 -678 688 0
-680 -682 -690 0
680 682 -690 0
-680 682 690 0
680 -682 690 0
-684 -686 -692 0
684 686 -692 0
-684 686 692 0
684 -686 692 0
-688 -690 692 0
688 690 692 0
-688 690 -692 0
688 -690 -692 0
-53 -62 -694 0
53 62 -694 0
-53 62 694 0
53 -62 694 0
-71 -80 -696 0
71 80 -696 0
-71 80 696 0
71 -80 696 0
-585 -587 -698 0
585 587 -698 0
-585 587 698 0
585 -587 698 0
-589 -591 -700 0
589 591 -700 0
-589 591 700 0
589 -591 700 0
-602 -604 -704 0
602 604 -704 0
-602 604 704 0
602 -604 704 0
-606 -608 -706 0
606 608 -706 0
-606 608 706 0
606 -608 706 0
-612 -614 -709 0
612 614 -709 0
-612 614 709 0
612 -614 709 0
-616 -618 -710 0
616 618 -710 0
-616 618 710 0
616 -618 710 0
-620 -622 -712 0
620 622 -712 0
-620 622 712 0
620 -622 712 0
-624 -626 -714 0
624 626 -714 0
-624 626 714 0
624 -626 714 0
-628 -630 -716 0
628 630 -716 0
-628 630 716 0
628 -630 716 0
-632 -634 -718 0
632 634 -718 0
-632 634 718 0
632 -634 718 0
-638 -640 -720 0
638 640 -720 0
-638 640 720 0
638 -640 720 0
-643 -645 -722 0
643 645 -722 0
-643 645 722 0
643 -645 722 0
-647 -649 -724 0
647 649 -724 0
-647 649 724 0
647 -649 724 0
-651 -653 -726 0
651 653 -726 0
-651 653 726 0
651 -653 726 0
-655 -657 -728 0
655 657 -728 0
-655 657 728 0
655 -657 728 0
-659 -661 -730 0
659 661 -730 0
-659 661 730 0
659 -661 730 0
-663 -665 -732 0
663 665 -732 0
-663 665 732 0
663 -665 732 0
-667 -669 -734 0
667 669 -734 0
-667 669 734 0
667 -669 734 0
-671 -673 -736 0
671 673 -736 0
-671 673 736 0
671 -673 736 0
-675 -677 -738 0
675 677 -738 0
-675 677 738 0
675 -677 738 0
-679 -681 -740 0
679 681 -740 0
-679 681 740 0
679 -681 740 0
-683 -685 -742 0
683 685 -742 0
-683 685 742 0
683 -685 742 0
-687 -689 -744 0
687 689 -744 0
-687 689 744 0
687 -689 744 0
-691 -693 -746 0
691 693 -746 0
-691 693 746 0
691 -693 746 0
-694 -696 -748 0
694 696 -748 0
-694 696 748 0
694 -696 748 0
-698 -700 -750 0
698 700 -750 0
-698 700 750 0
698 -700 750 0
-703 -704 -752 0
703 704 -752 0
-703 704 752 0
703 -704 752 0
-706 -708 -754 0
706 708 -754 0
-706 708 754 0
706 -708 754 0
-709 -710 -756 0
709 710 -756 0
-709 710 756 0
709 -710 756 0
-712 -714 -758 0
712 714 -758 0
-712 714 758 0
712 -714 758 0
-716 -718 -760 0
716 718 -760 0
-716 718 760 0
716 -718 760 0
-719 -720 -762 0
719 720 -762 0
-719 720 762 0
719 -720 762 0
-721 -722 -764 0
721 722 -764 0
-721 722 764 0
721 -722 764 0
-724 -726 -766 0
724 726 -766 0
-724 726 766 0
724 -726 766 0
-728 -730 -768 0
728 730 -768 0
-728 730 768 0
728 -730 768 0
-732 -734 -770 0
732 734 -770 0
-732 734 770 0
732 -734 770 0
-736 -738 -772 0
736 738 -772 0
-736 738 772 0
736 -738 772 0
-740 -742 -774 0
740 742 -774 0
-740 742 774 0
740 -742 774 0
-744 -746 -776 0
744 746 -776 0
-744 746 776 0
744 -746 776 0
-747 -748 -778 0
747 748 -778 0
-747 748 778 0
747 -748 778 0
-701 -750 -780 0
701 750 -780 0
701 -750 780 0
-701 750 780 0
-702 -752 -782 0
702 752 -782 0
-702 752 782 0
702 -752 782 0
-754 -756 -784 0
754 756 -784 0
-754 756 784 0
754 -756 784 0
-758 -760 -786 0
758 760 -786 0
-758 760 786 0
758 -760 786 0
-762 -764 -788 0
762 764 -788 0
-762 764 788 0
762 -764 788 0
-766 -768 -790 0
766 768 -790 0
-766 768 790 0
766 -768 790 0
-770 -772 -792 0
770 772 -792 0
-770 772 792 0
770 -772 792 0
-774 -776 -794 0
774 776 -794 0
-774 776 794 0
774 -776 794 0
-778 -780 -796 0
778 780 -796 0
-778 780 796 0
778 -780 796 0
-782 -784 -798 0
782 784 -798 0
-782 784 798 0
782 -784 798 0
-786 -788 -800 0
786 788 -800 0
-786 788 800 0
786 -788 800 0
-790 -792 -802 0
790 792 -802 0
-790 792 802 0
790 -792 802 0
-794 -796 -804 0
794 796 -804 0
-794 796 804 0
794 -796 804 0
-798 -800 -806 0
798 800 -806 0
-798 800 806 0
798 -800 806 0
-802 -804 -806 0
802 804 -806 0
-802 804 806 0
802 -804 806 0
-63 -72 -809 0
63 72 -809 0
-63 72 809 0
63 -72 809 0
-81 -695 -811 0
81 695 -811 0
-81 695 811 0
81 -695 811 0
-697 -699 -813 0
697 699 -813 0
-697 699 813 0
697 -699 813 0
-705 -707 -815 0
705 707 -815 0
-705 707 815 0
705 -707 815 0
-711 -713 -817 0
711 713 -817 0
-711 713 817 0
711 -713 817 0
-715 -717 -819 0
715 717 -819 0
-715 717 819 0
715 -717 819 0
-723 -725 -823 0
723 725 -823 0
-723 725 823 0
723 -725 823 0
-727 -729 -825 0
727 729 -825 0
-727 729 825 0
727 -729 825 0
-731 -733 -827 0
731 733 -827 0
-731 733 827 0
731 -733 827 0
-735 -737 -829 0
735 737 -829 0
-735 737 829 0
735 -737 829 0
-739 -741 -831 0
739 741 -831 0
-739 741 831 0
739 -741 831 0
-743 -745 -833 0
743 745 -833 0
-743 745 833 0
743 -745 833 0
-749 -751 -836 0
749 751 -836 0
-749 751 836 0
749 -751 836 0
-753 -755 -881 0
753 755 -881 0
-753 755 881 0
753 -755 881 0
-757 -759 -837 0
757 759 -837 0
-757 759 837 0
757 -759 837 0
-761 -763 -839 0
761 763 -839 0
-761 763 839 0
761 -763 839 0
-765 -767 -841 0
765 767 -841 0
-765 767 841 0
765 -767 841 0
-769 -771 -843 0
769 771 -843 0
-769 771 843 0
769 -771 843 0
-773 -775 -845 0
773 775 -845 0
-773 775 845 0
773 -775 845 0
-777 -779 -847 0
777 779 -847 0
-777 779 847 0
777 -779 847 0
-781 -783 -849 0
781 783 -849 0
-781 783 849 0
781 -783 849 0
-785 -787 -851 0
785 787 -851 0
-785 787 851 0
785 -787 851 0
-789 -791 -853 0
789 791 -853 0
-789 791 853 0
789 -791 853 0
-793 -795 -855 0
793 795 -855 0
-793 795 855 0
793 -795 855 0
-797 -799 -857 0
797 799 -857 0
-797 799 857 0
797 -799 857 0
-801 -803 -859 0
801 803 -859 0
-801 803 859 0
801 -803 859 0
-805 -807 -861 0
805 807 -861 0
-805 807 861 0
805 -807 861 0
-806 -808 -863 0
806 808 -863 0
806 -808 863 0
-806 808 863 0
-809 -811 -865 0
809 811 -865 0
-809 811 865 0
809 -811 865 0
-813 -814 -867 0
813 814 -867 0
-813 814 867 0
813 -814 867 0
-815 -816 -896 0
815 816 -896 0
-815 816 896 0
815 -816 896 0
-817 -819 -869 0
817 819 -869 0
-817 819 869 0
817 -819 869 0
-821 -822 -871 0
821 822 -871 0
-821 822 871 0
821 -822 871 0
-823 -825 -873 0
823 825 -873 0
-823 825 873 0
823 -825 873 0
-827 -829 -875 0
827 829 -875 0
-827 829 875 0
827 -829 875 0
-831 -833 -877 0
831 833 -877 0
-831 833 877 0
831 -833 877 0
-835 -836 -879 0
835 836 -879 0
-835 836 879 0
835 -836 879 0
-837 -839 -882 0
837 839 -882 0
-837 839 882 0
837 -839 882 0
-841 -843 -883 0
841 843 -883 0
-841 843 883 0
841 -843 883 0
-845 -847 -885 0
845 847 -885 0
-845 847 885 0
845 -847 885 0
-849 -851 -887 0
849 851 -887 0
-849 851 887 0
849 -851 887 0
-853 -855 -889 0
853 855 -889 0
-853 855 889 0
853 -855 889 0
-857 -859 -891 0
857 859 -891 0
-857 859 891 0
857 -859 891 0
-861 -863 -893 0
861 863 -893 0
-861 863 893 0
861 -863 893 0
-865 -867 -895 0
865 867 -895 0
-865 867 895 0
865 -867 895 0
-869 -871 -897 0
869 871 -897 0
-869 871 897 0
869 -871 897 0
-873 -875 -899 0
873 875 -899 0
-873 875 899 0
873 -875 899 0
-877 -879 -901 0
877 879 -901 0
-877 879 901 0
877 -879 901 0
-881 -882 -903 0
881 882 -903 0
-881 882 903 0
881 -882 903 0
-883 -885 -905 0
883 885 -905 0
-883 885 905 0
883 -885 905 0
-887 -889 -907 0
887 889 -907 0
-887 889 907 0
887 -889 907 0
-891 -893 -909 0
891 893 -909 0
-891 893 909 0
891 -893 909 0
-895 -896 -911 0
895 896 -911 0
-895 896 911 0
895 -896 911 0
-897 -899 -913 0
897 899 -913 0
-897 899 913 0
897 -899 913 0
-901 -903 -915 0
901 903 -915 0
-901 903 915 0
901 -903 915 0
-905 -907 -917 0
905 907 -917 0
-905 907 917 0
905 -907 917 0
-909 -911 -919 0
909 911 -919 0
-909 911 919 0
909 -911 919 0
-913 -915 -921 0
913 915 -921 0
-913 915 921 0
913 -915 921 0
-917 -919 921 0
917 919 921 0
-917 919 -921 0
917 -919 -921 0
-73 -82 -975 0
73 82 -975 0
-73 82 975 0
73 -82 975 0
-810 -812 -925 0
810 812 -925 0
-810 812 925 0
810 -812 925 0
-818 -820 -977 0
818 820 -977 0
-818 820 977 0
818 -820 977 0
-824 -826 -928 0
824 826 -928 0
-824 826 928 0
824 -826 928 0
-828 -830 -930 0
828 830 -930 0
-828 830 930 0
828 -830 930 0
-832 -834 -932 0
832 834 -932 0
-832 834 932 0
832 -834 932 0
-838 -840 -935 0
838 840 -935 0
-838 840 935 0
838 -840 935 0
-842 -844 -936 0
842 844 -936 0
-842 844 936 0
842 -844 936 0
-846 -848 -938 0
846 848 -938 0
-846 848 938 0
846 -848 938 0
-850 -852 -940 0
850 852 -940 0
-850 852 940 0
850 -852 940 0
-854 -856 -942 0
854 856 -942 0
-854 856 942 0
854 -856 942 0
-858 -860 -944 0
858 860 -944 0
-858 860 944 0
858 -860 944 0
-862 -864 -946 0
862 864 -946 0
-862 864 946 0
862 -864 946 0
-866 -868 -948 0
866 868 -948 0
-866 868 948 0
866 -868 948 0
-870 -872 -950 0
870 872 -950 0
-870 872 950 0
870 -872 950 0
-874 -876 -952 0
874 876 -952 0
-874 876 952 0
874 -876 952 0
-878 -880 -954 0
878 880 -954 0
-878 880 954 0
878 -880 954 0
-884 -886 -956 0
884 886 -956 0
-884 886 956 0
884 -886 956 0
-888 -890 -958 0
888 890 -958 0
-888 890 958 0
888 -890 958 0
-892 -894 -960 0
892 894 -960 0
-892 894 960 0
892 -894 960 0
-898 -900 -962 0
898 900 -962 0
-898 900 962 0
898 -900 962 0
-902 -904 -964 0
902 904 -964 0
-902 904 964 0
902 -904 964 0
-906 -908 -966 0
906 908 -966 0
-906 908 966 0
906 -908 966 0
-910 -912 -968 0
910 912 -968 0
-910 912 968 0
910 -912 968 0
-914 -916 -970 0
914 916 -970 0
-914 916 970 0
914 -916 970 0
-918 -920 -972 0
918 920 -972 0
-918 920 972 0
918 -920 972 0
-922 -923 -974 0
922 923 -974 0
-922 923 974 0
922 -923 974 0
-925 -926 -976 0
925 926 -976 0
-925 926 976 0
925 -926 976 0
-928 -930 -978 0
928 930 -978 0
-928 930 978 0
928 -930 978 0
-932 -933 -979 0
932 933 -979 0
-932 933 979 0
932 -933 979 0
-934 -935 -981 0
934 935 -981 0
-934 935 981 0
934 -935 981 0
-936 -938 -983 0
936 938 -983 0
-936 938 983 0
936 -938 983 0
-940 -942 -985 0
940 942 -985 0
-940 942 985 0
940 -942 985 0
-944 -946 -987 0
944 946 -987 0
-944 946 987 0
944 -946 987 0
-948 -949 -989 0
948 949 -989 0
-948 949 989 0
948 -949 989 0
-950 -952 -991 0
950 952 -991 0
-950 952 991 0
950 -952 991 0
-954 -955 -993 0
954 955 -993 0
-954 955 993 0
954 -955 993 0
-956 -958 -995 0
956 958 -995 0
-956 958 995 0
956 -958 995 0
-960 -961 -997 0
960 961 -997 0
-960 961 997 0
960 -961 997 0
-962 -964 -999 0
962 964 -999 0
-962 964 999 0
962 -964 999 0
-966 -968 -1001 0
966 968 -1001 0
-966 968 1001 0
966 -968 1001 0
-970 -972 -1003 0
970 972 -1003 0
-970 972 1003 0
970 -972 1003 0
-974 -975 -1005 0
974 975 -1005 0
-974 975 1005 0
974 -975 1005 0
-927 -976 -1007 0
927 976 -1007 0
927 -976 1007 0
-927 976 1007 0
-977 -978 -1009 0
977 978 -1009 0
-977 978 1009 0
977 -978 1009 0
-979 -981 -1011 0
979 981 -1011 0
-979 981 1011 0
979 -981 1011 0
-983 -985 -1013 0
983 985 -1013 0
-983 985 1013 0
983 -985 1013 0
-987 -989 -1015 0
987 989 -1015 0
-987 989 1015 0
987 -989 1015 0
-991 -993 -1017 0
991 993 -1017 0
-991 993 1017 0
991 -993 1017 0
-995 -997 -1019 0
995 997 -1019 0
-995 997 1019 0
995 -997 1019 0
-999 -1001 -1021 0
999 1001 -1021 0
-999 1001 1021 0
999 -1001 1021 0
-1003 -1005 -1023 0
1003 1005 -1023 0
-1003 1005 1023 0
1003 -1005 1023 0
-1007 -1009 -1025 0
1007 1009 -1025 0
-1007 1009 1025 0
1007 -1009 1025 0
-1011 -1013 -1027 0
1011 1013 -1027 0
-1011 1013 1027 0
1011 -1013 1027 0
-1015 -1017 -1029 0
1015 1017 -1029 0
-1015 1017 1029 0
1015 -1017 1029 0
-1019 -1021 -1031 0
1019 1021 -1031 0
-1019 1021 1031 0
1019 -1021 1031 0
-1023 -1025 -1033 0
1023 1025 -1033 0
-1023 1025 1033 0
1023 -1025 1033 0
-1027 -1029 -1035 0
1027 1029 -1035 0
-1027 1029 1035 0
1027 -1029 1035 0
-1031 -1033 1035 0
1031 1033 1035 0
-1031 1033 -1035 0
1031 -1033 -1035 0
-83 -924 -1090 0
83 924 -1090 0
-83 924 1090 0
83 -924 1090 0
-929 -931 -1040 0
929 931 -1040 0
-929 931 1040 0
929 -931 1040 0
-937 -939 -1043 0
937 939 -1043 0
-937 939 1043 0
937 -939 1043 0
-941 -943 -1044 0
941 943 -1044 0
-941 943 1044 0
941 -943 1044 0
-945 -947 -1046 0
945 947 -1046 0
-945 947 1046 0
945 -947 1046 0
-951 -953 -1049 0
951 953 -1049 0
-951 953 1049 0
951 -953 1049 0
-957 -959 -1051 0
957 959 -1051 0
-957 959 1051 0
957 -959 1051 0
-963 -965 -1053 0
963 965 -1053 0
-963 965 1053 0
963 -965 1053 0
-967 -969 -1054 0
967 969 -1054 0
-967 969 1054 0
967 -969 1054 0
-971 -973 -1056 0
971 973 -1056 0
-971 973 1056 0
971 -973 1056 0
-980 -982 -1061 0
980 982 -1061 0
-980 982 1061 0
980 -982 1061 0
-984 -986 -1062 0
984 986 -1062 0
-984 986 1062 0
984 -986 1062 0
-988 -990 -1064 0
988 990 -1064 0
-988 990 1064 0
988 -990 1064 0
-992 -994 -1066 0
992 994 -1066 0
-992 994 1066 0
992 -994 1066 0
-996 -998 -1068 0
996 998 -1068 0
-996 998 1068 0
996 -998 1068 0
-1000 -1002 -1070 0
1000 1002 -1070 0
-1000 1002 1070 0
1000 -1002 1070 0
-1004 -1006 -1072 0
1004 1006 -1072 0
-1004 1006 1072 0
1004 -1006 1072 0
-1008 -1010 -1074 0
1008 1010 -1074 0
-1008 1010 1074 0
1008 -1010 1074 0
-1012 -1014 -1076 0
1012 1014 -1076 0
-1012 1014 1076 0
1012 -1014 1076 0
-1016 -1018 -1078 0
1016 1018 -1078 0
-1016 1018 1078 0
1016 -1018 1078 0
-1020 -1022 -1080 0
1020 1022 -1080 0
-1020 1022 1080 0
1020 -1022 1080 0
-1024 -1026 -1082 0
1024 1026 -1082 0
-1024 1026 1082 0
1024 -1026 1082 0
-1028 -1030 -1084 0
1028 1030 -1084 0
-1028 1030 1084 0
1028 -1030 1084 0
-1032 -1034 -1086 0
1032 1034 -1086 0
-1032 1034 1086 0
1032 -1034 1086 0
-1036 -1037 -1088 0
1036 1037 -1088 0
-1036 1037 1088 0
1036 -1037 1088 0
-1039 -1040 -1091 0
1039 1040 -1091 0
-1039 1040 1091 0
1039 -1040 1091 0
-1041 -1042 -1093 0
1041 1042 -1093 0
-1041 1042 1093 0
1041 -1042 1093 0
-1043 -1044 -1095 0
1043 1044 -1095 0
-1043 1044 1095 0
1043 -1044 1095 0
-1046 -1048 -1097 0
1046 1048 -1097 0
-1046 1048 1097 0
1046 -1048 1097 0
-1049 -1050 -1099 0
1049 1050 -1099 0
-1049 1050 1099 0
1049 -1050 1099 0
-1051 -1052 -1101 0
1051 1052 -1101 0
-1051 1052 1101 0
1051 -1052 1101 0
-1053 -1054 -1103 0
1053 1054 -1103 0
-1053 1054 1103 0
1053 -1054 1103 0
-1056 -1058 -1105 0
1056 1058 -1105 0
-1056 1058 1105 0
1056 -1058 1105 0
-1059 -1060 -1107 0
1059 1060 -1107 0
-1059 1060 1107 0
1059 -1060 1107 0
-1061 -1062 -1109 0
1061 1062 -1109 0
-1061 1062 1109 0
1061 -1062 1109 0
-1064 -1066 -1111 0
1064 1066 -1111 0
-1064 1066 1111 0
1064 -1066 1111 0
-1068 -1070 -1113 0
1068 1070 -1113 0
-1068 1070 1113 0
1068 -1070 1113 0
-1072 -1074 -1115 0
1072 1074 -1115 0
-1072 1074 1115 0
1072 -1074 1115 0
-1076 -1078 -1117 0
1076 1078 -1117 0
-1076 1078 1117 0
1076 -1078 1117 0
-1080 -1082 -1119 0
1080 1082 -1119 0
-1080 1082 1119 0
1080 -1082 1119 0
-1084 -1086 -1121 0
1084 1086 -1121 0
-1084 1086 1121 0
1084 -1086 1121 0
-1088 -1090 -1123 0
1088 1090 -1123 0
-1088 1090 1123 0
1088 -1090 1123 0
-1038 -1091 -1125 0
1038 1091 -1125 0
-1038 1091 1125 0
1038 -1091 1125 0
-1093 -1095 -1127 0
1093 1095 -1127 0
-1093 1095 1127 0
1093 -1095 1127 0
-1097 -1099 -1129 0
1097 1099 -1129 0
-1097 1099 1129 0
1097 -1099 1129 0
-1101 -1103 -1131 0
1101 1103 -1131 0
-1101 1103 1131 0
1101 -1103 1131 0
-1105 -1107 -1133 0
1105 1107 -1133 0
-1105 1107 1133 0
1105 -1107 1133 0
-1109 -1111 -1135 0
1109 1111 -1135 0
-1109 1111 1135 0
1109 -1111 1135 0
-1113 -1115 -1137 0
1113 1115 -1137 0
-1113 1115 1137 0
1113 -1115 1137 0
-1117 -1119 -1139 0
1117 1119 -1139 0
-1117 1119 1139 0
1117 -1119 1139 0
-1121 -1123 -1141 0
1121 1123 -1141 0
-1121 1123 1141 0
1121 -1123 1141 0
-1125 -1127 -1143 0
1125 1127 -1143 0
-1125 1127 1143 0
1125 -1127 1143 0
-1129 -1131 -1145 0
1129 1131 -1145 0
-1129 1131 1145 0
1129 -1131 1145 0
-1133 -1135 -1147 0
1133 1135 -1147 0
-1133 1135 1147 0
1133 -1135 1147 0
-1137 -1139 -1149 0
1137 1139 -1149 0
-1137 1139 1149 0
1137 -1139 1149 0
-1141 -1143 -1151 0
1141 1143 -1151 0
-1141 1143 1151 0
1141 -1143 1151 0
-1145 -1147 -1153 0
1145 1147 -1153 0
-1145 1147 1153 0
1145 -1147 1153 0
-1149 -1151 -1153 0
1149 1151 -1153 0
-1149 1151 1153 0
1149 -1151 1153 0
-1045 -1047 -1159 0
1045 1047 -1159 0
-1045 1047 1159 0
1045 -1047 1159 0
-1055 -1057 -1214 0
1055 1057 -1214 0
-1055 1057 1214 0
1055 -1057 1214 0
-1063 -1065 -1164 0
1063 1065 -1164 0
-1063 1065 1164 0
1063 -1065 1164 0
-1067 -1069 -1165 0
1067 1069 -1165 0
-1067 1069 1165 0
1067 -1069 1165 0
-1071 -1073 -1167 0
1071 1073 -1167 0
-1071 1073 1167 0
1071 -1073 1167 0
-1075 -1077 -1169 0
1075 1077 -1169 0
-1075 1077 1169 0
1075 -1077 1169 0
-1079 -1081 -1171 0
1079 1081 -1171 0
-1079 1081 1171 0
1079 -1081 1171 0
-1083 -1085 -1173 0
1083 1085 -1173 0
-1083 1085 1173 0
1083 -1085 1173 0
-1087 -1089 -1175 0
1087 1089 -1175 0
-1087 1089 1175 0
1087 -1089 1175 0
-1092 -1094 -1221 0
1092 1094 -1221 0
-1092 1094 1221 0
1092 -1094 1221 0
-1096 -1098 -1177 0
1096 1098 -1177 0
-1096 1098 1177 0
1096 -1098 1177 0
-1100 -1102 -1179 0
1100 1102 -1179 0
-1100 1102 1179 0
1100 -1102 1179 0
-1104 -1106 -1181 0
1104 1106 -1181 0
-1104 1106 1181 0
1104 -1106 1181 0
-1108 -1110 -1183 0
1108 1110 -1183 0
-1108 1110 1183 0
1108 -1110 1183 0
-1112 -1114 -1185 0
1112 1114 -1185 0
-1112 1114 1185 0
1112 -1114 1185 0
-1116 -1118 -1187 0
1116 1118 -1187 0
-1116 1118 1187 0
1116 -1118 1187 0
-1120 -1122 -1189 0
1120 1122 -1189 0
-1120 1122 1189 0
1120 -1122 1189 0
-1124 -1126 -1191 0
1124 1126 -1191 0
-1124 1126 1191 0
1124 -1126 1191 0
-1128 -1130 -1193 0
1128 1130 -1193 0
-1128 1130 1193 0
1128 -1130 1193 0
-1132 -1134 -1195 0
1132 1134 -1195 0
-1132 1134 1195 0
1132 -1134 1195 0
-1136 -1138 -1197 0
1136 1138 -1197 0
-1136 1138 1197 0
1136 -1138 1197 0
-1140 -1142 -1199 0
1140 1142 -1199 0
-1140 1142 1199 0
1140 -1142 1199 0
-1144 -1146 -1201 0
1144 1146 -1201 0
-1144 1146 1201 0
1144 -1146 1201 0
-1148 -1150 -1203 0
1148 1150 -1203 0
-1148 1150 1203 0
1148 -1150 1203 0
-1152 -1154 -1205 0
1152 1154 -1205 0
-1152 1154 1205 0
1152 -1154 1205 0
-1153 -1155 -1207 0
1153 1155 -1207 0
1153 -1155 1207 0
-1153 1155 1207 0
-1157 -1158 -1209 0
1157 1158 -1209 0
-1157 1158 1209 0
1157 -1158 1209 0
-1159 -1160 -1210 0
1159 1160 -1210 0
-1159 1160 1210 0
1159 -1160 1210 0
-1161 -1162 -1212 0
1161 1162 -1212 0
-1161 1162 1212 0
1161 -1162 1212 0
-1163 -1164 -1215 0
1163 1164 -1215 0
-1163 1164 1215 0
1163 -1164 1215 0
-1165 -1167 -1216 0
1165 1167 -1216 0
-1165 1167 1216 0
1165 -1167 1216 0
-1169 -1171 -1218 0
1169 1171 -1218 0
-1169 1171 1218 0
1169 -1171 1218 0
-1173 -1175 -1220 0
1173 1175 -1220 0
-1173 1175 1220 0
1173 -1175 1220 0
-1177 -1179 -1222 0
1177 1179 -1222 0
-1177 1179 1222 0
1177 -1179 1222 0
-1181 -1183 -1224 0
1181 1183 -1224 0
-1181 1183 1224 0
1181 -1183 1224 0
-1185 -1187 -1226 0
1185 1187 -1226 0
-1185 1187 1226 0
1185 -1187 1226 0
-1189 -1191 -1228 0
1189 1191 -1228 0
-1189 1191 1228 0
1189 -1191 1228 0
-1193 -1195 -1230 0
1193 1195 -1230 0
-1193 1195 1230 0
1193 -1195 1230 0
-1197 -1199 -1232 0
1197 1199 -1232 0
-1197 1199 1232 0
1197 -1199 1232 0
-1201 -1203 -1234 0
1201 1203 -1234 0
-1201 1203 1234 0
1201 -1203 1234 0
-1205 -1207 -1236 0
1205 1207 -1236 0
-1205 1207 1236 0
1205 -1207 1236 0
-1156 -1209 -1238 0
1156 1209 -1238 0
-1156 1209 1238 0
1156 -1209 1238 0
-1210 -1212 -1240 0
1210 1212 -1240 0
-1210 1212 1240 0
1210 -1212 1240 0
-1214 -1215 -1242 0
1214 1215 -1242 0
-1214 1215 1242 0
1214 -1215 1242 0
-1216 -1218 -1244 0
1216 1218 -1244 0
-1216 1218 1244 0
1216 -1218 1244 0
-1220 -1221 -1246 0
1220 1221 -1246 0
-1220 1221 1246 0
1220 -1221 1246 0
-1222 -1224 -1248 0
1222 1224 -1248 0
-1222 1224 1248 0
1222 -1224 1248 0
-1226 -1228 -1250 0
1226 1228 -1250 0
-1226 1228 1250 0
1226 -1228 1250 0
-1230 -1232 -1252 0
1230 1232 -1252 0
-1230 1232 1252 0
1230 -1232 1252 0
-1234 -1236 -1254 0
1234 1236 -1254 0
-1234 1236 1254 0
1234 -1236 1254 0
-1238 -1240 -1256 0
1238 1240 -1256 0
-1238 1240 1256 0
1238 -1240 1256 0
-1242 -1244 -1258 0
1242 1244 -1258 0
-1242 1244 1258 0
1242 -1244 1258 0
-1246 -1248 -1260 0
1246 1248 -1260 0
-1246 1248 1260 0
1246 -1248 1260 0
-1250 -1252 -1262 0
1250 1252 -1262 0
-1250 1252 1262 0
1250 -1252 1262 0
-1254 -1256 -1264 0
1254 1256 -1264 0
-1254 1256 1264 0
1254 -1256 1264 0
-1258 -1260 -1266 0
1258 1260 -1266 0
-1258 1260 1266 0
1258 -1260 1266 0
-1262 -1264 1266 0
1262 1264 1266 0
-1262 1264 -1266 0
1262 -1264 -1266 0
-1166 -1168 -1271 0
1166 1168 -1271 0
-1166 1168 1271 0
1166 -1168 1271 0
-1170 -1172 -1273 0
1170 1172 -1273 0
-1170 1172 1273 0
1170 -1172 1273 0
-1174 -1176 -1275 0
1174 1176 -1275 0
-1174 1176 1275 0
1174 -1176 1275 0
-1178 -1180 -1277 0
1178 1180 -1277 0
-1178 1180 1277 0
1178 -1180 1277 0
-1182 -1184 -1279 0
1182 1184 -1279 0
-1182 1184 1279 0
1182 -1184 1279 0
-1186 -1188 -1281 0
1186 1188 -1281 0
-1186 1188 1281 0
1186 -1188 1281 0
-1190 -1192 -1283 0
1190 1192 -1283 0
-1190 1192 1283 0
1190 -1192 1283 0
-1194 -1196 -1285 0
1194 1196 -1285 0
-1194 1196 1285 0
1194 -1196 1285 0
-1198 -1200 -1287 0
1198 1200 -1287 0
-1198 1200 1287 0
1198 -1200 1287 0
-1202 -1204 -1289 0
1202 1204 -1289 0
-1202 1204 1289 0
1202 -1204 1289 0
-1206 -1208 -1291 0
1206 1208 -1291 0
-1206 1208 1291 0
1206 -1208 1291 0
-1211 -1213 -1294 0
1211 1213 -1294 0
-1211 1213 1294 0
1211 -1213 1294 0
-1217 -1219 -1296 0
1217 1219 -1296 0
-1217 1219 1296 0
1217 -1219 1296 0
-1223 -1225 -1298 0
1223 1225 -1298 0
-1223 1225 1298 0
1223 -1225 1298 0
-1227 -1229 -1299 0
1227 1229 -1299 0
-1227 1229 1299 0
1227 -1229 1299 0
-1231 -1233 -1301 0
1231 1233 -1301 0
-1231 1233 1301 0
1231 -1233 1301 0
-1235 -1237 -1303 0
1235 1237 -1303 0
-1235 1237 1303 0
1235 -1237 1303 0
-1239 -1241 -1305 0
1239 1241 -1305 0
-1239 1241 1305 0
1239 -1241 1305 0
-1243 -1245 -1307 0
1243 1245 -1307 0
-1243 1245 1307 0
1243 -1245 1307 0
-1247 -1249 -1309 0
1247 1249 -1309 0
-1247 1249 1309 0
1247 -1249 1309 0
-1251 -1253 -1311 0
1251 1253 -1311 0
-1251 1253 1311 0
1251 -1253 1311 0
-1255 -1257 -1313 0
1255 1257 -1313 0
-1255 1257 1313 0
1255 -1257 1313 0
-1259 -1261 -1315 0
1259 1261 -1315 0
-1259 1261 1315 0
1259 -1261 1315 0
-1263 -1265 -1317 0
1263 1265 -1317 0
-1263 1265 1317 0
1263 -1265 1317 0
-1267 -1268 -1319 0
1267 1268 -1319 0
-1267 1268 1319 0
1267 -1268 1319 0
-1270 -1271 -1320 0
1270 1271 -1320 0
-1270 1271 1320 0
1270 -1271 1320 0
-1273 -1275 -1322 0
1273 1275 -1322 0
-1273 1275 1322 0
1273 -1275 1322 0
-1276 -1277 -1324 0
1276 1277 -1324 0
-1276 1277 1324 0
1276 -1277 1324 0
-1279 -1281 -1326 0
1279 1281 -1326 0
-1279 1281 1326 0
1279 -1281 1326 0
-1283 -1285 -1328 0
1283 1285 -1328 0
-1283 1285 1328 0
1283 -1285 1328 0
-1287 -1289 -1330 0
1287 1289 -1330 0
-1287 1289 1330 0
1287 -1289 1330 0
-1291 -1293 -1332 0
1291 1293 -1332 0
-1291 1293 1332 0
1291 -1293 1332 0
-1294 -1295 -1334 0
1294 1295 -1334 0
-1294 1295 1334 0
1294 -1295 1334 0
-1296 -1297 -1336 0
1296 1297 -1336 0
-1296 1297 1336 0
1296 -1297 1336 0
-1298 -1299 -1338 0
1298 1299 -1338 0
-1298 1299 1338 0
1298 -1299 1338 0
-1301 -1303 -1340 0
1301 1303 -1340 0
-1301 1303 1340 0
1301 -1303 1340 0
-1305 -1307 -1342 0
1305 1307 -1342 0
-1305 1307 1342 0
1305 -1307 1342 0
-1309 -1311 -1344 0
1309 1311 -1344 0
-1309 1311 1344 0
1309 -1311 1344 0
-1313 -1315 -1346 0
1313 1315 -1346 0
-1313 1315 1346 0
1313 -1315 1346 0
-1317 -1319 -1348 0
1317 1319 -1348 0
-1317 1319 1348 0
1317 -1319 1348 0
-1269 -1320 -1350 0
1269 1320 -1350 0
-1269 1320 1350 0
1269 -1320 1350 0
-1322 -1324 -1352 0
1322 1324 -1352 0
-1322 1324 1352 0
1322 -1324 1352 0
-1326 -1328 -1354 0
1326 1328 -1354 0
-1326 1328 1354 0
1326 -1328 1354 0
-1330 -1332 -1356 0
1330 1332 -1356 0
-1330 1332 1356 0
1330 -1332 1356 0
-1334 -1336 -1358 0
1334 1336 -1358 0
-1334 1336 1358 0
1334 -1336 1358 0
-1338 -1340 -1360 0
1338 1340 -1360 0
-1338 1340 1360 0
1338 -1340 1360 0
-1342 -1344 -1362 0
1342 1344 -1362 0
-1342 1344 1362 0
1342 -1344 1362 0
-1346 -1348 -1364 0
1346 1348 -1364 0
-1346 1348 1364 0
1346 -1348 1364 0
-1349 -1350 -1366 0
1349 1350 -1366 0
-1349 1350 1366 0
1349 -1350 1366 0
-1352 -1354 -1368 0
1352 1354 -1368 0
-1352 1354 1368 0
1352 -1354 1368 0
-1356 -1358 -1370 0
1356 1358 -1370 0
-1356 1358 1370 0
1356 -1358 1370 0
-1360 -1362 -1372 0
1360 1362 -1372 0
-1360 1362 1372 0
1360 -1362 1372 0
-1364 -1366 -1374 0
1364 1366 -1374 0
-1364 1366 1374 0
1364 -1366 1374 0
-1368 -1370 -1376 0
1368 1370 -1376 0
-1368 1370 1376 0
1368 -1370 1376 0
-1372 -1374 -1376 0
1372 1374 -1376 0
-1372 1374 1376 0
1372 -1374 1376 0
-1272 -1274 -1425 0
1272 1274 -1425 0
-1272 1274 1425 0
1272 -1274 1425 0
-1278 -1280 -1380 0
1278 1280 -1380 0
-1278 1280 1380 0
1278 -1280 1380 0
-1282 -1284 -1381 0
1282 1284 -1381 0
-1282 1284 1381 0
1282 -1284 1381 0
-1286 -1288 -1383 0
1286 1288 -1383 0
-1286 1288 1383 0
1286 -1288 1383 0
-1290 -1292 -1385 0
1290 1292 -1385 0
-1290 1292 1385 0
1290 -1292 1385 0
-1300 -1302 -1389 0
1300 1302 -1389 0
-1300 1302 1389 0
1300 -1302 1389 0
-1304 -1306 -1391 0
1304 1306 -1391 0
-1304 1306 1391 0
1304 -1306 1391 0
-1308 -1310 -1393 0
1308 1310 -1393 0
-1308 1310 1393 0
1308 -1310 1393 0
-1312 -1314 -1395 0
1312 1314 -1395 0
-1312 1314 1395 0
1312 -1314 1395 0
-1316 -1318 -1397 0
1316 1318 -1397 0
-1316 1318 1397 0
1316 -1318 1397 0
-1321 -1323 -1439 0
1321 1323 -1439 0
-1321 1323 1439 0
1321 -1323 1439 0
-1325 -1327 -1399 0
1325 1327 -1399 0
-1325 1327 1399 0
1325 -1327 1399 0
-1329 -1331 -1401 0
1329 1331 -1401 0
-1329 1331 1401 0
1329 -1331 1401 0
-1333 -1335 -1403 0
1333 1335 -1403 0
-1333 1335 1403 0
1333 -1335 1403 0
-1337 -1339 -1405 0
1337 1339 -1405 0
-1337 1339 1405 0
1337 -1339 1405 0
-1341 -1343 -1407 0
1341 1343 -1407 0
-1341 1343 1407 0
1341 -1343 1407 0
-1345 -1347 -1409 0
1345 1347 -1409 0
-1345 1347 1409 0
1345 -1347 1409 0
-1351 -1353 -1412 0
1351 1353 -1412 0
-1351 1353 1412 0
1351 -1353 1412 0
-1355 -1357 -1413 0
1355 1357 -1413 0
-1355 1357 1413 0
1355 -1357 1413 0
-1359 -1361 -1415 0
1359 1361 -1415 0
-1359 1361 1415 0
1359 -1361 1415 0
-1363 -1365 -1417 0
1363 1365 -1417 0
-1363 1365 1417 0
1363 -1365 1417 0
-1367 -1369 -1419 0
1367 1369 -1419 0
-1367 1369 1419 0
1367 -1369 1419 0
-1371 -1373 -1421 0
1371 1373 -1421 0
-1371 1373 1421 0
1371 -1373 1421 0
-1375 -1377 -1423 0
1375 1377 -1423 0
-1375 1377 1423 0
1375 -1377 1423 0
-1376 -1378 -1453 0
1376 1378 -1453 0
1376 -1378 1453 0
-1376 1378 1453 0
-1379 -1380 -1426 0
1379 1380 -1426 0
-1379 1380 1426 0
1379 -1380 1426 0
-1381 -1383 -1427 0
1381 1383 -1427 0
-1381 1383 1427 0
1381 -1383 1427 0
-1385 -1386 -1429 0
1385 1386 -1429 0
-1385 1386 1429 0
1385 -1386 1429 0
-1387 -1388 -1431 0
1387 1388 -1431 0
-1387 1388 1431 0
1387 -1388 1431 0
-1389 -1391 -1433 0
1389 1391 -1433 0
-1389 1391 1433 0
1389 -1391 1433 0
-1393 -1395 -1435 0
1393 1395 -1435 0
-1393 1395 1435 0
1393 -1395 1435 0
-1397 -1398 -1437 0
1397 1398 -1437 0
-1397 1398 1437 0
1397 -1398 1437 0
-1399 -1401 -1440 0
1399 1401 -1440 0
-1399 1401 1440 0
1399 -1401 1440 0
-1403 -1405 -1441 0
1403 1405 -1441 0
-1403 1405 1441 0
1403 -1405 1441 0
-1407 -1409 -1443 0
1407 1409 -1443 0
-1407 1409 1443 0
1407 -1409 1443 0
-1411 -1412 -1445 0
1411 1412 -1445 0
-1411 1412 1445 0
1411 -1412 1445 0
-1413 -1415 -1447 0
1413 1415 -1447 0
-1413 1415 1447 0
1413 -1415 1447 0
-1417 -1419 -1449 0
1417 1419 -1449 0
-1417 1419 1449 0
1417 -1419 1449 0
-1421 -1423 -1451 0
1421 1423 -1451 0
-1421 1423 1451 0
1421 -1423 1451 0
-1425 -1426 -1454 0
1425 1426 -1454 0
-1425 1426 1454 0
1425 -1426 1454 0
-1427 -1429 -1455 0
1427 1429 -1455 0
-1427 1429 1455 0
1427 -1429 1455 0
-1431 -1433 -1457 0
1431 1433 -1457 0
-1431 1433 1457 0
1431 -1433 1457 0
-1435 -1437 -1459 0
1435 1437 -1459 0
-1435 1437 1459 0
1435 -1437 1459 0
-1439 -1440 -1461 0
1439 1440 -1461 0
-1439 1440 1461 0
1439 -1440 1461 0
-1441 -1443 -1463 0
1441 1443 -1463 0
-1441 1443 1463 0
1441 -1443 1463 0
-1445 -1447 -1465 0
1445 1447 -1465 0
-1445 1447 1465 0
1445 -1447 1465 0
-1449 -1451 -1467 0
1449 1451 -1467 0
-1449 1451 1467 0
1449 -1451 1467 0
-1453 -1454 -1469 0
1453 1454 -1469 0
-1453 1454 1469 0
1453 -1454 1469 0
-1455 -1457 -1471 0
1455 1457 -1471 0
-1455 1457 1471 0
1455 -1457 1471 0
-1459 -1461 -1473 0
1459 1461 -1473 0
-1459 1461 1473 0
1459 -1461 1473 0
-1463 -1465 -1475 0
1463 1465 -1475 0
-1463 1465 1475 0
1463 -1465 1475 0
-1467 -1469 -1477 0
1467 1469 -1477 0
-1467 1469 1477 0
1467 -1469 1477 0
-1471 -1473 -1479 0
1471 1473 -1479 0
-1471 1473 1479 0
1471 -1473 1479 0
-1475 -1477 -1479 0
1475 1477 -1479 0
-1475 1477 1479 0
1475 -1477 1479 0
-1382 -1384 -1484 0
1382 1384 -1484 0
-1382 1384 1484 0
1382 -1384 1484 0
-1390 -1392 -1531 0
1390 1392 -1531 0
-1390 1392 1531 0
1390 -1392 1531 0
-1394 -1396 -1487 0
1394 1396 -1487 0
-1394 1396 1487 0
1394 -1396 1487 0
-1400 -1402 -1491 0
1400 1402 -1491 0
-1400 1402 1491 0
1400 -1402 1491 0
-1404 -1406 -1493 0
1404 1406 -1493 0
-1404 1406 1493 0
1404 -1406 1493 0
-1408 -1410 -1495 0
1408 1410 -1495 0
-1408 1410 1495 0
1408 -1410 1495 0
-1414 -1416 -1497 0
1414 1416 -1497 0
-1414 1416 1497 0
1414 -1416 1497 0
-1418 -1420 -1499 0
1418 1420 -1499 0
-1418 1420 1499 0
1418 -1420 1499 0
-1422 -1424 -1501 0
1422 1424 -1501 0
-1422 1424 1501 0
1422 -1424 1501 0
-1428 -1430 -1504 0
1428 1430 -1504 0
-1428 1430 1504 0
1428 -1430 1504 0
-1432 -1434 -1505 0
1432 1434 -1505 0
-1432 1434 1505 0
1432 -1434 1505 0
-1436 -1438 -1507 0
1436 1438 -1507 0
-1436 1438 1507 0
1436 -1438 1507 0
-1442 -1444 -1510 0
1442 1444 -1510 0
-1442 1444 1510 0
1442 -1444 1510 0
-1446 -1448 -1511 0
1446 1448 -1511 0
-1446 1448 1511 0
1446 -1448 1511 0
-1450 -1452 -1513 0
1450 1452 -1513 0
-1450 1452 1513 0
1450 -1452 1513 0
-1456 -1458 -1516 0
1456 1458 -1516 0
-1456 1458 1516 0
1456 -1458 1516 0
-1460 -1462 -1517 0
1460 1462 -1517 0
-1460 1462 1517 0
1460 -1462 1517 0
-1464 -1466 -1519 0
1464 1466 -1519 0
-1464 1466 1519 0
1464 -1466 1519 0
-1468 -1470 -1521 0
1468 1470 -1521 0
-1468 1470 1521 0
1468 -1470 1521 0
-1472 -1474 -1523 0
1472 1474 -1523 0
-1472 1474 1523 0
1472 -1474 1523 0
-1476 -1478 -1525 0
1476 1478 -1525 0
-1476 1478 1525 0
1476 -1478 1525 0
-1480 -1481 -1527 0
1480 1481 -1527 0
-1480 1481 1527 0
1480 -1481 1527 0
-1482 -1483 -1529 0
1482 1483 -1529 0
-1482 1483 1529 0
1482 -1483 1529 0
-1484 -1485 -1530 0
1484 1485 -1530 0
-1484 1485 1530 0
1484 -1485 1530 0
-1487 -1489 -1532 0
1487 1489 -1532 0
-1487 1489 1532 0
1487 -1489 1532 0
-1490 -1491 -1534 0
1490 1491 -1534 0
-1490 1491 1534 0
1490 -1491 1534 0
-1493 -1495 -1536 0
1493 1495 -1536 0
-1493 1495 1536 0
1493 -1495 1536 0
-1496 -1497 -1538 0
1496 1497 -1538 0
-1496 1497 1538 0
1496 -1497 1538 0
-1499 -1501 -1540 0
1499 1501 -1540 0
-1499 1501 1540 0
1499 -1501 1540 0
-1502 -1503 -1542 0
1502 1503 -1542 0
-1502 1503 1542 0
1502 -1503 1542 0
-1504 -1505 -1544 0
1504 1505 -1544 0
-1504 1505 1544 0
1504 -1505 1544 0
-1507 -1509 -1546 0
1507 1509 -1546 0
-1507 1509 1546 0
1507 -1509 1546 0
-1510 -1511 -1548 0
1510 1511 -1548 0
-1510 1511 1548 0
1510 -1511 1548 0
-1513 -1515 -1550 0
1513 1515 -1550 0
-1513 1515 1550 0
1513 -1515 1550 0
-1516 -1517 -1552 0
1516 1517 -1552 0
-1516 1517 1552 0
1516 -1517 1552 0
-1519 -1521 -1554 0
1519 1521 -1554 0
-1519 1521 1554 0
1519 -1521 1554 0
-1523 -1525 -1556 0
1523 1525 -1556 0
-1523 1525 1556 0
1523 -1525 1556 0
-1479 -1527 -1558 0
1479 1527 -1558 0
1479 -1527 1558 0
-1479 1527 1558 0
-1529 -1530 -1560 0
1529 1530 -1560 0
-1529 1530 1560 0
1529 -1530 1560 0
-1531 -1532 -1562 0
1531 1532 -1562 0
-1531 1532 1562 0
1531 -1532 1562 0
-1534 -1536 -1564 0
1534 1536 -1564 0
-1534 1536 1564 0
1534 -1536 1564 0
-1538 -1540 -1566 0
1538 1540 -1566 0
-1538 1540 1566 0
1538 -1540 1566 0
-1542 -1544 -1568 0
1542 1544 -1568 0
-1542 1544 1568 0
1542 -1544 1568 0
-1546 -1548 -1570 0
1546 1548 -1570 0
-1546 1548 1570 0
1546 -1548 1570 0
-1550 -1552 -1572 0
1550 1552 -1572 0
-1550 1552 1572 0
1550 -1552 1572 0
-1554 -1556 -1574 0
1554 1556 -1574 0
-1554 1556 1574 0
1554 -1556 1574 0
-1558 -1560 -1576 0
1558 1560 -1576 0
-1558 1560 1576 0
1558 -1560 1576 0
-1562 -1564 -1578 0
1562 1564 -1578 0
-1562 1564 1578 0
1562 -1564 1578 0
-1566 -1568 -1580 0
1566 1568 -1580 0
-1566 1568 1580 0
1566 -1568 1580 0
-1570 -1572 -1582 0
1570 1572 -1582 0
-1570 1572 1582 0
1570 -1572 1582 0
-1574 -1576 -1584 0
1574 1576 -1584 0
-1574 1576 1584 0
1574 -1576 1584 0
-1578 -1580 -1586 0
1578 1580 -1586 0
-1578 1580 1586 0
1578 -1580 1586 0
-1582 -1584 -1586 0
1582 1584 -1586 0
-1582 1584 1586 0
1582 -1584 1586 0
-1486 -1488 -1634 0
1486 1488 -1634 0
-1486 1488 1634 0
1486 -1488 1634 0
-1492 -1494 -1635 0
1492 1494 -1635 0
-1492 1494 1635 0
1492 -1494 1635 0
-1498 -1500 -1591 0
1498 1500 -1591 0
-1498 1500 1591 0
1498 -1500 1591 0
-1506 -1508 -1594 0
1506 1508 -1594 0
-1506 1508 1594 0
1506 -1508 1594 0
-1512 -1514 -1596 0
1512 1514 -1596 0
-1512 1514 1596 0
1512 -1514 1596 0
-1518 -1520 -1598 0
1518 1520 -1598 0
-1518 1520 1598 0
1518 -1520 1598 0
-1522 -1524 -1600 0
1522 1524 -1600 0
-1522 1524 1600 0
1522 -1524 1600 0
-1526 -1528 -1602 0
1526 1528 -1602 0
-1526 1528 1602 0
1526 -1528 1602 0
-1533 -1535 -1605 0
1533 1535 -1605 0
-1533 1535 1605 0
1533 -1535 1605 0
-1537 -1539 -1606 0
1537 1539 -1606 0
-1537 1539 1606 0
1537 -1539 1606 0
-1541 -1543 -1608 0
1541 1543 -1608 0
-1541 1543 1608 0
1541 -1543 1608 0
-1545 -1547 -1610 0
1545 1547 -1610 0
-1545 1547 1610 0
1545 -1547 1610 0
-1549 -1551 -1612 0
1549 1551 -1612 0
-1549 1551 1612 0
1549 -1551 1612 0
-1553 -1555 -1614 0
1553 1555 -1614 0
-1553 1555 1614 0
1553 -1555 1614 0
-1557 -1559 -1616 0
1557 1559 -1616 0
-1557 1559 1616 0
1557 -1559 1616 0
-1561 -1563 -1618 0
1561 1563 -1618 0
-1561 1563 1618 0
1561 -1563 1618 0
-1565 -1567 -1620 0
1565 1567 -1620 0
-1565 1567 1620 0
1565 -1567 1620 0
-1569 -1571 -1622 0
1569 1571 -1622 0
-1569 1571 1622 0
1569 -1571 1622 0
-1573 -1575 -1624 0
1573 1575 -1624 0
-1573 1575 1624 0
1573 -1575 1624 0
-1577 -1579 -1626 0
1577 1579 -1626 0
-1577 1579 1626 0
1577 -1579 1626 0
-1581 -1583 -1628 0
1581 1583 -1628 0
-1581 1583 1628 0
1581 -1583 1628 0
-1585 -1587 -1630 0
1585 1587 -1630 0
-1585 1587 1630 0
1585 -1587 1630 0
-1586 -1588 -1632 0
1586 1588 -1632 0
1586 -1588 1632 0
-1586 1588 1632 0
-1590 -1591 -1636 0
1590 1591 -1636 0
-1590 1591 1636 0
1590 -1591 1636 0
-1592 -1593 -1637 0
1592 1593 -1637 0
-1592 1593 1637 0
1592 -1593 1637 0
-1594 -1595 -1639 0
1594 1595 -1639 0
-1594 1595 1639 0
1594 -1595 1639 0
-1596 -1597 -1641 0
1596 1597 -1641 0
-1596 1597 1641 0
1596 -1597 1641 0
-1598 -1600 -1643 0
1598 1600 -1643 0
-1598 1600 1643 0
1598 -1600 1643 0
-1602 -1603 -1645 0
1602 1603 -1645 0
-1602 1603 1645 0
1602 -1603 1645 0
-1604 -1605 -1647 0
1604 1605 -1647 0
-1604 1605 1647 0
1604 -1605 1647 0
-1606 -1608 -1649 0
1606 1608 -1649 0
-1606 1608 1649 0
1606 -1608 1649 0
-1610 -1612 -1651 0
1610 1612 -1651 0
-1610 1612 1651 0
1610 -1612 1651 0
-1614 -1616 -1653 0
1614 1616 -1653 0
-1614 1616 1653 0
1614 -1616 1653 0
-1618 -1620 -1655 0
1618 1620 -1655 0
-1618 1620 1655 0
1618 -1620 1655 0
-1622 -1624 -1657 0
1622 1624 -1657 0
-1622 1624 1657 0
1622 -1624 1657 0
-1626 -1628 -1659 0
1626 1628 -1659 0
-1626 1628 1659 0
1626 -1628 1659 0
-1630 -1632 -1661 0
1630 1632 -1661 0
-1630 1632 1661 0
1630 -1632 1661 0
-1589 -1634 -1663 0
1589 1634 -1663 0
-1589 1634 1663 0
1589 -1634 1663 0
-1635 -1636 -1665 0
1635 1636 -1665 0
-1635 1636 1665 0
1635 -1636 1665 0
-1637 -1639 -1667 0
1637 1639 -1667 0
-1637 1639 1667 0
1637 -1639 1667 0
-1641 -1643 -1669 0
1641 1643 -1669 0
-1641 1643 1669 0
1641 -1643 1669 0
-1645 -1647 -1671 0
1645 1647 -1671 0
-1645 1647 1671 0
1645 -1647 1671 0
-1649 -1651 -1673 0
1649 1651 -1673 0
-1649 1651 1673 0
1649 -1651 1673 0
-1653 -1655 -1675 0
1653 1655 -1675 0
-1653 1655 1675 0
1653 -1655 1675 0
-1657 -1659 -1677 0
1657 1659 -1677 0
-1657 1659 1677 0
1657 -1659 1677 0
-1661 -1663 -1679 0
1661 1663 -1679 0
-1661 1663 1679 0
1661 -1663 1679 0
-1665 -1667 -1681 0
1665 1667 -1681 0
-1665 1667 1681 0
1665 -1667 1681 0
-1669 -1671 -1683 0
1669 1671 -1683 0
-1669 1671 1683 0
1669 -1671 1683 0
-1673 -1675 -1685 0
1673 1675 -1685 0
-1673 1675 1685 0
1673 -1675 1685 0
-1677 -1679 -1687 0
1677 1679 -1687 0
-1677 1679 1687 0
1677 -1679 1687 0
-1681 -1683 -1689 0
1681 1683 -1689 0
-1681 1683 1689 0
1681 -1683 1689 0
-1685 -1687 -1689 0
1685 1687 -1689 0
-1685 1687 1689 0
1685 -1687 1689 0
-1599 -1601 -1697 0
1599 1601 -1697 0
-1599 1601 1697 0
1599 -1601 1697 0
-1607 -1609 -1700 0
1607 1609 -1700 0
-1607 1609 1700 0
1607 -1609 1700 0
-1611 -1613 -1702 0
1611 1613 -1702 0
-1611 1613 1702 0
1611 -1613 1702 0
-1615 -1617 -1704 0
1615 1617 -1704 0
-1615 1617 1704 0
1615 -1617 1704 0
-1619 -1621 -1706 0
1619 1621 -1706 0
-1619 1621 1706 0
1619 -1621 1706 0
-1623 -1625 -1708 0
1623 1625 -1708 0
-1623 1625 1708 0
1623 -1625 1708 0
-1627 -1629 -1710 0
1627 1629 -1710 0
-1627 1629 1710 0
1627 -1629 1710 0
-1631 -1633 -1712 0
1631 1633 -1712 0
-1631 1633 1712 0
1631 -1633 1712 0
-1638 -1640 -1714 0
1638 1640 -1714 0
-1638 1640 1714 0
1638 -1640 1714 0
-1642 -1644 -1715 0
1642 1644 -1715 0
-1642 1644 1715 0
1642 -1644 1715 0
-1646 -1648 -1717 0
1646 1648 -1717 0
-1646 1648 1717 0
1646 -1648 1717 0
-1650 -1652 -1719 0
1650 1652 -1719 0
-1650 1652 1719 0
1650 -1652 1719 0
-1654 -1656 -1721 0
1654 1656 -1721 0
-1654 1656 1721 0
1654 -1656 1721 0
-1658 -1660 -1723 0
1658 1660 -1723 0
-1658 1660 1723 0
1658 -1660 1723 0
-1662 -1664 -1725 0
1662 1664 -1725 0
-1662 1664 1725 0
1662 -1664 1725 0
-1666 -1668 -1727 0
1666 1668 -1727 0
-1666 1668 1727 0
1666 -1668 1727 0
-1670 -1672 -1729 0
1670 1672 -1729 0
-1670 1672 1729 0
1670 -1672 1729 0
-1674 -1676 -1731 0
1674 1676 -1731 0
-1674 1676 1731 0
1674 -1676 1731 0
-1678 -1680 -1733 0
1678 1680 -1733 0
-1678 1680 1733 0
1678 -1680 1733 0
-1682 -1684 -1735 0
1682 1684 -1735 0
-1682 1684 1735 0
1682 -1684 1735 0
-1686 -1688 -1737 0
1686 1688 -1737 0
-1686 1688 1737 0
1686 -1688 1737 0
-1690 -1691 -1739 0
1690 1691 -1739 0
-1690 1691 1739 0
1690 -1691 1739 0
-1692 -1693 -1740 0
1692 1693 -1740 0
-1692 1693 1740 0
1692 -1693 1740 0
-1695 -1696 -1741 0
1695 1696 -1741 0
-1695 1696 1741 0
1695 -1696 1741 0
-1697 -1698 -1743 0
1697 1698 -1743 0
-1697 1698 1743 0
1697 -1698 1743 0
-1699 -1700 -1745 0
1699 1700 -1745 0
-1699 1700 1745 0
1699 -1700 1745 0
-1702 -1704 -1747 0
1702 1704 -1747 0
-1702 1704 1747 0
1702 -1704 1747 0
-1706 -1708 -1749 0
1706 1708 -1749 0
-1706 1708 1749 0
1706 -1708 1749 0
-1710 -1712 -1751 0
1710 1712 -1751 0
-1710 1712 1751 0
1710 -1712 1751 0
-1714 -1715 -1753 0
1714 1715 -1753 0
-1714 1715 1753 0
1714 -1715 1753 0
-1717 -1719 -1754 0
1717 1719 -1754 0
-1717 1719 1754 0
1717 -1719 1754 0
-1721 -1723 -1756 0
1721 1723 -1756 0
-1721 1723 1756 0
1721 -1723 1756 0
-1725 -1727 -1758 0
1725 1727 -1758 0
-1725 1727 1758 0
1725 -1727 1758 0
-1729 -1731 -1760 0
1729 1731 -1760 0
-1729 1731 1760 0
1729 -1731 1760 0
-1733 -1735 -1762 0
1733 1735 -1762 0
-1733 1735 1762 0
1733 -1735 1762 0
-1737 -1739 -1764 0
1737 1739 -1764 0
-1737 1739 1764 0
1737 -1739 1764 0
-1689 -1740 -1766 0
1689 1740 -1766 0
-1689 1740 1766 0
1689 -1740 1766 0
-1694 -1741 -1768 0
1694 1741 -1768 0
-1694 1741 1768 0
1694 -1741 1768 0
-1743 -1745 -1770 0
1743 1745 -1770 0
-1743 1745 1770 0
1743 -1745 1770 0
-1747 -1749 -1772 0
1747 1749 -1772 0
-1747 1749 1772 0
1747 -1749 1772 0
-1713 -1751 -1774 0
1713 1751 -1774 0
1713 -1751 1774 0
-1713 1751 1774 0
-1753 -1754 -1776 0
1753 1754 -1776 0
-1753 1754 1776 0
1753 -1754 1776 0
-1756 -1758 -1778 0
1756 1758 -1778 0
-1756 1758 1778 0
1756 -1758 1778 0
-1760 -1762 -1780 0
1760 1762 -1780 0
-1760 1762 1780 0
1760 -1762 1780 0
-1764 -1766 -1782 0
1764 1766 -1782 0
-1764 1766 1782 0
1764 -1766 1782 0
-1768 -1770 -1784 0
1768 1770 -1784 0
-1768 1770 1784 0
1768 -1770 1784 0
-1772 -1774 -1786 0
1772 1774 -1786 0
-1772 1774 1786 0
1772 -1774 1786 0
-1776 -1778 -1788 0
1776 1778 -1788 0
-1776 1778 1788 0
1776 -1778 1788 0
-1780 -1782 -1790 0
1780 1782 -1790 0
-1780 1782 1790 0
1780 -1782 1790 0
-1784 -1786 -1792 0
1784 1786 -1792 0
-1784 1786 1792 0
1784 -1786 1792 0
-1788 -1790 -1792 0
1788 1790 -1792 0
-1788 1790 1792 0
1788 -1790 1792 0
-1701 -1703 -1842 0
1701 1703 -1842 0
-1701 1703 1842 0
1701 -1703 1842 0
-1705 -1707 -1796 0
1705 1707 -1796 0
-1705 1707 1796 0
1705 -1707 1796 0
-1709 -1711 -1798 0
1709 1711 -1798 0
-1709 1711 1798 0
1709 -1711 1798 0
-1716 -1718 -1802 0
1716 1718 -1802 0
-1716 1718 1802 0
1716 -1718 1802 0
-1720 -1722 -1804 0
1720 1722 -1804 0
-1720 1722 1804 0
1720 -1722 1804 0
-1724 -1726 -1806 0
1724 1726 -1806 0
-1724 1726 1806 0
1724 -1726 1806 0
-1728 -1730 -1808 0
1728 1730 -1808 0
-1728 1730 1808 0
1728 -1730 1808 0
-1732 -1734 -1810 0
1732 1734 -1810 0
-1732 1734 1810 0
1732 -1734 1810 0
-1736 -1738 -1812 0
1736 1738 -1812 0
-1736 1738 1812 0
1736 -1738 1812 0
-1742 -1744 -1816 0
1742 1744 -1816 0
-1742 1744 1816 0
1742 -1744 1816 0
-1746 -1748 -1818 0
1746 1748 -1818 0
-1746 1748 1818 0
1746 -1748 1818 0
-1750 -1752 -1820 0
1750 1752 -1820 0
-1750 1752 1820 0
1750 -1752 1820 0
-1755 -1757 -1822 0
1755 1757 -1822 0
-1755 1757 1822 0
1755 -1757 1822 0
-1759 -1761 -1824 0
1759 1761 -1824 0
-1759 1761 1824 0
1759 -1761 1824 0
-1763 -1765 -1826 0
1763 1765 -1826 0
-1763 1765 1826 0
1763 -1765 1826 0
-1767 -1769 -1828 0
1767 1769 -1828 0
-1767 1769 1828 0
1767 -1769 1828 0
-1771 -1773 -1830 0
1771 1773 -1830 0
-1771 1773 1830 0
1771 -1773 1830 0
-1775 -1777 -1832 0
1775 1777 -1832 0
-1775 1777 1832 0
1775 -1777 1832 0
-1779 -1781 -1834 0
1779 1781 -1834 0
-1779 1781 1834 0
1779 -1781 1834 0
-1783 -1785 -1836 0
1783 1785 -1836 0
-1783 1785 1836 0
1783 -1785 1836 0
-1787 -1789 -1838 0
1787 1789 -1838 0
-1787 1789 1838 0
1787 -1789 1838 0
-1791 -1793 -1840 0
1791 1793 -1840 0
-1791 1793 1840 0
1791 -1793 1840 0
-1792 -1794 -1868 0
1792 1794 -1868 0
1792 -1794 1868 0
-1792 1794 1868 0
-1796 -1798 -1843 0
1796 1798 -1843 0
-1796 1798 1843 0
1796 -1798 1843 0
-1800 -1801 -1845 0
1800 1801 -1845 0
-1800 1801 1845 0
1800 -1801 1845 0
-1802 -1804 -1847 0
1802 1804 -1847 0
-1802 1804 1847 0
1802 -1804 1847 0
-1806 -1808 -1849 0
1806 1808 -1849 0
-1806 1808 1849 0
1806 -1808 1849 0
-1810 -1812 -1851 0
1810 1812 -1851 0
-1810 1812 1851 0
1810 -1812 1851 0
-1814 -1815 -1853 0
1814 1815 -1853 0
-1814 1815 1853 0
1814 -1815 1853 0
-1816 -1818 -1855 0
1816 1818 -1855 0
-1816 1818 1855 0
1816 -1818 1855 0
-1820 -1821 -1857 0
1820 1821 -1857 0
-1820 1821 1857 0
1820 -1821 1857 0
-1822 -1824 -1859 0
1822 1824 -1859 0
-1822 1824 1859 0
1822 -1824 1859 0
-1826 -1828 -1861 0
1826 1828 -1861 0
-1826 1828 1861 0
1826 -1828 1861 0
-1830 -1832 -1863 0
1830 1832 -1863 0
-1830 1832 1863 0
1830 -1832 1863 0
-1834 -1836 -1865 0
1834 1836 -1865 0
-1834 1836 1865 0
1834 -1836 1865 0
-1838 -1840 -1867 0
1838 1840 -1867 0
-1838 1840 1867 0
1838 -1840 1867 0
-1795 -1842 -1869 0
1795 1842 -1869 0
-1795 1842 1869 0
1795 -1842 1869 0
-1843 -1845 -1871 0
1843 1845 -1871 0
-1843 1845 1871 0
1843 -1845 1871 0
-1847 -1849 -1873 0
1847 1849 -1873 0
-1847 1849 1873 0
1847 -1849 1873 0
-1851 -1853 -1875 0
1851 1853 -1875 0
-1851 1853 1875 0
1851 -1853 1875 0
-1855 -1857 -1877 0
1855 1857 -1877 0
-1855 1857 1877 0
1855 -1857 1877 0
-1859 -1861 -1879 0
1859 1861 -1879 0
-1859 1861 1879 0
1859 -1861 1879 0
-1863 -1865 -1881 0
1863 1865 -1881 0
-1863 1865 1881 0
1863 -1865 1881 0
-1867 -1868 -1883 0
1867 1868 -1883 0
-1867 1868 1883 0
1867 -1868 1883 0
-1869 -1871 -1885 0
1869 1871 -1885 0
-1869 1871 1885 0
1869 -1871 1885 0
-1873 -1875 -1887 0
1873 1875 -1887 0
-1873 1875 1887 0
1873 -1875 1887 0
-1877 -1879 -1889 0
1877 1879 -1889 0
-1877 1879 1889 0
1877 -1879 1889 0
-1881 -1883 -1891 0
1881 1883 -1891 0
-1881 1883 1891 0
1881 -1883 1891 0
-1885 -1887 -1893 0
1885 1887 -1893 0
-1885 1887 1893 0
1885 -1887 1893 0
-1889 -1891 -1893 0
1889 1891 -1893 0
-1889 1891 1893 0
1889 -1891 1893 0
-1797 -1799 -1938 0
1797 1799 -1938 0
-1797 1799 1938 0
1797 -1799 1938 0
-1803 -1805 -1897 0
1803 1805 -1897 0
-1803 1805 1897 0
1803 -1805 1897 0
-1807 -1809 -1898 0
1807 1809 -1898 0
-1807 1809 1898 0
1807 -1809 1898 0
-1811 -1813 -1940 0
1811 1813 -1940 0
-1811 1813 1940 0
1811 -1813 1940 0
-1817 -1819 -1901 0
1817 1819 -1901 0
-1817 1819 1901 0
1817 -1819 1901 0
-1823 -1825 -1903 0
1823 1825 -1903 0
-1823 1825 1903 0
1823 -1825 1903 0
-1827 -1829 -1904 0
1827 1829 -1904 0
-1827 1829 1904 0
1827 -1829 1904 0
-1831 -1833 -1906 0
1831 1833 -1906 0
-1831 1833 1906 0
1831 -1833 1906 0
-1835 -1837 -1908 0
1835 1837 -1908 0
-1835 1837 1908 0
1835 -1837 1908 0
-1839 -1841 -1910 0
1839 1841 -1910 0
-1839 1841 1910 0
1839 -1841 1910 0
-1844 -1846 -1947 0
1844 1846 -1947 0
-1844 1846 1947 0
1844 -1846 1947 0
-1848 -1850 -1914 0
1848 1850 -1914 0
-1848 1850 1914 0
1848 -1850 1914 0
-1852 -1854 -1916 0
1852 1854 -1916 0
-1852 1854 1916 0
1852 -1854 1916 0
-1856 -1858 -1918 0
1856 1858 -1918 0
-1856 1858 1918 0
1856 -1858 1918 0
-1860 -1862 -1920 0
1860 1862 -1920 0
-1860 1862 1920 0
1860 -1862 1920 0
-1864 -1866 -1922 0
1864 1866 -1922 0
-1864 1866 1922 0
1864 -1866 1922 0
-1870 -1872 -1925 0
1870 1872 -1925 0
-1870 1872 1925 0
1870 -1872 1925 0
-1874 -1876 -1926 0
1874 1876 -1926 0
-1874 1876 1926 0
1874 -1876 1926 0
-1878 -1880 -1928 0
1878 1880 -1928 0
-1878 1880 1928 0
1878 -1880 1928 0
-1882 -1884 -1930 0
1882 1884 -1930 0
-1882 1884 1930 0
1882 -1884 1930 0
-1886 -1888 -1932 0
1886 1888 -1932 0
-1886 1888 1932 0
1886 -1888 1932 0
-1890 -1892 -1934 0
1890 1892 -1934 0
-1890 1892 1934 0
1890 -1892 1934 0
-1894 -1895 -1936 0
1894 1895 -1936 0
-1894 1895 1936 0
1894 -1895 1936 0
-1897 -1898 -1939 0
1897 1898 -1939 0
-1897 1898 1939 0
1897 -1898 1939 0
-1901 -1902 -1941 0
1901 1902 -1941 0
-1901 1902 1941 0
1901 -1902 1941 0
-1903 -1904 -1942 0
1903 1904 -1942 0
-1903 1904 1942 0
1903 -1904 1942 0
-1906 -1908 -1944 0
1906 1908 -1944 0
-1906 1908 1944 0
1906 -1908 1944 0
-1910 -1912 -1946 0
1910 1912 -1946 0
-1910 1912 1946 0
1910 -1912 1946 0
-1914 -1916 -1948 0
1914 1916 -1948 0
-1914 1916 1948 0
1914 -1916 1948 0
-1918 -1920 -1950 0
1918 1920 -1950 0
-1918 1920 1950 0
1918 -1920 1950 0
-1922 -1924 -1952 0
1922 1924 -1952 0
-1922 1924 1952 0
1922 -1924 1952 0
-1925 -1926 -1954 0
1925 1926 -1954 0
-1925 1926 1954 0
1925 -1926 1954 0
-1928 -1930 -1956 0
1928 1930 -1956 0
-1928 1930 1956 0
1928 -1930 1956 0
-1932 -1934 -1958 0
1932 1934 -1958 0
-1932 1934 1958 0
1932 -1934 1958 0
-1893 -1936 -1960 0
1893 1936 -1960 0
1893 -1936 1960 0
-1893 1936 1960 0
-1896 -1938 -1962 0
1896 1938 -1962 0
-1896 1938 1962 0
1896 -1938 1962 0
-1939 -1940 -1964 0
1939 1940 -1964 0
-1939 1940 1964 0
1939 -1940 1964 0
-1941 -1942 -1966 0
1941 1942 -1966 0
-1941 1942 1966 0
1941 -1942 1966 0
-1944 -1946 -1968 0
1944 1946 -1968 0
-1944 1946 1968 0
1944 -1946 1968 0
-1947 -1948 -1970 0
1947 1948 -1970 0
-1947 1948 1970 0
1947 -1948 1970 0
-1950 -1952 -1972 0
1950 1952 -1972 0
-1950 1952 1972 0
1950 -1952 1972 0
-1954 -1956 -1974 0
1954 1956 -1974 0
-1954 1956 1974 0
1954 -1956 1974 0
-1958 -1960 -1976 0
1958 1960 -1976 0
-1958 1960 1976 0
1958 -1960 1976 0
-1962 -1964 -1978 0
1962 1964 -1978 0
-1962 1964 1978 0
1962 -1964 1978 0
-1966 -1968 -1980 0
1966 1968 -1980 0
-1966 1968 1980 0
1966 -1968 1980 0
-1970 -1972 -1982 0
1970 1972 -1982 0
-1970 1972 1982 0
1970 -1972 1982 0
-1974 -1976 -1984 0
1974 1976 -1984 0
-1974 1976 1984 0
1974 -1976 1984 0
-1978 -1980 -1986 0
1978 1980 -1986 0
-1978 1980 1986 0
1978 -1980 1986 0
-1982 -1984 -1986 0
1982 1984 -1986 0
-1982 1984 1986 0
1982 -1984 1986 0
-1899 -1900 -1991 0
1899 1900 -1991 0
-1899 1900 1991 0
1899 -1900 1991 0
-1905 -1907 -1994 0
1905 1907 -1994 0
-1905 1907 1994 0
1905 -1907 1994 0
-1909 -1911 -1996 0
1909 1911 -1996 0
-1909 1911 1996 0
1909 -1911 1996 0
-1913 -1915 -2038 0
1913 1915 -2038 0
-1913 1915 2038 0
1913 -1915 2038 0
-1917 -1919 -1998 0
1917 1919 -1998 0
-1917 1919 1998 0
1917 -1919 1998 0
-1921 -1923 -2000 0
1921 1923 -2000 0
-1921 1923 2000 0
1921 -1923 2000 0
-1927 -1929 -2003 0
1927 1929 -2003 0
-1927 1929 2003 0
1927 -1929 2003 0
-1931 -1933 -2004 0
1931 1933 -2004 0
-1931 1933 2004 0
1931 -1933 2004 0
-1935 -1937 -2006 0
1935 1937 -2006 0
-1935 1937 2006 0
1935 -1937 2006 0
-1943 -1945 -2010 0
1943 1945 -2010 0
-1943 1945 2010 0
1943 -1945 2010 0
-1949 -1951 -2012 0
1949 1951 -2012 0
-1949 1951 2012 0
1949 -1951 2012 0
-1953 -1955 -2013 0
1953 1955 -2013 0
-1953 1955 2013 0
1953 -1955 2013 0
-1957 -1959 -2015 0
1957 1959 -2015 0
-1957 1959 2015 0
1957 -1959 2015 0
-1961 -1963 -2017 0
1961 1963 -2017 0
-1961 1963 2017 0
1961 -1963 2017 0
-1965 -1967 -2019 0
1965 1967 -2019 0
-1965 1967 2019 0
1965 -1967 2019 0
-1969 -1971 -2021 0
1969 1971 -2021 0
-1969 1971 2021 0
1969 -1971 2021 0
-1973 -1975 -2023 0
1973 1975 -2023 0
-1973 1975 2023 0
1973 -1975 2023 0
-1977 -1979 -2025 0
1977 1979 -2025 0
-1977 1979 2025 0
1977 -1979 2025 0
-1981 -1983 -2027 0
1981 1983 -2027 0
-1981 1983 2027 0
1981 -1983 2027 0
-1985 -1987 -2029 0
1985 1987 -2029 0
-1985 1987 2029 0
1985 -1987 2029 0
-1986 -1988 -2031 0
1986 1988 -2031 0
1986 -1988 2031 0
-1986 1988 2031 0
-1990 -1991 -2033 0
1990 1991 -2033 0
-1990 1991 2033 0
1990 -1991 2033 0
-1992 -1993 -2034 0
1992 1993 -2034 0
-1992 1993 2034 0
1992 -1993 2034 0
-1994 -1996 -2036 0
1994 1996 -2036 0
-1994 1996 2036 0
1994 -1996 2036 0
-1998 -2000 -2039 0
1998 2000 -2039 0
-1998 2000 2039 0
1998 -2000 2039 0
-2002 -2003 -2040 0
2002 2003 -2040 0
-2002 2003 2040 0
2002 -2003 2040 0
-2004 -2006 -2042 0
2004 2006 -2042 0
-2004 2006 2042 0
2004 -2006 2042 0
-2009 -2010 -2044 0
2009 2010 -2044 0
-2009 2010 2044 0
2009 -2010 2044 0
-2011 -2012 -2045 0
2011 2012 -2045 0
-2011 2012 2045 0
2011 -2012 2045 0
-2013 -2015 -2047 0
2013 2015 -2047 0
-2013 2015 2047 0
2013 -2015 2047 0
-2017 -2019 -2049 0
2017 2019 -2049 0
-2017 2019 2049 0
2017 -2019 2049 0
-2021 -2023 -2051 0
2021 2023 -2051 0
-2021 2023 2051 0
2021 -2023 2051 0
-2025 -2027 -2053 0
2025 2027 -2053 0
-2025 2027 2053 0
2025 -2027 2053 0
-2029 -2031 -2055 0
2029 2031 -2055 0
-2029 2031 2055 0
2029 -2031 2055 0
-1989 -2033 -2057 0
1989 2033 -2057 0
-1989 2033 2057 0
1989 -2033 2057 0
-2034 -2036 -2059 0
2034 2036 -2059 0
-2034 2036 2059 0
2034 -2036 2059 0
-2038 -2039 -2061 0
2038 2039 -2061 0
-2038 2039 2061 0
2038 -2039 2061 0
-2040 -2042 -2063 0
2040 2042 -2063 0
-2040 2042 2063 0
2040 -2042 2063 0
-2008 -2044 -2065 0
2008 2044 -2065 0
-2008 2044 2065 0
2008 -2044 2065 0
-2045 -2047 -2067 0
2045 2047 -2067 0
-2045 2047 2067 0
2045 -2047 2067 0
-2049 -2051 -2069 0
2049 2051 -2069 0
-2049 2051 2069 0
2049 -2051 2069 0
-2053 -2055 -2071 0
2053 2055 -2071 0
-2053 2055 2071 0
2053 -2055 2071 0
-2057 -2059 -2073 0
2057 2059 -2073 0
-2057 2059 2073 0
2057 -2059 2073 0
-2061 -2063 -2075 0
2061 2063 -2075 0
-2061 2063 2075 0
2061 -2063 2075 0
-2065 -2067 -2077 0
2065 2067 -2077 0
-2065 2067 2077 0
2065 -2067 2077 0
-2069 -2071 -2079 0
2069 2071 -2079 0
-2069 2071 2079 0
2069 -2071 2079 0
-2073 -2075 -2081 0
2073 2075 -2081 0
-2073 2075 2081 0
2073 -2075 2081 0
-2077 -2079 -2081 0
2077 2079 -2081 0
-2077 2079 2081 0
2077 -2079 2081 0
-1995 -1997 -2085 0
1995 1997 -2085 0
-1995 1997 2085 0
1995 -1997 2085 0
-1999 -2001 -2087 0
1999 2001 -2087 0
-1999 2001 2087 0
1999 -2001 2087 0
-2005 -2007 -2125 0
2005 2007 -2125 0
-2005 2007 2125 0
2005 -2007 2125 0
-2014 -2016 -2091 0
2014 2016 -2091 0
-2014 2016 2091 0
2014 -2016 2091 0
-2018 -2020 -2092 0
2018 2020 -2092 0
-2018 2020 2092 0
2018 -2020 2092 0
-2022 -2024 -2094 0
2022 2024 -2094 0
-2022 2024 2094 0
2022 -2024 2094 0
-2026 -2028 -2096 0
2026 2028 -2096 0
-2026 2028 2096 0
2026 -2028 2096 0
-2030 -2032 -2098 0
2030 2032 -2098 0
-2030 2032 2098 0
2030 -2032 2098 0
-2035 -2037 -2101 0
2035 2037 -2101 0
-2035 2037 2101 0
2035 -2037 2101 0
-2041 -2043 -2103 0
2041 2043 -2103 0
-2041 2043 2103 0
2041 -2043 2103 0
-2046 -2048 -2105 0
2046 2048 -2105 0
-2046 2048 2105 0
2046 -2048 2105 0
-2050 -2052 -2106 0
2050 2052 -2106 0
-2050 2052 2106 0
2050 -2052 2106 0
-2054 -2056 -2108 0
2054 2056 -2108 0
-2054 2056 2108 0
2054 -2056 2108 0
-2058 -2060 -2110 0
2058 2060 -2110 0
-2058 2060 2110 0
2058 -2060 2110 0
-2062 -2064 -2112 0
2062 2064 -2112 0
-2062 2064 2112 0
2062 -2064 2112 0
-2066 -2068 -2114 0
2066 2068 -2114 0
-2066 2068 2114 0
2066 -2068 2114 0
-2070 -2072 -2116 0
2070 2072 -2116 0
-2070 2072 2116 0
2070 -2072 2116 0
-2074 -2076 -2118 0
2074 2076 -2118 0
-2074 2076 2118 0
2074 -2076 2118 0
-2078 -2080 -2120 0
2078 2080 -2120 0
-2078 2080 2120 0
2078 -2080 2120 0
-2082 -2083 -2122 0
2082 2083 -2122 0
-2082 2083 2122 0
2082 -2083 2122 0
-2085 -2086 -2123 0
2085 2086 -2123 0
-2085 2086 2123 0
2085 -2086 2123 0
-2087 -2088 -2124 0
2087 2088 -2124 0
-2087 2088 2124 0
2087 -2088 2124 0
-2089 -2090 -2126 0
2089 2090 -2126 0
-2089 2090 2126 0
2089 -2090 2126 0
-2091 -2092 -2128 0
2091 2092 -2128 0
-2091 2092 2128 0
2091 -2092 2128 0
-2094 -2096 -2130 0
2094 2096 -2130 0
-2094 2096 2130 0
2094 -2096 2130 0
-2098 -2100 -2132 0
2098 2100 -2132 0
-2098 2100 2132 0
2098 -2100 2132 0
-2101 -2102 -2134 0
2101 2102 -2134 0
-2101 2102 2134 0
2101 -2102 2134 0
-2103 -2104 -2136 0
2103 2104 -2136 0
-2103 2104 2136 0
2103 -2104 2136 0
-2105 -2106 -2138 0
2105 2106 -2138 0
-2105 2106 2138 0
2105 -2106 2138 0
-2108 -2110 -2140 0
2108 2110 -2140 0
-2108 2110 2140 0
2108 -2110 2140 0
-2112 -2114 -2142 0
2112 2114 -2142 0
-2112 2114 2142 0
2112 -2114 2142 0
-2116 -2118 -2144 0
2116 2118 -2144 0
-2116 2118 2144 0
2116 -2118 2144 0
-2120 -2122 -2146 0
2120 2122 -2146 0
-2120 2122 2146 0
2120 -2122 2146 0
-2081 -2084 -2148 0
2081 2084 -2148 0
-2081 2084 2148 0
2081 -2084 2148 0
-2123 -2124 -2150 0
2123 2124 -2150 0
-2123 2124 2150 0
2123 -2124 2150 0
-2125 -2126 -2152 0
2125 2126 -2152 0
-2125 2126 2152 0
2125 -2126 2152 0
-2128 -2130 -2154 0
2128 2130 -2154 0
-2128 2130 2154 0
2128 -2130 2154 0
-2132 -2134 -2156 0
2132 2134 -2156 0
-2132 2134 2156 0
2132 -2134 2156 0
-2136 -2138 -2158 0
2136 2138 -2158 0
-2136 2138 2158 0
2136 -2138 2158 0
-2140 -2142 -2160 0
2140 2142 -2160 0
-2140 2142 2160 0
2140 -2142 2160 0
-2144 -2146 -2162 0
2144 2146 -2162 0
-2144 2146 2162 0
2144 -2146 2162 0
-2148 -2150 -2164 0
2148 2150 -2164 0
-2148 2150 2164 0
2148 -2150 2164 0
-2152 -2154 -2166 0
2152 2154 -2166 0
-2152 2154 2166 0
2152 -2154 2166 0
-2156 -2158 -2168 0
2156 2158 -2168 0
-2156 2158 2168 0
2156 -2158 2168 0
-2160 -2162 -2170 0
2160 2162 -2170 0
-2160 2162 2170 0
2160 -2162 2170 0
-2164 -2166 -2172 0
2164 2166 -2172 0
-2164 2166 2172 0
2164 -2166 2172 0
-2168 -2170 -2172 0
2168 2170 -2172 0
-2168 2170 2172 0
2168 -2170 2172 0
-2093 -2095 -2178 0
2093 2095 -2178 0
-2093 2095 2178 0
2093 -2095 2178 0
-2097 -2099 -2180 0
2097 2099 -2180 0
-2097 2099 2180 0
2097 -2099 2180 0
-2107 -2109 -2185 0
2107 2109 -2185 0
-2107 2109 2185 0
2107 -2109 2185 0
-2111 -2113 -2186 0
2111 2113 -2186 0
-2111 2113 2186 0
2111 -2113 2186 0
-2115 -2117 -2188 0
2115 2117 -2188 0
-2115 2117 2188 0
2115 -2117 2188 0
-2119 -2121 -2190 0
2119 2121 -2190 0
-2119 2121 2190 0
2119 -2121 2190 0
-2127 -2129 -2194 0
2127 2129 -2194 0
-2127 2129 2194 0
2127 -2129 2194 0
-2131 -2133 -2196 0
2131 2133 -2196 0
-2131 2133 2196 0
2131 -2133 2196 0
-2135 -2137 -2198 0
2135 2137 -2198 0
-2135 2137 2198 0
2135 -2137 2198 0
-2139 -2141 -2200 0
2139 2141 -2200 0
-2139 2141 2200 0
2139 -2141 2200 0
-2143 -2145 -2202 0
2143 2145 -2202 0
-2143 2145 2202 0
2143 -2145 2202 0
-2147 -2149 -2204 0
2147 2149 -2204 0
-2147 2149 2204 0
2147 -2149 2204 0
-2151 -2153 -2206 0
2151 2153 -2206 0
-2151 2153 2206 0
2151 -2153 2206 0
-2155 -2157 -2208 0
2155 2157 -2208 0
-2155 2157 2208 0
2155 -2157 2208 0
-2159 -2161 -2210 0
2159 2161 -2210 0
-2159 2161 2210 0
2159 -2161 2210 0
-2163 -2165 -2212 0
2163 2165 -2212 0
-2163 2165 2212 0
2163 -2165 2212 0
-2167 -2169 -2214 0
2167 2169 -2214 0
-2167 2169 2214 0
2167 -2169 2214 0
-2171 -2173 -2216 0
2171 2173 -2216 0
-2171 2173 2216 0
2171 -2173 2216 0
-2172 -2174 -2218 0
2172 2174 -2218 0
2172 -2174 2218 0
-2172 2174 2218 0
-2176 -2177 -2219 0
2176 2177 -2219 0
-2176 2177 2219 0
2176 -2177 2219 0
-2178 -2180 -2221 0
2178 2180 -2221 0
-2178 2180 2221 0
2178 -2180 2221 0
-2182 -2183 -2223 0
2182 2183 -2223 0
-2182 2183 2223 0
2182 -2183 2223 0
-2184 -2185 -2225 0
2184 2185 -2225 0
-2184 2185 2225 0
2184 -2185 2225 0
-2186 -2188 -2227 0
2186 2188 -2227 0
-2186 2188 2227 0
2186 -2188 2227 0
-2190 -2191 -2229 0
2190 2191 -2229 0
-2190 2191 2229 0
2190 -2191 2229 0
-2192 -2193 -2231 0
2192 2193 -2231 0
-2192 2193 2231 0
2192 -2193 2231 0
-2194 -2196 -2233 0
2194 2196 -2233 0
-2194 2196 2233 0
2194 -2196 2233 0
-2198 -2200 -2235 0
2198 2200 -2235 0
-2198 2200 2235 0
2198 -2200 2235 0
-2202 -2204 -2237 0
2202 2204 -2237 0
-2202 2204 2237 0
2202 -2204 2237 0
-2206 -2208 -2239 0
2206 2208 -2239 0
-2206 2208 2239 0
2206 -2208 2239 0
-2210 -2212 -2241 0
2210 2212 -2241 0
-2210 2212 2241 0
2210 -2212 2241 0
-2214 -2216 -2243 0
2214 2216 -2243 0
-2214 2216 2243 0
2214 -2216 2243 0
-2175 -2218 -2245 0
2175 2218 -2245 0
2175 -2218 2245 0
-2175 2218 2245 0
-2219 -2220 -2247 0
2219 2220 -2247 0
-2219 2220 2247 0
2219 -2220 2247 0
-2221 -2223 -2249 0
2221 2223 -2249 0
-2221 2223 2249 0
2221 -2223 2249 0
-2225 -2227 -2251 0
2225 2227 -2251 0
-2225 2227 2251 0
2225 -2227 2251 0
-2229 -2231 -2253 0
2229 2231 -2253 0
-2229 2231 2253 0
2229 -2231 2253 0
-2233 -2235 -2255 0
2233 2235 -2255 0
-2233 2235 2255 0
2233 -2235 2255 0
-2237 -2239 -2257 0
2237 2239 -2257 0
-2237 2239 2257 0
2237 -2239 2257 0
-2241 -2243 -2259 0
2241 2243 -2259 0
-2241 2243 2259 0
2241 -2243 2259 0
-2245 -2247 -2261 0
2245 2247 -2261 0
-2245 2247 2261 0
2245 -2247 2261 0
-2249 -2251 -2263 0
2249 2251 -2263 0
-2249 2251 2263 0
2249 -2251 2263 0
-2253 -2255 -2265 0
2253 2255 -2265 0
-2253 2255 2265 0
2253 -2255 2265 0
-2257 -2259 -2267 0
2257 2259 -2267 0
-2257 2259 2267 0
2257 -2259 2267 0
-2261 -2263 -2269 0
2261 2263 -2269 0
-2261 2263 2269 0
2261 -2263 2269 0
-2265 -2267 -2269 0
2265 2267 -2269 0
-2265 2267 2269 0
2265 -2267 2269 0
-2179 -2181 -2312 0
2179 2181 -2312 0
-2179 2181 2312 0
2179 -2181 2312 0
-2187 -2189 -2273 0
2187 2189 -2273 0
-2187 2189 2273 0
2187 -2189 2273 0
-2195 -2197 -2275 0
2195 2197 -2275 0
-2195 2197 2275 0
2195 -2197 2275 0
-2199 -2201 -2276 0
2199 2201 -2276 0
-2199 2201 2276 0
2199 -2201 2276 0
-2203 -2205 -2278 0
2203 2205 -2278 0
-2203 2205 2278 0
2203 -2205 2278 0
-2207 -2209 -2280 0
2207 2209 -2280 0
-2207 2209 2280 0
2207 -2209 2280 0
-2211 -2213 -2282 0
2211 2213 -2282 0
-2211 2213 2282 0
2211 -2213 2282 0
-2215 -2217 -2284 0
2215 2217 -2284 0
-2215 2217 2284 0
2215 -2217 2284 0
-2222 -2224 -2287 0
2222 2224 -2287 0
-2222 2224 2287 0
2222 -2224 2287 0
-2226 -2228 -2288 0
2226 2228 -2288 0
-2226 2228 2288 0
2226 -2228 2288 0
-2230 -2232 -2290 0
2230 2232 -2290 0
-2230 2232 2290 0
2230 -2232 2290 0
-2234 -2236 -2292 0
2234 2236 -2292 0
-2234 2236 2292 0
2234 -2236 2292 0
-2238 -2240 -2294 0
2238 2240 -2294 0
-2238 2240 2294 0
2238 -2240 2294 0
-2242 -2244 -2296 0
2242 2244 -2296 0
-2242 2244 2296 0
2242 -2244 2296 0
-2246 -2248 -2298 0
2246 2248 -2298 0
-2246 2248 2298 0
2246 -2248 2298 0
-2250 -2252 -2300 0
2250 2252 -2300 0
-2250 2252 2300 0
2250 -2252 2300 0
-2254 -2256 -2302 0
2254 2256 -2302 0
-2254 2256 2302 0
2254 -2256 2302 0
-2258 -2260 -2304 0
2258 2260 -2304 0
-2258 2260 2304 0
2258 -2260 2304 0
-2262 -2264 -2306 0
2262 2264 -2306 0
-2262 2264 2306 0
2262 -2264 2306 0
-2266 -2268 -2308 0
2266 2268 -2308 0
-2266 2268 2308 0
2266 -2268 2308 0
-2270 -2271 -2310 0
2270 2271 -2310 0
-2270 2271 2310 0
2270 -2271 2310 0
-2272 -2273 -2313 0
2272 2273 -2313 0
-2272 2273 2313 0
2272 -2273 2313 0
-2275 -2276 -2314 0
2275 2276 -2314 0
-2275 2276 2314 0
2275 -2276 2314 0
-2278 -2280 -2315 0
2278 2280 -2315 0
-2278 2280 2315 0
2278 -2280 2315 0
-2282 -2284 -2317 0
2282 2284 -2317 0
-2282 2284 2317 0
2282 -2284 2317 0
-2285 -2286 -2319 0
2285 2286 -2319 0
-2285 2286 2319 0
2285 -2286 2319 0
-2287 -2288 -2321 0
2287 2288 -2321 0
-2287 2288 2321 0
2287 -2288 2321 0
-2290 -2292 -2323 0
2290 2292 -2323 0
-2290 2292 2323 0
2290 -2292 2323 0
-2294 -2296 -2325 0
2294 2296 -2325 0
-2294 2296 2325 0
2294 -2296 2325 0
-2298 -2300 -2327 0
2298 2300 -2327 0
-2298 2300 2327 0
2298 -2300 2327 0
-2302 -2304 -2329 0
2302 2304 -2329 0
-2302 2304 2329 0
2302 -2304 2329 0
-2306 -2308 -2331 0
2306 2308 -2331 0
-2306 2308 2331 0
2306 -2308 2331 0
-2269 -2310 -2333 0
2269 2310 -2333 0
2269 -2310 2333 0
-2269 2310 2333 0
-2274 -2313 -2335 0
2274 2313 -2335 0
2274 -2313 2335 0
-2274 2313 2335 0
-2314 -2315 -2336 0
2314 2315 -2336 0
-2314 2315 2336 0
2314 -2315 2336 0
-2317 -2319 -2338 0
2317 2319 -2338 0
-2317 2319 2338 0
2317 -2319 2338 0
-2321 -2323 -2340 0
2321 2323 -2340 0
-2321 2323 2340 0
2321 -2323 2340 0
-2325 -2327 -2342 0
2325 2327 -2342 0
-2325 2327 2342 0
2325 -2327 2342 0
-2329 -2331 -2344 0
2329 2331 -2344 0
-2329 2331 2344 0
2329 -2331 2344 0
-2312 -2333 -2346 0
2312 2333 -2346 0
2312 -2333 2346 0
-2312 2333 2346 0
-2335 -2336 -2348 0
2335 2336 -2348 0
-2335 2336 2348 0
2335 -2336 2348 0
-2338 -2340 -2350 0
2338 2340 -2350 0
-2338 2340 2350 0
2338 -2340 2350 0
-2342 -2344 -2352 0
2342 2344 -2352 0
-2342 2344 2352 0
2342 -2344 2352 0
-2346 -2348 -2354 0
2346 2348 -2354 0
-2346 2348 2354 0
2346 -2348 2354 0
-2350 -2352 -2354 0
2350 2352 -2354 0
-2350 2352 2354 0
2350 -2352 2354 0
-2277 -2279 -2360 0
2277 2279 -2360 0
-2277 2279 2360 0
2277 -2279 2360 0
-2281 -2283 -2361 0
2281 2283 -2361 0
-2281 2283 2361 0
2281 -2283 2361 0
-2289 -2291 -2364 0
2289 2291 -2364 0
-2289 2291 2364 0
2289 -2291 2364 0
-2293 -2295 -2365 0
2293 2295 -2365 0
-2293 2295 2365 0
2293 -2295 2365 0
-2297 -2299 -2367 0
2297 2299 -2367 0
-2297 2299 2367 0
2297 -2299 2367 0
-2301 -2303 -2369 0
2301 2303 -2369 0
-2301 2303 2369 0
2301 -2303 2369 0
-2305 -2307 -2371 0
2305 2307 -2371 0
-2305 2307 2371 0
2305 -2307 2371 0
-2309 -2311 -2406 0
2309 2311 -2406 0
-2309 2311 2406 0
2309 -2311 2406 0
-2316 -2318 -2375 0
2316 2318 -2375 0
-2316 2318 2375 0
2316 -2318 2375 0
-2320 -2322 -2377 0
2320 2322 -2377 0
-2320 2322 2377 0
2320 -2322 2377 0
-2324 -2326 -2379 0
2324 2326 -2379 0
-2324 2326 2379 0
2324 -2326 2379 0
-2328 -2330 -2381 0
2328 2330 -2381 0
-2328 2330 2381 0
2328 -2330 2381 0
-2332 -2334 -2383 0
2332 2334 -2383 0
-2332 2334 2383 0
2332 -2334 2383 0
-2337 -2339 -2385 0
2337 2339 -2385 0
-2337 2339 2385 0
2337 -2339 2385 0
-2341 -2343 -2387 0
2341 2343 -2387 0
-2341 2343 2387 0
2341 -2343 2387 0
-2345 -2347 -2389 0
2345 2347 -2389 0
-2345 2347 2389 0
2345 -2347 2389 0
-2349 -2351 -2391 0
2349 2351 -2391 0
-2349 2351 2391 0
2349 -2351 2391 0
-2353 -2355 -2393 0
2353 2355 -2393 0
-2353 2355 2393 0
2353 -2355 2393 0
-2354 -2356 -2395 0
2354 2356 -2395 0
2354 -2356 2395 0
-2354 2356 2395 0
-2359 -2360 -2397 0
2359 2360 -2397 0
-2359 2360 2397 0
2359 -2360 2397 0
-2361 -2362 -2399 0
2361 2362 -2399 0
-2361 2362 2399 0
2361 -2362 2399 0
-2363 -2364 -2401 0
2363 2364 -2401 0
-2363 2364 2401 0
2363 -2364 2401 0
-2365 -2367 -2403 0
2365 2367 -2403 0
-2365 2367 2403 0
2365 -2367 2403 0
-2369 -2371 -2405 0
2369 2371 -2405 0
-2369 2371 2405 0
2369 -2371 2405 0
-2373 -2374 -2407 0
2373 2374 -2407 0
-2373 2374 2407 0
2373 -2374 2407 0
-2375 -2377 -2409 0
2375 2377 -2409 0
-2375 2377 2409 0
2375 -2377 2409 0
-2379 -2381 -2411 0
2379 2381 -2411 0
-2379 2381 2411 0
2379 -2381 2411 0
-2383 -2384 -2413 0
2383 2384 -2413 0
-2383 2384 2413 0
2383 -2384 2413 0
-2385 -2387 -2415 0
2385 2387 -2415 0
-2385 2387 2415 0
2385 -2387 2415 0
-2389 -2391 -2417 0
2389 2391 -2417 0
-2389 2391 2417 0
2389 -2391 2417 0
-2393 -2395 -2419 0
2393 2395 -2419 0
-2393 2395 2419 0
2393 -2395 2419 0
-2357 -2358 -2421 0
2357 2358 -2421 0
-2357 2358 2421 0
2357 -2358 2421 0
-2397 -2399 -2423 0
2397 2399 -2423 0
-2397 2399 2423 0
2397 -2399 2423 0
-2401 -2403 -2425 0
2401 2403 -2425 0
-2401 2403 2425 0
2401 -2403 2425 0
-2405 -2406 -2427 0
2405 2406 -2427 0
-2405 2406 2427 0
2405 -2406 2427 0
-2407 -2409 -2429 0
2407 2409 -2429 0
-2407 2409 2429 0
2407 -2409 2429 0
-2411 -2413 -2431 0
2411 2413 -2431 0
-2411 2413 2431 0
2411 -2413 2431 0
-2415 -2417 -2433 0
2415 2417 -2433 0
-2415 2417 2433 0
2415 -2417 2433 0
-2419 -2421 -2435 0
2419 2421 -2435 0
-2419 2421 2435 0
2419 -2421 2435 0
-2423 -2425 -2437 0
2423 2425 -2437 0
-2423 2425 2437 0
2423 -2425 2437 0
-2427 -2429 -2439 0
2427 2429 -2439 0
-2427 2429 2439 0
2427 -2429 2439 0
-2431 -2433 -2441 0
2431 2433 -2441 0
-2431 2433 2441 0
2431 -2433 2441 0
-2435 -2437 -2443 0
2435 2437 -2443 0
-2435 2437 2443 0
2435 -2437 2443 0
-2439 -2441 -2443 0
2439 2441 -2443 0
-2439 2441 2443 0
2439 -2441 2443 0
-2366 -2368 -2448 0
2366 2368 -2448 0
-2366 2368 2448 0
2366 -2368 2448 0
-2370 -2372 -2449 0
2370 2372 -2449 0
-2370 2372 2449 0
2370 -2372 2449 0
-2376 -2378 -2451 0
2376 2378 -2451 0
-2376 2378 2451 0
2376 -2378 2451 0
-2380 -2382 -2452 0
2380 2382 -2452 0
-2380 2382 2452 0
2380 -2382 2452 0
-2386 -2388 -2454 0
2386 2388 -2454 0
-2386 2388 2454 0
2386 -2388 2454 0
-2390 -2392 -2456 0
2390 2392 -2456 0
-2390 2392 2456 0
2390 -2392 2456 0
-2394 -2396 -2458 0
2394 2396 -2458 0
-2394 2396 2458 0
2394 -2396 2458 0
-2398 -2400 -2489 0
2398 2400 -2489 0
-2398 2400 2489 0
2398 -2400 2489 0
-2402 -2404 -2460 0
2402 2404 -2460 0
-2402 2404 2460 0
2402 -2404 2460 0
-2408 -2410 -2463 0
2408 2410 -2463 0
-2408 2410 2463 0
2408 -2410 2463 0
-2412 -2414 -2464 0
2412 2414 -2464 0
-2412 2414 2464 0
2412 -2414 2464 0
-2416 -2418 -2466 0
2416 2418 -2466 0
-2416 2418 2466 0
2416 -2418 2466 0
-2420 -2422 -2468 0
2420 2422 -2468 0
-2420 2422 2468 0
2420 -2422 2468 0
-2424 -2426 -2470 0
2424 2426 -2470 0
-2424 2426 2470 0
2424 -2426 2470 0
-2428 -2430 -2472 0
2428 2430 -2472 0
-2428 2430 2472 0
2428 -2430 2472 0
-2432 -2434 -2474 0
2432 2434 -2474 0
-2432 2434 2474 0
2432 -2434 2474 0
-2436 -2438 -2476 0
2436 2438 -2476 0
-2436 2438 2476 0
2436 -2438 2476 0
-2440 -2442 -2478 0
2440 2442 -2478 0
-2440 2442 2478 0
2440 -2442 2478 0
-2444 -2445 -2480 0
2444 2445 -2480 0
-2444 2445 2480 0
2444 -2445 2480 0
-2446 -2447 -2482 0
2446 2447 -2482 0
-2446 2447 2482 0
2446 -2447 2482 0
-2448 -2449 -2483 0
2448 2449 -2483 0
-2448 2449 2483 0
2448 -2449 2483 0
-2451 -2452 -2484 0
2451 2452 -2484 0
-2451 2452 2484 0
2451 -2452 2484 0
-2453 -2454 -2486 0
2453 2454 -2486 0
-2453 2454 2486 0
2453 -2454 2486 0
-2456 -2458 -2488 0
2456 2458 -2488 0
-2456 2458 2488 0
2456 -2458 2488 0
-2460 -2462 -2490 0
2460 2462 -2490 0
-2460 2462 2490 0
2460 -2462 2490 0
-2463 -2464 -2492 0
2463 2464 -2492 0
-2463 2464 2492 0
2463 -2464 2492 0
-2466 -2468 -2494 0
2466 2468 -2494 0
-2466 2468 2494 0
2466 -2468 2494 0
-2470 -2472 -2496 0
2470 2472 -2496 0
-2470 2472 2496 0
2470 -2472 2496 0
-2474 -2476 -2498 0
2474 2476 -2498 0
-2474 2476 2498 0
2474 -2476 2498 0
-2478 -2480 -2500 0
2478 2480 -2500 0
-2478 2480 2500 0
2478 -2480 2500 0
-2443 -2481 -2502 0
2443 2481 -2502 0
-2443 2481 2502 0
2443 -2481 2502 0
-2482 -2483 -2504 0
2482 2483 -2504 0
-2482 2483 2504 0
2482 -2483 2504 0
-2450 -2484 -2506 0
2450 2484 -2506 0
-2450 2484 2506 0
2450 -2484 2506 0
-2486 -2488 -2508 0
2486 2488 -2508 0
-2486 2488 2508 0
2486 -2488 2508 0
-2489 -2490 -2510 0
2489 2490 -2510 0
-2489 2490 2510 0
2489 -2490 2510 0
-2492 -2494 -2512 0
2492 2494 -2512 0
-2492 2494 2512 0
2492 -2494 2512 0
-2496 -2498 -2514 0
2496 2498 -2514 0
-2496 2498 2514 0
2496 -2498 2514 0
-2500 -2502 -2516 0
2500 2502 -2516 0
-2500 2502 2516 0
2500 -2502 2516 0
-2504 -2506 -2518 0
2504 2506 -2518 0
-2504 2506 2518 0
2504 -2506 2518 0
-2508 -2510 -2520 0
2508 2510 -2520 0
-2508 2510 2520 0
2508 -2510 2520 0
-2512 -2514 -2522 0
2512 2514 -2522 0
-2512 2514 2522 0
2512 -2514 2522 0
-2516 -2518 -2524 0
2516 2518 -2524 0
-2516 2518 2524 0
2516 -2518 2524 0
-2520 -2522 -2524 0
2520 2522 -2524 0
-2520 2522 2524 0
2520 -2522 2524 0
-2455 -2457 -2531 0
2455 2457 -2531 0
-2455 2457 2531 0
2455 -2457 2531 0
-2459 -2461 -2533 0
2459 2461 -2533 0
-2459 2461 2533 0
2459 -2461 2533 0
-2465 -2467 -2535 0
2465 2467 -2535 0
-2465 2467 2535 0
2465 -2467 2535 0
-2469 -2471 -2537 0
2469 2471 -2537 0
-2469 2471 2537 0
2469 -2471 2537 0
-2473 -2475 -2539 0
2473 2475 -2539 0
-2473 2475 2539 0
2473 -2475 2539 0
-2477 -2479 -2541 0
2477 2479 -2541 0
-2477 2479 2541 0
2477 -2479 2541 0
-2485 -2487 -2546 0
2485 2487 -2546 0
-2485 2487 2546 0
2485 -2487 2546 0
-2491 -2493 -2548 0
2491 2493 -2548 0
-2491 2493 2548 0
2491 -2493 2548 0
-2495 -2497 -2549 0
2495 2497 -2549 0
-2495 2497 2549 0
2495 -2497 2549 0
-2499 -2501 -2551 0
2499 2501 -2551 0
-2499 2501 2551 0
2499 -2501 2551 0
-2503 -2505 -2553 0
2503 2505 -2553 0
-2503 2505 2553 0
2503 -2505 2553 0
-2507 -2509 -2555 0
2507 2509 -2555 0
-2507 2509 2555 0
2507 -2509 2555 0
-2511 -2513 -2557 0
2511 2513 -2557 0
-2511 2513 2557 0
2511 -2513 2557 0
-2515 -2517 -2559 0
2515 2517 -2559 0
-2515 2517 2559 0
2515 -2517 2559 0
-2519 -2521 -2561 0
2519 2521 -2561 0
-2519 2521 2561 0
2519 -2521 2561 0
-2523 -2525 -2563 0
2523 2525 -2563 0
-2523 2525 2563 0
2523 -2525 2563 0
-2524 -2526 -2590 0
2524 2526 -2590 0
2524 -2526 2590 0
-2524 2526 2590 0
-2527 -2528 -2565 0
2527 2528 -2565 0
-2527 2528 2565 0
2527 -2528 2565 0
-2529 -2530 -2567 0
2529 2530 -2567 0
-2529 2530 2567 0
2529 -2530 2567 0
-2531 -2532 -2569 0
2531 2532 -2569 0
-2531 2532 2569 0
2531 -2532 2569 0
-2533 -2534 -2571 0
2533 2534 -2571 0
-2533 2534 2571 0
2533 -2534 2571 0
-2535 -2537 -2573 0
2535 2537 -2573 0
-2535 2537 2573 0
2535 -2537 2573 0
-2539 -2541 -2575 0
2539 2541 -2575 0
-2539 2541 2575 0
2539 -2541 2575 0
-2543 -2544 -2577 0
2543 2544 -2577 0
-2543 2544 2577 0
2543 -2544 2577 0
-2545 -2546 -2579 0
2545 2546 -2579 0
-2545 2546 2579 0
2545 -2546 2579 0
-2547 -2548 -2581 0
2547 2548 -2581 0
-2547 2548 2581 0
2547 -2548 2581 0
-2549 -2551 -2583 0
2549 2551 -2583 0
-2549 2551 2583 0
2549 -2551 2583 0
-2553 -2555 -2585 0
2553 2555 -2585 0
-2553 2555 2585 0
2553 -2555 2585 0
-2557 -2559 -2587 0
2557 2559 -2587 0
-2557 2559 2587 0
2557 -2559 2587 0
-2561 -2563 -2589 0
2561 2563 -2589 0
-2561 2563 2589 0
2561 -2563 2589 0
-2565 -2567 -2591 0
2565 2567 -2591 0
-2565 2567 2591 0
2565 -2567 2591 0
-2569 -2571 -2593 0
2569 2571 -2593 0
-2569 2571 2593 0
2569 -2571 2593 0
-2573 -2575 -2595 0
2573 2575 -2595 0
-2573 2575 2595 0
2573 -2575 2595 0
-2577 -2579 -2597 0
2577 2579 -2597 0
-2577 2579 2597 0
2577 -2579 2597 0
-2581 -2583 -2599 0
2581 2583 -2599 0
-2581 2583 2599 0
2581 -2583 2599 0
-2585 -2587 -2601 0
2585 2587 -2601 0
-2585 2587 2601 0
2585 -2587 2601 0
-2589 -2590 -2603 0
2589 2590 -2603 0
-2589 2590 2603 0
2589 -2590 2603 0
-2591 -2593 -2605 0
2591 2593 -2605 0
-2591 2593 2605 0
2591 -2593 2605 0
-2595 -2597 -2607 0
2595 2597 -2607 0
-2595 2597 2607 0
2595 -2597 2607 0
-2599 -2601 -2609 0
2599 2601 -2609 0
-2599 2601 2609 0
2599 -2601 2609 0
-2603 -2605 -2611 0
2603 2605 -2611 0
-2603 2605 2611 0
2603 -2605 2611 0
-2607 -2609 -2611 0
2607 2609 -2611 0
-2607 2609 2611 0
2607 -2609 2611 0
-2536 -2538 -2616 0
2536 2538 -2616 0
-2536 2538 2616 0
2536 -2538 2616 0
-2540 -2542 -2617 0
2540 2542 -2617 0
-2540 2542 2617 0
2540 -2542 2617 0
-2550 -2552 -2619 0
2550 2552 -2619 0
-2550 2552 2619 0
2550 -2552 2619 0
-2554 -2556 -2621 0
2554 2556 -2621 0
-2554 2556 2621 0
2554 -2556 2621 0
-2558 -2560 -2623 0
2558 2560 -2623 0
-2558 2560 2623 0
2558 -2560 2623 0
-2562 -2564 -2625 0
2562 2564 -2625 0
-2562 2564 2625 0
2562 -2564 2625 0
-2566 -2568 -2628 0
2566 2568 -2628 0
-2566 2568 2628 0
2566 -2568 2628 0
-2570 -2572 -2629 0
2570 2572 -2629 0
-2570 2572 2629 0
2570 -2572 2629 0
-2574 -2576 -2631 0
2574 2576 -2631 0
-2574 2576 2631 0
2574 -2576 2631 0
-2578 -2580 -2633 0
2578 2580 -2633 0
-2578 2580 2633 0
2578 -2580 2633 0
-2582 -2584 -2635 0
2582 2584 -2635 0
-2582 2584 2635 0
2582 -2584 2635 0
-2586 -2588 -2637 0
2586 2588 -2637 0
-2586 2588 2637 0
2586 -2588 2637 0
-2592 -2594 -2639 0
2592 2594 -2639 0
-2592 2594 2639 0
2592 -2594 2639 0
-2596 -2598 -2641 0
2596 2598 -2641 0
-2596 2598 2641 0
2596 -2598 2641 0
-2600 -2602 -2643 0
2600 2602 -2643 0
-2600 2602 2643 0
2600 -2602 2643 0
-2604 -2606 -2645 0
2604 2606 -2645 0
-2604 2606 2645 0
2604 -2606 2645 0
-2608 -2610 -2647 0
2608 2610 -2647 0
-2608 2610 2647 0
2608 -2610 2647 0
-2612 -2613 -2649 0
2612 2613 -2649 0
-2612 2613 2649 0
2612 -2613 2649 0
-2614 -2615 -2673 0
2614 2615 -2673 0
-2614 2615 2673 0
2614 -2615 2673 0
-2616 -2617 -2652 0
2616 2617 -2652 0
-2616 2617 2652 0
2616 -2617 2652 0
-2618 -2619 -2655 0
2618 2619 -2655 0
-2618 2619 2655 0
2618 -2619 2655 0
-2621 -2623 -2656 0
2621 2623 -2656 0
-2621 2623 2656 0
2621 -2623 2656 0
-2625 -2627 -2658 0
2625 2627 -2658 0
-2625 2627 2658 0
2625 -2627 2658 0
-2628 -2629 -2660 0
2628 2629 -2660 0
-2628 2629 2660 0
2628 -2629 2660 0
-2631 -2633 -2662 0
2631 2633 -2662 0
-2631 2633 2662 0
2631 -2633 2662 0
-2635 -2637 -2664 0
2635 2637 -2664 0
-2635 2637 2664 0
2635 -2637 2664 0
-2638 -2639 -2666 0
2638 2639 -2666 0
-2638 2639 2666 0
2638 -2639 2666 0
-2641 -2643 -2668 0
2641 2643 -2668 0
-2641 2643 2668 0
2641 -2643 2668 0
-2645 -2647 -2670 0
2645 2647 -2670 0
-2645 2647 2670 0
2645 -2647 2670 0
-2611 -2649 -2672 0
2611 2649 -2672 0
2611 -2649 2672 0
-2611 2649 2672 0
-2652 -2654 -2674 0
2652 2654 -2674 0
-2652 2654 2674 0
2652 -2654 2674 0
-2655 -2656 -2676 0
2655 2656 -2676 0
-2655 2656 2676 0
2655 -2656 2676 0
-2658 -2660 -2678 0
2658 2660 -2678 0
-2658 2660 2678 0
2658 -2660 2678 0
-2662 -2664 -2680 0
2662 2664 -2680 0
-2662 2664 2680 0
2662 -2664 2680 0
-2666 -2668 -2682 0
2666 2668 -2682 0
-2666 2668 2682 0
2666 -2668 2682 0
-2670 -2672 -2684 0
2670 2672 -2684 0
-2670 2672 2684 0
2670 -2672 2684 0
-2673 -2674 -2686 0
2673 2674 -2686 0
-2673 2674 2686 0
2673 -2674 2686 0
-2676 -2678 -2688 0
2676 2678 -2688 0
-2676 2678 2688 0
2676 -2678 2688 0
-2680 -2682 -2690 0
2680 2682 -2690 0
-2680 2682 2690 0
2680 -2682 2690 0
-2684 -2686 -2692 0
2684 2686 -2692 0
-2684 2686 2692 0
2684 -2686 2692 0
-2688 -2690 -2692 0
2688 2690 -2692 0
-2688 2690 2692 0
2688 -2690 2692 0
-2620 -2622 -2729 0
2620 2622 -2729 0
-2620 2622 2729 0
2620 -2622 2729 0
-2624 -2626 -2697 0
2624 2626 -2697 0
-2624 2626 2697 0
2624 -2626 2697 0
-2630 -2632 -2699 0
2630 2632 -2699 0
-2630 2632 2699 0
2630 -2632 2699 0
-2634 -2636 -2701 0
2634 2636 -2701 0
-2634 2636 2701 0
2634 -2636 2701 0
-2640 -2642 -2704 0
2640 2642 -2704 0
-2640 2642 2704 0
2640 -2642 2704 0
-2644 -2646 -2705 0
2644 2646 -2705 0
-2644 2646 2705 0
2644 -2646 2705 0
-2648 -2650 -2707 0
2648 2650 -2707 0
-2648 2650 2707 0
2648 -2650 2707 0
-2651 -2653 -2736 0
2651 2653 -2736 0
-2651 2653 2736 0
2651 -2653 2736 0
-2657 -2659 -2710 0
2657 2659 -2710 0
-2657 2659 2710 0
2657 -2659 2710 0
-2661 -2663 -2711 0
2661 2663 -2711 0
-2661 2663 2711 0
2661 -2663 2711 0
-2665 -2667 -2713 0
2665 2667 -2713 0
-2665 2667 2713 0
2665 -2667 2713 0
-2669 -2671 -2715 0
2669 2671 -2715 0
-2669 2671 2715 0
2669 -2671 2715 0
-2675 -2677 -2717 0
2675 2677 -2717 0
-2675 2677 2717 0
2675 -2677 2717 0
-2679 -2681 -2719 0
2679 2681 -2719 0
-2679 2681 2719 0
2679 -2681 2719 0
-2683 -2685 -2721 0
2683 2685 -2721 0
-2683 2685 2721 0
2683 -2685 2721 0
-2687 -2689 -2723 0
2687 2689 -2723 0
-2687 2689 2723 0
2687 -2689 2723 0
-2691 -2693 -2725 0
2691 2693 -2725 0
-2691 2693 2725 0
2691 -2693 2725 0
-2692 -2694 -2727 0
2692 2694 -2727 0
2692 -2694 2727 0
-2692 2694 2727 0
-2695 -2696 -2749 0
2695 2696 -2749 0
-2695 2696 2749 0
2695 -2696 2749 0
-2697 -2698 -2730 0
2697 2698 -2730 0
-2697 2698 2730 0
2697 -2698 2730 0
-2699 -2701 -2731 0
2699 2701 -2731 0
-2699 2701 2731 0
2699 -2701 2731 0
-2703 -2704 -2733 0
2703 2704 -2733 0
-2703 2704 2733 0
2703 -2704 2733 0
-2705 -2707 -2735 0
2705 2707 -2735 0
-2705 2707 2735 0
2705 -2707 2735 0
-2709 -2710 -2737 0
2709 2710 -2737 0
-2709 2710 2737 0
2709 -2710 2737 0
-2711 -2713 -2739 0
2711 2713 -2739 0
-2711 2713 2739 0
2711 -2713 2739 0
-2715 -2716 -2741 0
2715 2716 -2741 0
-2715 2716 2741 0
2715 -2716 2741 0
-2717 -2719 -2743 0
2717 2719 -2743 0
-2717 2719 2743 0
2717 -2719 2743 0
-2721 -2723 -2745 0
2721 2723 -2745 0
-2721 2723 2745 0
2721 -2723 2745 0
-2725 -2727 -2747 0
2725 2727 -2747 0
-2725 2727 2747 0
2725 -2727 2747 0
-2729 -2730 -2750 0
2729 2730 -2750 0
-2729 2730 2750 0
2729 -2730 2750 0
-2731 -2733 -2751 0
2731 2733 -2751 0
-2731 2733 2751 0
2731 -2733 2751 0
-2735 -2736 -2753 0
2735 2736 -2753 0
-2735 2736 2753 0
2735 -2736 2753 0
-2737 -2739 -2755 0
2737 2739 -2755 0
-2737 2739 2755 0
2737 -2739 2755 0
-2741 -2743 -2757 0
2741 2743 -2757 0
-2741 2743 2757 0
2741 -2743 2757 0
-2745 -2747 -2759 0
2745 2747 -2759 0
-2745 2747 2759 0
2745 -2747 2759 0
-2749 -2750 -2761 0
2749 2750 -2761 0
-2749 2750 2761 0
2749 -2750 2761 0
-2751 -2753 -2763 0
2751 2753 -2763 0
-2751 2753 2763 0
2751 -2753 2763 0
-2755 -2757 -2765 0
2755 2757 -2765 0
-2755 2757 2765 0
2755 -2757 2765 0
-2759 -2761 -2767 0
2759 2761 -2767 0
-2759 2761 2767 0
2759 -2761 2767 0
-2763 -2765 -2767 0
2763 2765 -2767 0
-2763 2765 2767 0
2763 -2765 2767 0
-2700 -2702 -2772 0
2700 2702 -2772 0
-2700 2702 2772 0
2700 -2702 2772 0
-2706 -2708 -2774 0
2706 2708 -2774 0
-2706 2708 2774 0
2706 -2708 2774 0
-2712 -2714 -2777 0
2712 2714 -2777 0
-2712 2714 2777 0
2712 -2714 2777 0
-2718 -2720 -2779 0
2718 2720 -2779 0
-2718 2720 2779 0
2718 -2720 2779 0
-2722 -2724 -2780 0
2722 2724 -2780 0
-2722 2724 2780 0
2722 -2724 2780 0
-2726 -2728 -2782 0
2726 2728 -2782 0
-2726 2728 2782 0
2726 -2728 2782 0
-2732 -2734 -2786 0
2732 2734 -2786 0
-2732 2734 2786 0
2732 -2734 2786 0
-2738 -2740 -2788 0
2738 2740 -2788 0
-2738 2740 2788 0
2738 -2740 2788 0
-2742 -2744 -2790 0
2742 2744 -2790 0
-2742 2744 2790 0
2742 -2744 2790 0
-2746 -2748 -2792 0
2746 2748 -2792 0
-2746 2748 2792 0
2746 -2748 2792 0
-2752 -2754 -2794 0
2752 2754 -2794 0
-2752 2754 2794 0
2752 -2754 2794 0
-2756 -2758 -2796 0
2756 2758 -2796 0
-2756 2758 2796 0
2756 -2758 2796 0
-2760 -2762 -2798 0
2760 2762 -2798 0
-2760 2762 2798 0
2760 -2762 2798 0
-2764 -2766 -2800 0
2764 2766 -2800 0
-2764 2766 2800 0
2764 -2766 2800 0
-2768 -2769 -2802 0
2768 2769 -2802 0
-2768 2769 2802 0
2768 -2769 2802 0
-2771 -2772 -2803 0
2771 2772 -2803 0
-2771 2772 2803 0
2771 -2772 2803 0
-2773 -2774 -2804 0
2773 2774 -2804 0
-2773 2774 2804 0
2773 -2774 2804 0
-2775 -2776 -2806 0
2775 2776 -2806 0
-2775 2776 2806 0
2775 -2776 2806 0
-2777 -2778 -2808 0
2777 2778 -2808 0
-2777 2778 2808 0
2777 -2778 2808 0
-2779 -2780 -2810 0
2779 2780 -2810 0
-2779 2780 2810 0
2779 -2780 2810 0
-2782 -2784 -2812 0
2782 2784 -2812 0
-2782 2784 2812 0
2782 -2784 2812 0
-2785 -2786 -2814 0
2785 2786 -2814 0
-2785 2786 2814 0
2785 -2786 2814 0
-2787 -2788 -2816 0
2787 2788 -2816 0
-2787 2788 2816 0
2787 -2788 2816 0
-2790 -2792 -2818 0
2790 2792 -2818 0
-2790 2792 2818 0
2790 -2792 2818 0
-2793 -2794 -2820 0
2793 2794 -2820 0
-2793 2794 2820 0
2793 -2794 2820 0
-2796 -2798 -2822 0
2796 2798 -2822 0
-2796 2798 2822 0
2796 -2798 2822 0
-2800 -2802 -2824 0
2800 2802 -2824 0
-2800 2802 2824 0
2800 -2802 2824 0
-2767 -2770 -2826 0
2767 2770 -2826 0
-2767 2770 2826 0
2767 -2770 2826 0
-2803 -2804 -2828 0
2803 2804 -2828 0
-2803 2804 2828 0
2803 -2804 2828 0
-2806 -2808 -2830 0
2806 2808 -2830 0
-2806 2808 2830 0
2806 -2808 2830 0
-2810 -2812 -2832 0
2810 2812 -2832 0
-2810 2812 2832 0
2810 -2812 2832 0
-2814 -2816 -2834 0
2814 2816 -2834 0
-2814 2816 2834 0
2814 -2816 2834 0
-2818 -2820 -2836 0
2818 2820 -2836 0
-2818 2820 2836 0
2818 -2820 2836 0
-2822 -2824 -2838 0
2822 2824 -2838 0
-2822 2824 2838 0
2822 -2824 2838 0
-2826 -2828 -2840 0
2826 2828 -2840 0
-2826 2828 2840 0
2826 -2828 2840 0
-2830 -2832 -2842 0
2830 2832 -2842 0
-2830 2832 2842 0
2830 -2832 2842 0
-2834 -2836 -2844 0
2834 2836 -2844 0
-2834 2836 2844 0
2834 -2836 2844 0
-2838 -2840 -2846 0
2838 2840 -2846 0
-2838 2840 2846 0
2838 -2840 2846 0
-2842 -2844 -2846 0
2842 2844 -2846 0
-2842 2844 2846 0
2842 -2844 2846 0
-2781 -2783 -2885 0
2781 2783 -2885 0
-2781 2783 2885 0
2781 -2783 2885 0
-2789 -2791 -2854 0
2789 2791 -2854 0
-2789 2791 2854 0
2789 -2791 2854 0
-2795 -2797 -2856 0
2795 2797 -2856 0
-2795 2797 2856 0
2795 -2797 2856 0
-2799 -2801 -2857 0
2799 2801 -2857 0
-2799 2801 2857 0
2799 -2801 2857 0
-2805 -2807 -2860 0
2805 2807 -2860 0
-2805 2807 2860 0
2805 -2807 2860 0
-2809 -2811 -2861 0
2809 2811 -2861 0
-2809 2811 2861 0
2809 -2811 2861 0
-2813 -2815 -2863 0
2813 2815 -2863 0
-2813 2815 2863 0
2813 -2815 2863 0
-2817 -2819 -2865 0
2817 2819 -2865 0
-2817 2819 2865 0
2817 -2819 2865 0
-2821 -2823 -2867 0
2821 2823 -2867 0
-2821 2823 2867 0
2821 -2823 2867 0
-2825 -2827 -2869 0
2825 2827 -2869 0
-2825 2827 2869 0
2825 -2827 2869 0
-2829 -2831 -2871 0
2829 2831 -2871 0
-2829 2831 2871 0
2829 -2831 2871 0
-2833 -2835 -2873 0
2833 2835 -2873 0
-2833 2835 2873 0
2833 -2835 2873 0
-2837 -2839 -2875 0
2837 2839 -2875 0
-2837 2839 2875 0
2837 -2839 2875 0
-2841 -2843 -2877 0
2841 2843 -2877 0
-2841 2843 2877 0
2841 -2843 2877 0
-2845 -2847 -2879 0
2845 2847 -2879 0
-2845 2847 2879 0
2845 -2847 2879 0
-2846 -2848 -2903 0
2846 2848 -2903 0
2846 -2848 2903 0
-2846 2848 2903 0
-2849 -2850 -2881 0
2849 2850 -2881 0
-2849 2850 2881 0
2849 -2850 2881 0
-2851 -2852 -2883 0
2851 2852 -2883 0
-2851 2852 2883 0
2851 -2852 2883 0
-2853 -2854 -2886 0
2853 2854 -2886 0
-2853 2854 2886 0
2853 -2854 2886 0
-2855 -2856 -2887 0
2855 2856 -2887 0
-2855 2856 2887 0
2855 -2856 2887 0
-2857 -2858 -2889 0
2857 2858 -2889 0
-2857 2858 2889 0
2857 -2858 2889 0
-2859 -2860 -2891 0
2859 2860 -2891 0
-2859 2860 2891 0
2859 -2860 2891 0
-2861 -2863 -2893 0
2861 2863 -2893 0
-2861 2863 2893 0
2861 -2863 2893 0
-2865 -2867 -2895 0
2865 2867 -2895 0
-2865 2867 2895 0
2865 -2867 2895 0
-2869 -2871 -2897 0
2869 2871 -2897 0
-2869 2871 2897 0
2869 -2871 2897 0
-2873 -2875 -2899 0
2873 2875 -2899 0
-2873 2875 2899 0
2873 -2875 2899 0
-2877 -2879 -2901 0
2877 2879 -2901 0
-2877 2879 2901 0
2877 -2879 2901 0
-2881 -2883 -2904 0
2881 2883 -2904 0
-2881 2883 2904 0
2881 -2883 2904 0
-2885 -2886 -2905 0
2885 2886 -2905 0
-2885 2886 2905 0
2885 -2886 2905 0
-2887 -2889 -2907 0
2887 2889 -2907 0
-2887 2889 2907 0
2887 -2889 2907 0
-2891 -2893 -2909 0
2891 2893 -2909 0
-2891 2893 2909 0
2891 -2893 2909 0
-2895 -2897 -2911 0
2895 2897 -2911 0
-2895 2897 2911 0
2895 -2897 2911 0
-2899 -2901 -2913 0
2899 2901 -2913 0
-2899 2901 2913 0
2899 -2901 2913 0
-2903 -2904 -2915 0
2903 2904 -2915 0
-2903 2904 2915 0
2903 -2904 2915 0
-2905 -2907 -2917 0
2905 2907 -2917 0
-2905 2907 2917 0
2905 -2907 2917 0
-2909 -2911 -2919 0
2909 2911 -2919 0
-2909 2911 2919 0
2909 -2911 2919 0
-2913 -2915 -2921 0
2913 2915 -2921 0
-2913 2915 2921 0
2913 -2915 2921 0
-2917 -2919 -2921 0
2917 2919 -2921 0
-2917 2919 2921 0
2917 -2919 2921 0
-2862 -2864 -2929 0
2862 2864 -2929 0
-2862 2864 2929 0
2862 -2864 2929 0
-2866 -2868 -2931 0
2866 2868 -2931 0
-2866 2868 2931 0
2866 -2868 2931 0
-2870 -2872 -2933 0
2870 2872 -2933 0
-2870 2872 2933 0
2870 -2872 2933 0
-2874 -2876 -2935 0
2874 2876 -2935 0
-2874 2876 2935 0
2874 -2876 2935 0
-2878 -2880 -2937 0
2878 2880 -2937 0
-2878 2880 2937 0
2878 -2880 2937 0
-2882 -2884 -2939 0
2882 2884 -2939 0
-2882 2884 2939 0
2882 -2884 2939 0
-2888 -2890 -2941 0
2888 2890 -2941 0
-2888 2890 2941 0
2888 -2890 2941 0
-2892 -2894 -2943 0
2892 2894 -2943 0
-2892 2894 2943 0
2892 -2894 2943 0
-2896 -2898 -2945 0
2896 2898 -2945 0
-2896 2898 2945 0
2896 -2898 2945 0
-2900 -2902 -2947 0
2900 2902 -2947 0
-2900 2902 2947 0
2900 -2902 2947 0
-2906 -2908 -2950 0
2906 2908 -2950 0
-2906 2908 2950 0
2906 -2908 2950 0
-2910 -2912 -2951 0
2910 2912 -2951 0
-2910 2912 2951 0
2910 -2912 2951 0
-2914 -2916 -2953 0
2914 2916 -2953 0
-2914 2916 2953 0
2914 -2916 2953 0
-2918 -2920 -2955 0
2918 2920 -2955 0
-2918 2920 2955 0
2918 -2920 2955 0
-2922 -2923 -2957 0
2922 2923 -2957 0
-2922 2923 2957 0
2922 -2923 2957 0
-2924 -2925 -2982 0
2924 2925 -2982 0
-2924 2925 2982 0
2924 -2925 2982 0
-2926 -2927 -2960 0
2926 2927 -2960 0
-2926 2927 2960 0
2926 -2927 2960 0
-2928 -2929 -2962 0
2928 2929 -2962 0
-2928 2929 2962 0
2928 -2929 2962 0
-2931 -2933 -2964 0
2931 2933 -2964 0
-2931 2933 2964 0
2931 -2933 2964 0
-2935 -2937 -2966 0
2935 2937 -2966 0
-2935 2937 2966 0
2935 -2937 2966 0
-2938 -2939 -2968 0
2938 2939 -2968 0
-2938 2939 2968 0
2938 -2939 2968 0
-2940 -2941 -2970 0
2940 2941 -2970 0
-2940 2941 2970 0
2940 -2941 2970 0
-2943 -2945 -2972 0
2943 2945 -2972 0
-2943 2945 2972 0
2943 -2945 2972 0
-2947 -2949 -2974 0
2947 2949 -2974 0
-2947 2949 2974 0
2947 -2949 2974 0
-2950 -2951 -2976 0
2950 2951 -2976 0
-2950 2951 2976 0
2950 -2951 2976 0
-2953 -2955 -2978 0
2953 2955 -2978 0
-2953 2955 2978 0
2953 -2955 2978 0
-2921 -2957 -2980 0
2921 2957 -2980 0
2921 -2957 2980 0
-2921 2957 2980 0
-2960 -2962 -2983 0
2960 2962 -2983 0
-2960 2962 2983 0
2960 -2962 2983 0
-2964 -2966 -2984 0
2964 2966 -2984 0
-2964 2966 2984 0
2964 -2966 2984 0
-2968 -2970 -2986 0
2968 2970 -2986 0
-2968 2970 2986 0
2968 -2970 2986 0
-2972 -2974 -2988 0
2972 2974 -2988 0
-2972 2974 2988 0
2972 -2974 2988 0
-2976 -2978 -2990 0
2976 2978 -2990 0
-2976 2978 2990 0
2976 -2978 2990 0
-2980 -2982 -2992 0
2980 2982 -2992 0
-2980 2982 2992 0
2980 -2982 2992 0
-2983 -2984 -2994 0
2983 2984 -2994 0
-2983 2984 2994 0
2983 -2984 2994 0
-2986 -2988 -2996 0
2986 2988 -2996 0
-2986 2988 2996 0
2986 -2988 2996 0
-2990 -2992 -2998 0
2990 2992 -2998 0
-2990 2992 2998 0
2990 -2992 2998 0
-2994 -2996 -2998 0
2994 2996 -2998 0
-2994 2996 2998 0
2994 -2996 2998 0
-2930 -2932 -3001 0
2930 2932 -3001 0
-2930 2932 3001 0
2930 -2932 3001 0
-2934 -2936 -3003 0
2934 2936 -3003 0
-2934 2936 3003 0
2934 -2936 3003 0
-2942 -2944 -3007 0
2942 2944 -3007 0
-2942 2944 3007 0
2942 -2944 3007 0
-2946 -2948 -3009 0
2946 2948 -3009 0
-2946 2948 3009 0
2946 -2948 3009 0
-2952 -2954 -3012 0
2952 2954 -3012 0
-2952 2954 3012 0
2952 -2954 3012 0
-2956 -2958 -3043 0
2956 2958 -3043 0
-2956 2958 3043 0
2956 -2958 3043 0
-2959 -2961 -3013 0
2959 2961 -3013 0
-2959 2961 3013 0
2959 -2961 3013 0
-2963 -2965 -3015 0
2963 2965 -3015 0
-2963 2965 3015 0
2963 -2965 3015 0
-2967 -2969 -3017 0
2967 2969 -3017 0
-2967 2969 3017 0
2967 -2969 3017 0
-2971 -2973 -3019 0
2971 2973 -3019 0
-2971 2973 3019 0
2971 -2973 3019 0
-2975 -2977 -3021 0
2975 2977 -3021 0
-2975 2977 3021 0
2975 -2977 3021 0
-2979 -2981 -3023 0
2979 2981 -3023 0
-2979 2981 3023 0
2979 -2981 3023 0
-2985 -2987 -3026 0
2985 2987 -3026 0
-2985 2987 3026 0
2985 -2987 3026 0
-2989 -2991 -3027 0
2989 2991 -3027 0
-2989 2991 3027 0
2989 -2991 3027 0
-2993 -2995 -3029 0
2993 2995 -3029 0
-2993 2995 3029 0
2993 -2995 3029 0
-2997 -2999 -3031 0
2997 2999 -3031 0
-2997 2999 3031 0
2997 -2999 3031 0
-2998 -3000 -3033 0
2998 3000 -3033 0
2998 -3000 3033 0
-2998 3000 3033 0
-3001 -3003 -3035 0
3001 3003 -3035 0
-3001 3003 3035 0
3001 -3003 3035 0
-3005 -3006 -3037 0
3005 3006 -3037 0
-3005 3006 3037 0
3005 -3006 3037 0
-3007 -3009 -3039 0
3007 3009 -3039 0
-3007 3009 3039 0
3007 -3009 3039 0
-3011 -3012 -3041 0
3011 3012 -3041 0
-3011 3012 3041 0
3011 -3012 3041 0
-3013 -3015 -3044 0
3013 3015 -3044 0
-3013 3015 3044 0
3013 -3015 3044 0
-3017 -3019 -3045 0
3017 3019 -3045 0
-3017 3019 3045 0
3017 -3019 3045 0
-3021 -3023 -3047 0
3021 3023 -3047 0
-3021 3023 3047 0
3021 -3023 3047 0
-3025 -3026 -3049 0
3025 3026 -3049 0
-3025 3026 3049 0
3025 -3026 3049 0
-3027 -3029 -3051 0
3027 3029 -3051 0
-3027 3029 3051 0
3027 -3029 3051 0
-3031 -3033 -3062 0
3031 3033 -3062 0
-3031 3033 3062 0
3031 -3033 3062 0
-3035 -3037 -3053 0
3035 3037 -3053 0
-3035 3037 3053 0
3035 -3037 3053 0
-3039 -3041 -3055 0
3039 3041 -3055 0
-3039 3041 3055 0
3039 -3041 3055 0
-3043 -3044 -3057 0
3043 3044 -3057 0
-3043 3044 3057 0
3043 -3044 3057 0
-3045 -3047 -3059 0
3045 3047 -3059 0
-3045 3047 3059 0
3045 -3047 3059 0
-3049 -3051 -3061 0
3049 3051 -3061 0
-3049 3051 3061 0
3049 -3051 3061 0
-3053 -3055 -3063 0
3053 3055 -3063 0
-3053 3055 3063 0
3053 -3055 3063 0
-3057 -3059 -3065 0
3057 3059 -3065 0
-3057 3059 3065 0
3057 -3059 3065 0
-3061 -3062 -3067 0
3061 3062 -3067 0
-3061 3062 3067 0
3061 -3062 3067 0
-3063 -3065 -3067 0
3063 3065 -3067 0
-3063 3065 3067 0
3063 -3065 3067 0
-3002 -3004 -3094 0
3002 3004 -3094 0
-3002 3004 3094 0
3002 -3004 3094 0
-3008 -3010 -3095 0
3008 3010 -3095 0
-3008 3010 3095 0
3008 -3010 3095 0
-3014 -3016 -3072 0
3014 3016 -3072 0
-3014 3016 3072 0
3014 -3016 3072 0
-3018 -3020 -3073 0
3018 3020 -3073 0
-3018 3020 3073 0
3018 -3020 3073 0
-3022 -3024 -3075 0
3022 3024 -3075 0
-3022 3024 3075 0
3022 -3024 3075 0
-3028 -3030 -3078 0
3028 3030 -3078 0
-3028 3030 3078 0
3028 -3030 3078 0
-3032 -3034 -3079 0
3032 3034 -3079 0
-3032 3034 3079 0
3032 -3034 3079 0
-3036 -3038 -3104 0
3036 3038 -3104 0
-3036 3038 3104 0
3036 -3038 3104 0
-3040 -3042 -3081 0
3040 3042 -3081 0
-3040 3042 3081 0
3040 -3042 3081 0
-3046 -3048 -3084 0
3046 3048 -3084 0
-3046 3048 3084 0
3046 -3048 3084 0
-3050 -3052 -3085 0
3050 3052 -3085 0
-3050 3052 3085 0
3050 -3052 3085 0
-3054 -3056 -3087 0
3054 3056 -3087 0
-3054 3056 3087 0
3054 -3056 3087 0
-3058 -3060 -3089 0
3058 3060 -3089 0
-3058 3060 3089 0
3058 -3060 3089 0
-3064 -3066 -3092 0
3064 3066 -3092 0
-3064 3066 3092 0
3064 -3066 3092 0
-3068 -3069 -3093 0
3068 3069 -3093 0
-3068 3069 3093 0
3068 -3069 3093 0
-3070 -3071 -3096 0
3070 3071 -3096 0
-3070 3071 3096 0
3070 -3071 3096 0
-3072 -3073 -3098 0
3072 3073 -3098 0
-3072 3073 3098 0
3072 -3073 3098 0
-3075 -3077 -3100 0
3075 3077 -3100 0
-3075 3077 3100 0
3075 -3077 3100 0
-3078 -3079 -3102 0
3078 3079 -3102 0
-3078 3079 3102 0
3078 -3079 3102 0
-3081 -3083 -3105 0
3081 3083 -3105 0
-3081 3083 3105 0
3081 -3083 3105 0
-3084 -3085 -3106 0
3084 3085 -3106 0
-3084 3085 3106 0
3084 -3085 3106 0
-3086 -3087 -3108 0
3086 3087 -3108 0
-3086 3087 3108 0
3086 -3087 3108 0
-3089 -3091 -3110 0
3089 3091 -3110 0
-3089 3091 3110 0
3089 -3091 3110 0
-3092 -3093 -3112 0
3092 3093 -3112 0
-3092 3093 3112 0
3092 -3093 3112 0
-3067 -3094 -3114 0
3067 3094 -3114 0
-3067 3094 3114 0
3067 -3094 3114 0
-3095 -3096 -3116 0
3095 3096 -3116 0
-3095 3096 3116 0
3095 -3096 3116 0
-3098 -3100 -3118 0
3098 3100 -3118 0
-3098 3100 3118 0
3098 -3100 3118 0
-3102 -3104 -3120 0
3102 3104 -3120 0
-3102 3104 3120 0
3102 -3104 3120 0
-3105 -3106 -3122 0
3105 3106 -3122 0
-3105 3106 3122 0
3105 -3106 3122 0
-3108 -3110 -3124 0
3108 3110 -3124 0
-3108 3110 3124 0
3108 -3110 3124 0
-3112 -3114 -3126 0
3112 3114 -3126 0
-3112 3114 3126 0
3112 -3114 3126 0
-3116 -3118 -3128 0
3116 3118 -3128 0
-3116 3118 3128 0
3116 -3118 3128 0
-3120 -3122 -3130 0
3120 3122 -3130 0
-3120 3122 3130 0
3120 -3122 3130 0
-3124 -3126 -3132 0
3124 3126 -3132 0
-3124 3126 3132 0
3124 -3126 3132 0
-3128 -3130 -3132 0
3128 3130 -3132 0
-3128 3130 3132 0
3128 -3130 3132 0
-3074 -3076 -3138 0
3074 3076 -3138 0
-3074 3076 3138 0
3074 -3076 3138 0
-3080 -3082 -3141 0
3080 3082 -3141 0
-3080 3082 3141 0
3080 -3082 3141 0
-3088 -3090 -3144 0
3088 3090 -3144 0
-3088 3090 3144 0
3088 -3090 3144 0
-3097 -3099 -3147 0
3097 3099 -3147 0
-3097 3099 3147 0
3097 -3099 3147 0
-3101 -3103 -3149 0
3101 3103 -3149 0
-3101 3103 3149 0
3101 -3103 3149 0
-3107 -3109 -3152 0
3107 3109 -3152 0
-3107 3109 3152 0
3107 -3109 3152 0
-3111 -3113 -3153 0
3111 3113 -3153 0
-3111 3113 3153 0
3111 -3113 3153 0
-3115 -3117 -3155 0
3115 3117 -3155 0
-3115 3117 3155 0
3115 -3117 3155 0
-3119 -3121 -3157 0
3119 3121 -3157 0
-3119 3121 3157 0
3119 -3121 3157 0
-3123 -3125 -3159 0
3123 3125 -3159 0
-3123 3125 3159 0
3123 -3125 3159 0
-3127 -3129 -3161 0
3127 3129 -3161 0
-3127 3129 3161 0
3127 -3129 3161 0
-3131 -3133 -3163 0
3131 3133 -3163 0
-3131 3133 3163 0
3131 -3133 3163 0
-3132 -3134 -3165 0
3132 3134 -3165 0
3132 -3134 3165 0
-3132 3134 3165 0
-3136 -3137 -3166 0
3136 3137 -3166 0
-3136 3137 3166 0
3136 -3137 3166 0
-3138 -3139 -3168 0
3138 3139 -3168 0
-3138 3139 3168 0
3138 -3139 3168 0
-3140 -3141 -3170 0
3140 3141 -3170 0
-3140 3141 3170 0
3140 -3141 3170 0
-3142 -3143 -3172 0
3142 3143 -3172 0
-3142 3143 3172 0
3142 -3143 3172 0
-3144 -3145 -3174 0
3144 3145 -3174 0
-3144 3145 3174 0
3144 -3145 3174 0
-3147 -3149 -3175 0
3147 3149 -3175 0
-3147 3149 3175 0
3147 -3149 3175 0
-3151 -3152 -3177 0
3151 3152 -3177 0
-3151 3152 3177 0
3151 -3152 3177 0
-3153 -3155 -3179 0
3153 3155 -3179 0
-3153 3155 3179 0
3153 -3155 3179 0
-3157 -3159 -3181 0
3157 3159 -3181 0
-3157 3159 3181 0
3157 -3159 3181 0
-3161 -3163 -3183 0
3161 3163 -3183 0
-3161 3163 3183 0
3161 -3163 3183 0
-3135 -3165 -3185 0
3135 3165 -3185 0
3135 -3165 3185 0
-3135 3165 3185 0
-3166 -3168 -3187 0
3166 3168 -3187 0
-3166 3168 3187 0
3166 -3168 3187 0
-3170 -3172 -3189 0
3170 3172 -3189 0
-3170 3172 3189 0
3170 -3172 3189 0
-3146 -3174 -3191 0
3146 3174 -3191 0
3146 -3174 3191 0
-3146 3174 3191 0
-3175 -3177 -3193 0
3175 3177 -3193 0
-3175 3177 3193 0
3175 -3177 3193 0
-3179 -3181 -3195 0
3179 3181 -3195 0
-3179 3181 3195 0
3179 -3181 3195 0
-3183 -3185 -3197 0
3183 3185 -3197 0
-3183 3185 3197 0
3183 -3185 3197 0
-3187 -3189 -3199 0
3187 3189 -3199 0
-3187 3189 3199 0
3187 -3189 3199 0
-3191 -3193 -3201 0
3191 3193 -3201 0
-3191 3193 3201 0
3191 -3193 3201 0
-3195 -3197 -3203 0
3195 3197 -3203 0
-3195 3197 3203 0
3195 -3197 3203 0
-3199 -3201 -3203 0
3199 3201 -3203 0
-3199 3201 3203 0
3199 -3201 3203 0
-3148 -3150 -3207 0
3148 3150 -3207 0
-3148 3150 3207 0
3148 -3150 3207 0
-3154 -3156 -3209 0
3154 3156 -3209 0
-3154 3156 3209 0
3154 -3156 3209 0
-3158 -3160 -3210 0
3158 3160 -3210 0
-3158 3160 3210 0
3158 -3160 3210 0
-3162 -3164 -3212 0
3162 3164 -3212 0
-3162 3164 3212 0
3162 -3164 3212 0
-3167 -3169 -3215 0
3167 3169 -3215 0
-3167 3169 3215 0
3167 -3169 3215 0
-3171 -3173 -3216 0
3171 3173 -3216 0
-3171 3173 3216 0
3171 -3173 3216 0
-3176 -3178 -3218 0
3176 3178 -3218 0
-3176 3178 3218 0
3176 -3178 3218 0
-3180 -3182 -3220 0
3180 3182 -3220 0
-3180 3182 3220 0
3180 -3182 3220 0
-3184 -3186 -3222 0
3184 3186 -3222 0
-3184 3186 3222 0
3184 -3186 3222 0
-3188 -3190 -3224 0
3188 3190 -3224 0
-3188 3190 3224 0
3188 -3190 3224 0
-3192 -3194 -3226 0
3192 3194 -3226 0
-3192 3194 3226 0
3192 -3194 3226 0
-3196 -3198 -3228 0
3196 3198 -3228 0
-3196 3198 3228 0
3196 -3198 3228 0
-3200 -3202 -3230 0
3200 3202 -3230 0
-3200 3202 3230 0
3200 -3202 3230 0
-3204 -3205 -3232 0
3204 3205 -3232 0
-3204 3205 3232 0
3204 -3205 3232 0
-3207 -3208 -3236 0
3207 3208 -3236 0
-3207 3208 3236 0
3207 -3208 3236 0
-3209 -3210 -3238 0
3209 3210 -3238 0
-3209 3210 3238 0
3209 -3210 3238 0
-3212 -3214 -3240 0
3212 3214 -3240 0
-3212 3214 3240 0
3212 -3214 3240 0
-3215 -3216 -3242 0
3215 3216 -3242 0
-3215 3216 3242 0
3215 -3216 3242 0
-3217 -3218 -3244 0
3217 3218 -3244 0
-3217 3218 3244 0
3217 -3218 3244 0
-3220 -3222 -3246 0
3220 3222 -3246 0
-3220 3222 3246 0
3220 -3222 3246 0
-3224 -3226 -3248 0
3224 3226 -3248 0
-3224 3226 3248 0
3224 -3226 3248 0
-3228 -3230 -3250 0
3228 3230 -3250 0
-3228 3230 3250 0
3228 -3230 3250 0
-3203 -3232 -3252 0
3203 3232 -3252 0
3203 -3232 3252 0
-3203 3232 3252 0
-3206 -3234 -3254 0
3206 3234 -3254 0
3206 -3234 3254 0
-3206 3234 3254 0
-3235 -3236 -3256 0
3235 3236 -3256 0
-3235 3236 3256 0
3235 -3236 3256 0
-3238 -3240 -3258 0
3238 3240 -3258 0
-3238 3240 3258 0
3238 -3240 3258 0
-3242 -3244 -3260 0
3242 3244 -3260 0
-3242 3244 3260 0
3242 -3244 3260 0
-3246 -3248 -3262 0
3246 3248 -3262 0
-3246 3248 3262 0
3246 -3248 3262 0
-3250 -3252 -3264 0
3250 3252 -3264 0
-3250 3252 3264 0
3250 -3252 3264 0
-3254 -3256 -3266 0
3254 3256 -3266 0
-3254 3256 3266 0
3254 -3256 3266 0
-3258 -3260 -3268 0
3258 3260 -3268 0
-3258 3260 3268 0
3258 -3260 3268 0
-3262 -3264 -3270 0
3262 3264 -3270 0
-3262 3264 3270 0
3262 -3264 3270 0
-3266 -3268 -3270 0
3266 3268 -3270 0
-3266 3268 3270 0
3266 -3268 3270 0
-3211 -3213 -3275 0
3211 3213 -3275 0
-3211 3213 3275 0
3211 -3213 3275 0
-3219 -3221 -3278 0
3219 3221 -3278 0
-3219 3221 3278 0
3219 -3221 3278 0
-3223 -3225 -3280 0
3223 3225 -3280 0
-3223 3225 3280 0
3223 -3225 3280 0
-3227 -3229 -3282 0
3227 3229 -3282 0
-3227 3229 3282 0
3227 -3229 3282 0
-3231 -3233 -3284 0
3231 3233 -3284 0
-3231 3233 3284 0
3231 -3233 3284 0
-3237 -3239 -3286 0
3237 3239 -3286 0
-3237 3239 3286 0
3237 -3239 3286 0
-3241 -3243 -3288 0
3241 3243 -3288 0
-3241 3243 3288 0
3241 -3243 3288 0
-3245 -3247 -3290 0
3245 3247 -3290 0
-3245 3247 3290 0
3245 -3247 3290 0
-3249 -3251 -3292 0
3249 3251 -3292 0
-3249 3251 3292 0
3249 -3251 3292 0
-3253 -3255 -3294 0
3253 3255 -3294 0
-3253 3255 3294 0
3253 -3255 3294 0
-3257 -3259 -3296 0
3257 3259 -3296 0
-3257 3259 3296 0
3257 -3259 3296 0
-3261 -3263 -3298 0
3261 3263 -3298 0
-3261 3263 3298 0
3261 -3263 3298 0
-3265 -3267 -3300 0
3265 3267 -3300 0
-3265 3267 3300 0
3265 -3267 3300 0
-3269 -3271 -3302 0
3269 3271 -3302 0
-3269 3271 3302 0
3269 -3271 3302 0
-3270 -3272 -3304 0
3270 3272 -3304 0
3270 -3272 3304 0
-3270 3272 3304 0
-3274 -3275 -3306 0
3274 3275 -3306 0
-3274 3275 3306 0
3274 -3275 3306 0
-3276 -3277 -3308 0
3276 3277 -3308 0
-3276 3277 3308 0
3276 -3277 3308 0
-3278 -3280 -3310 0
3278 3280 -3310 0
-3278 3280 3310 0
3278 -3280 3310 0
-3282 -3284 -3312 0
3282 3284 -3312 0
-3282 3284 3312 0
3282 -3284 3312 0
-3286 -3288 -3324 0
3286 3288 -3324 0
-3286 3288 3324 0
3286 -3288 3324 0
-3290 -3292 -3314 0
3290 3292 -3314 0
-3290 3292 3314 0
3290 -3292 3314 0
-3294 -3296 -3316 0
3294 3296 -3316 0
-3294 3296 3316 0
3294 -3296 3316 0
-3298 -3300 -3318 0
3298 3300 -3318 0
-3298 3300 3318 0
3298 -3300 3318 0
-3302 -3304 -3320 0
3302 3304 -3320 0
-3302 3304 3320 0
3302 -3304 3320 0
-3306 -3308 -3322 0
3306 3308 -3322 0
-3306 3308 3322 0
3306 -3308 3322 0
-3310 -3312 -3323 0
3310 3312 -3323 0
-3310 3312 3323 0
3310 -3312 3323 0
-3314 -3316 -3325 0
3314 3316 -3325 0
-3314 3316 3325 0
3314 -3316 3325 0
-3318 -3320 -3327 0
3318 3320 -3327 0
-3318 3320 3327 0
3318 -3320 3327 0
-3273 -3322 -3329 0
3273 3322 -3329 0
-3273 3322 3329 0
3273 -3322 3329 0
-3323 -3324 -3331 0
3323 3324 -3331 0
-3323 3324 3331 0
3323 -3324 3331 0
-3325 -3327 -3333 0
3325 3327 -3333 0
-3325 3327 3333 0
3325 -3327 3333 0
-3329 -3331 -3333 0
3329 3331 -3333 0
-3329 3331 3333 0
3329 -3331 3333 0
-3279 -3281 -3361 0
3279 3281 -3361 0
-3279 3281 3361 0
3279 -3281 3361 0
-3283 -3285 -3362 0
3283 3285 -3362 0
-3283 3285 3362 0
3283 -3285 3362 0
-3287 -3289 -3339 0
3287 3289 -3339 0
-3287 3289 3339 0
3287 -3289 3339 0
-3291 -3293 -3340 0
3291 3293 -3340 0
-3291 3293 3340 0
3291 -3293 3340 0
-3295 -3297 -3342 0
3295 3297 -3342 0
-3295 3297 3342 0
3295 -3297 3342 0
-3299 -3301 -3344 0
3299 3301 -3344 0
-3299 3301 3344 0
3299 -3301 3344 0
-3303 -3305 -3365 0
3303 3305 -3365 0
-3303 3305 3365 0
3303 -3305 3365 0
-3307 -3309 -3347 0
3307 3309 -3347 0
-3307 3309 3347 0
3307 -3309 3347 0
-3311 -3313 -3348 0
3311 3313 -3348 0
-3311 3313 3348 0
3311 -3313 3348 0
-3315 -3317 -3350 0
3315 3317 -3350 0
-3315 3317 3350 0
3315 -3317 3350 0
-3319 -3321 -3352 0
3319 3321 -3352 0
-3319 3321 3352 0
3319 -3321 3352 0
-3326 -3328 -3356 0
3326 3328 -3356 0
-3326 3328 3356 0
3326 -3328 3356 0
-3330 -3332 -3358 0
3330 3332 -3358 0
-3330 3332 3358 0
3330 -3332 3358 0
-3334 -3335 -3360 0
3334 3335 -3360 0
-3334 3335 3360 0
3334 -3335 3360 0
-3339 -3340 -3363 0
3339 3340 -3363 0
-3339 3340 3363 0
3339 -3340 3363 0
-3342 -3344 -3364 0
3342 3344 -3364 0
-3342 3344 3364 0
3342 -3344 3364 0
-3347 -3348 -3366 0
3347 3348 -3366 0
-3347 3348 3366 0
3347 -3348 3366 0
-3349 -3350 -3368 0
3349 3350 -3368 0
-3349 3350 3368 0
3349 -3350 3368 0
-3352 -3354 -3370 0
3352 3354 -3370 0
-3352 3354 3370 0
3352 -3354 3370 0
-3355 -3356 -3372 0
3355 3356 -3372 0
-3355 3356 3372 0
3355 -3356 3372 0
-3358 -3360 -3374 0
3358 3360 -3374 0
-3358 3360 3374 0
3358 -3360 3374 0
-3333 -3336 -3376 0
3333 3336 -3376 0
-3333 3336 3376 0
3333 -3336 3376 0
-3361 -3362 -3378 0
3361 3362 -3378 0
-3361 3362 3378 0
3361 -3362 3378 0
-3363 -3364 -3380 0
3363 3364 -3380 0
-3363 3364 3380 0
3363 -3364 3380 0
-3365 -3366 -3382 0
3365 3366 -3382 0
-3365 3366 3382 0
3365 -3366 3382 0
-3368 -3370 -3384 0
3368 3370 -3384 0
-3368 3370 3384 0
3368 -3370 3384 0
-3372 -3374 -3386 0
3372 3374 -3386 0
-3372 3374 3386 0
3372 -3374 3386 0
-3376 -3378 -3388 0
3376 3378 -3388 0
-3376 3378 3388 0
3376 -3378 3388 0
-3380 -3382 -3390 0
3380 3382 -3390 0
-3380 3382 3390 0
3380 -3382 3390 0
-3384 -3386 -3392 0
3384 3386 -3392 0
-3384 3386 3392 0
3384 -3386 3392 0
-3388 -3390 -3392 0
3388 3390 -3392 0
-3388 3390 3392 0
3388 -3390 3392 0
-3337 -3338 -3395 0
3337 3338 -3395 0
-3337 3338 3395 0
3337 -3338 3395 0
-3341 -3343 -3397 0
3341 3343 -3397 0
-3341 3343 3397 0
3341 -3343 3397 0
-3345 -3346 -3399 0
3345 3346 -3399 0
-3345 3346 3399 0
3345 -3346 3399 0
-3351 -3353 -3425 0
3351 3353 -3425 0
-3351 3353 3425 0
3351 -3353 3425 0
-3357 -3359 -3403 0
3357 3359 -3403 0
-3357 3359 3403 0
3357 -3359 3403 0
-3367 -3369 -3407 0
3367 3369 -3407 0
-3367 3369 3407 0
3367 -3369 3407 0
-3371 -3373 -3408 0
3371 3373 -3408 0
-3371 3373 3408 0
3371 -3373 3408 0
-3375 -3377 -3410 0
3375 3377 -3410 0
-3375 3377 3410 0
3375 -3377 3410 0
-3379 -3381 -3412 0
3379 3381 -3412 0
-3379 3381 3412 0
3379 -3381 3412 0
-3383 -3385 -3414 0
3383 3385 -3414 0
-3383 3385 3414 0
3383 -3385 3414 0
-3387 -3389 -3416 0
3387 3389 -3416 0
-3387 3389 3416 0
3387 -3389 3416 0
-3391 -3393 -3418 0
3391 3393 -3418 0
-3391 3393 3418 0
3391 -3393 3418 0
-3392 -3394 -3435 0
3392 3394 -3435 0
3392 -3394 3435 0
-3392 3394 3435 0
-3395 -3396 -3420 0
3395 3396 -3420 0
-3395 3396 3420 0
3395 -3396 3420 0
-3397 -3399 -3422 0
3397 3399 -3422 0
-3397 3399 3422 0
3397 -3399 3422 0
-3401 -3402 -3424 0
3401 3402 -3424 0
-3401 3402 3424 0
3401 -3402 3424 0
-3403 -3404 -3426 0
3403 3404 -3426 0
-3403 3404 3426 0
3403 -3404 3426 0
-3406 -3407 -3427 0
3406 3407 -3427 0
-3406 3407 3427 0
3406 -3407 3427 0
-3408 -3410 -3429 0
3408 3410 -3429 0
-3408 3410 3429 0
3408 -3410 3429 0
-3412 -3414 -3431 0
3412 3414 -3431 0
-3412 3414 3431 0
3412 -3414 3431 0
-3416 -3418 -3433 0
3416 3418 -3433 0
-3416 3418 3433 0
3416 -3418 3433 0
-3420 -3422 -3436 0
3420 3422 -3436 0
-3420 3422 3436 0
3420 -3422 3436 0
-3424 -3425 -3437 0
3424 3425 -3437 0
-3424 3425 3437 0
3424 -3425 3437 0
-3405 -3426 -3439 0
3405 3426 -3439 0
3405 -3426 3439 0
-3405 3426 3439 0
-3427 -3429 -3441 0
3427 3429 -3441 0
-3427 3429 3441 0
3427 -3429 3441 0
-3431 -3433 -3443 0
3431 3433 -3443 0
-3431 3433 3443 0
3431 -3433 3443 0
-3435 -3436 -3445 0
3435 3436 -3445 0
-3435 3436 3445 0
3435 -3436 3445 0
-3437 -3439 -3447 0
3437 3439 -3447 0
-3437 3439 3447 0
3437 -3439 3447 0
-3441 -3443 -3449 0
3441 3443 -3449 0
-3441 3443 3449 0
3441 -3443 3449 0
-3445 -3447 -3449 0
3445 3447 -3449 0
-3445 3447 3449 0
3445 -3447 3449 0
-3398 -3400 -3453 0
3398 3400 -3453 0
-3398 3400 3453 0
3398 -3400 3453 0
-3409 -3411 -3456 0
3409 3411 -3456 0
-3409 3411 3456 0
3409 -3411 3456 0
-3413 -3415 -3458 0
3413 3415 -3458 0
-3413 3415 3458 0
3413 -3415 3458 0
-3417 -3419 -3460 0
3417 3419 -3460 0
-3417 3419 3460 0
3417 -3419 3460 0
-3421 -3423 -3462 0
3421 3423 -3462 0
-3421 3423 3462 0
3421 -3423 3462 0
-3428 -3430 -3465 0
3428 3430 -3465 0
-3428 3430 3465 0
3428 -3430 3465 0
-3432 -3434 -3466 0
3432 3434 -3466 0
-3432 3434 3466 0
3432 -3434 3466 0
-3438 -3440 -3468 0
3438 3440 -3468 0
-3438 3440 3468 0
3438 -3440 3468 0
-3442 -3444 -3470 0
3442 3444 -3470 0
-3442 3444 3470 0
3442 -3444 3470 0
-3446 -3448 -3472 0
3446 3448 -3472 0
-3446 3448 3472 0
3446 -3448 3472 0
-3450 -3451 -3474 0
3450 3451 -3474 0
-3450 3451 3474 0
3450 -3451 3474 0
-3452 -3453 -3476 0
3452 3453 -3476 0
-3452 3453 3476 0
3452 -3453 3476 0
-3455 -3456 -3478 0
3455 3456 -3478 0
-3455 3456 3478 0
3455 -3456 3478 0
-3458 -3460 -3480 0
3458 3460 -3480 0
-3458 3460 3480 0
3458 -3460 3480 0
-3461 -3462 -3482 0
3461 3462 -3482 0
-3461 3462 3482 0
3461 -3462 3482 0
-3463 -3464 -3484 0
3463 3464 -3484 0
-3463 3464 3484 0
3463 -3464 3484 0
-3465 -3466 -3486 0
3465 3466 -3486 0
-3465 3466 3486 0
3465 -3466 3486 0
-3467 -3468 -3488 0
3467 3468 -3488 0
-3467 3468 3488 0
3467 -3468 3488 0
-3470 -3472 -3490 0
3470 3472 -3490 0
-3470 3472 3490 0
3470 -3472 3490 0
-3449 -3474 -3492 0
3449 3474 -3492 0
3449 -3474 3492 0
-3449 3474 3492 0
-3476 -3477 -3494 0
3476 3477 -3494 0
-3476 3477 3494 0
3476 -3477 3494 0
-3454 -3478 -3496 0
3454 3478 -3496 0
-3454 3478 3496 0
3454 -3478 3496 0
-3480 -3482 -3498 0
3480 3482 -3498 0
-3480 3482 3498 0
3480 -3482 3498 0
-3484 -3486 -3500 0
3484 3486 -3500 0
-3484 3486 3500 0
3484 -3486 3500 0
-3488 -3490 -3502 0
3488 3490 -3502 0
-3488 3490 3502 0
3488 -3490 3502 0
-3492 -3494 -3504 0
3492 3494 -3504 0
-3492 3494 3504 0
3492 -3494 3504 0
-3496 -3498 -3506 0
3496 3498 -3506 0
-3496 3498 3506 0
3496 -3498 3506 0
-3500 -3502 -3508 0
3500 3502 -3508 0
-3500 3502 3508 0
3500 -3502 3508 0
-3504 -3506 -3508 0
3504 3506 -3508 0
-3504 3506 3508 0
3504 -3506 3508 0
-3457 -3459 -3512 0
3457 3459 -3512 0
-3457 3459 3512 0
3457 -3459 3512 0
-3469 -3471 -3517 0
3469 3471 -3517 0
-3469 3471 3517 0
3469 -3471 3517 0
-3473 -3475 -3518 0
3473 3475 -3518 0
-3473 3475 3518 0
3473 -3475 3518 0
-3479 -3481 -3544 0
3479 3481 -3544 0
-3479 3481 3544 0
3479 -3481 3544 0
-3483 -3485 -3520 0
3483 3485 -3520 0
-3483 3485 3520 0
3483 -3485 3520 0
-3487 -3489 -3522 0
3487 3489 -3522 0
-3487 3489 3522 0
3487 -3489 3522 0
-3491 -3493 -3524 0
3491 3493 -3524 0
-3491 3493 3524 0
3491 -3493 3524 0
-3495 -3497 -3526 0
3495 3497 -3526 0
-3495 3497 3526 0
3495 -3497 3526 0
-3499 -3501 -3528 0
3499 3501 -3528 0
-3499 3501 3528 0
3499 -3501 3528 0
-3503 -3505 -3530 0
3503 3505 -3530 0
-3503 3505 3530 0
3503 -3505 3530 0
-3507 -3509 -3532 0
3507 3509 -3532 0
-3507 3509 3532 0
3507 -3509 3532 0
-3508 -3510 -3534 0
3508 3510 -3534 0
3508 -3510 3534 0
-3508 3510 3534 0
-3512 -3513 -3536 0
3512 3513 -3536 0
-3512 3513 3536 0
3512 -3513 3536 0
-3514 -3515 -3538 0
3514 3515 -3538 0
-3514 3515 3538 0
3514 -3515 3538 0
-3516 -3517 -3540 0
3516 3517 -3540 0
-3516 3517 3540 0
3516 -3517 3540 0
-3518 -3519 -3542 0
3518 3519 -3542 0
-3518 3519 3542 0
3518 -3519 3542 0
-3520 -3522 -3545 0
3520 3522 -3545 0
-3520 3522 3545 0
3520 -3522 3545 0
-3524 -3526 -3546 0
3524 3526 -3546 0
-3524 3526 3546 0
3524 -3526 3546 0
-3528 -3530 -3548 0
3528 3530 -3548 0
-3528 3530 3548 0
3528 -3530 3548 0
-3532 -3534 -3550 0
3532 3534 -3550 0
-3532 3534 3550 0
3532 -3534 3550 0
-3536 -3538 -3551 0
3536 3538 -3551 0
-3536 3538 3551 0
3536 -3538 3551 0
-3540 -3542 -3553 0
3540 3542 -3553 0
-3540 3542 3553 0
3540 -3542 3553 0
-3544 -3545 -3555 0
3544 3545 -3555 0
-3544 3545 3555 0
3544 -3545 3555 0
-3546 -3548 -3557 0
3546 3548 -3557 0
-3546 3548 3557 0
3546 -3548 3557 0
-3511 -3550 -3559 0
3511 3550 -3559 0
3511 -3550 3559 0
-3511 3550 3559 0
-3551 -3553 -3561 0
3551 3553 -3561 0
-3551 3553 3561 0
3551 -3553 3561 0
-3555 -3557 -3563 0
3555 3557 -3563 0
-3555 3557 3563 0
3555 -3557 3563 0
-3559 -3561 -3563 0
3559 3561 -3563 0
-3559 3561 3563 0
3559 -3561 3563 0
-3521 -3523 -3570 0
3521 3523 -3570 0
-3521 3523 3570 0
3521 -3523 3570 0
-3525 -3527 -3571 0
3525 3527 -3571 0
-3525 3527 3571 0
3525 -3527 3571 0
-3529 -3531 -3573 0
3529 3531 -3573 0
-3529 3531 3573 0
3529 -3531 3573 0
-3533 -3535 -3575 0
3533 3535 -3575 0
-3533 3535 3575 0
3533 -3535 3575 0
-3537 -3539 -3593 0
3537 3539 -3593 0
-3537 3539 3593 0
3537 -3539 3593 0
-3541 -3543 -3577 0
3541 3543 -3577 0
-3541 3543 3577 0
3541 -3543 3577 0
-3547 -3549 -3580 0
3547 3549 -3580 0
-3547 3549 3580 0
3547 -3549 3580 0
-3552 -3554 -3582 0
3552 3554 -3582 0
-3552 3554 3582 0
3552 -3554 3582 0
-3556 -3558 -3583 0
3556 3558 -3583 0
-3556 3558 3583 0
3556 -3558 3583 0
-3560 -3562 -3585 0
3560 3562 -3585 0
-3560 3562 3585 0
3560 -3562 3585 0
-3564 -3565 -3587 0
3564 3565 -3587 0
-3564 3565 3587 0
3564 -3565 3587 0
-3568 -3569 -3588 0
3568 3569 -3588 0
-3568 3569 3588 0
3568 -3569 3588 0
-3570 -3571 -3590 0
3570 3571 -3590 0
-3570 3571 3590 0
3570 -3571 3590 0
-3573 -3575 -3592 0
3573 3575 -3592 0
-3573 3575 3592 0
3573 -3575 3592 0
-3577 -3579 -3594 0
3577 3579 -3594 0
-3577 3579 3594 0
3577 -3579 3594 0
-3580 -3581 -3596 0
3580 3581 -3596 0
-3580 3581 3596 0
3580 -3581 3596 0
-3582 -3583 -3598 0
3582 3583 -3598 0
-3582 3583 3598 0
3582 -3583 3598 0
-3585 -3587 -3600 0
3585 3587 -3600 0
-3585 3587 3600 0
3585 -3587 3600 0
-3563 -3566 -3602 0
3563 3566 -3602 0
-3563 3566 3602 0
3563 -3566 3602 0
-3567 -3588 -3604 0
3567 3588 -3604 0
-3567 3588 3604 0
3567 -3588 3604 0
-3590 -3592 -3606 0
3590 3592 -3606 0
-3590 3592 3606 0
3590 -3592 3606 0
-3593 -3594 -3608 0
3593 3594 -3608 0
-3593 3594 3608 0
3593 -3594 3608 0
-3596 -3598 -3610 0
3596 3598 -3610 0
-3596 3598 3610 0
3596 -3598 3610 0
-3600 -3602 -3612 0
3600 3602 -3612 0
-3600 3602 3612 0
3600 -3602 3612 0
-3604 -3606 -3614 0
3604 3606 -3614 0
-3604 3606 3614 0
3604 -3606 3614 0
-3608 -3610 -3616 0
3608 3610 -3616 0
-3608 3610 3616 0
3608 -3610 3616 0
-3612 -3614 -3616 0
3612 3614 -3616 0
-3612 3614 3616 0
3612 -3614 3616 0
-3572 -3574 -3620 0
3572 3574 -3620 0
-3572 3574 3620 0
3572 -3574 3620 0
-3576 -3578 -3622 0
3576 3578 -3622 0
-3576 3578 3622 0
3576 -3578 3622 0
-3584 -3586 -3625 0
3584 3586 -3625 0
-3584 3586 3625 0
3584 -3586 3625 0
-3589 -3591 -3627 0
3589 3591 -3627 0
-3589 3591 3627 0
3589 -3591 3627 0
-3595 -3597 -3629 0
3595 3597 -3629 0
-3595 3597 3629 0
3595 -3597 3629 0
-3599 -3601 -3631 0
3599 3601 -3631 0
-3599 3601 3631 0
3599 -3601 3631 0
-3603 -3605 -3633 0
3603 3605 -3633 0
-3603 3605 3633 0
3603 -3605 3633 0
-3607 -3609 -3635 0
3607 3609 -3635 0
-3607 3609 3635 0
3607 -3609 3635 0
-3611 -3613 -3637 0
3611 3613 -3637 0
-3611 3613 3637 0
3611 -3613 3637 0
-3615 -3617 -3639 0
3615 3617 -3639 0
-3615 3617 3639 0
3615 -3617 3639 0
-3616 -3618 -3652 0
3616 3618 -3652 0
3616 -3618 3652 0
-3616 3618 3652 0
-3620 -3621 -3641 0
3620 3621 -3641 0
-3620 3621 3641 0
3620 -3621 3641 0
-3622 -3623 -3642 0
3622 3623 -3642 0
-3622 3623 3642 0
3622 -3623 3642 0
-3624 -3625 -3644 0
3624 3625 -3644 0
-3624 3625 3644 0
3624 -3625 3644 0
-3627 -3628 -3646 0
3627 3628 -3646 0
-3627 3628 3646 0
3627 -3628 3646 0
-3629 -3631 -3647 0
3629 3631 -3647 0
-3629 3631 3647 0
3629 -3631 3647 0
-3633 -3635 -3649 0
3633 3635 -3649 0
-3633 3635 3649 0
3633 -3635 3649 0
-3637 -3639 -3651 0
3637 3639 -3651 0
-3637 3639 3651 0
3637 -3639 3651 0
-3619 -3641 -3653 0
3619 3641 -3653 0
-3619 3641 3653 0
3619 -3641 3653 0
-3642 -3644 -3655 0
3642 3644 -3655 0
-3642 3644 3655 0
3642 -3644 3655 0
-3626 -3646 -3657 0
3626 3646 -3657 0
-3626 3646 3657 0
3626 -3646 3657 0
-3647 -3649 -3659 0
3647 3649 -3659 0
-3647 3649 3659 0
3647 -3649 3659 0
-3651 -3652 -3661 0
3651 3652 -3661 0
-3651 3652 3661 0
3651 -3652 3661 0
-3653 -3655 -3663 0
3653 3655 -3663 0
-3653 3655 3663 0
3653 -3655 3663 0
-3657 -3659 -3665 0
3657 3659 -3665 0
-3657 3659 3665 0
3657 -3659 3665 0
-3661 -3663 -3665 0
3661 3663 -3665 0
-3661 3663 3665 0
3661 -3663 3665 0
-3630 -3632 -3671 0
3630 3632 -3671 0
-3630 3632 3671 0
3630 -3632 3671 0
-3634 -3636 -3672 0
3634 3636 -3672 0
-3634 3636 3672 0
3634 -3636 3672 0
-3638 -3640 -3674 0
3638 3640 -3674 0
-3638 3640 3674 0
3638 -3640 3674 0
-3643 -3645 -3678 0
3643 3645 -3678 0
-3643 3645 3678 0
3643 -3645 3678 0
-3648 -3650 -3680 0
3648 3650 -3680 0
-3648 3650 3680 0
3648 -3650 3680 0
-3654 -3656 -3682 0
3654 3656 -3682 0
-3654 3656 3682 0
3654 -3656 3682 0
-3658 -3660 -3684 0
3658 3660 -3684 0
-3658 3660 3684 0
3658 -3660 3684 0
-3662 -3664 -3686 0
3662 3664 -3686 0
-3662 3664 3686 0
3662 -3664 3686 0
-3666 -3667 -3688 0
3666 3667 -3688 0
-3666 3667 3688 0
3666 -3667 3688 0
-3669 -3670 -3690 0
3669 3670 -3690 0
-3669 3670 3690 0
3669 -3670 3690 0
-3671 -3672 -3692 0
3671 3672 -3692 0
-3671 3672 3692 0
3671 -3672 3692 0
-3674 -3676 -3694 0
3674 3676 -3694 0
-3674 3676 3694 0
3674 -3676 3694 0
-3677 -3678 -3696 0
3677 3678 -3696 0
-3677 3678 3696 0
3677 -3678 3696 0
-3679 -3680 -3698 0
3679 3680 -3698 0
-3679 3680 3698 0
3679 -3680 3698 0
-3681 -3682 -3700 0
3681 3682 -3700 0
-3681 3682 3700 0
3681 -3682 3700 0
-3684 -3686 -3702 0
3684 3686 -3702 0
-3684 3686 3702 0
3684 -3686 3702 0
-3665 -3688 -3704 0
3665 3688 -3704 0
3665 -3688 3704 0
-3665 3688 3704 0
-3668 -3690 -3706 0
3668 3690 -3706 0
-3668 3690 3706 0
3668 -3690 3706 0
-3691 -3692 -3708 0
3691 3692 -3708 0
-3691 3692 3708 0
3691 -3692 3708 0
-3694 -3696 -3710 0
3694 3696 -3710 0
-3694 3696 3710 0
3694 -3696 3710 0
-3698 -3700 -3712 0
3698 3700 -3712 0
-3698 3700 3712 0
3698 -3700 3712 0
-3702 -3704 -3714 0
3702 3704 -3714 0
-3702 3704 3714 0
3702 -3704 3714 0
-3706 -3708 -3716 0
3706 3708 -3716 0
-3706 3708 3716 0
3706 -3708 3716 0
-3710 -3712 -3718 0
3710 3712 -3718 0
-3710 3712 3718 0
3710 -3712 3718 0
-3714 -3716 -3718 0
3714 3716 -3718 0
-3714 3716 3718 0
3714 -3716 3718 0
-3673 -3675 -3744 0
3673 3675 -3744 0
-3673 3675 3744 0
3673 -3675 3744 0
-3683 -3685 -3723 0
3683 3685 -3723 0
-3683 3685 3723 0
3683 -3685 3723 0
-3687 -3689 -3725 0
3687 3689 -3725 0
-3687 3689 3725 0
3687 -3689 3725 0
-3693 -3695 -3728 0
3693 3695 -3728 0
-3693 3695 3728 0
3693 -3695 3728 0
-3697 -3699 -3730 0
3697 3699 -3730 0
-3697 3699 3730 0
3697 -3699 3730 0
-3701 -3703 -3732 0
3701 3703 -3732 0
-3701 3703 3732 0
3701 -3703 3732 0
-3705 -3707 -3734 0
3705 3707 -3734 0
-3705 3707 3734 0
3705 -3707 3734 0
-3709 -3711 -3736 0
3709 3711 -3736 0
-3709 3711 3736 0
3709 -3711 3736 0
-3713 -3715 -3738 0
3713 3715 -3738 0
-3713 3715 3738 0
3713 -3715 3738 0
-3717 -3719 -3740 0
3717 3719 -3740 0
-3717 3719 3740 0
3717 -3719 3740 0
-3718 -3720 -3742 0
3718 3720 -3742 0
3718 -3720 3742 0
-3718 3720 3742 0
-3721 -3722 -3745 0
3721 3722 -3745 0
-3721 3722 3745 0
3721 -3722 3745 0
-3723 -3725 -3746 0
3723 3725 -3746 0
-3723 3725 3746 0
3723 -3725 3746 0
-3728 -3730 -3747 0
3728 3730 -3747 0
-3728 3730 3747 0
3728 -3730 3747 0
-3732 -3734 -3749 0
3732 3734 -3749 0
-3732 3734 3749 0
3732 -3734 3749 0
-3736 -3738 -3751 0
3736 3738 -3751 0
-3736 3738 3751 0
3736 -3738 3751 0
-3740 -3742 -3753 0
3740 3742 -3753 0
-3740 3742 3753 0
3740 -3742 3753 0
-3744 -3745 -3756 0
3744 3745 -3756 0
-3744 3745 3756 0
3744 -3745 3756 0
-3727 -3746 -3757 0
3727 3746 -3757 0
3727 -3746 3757 0
-3727 3746 3757 0
-3747 -3749 -3759 0
3747 3749 -3759 0
-3747 3749 3759 0
3747 -3749 3759 0
-3751 -3753 -3761 0
3751 3753 -3761 0
-3751 3753 3761 0
3751 -3753 3761 0
-3755 -3756 -3763 0
3755 3756 -3763 0
-3755 3756 3763 0
3755 -3756 3763 0
-3757 -3759 -3765 0
3757 3759 -3765 0
-3757 3759 3765 0
3757 -3759 3765 0
-3761 -3763 -3765 0
3761 3763 -3765 0
-3761 3763 3765 0
3761 -3763 3765 0
-3724 -3726 -3785 0
3724 3726 -3785 0
-3724 3726 3785 0
3724 -3726 3785 0
-3729 -3731 -3786 0
3729 3731 -3786 0
-3729 3731 3786 0
3729 -3731 3786 0
-3733 -3735 -3770 0
3733 3735 -3770 0
-3733 3735 3770 0
3733 -3735 3770 0
-3737 -3739 -3772 0
3737 3739 -3772 0
-3737 3739 3772 0
3737 -3739 3772 0
-3741 -3743 -3788 0
3741 3743 -3788 0
-3741 3743 3788 0
3741 -3743 3788 0
-3748 -3750 -3777 0
3748 3750 -3777 0
-3748 3750 3777 0
3748 -3750 3777 0
-3752 -3754 -3778 0
3752 3754 -3778 0
-3752 3754 3778 0
3752 -3754 3778 0
-3758 -3760 -3780 0
3758 3760 -3780 0
-3758 3760 3780 0
3758 -3760 3780 0
-3762 -3764 -3782 0
3762 3764 -3782 0
-3762 3764 3782 0
3762 -3764 3782 0
-3766 -3767 -3784 0
3766 3767 -3784 0
-3766 3767 3784 0
3766 -3767 3784 0
-3770 -3772 -3787 0
3770 3772 -3787 0
-3770 3772 3787 0
3770 -3772 3787 0
-3775 -3776 -3789 0
3775 3776 -3789 0
-3775 3776 3789 0
3775 -3776 3789 0
-3777 -3778 -3790 0
3777 3778 -3790 0
-3777 3778 3790 0
3777 -3778 3790 0
-3779 -3780 -3792 0
3779 3780 -3792 0
-3779 3780 3792 0
3779 -3780 3792 0
-3782 -3784 -3794 0
3782 3784 -3794 0
-3782 3784 3794 0
3782 -3784 3794 0
-3765 -3768 -3796 0
3765 3768 -3796 0
-3765 3768 3796 0
3765 -3768 3796 0
-3785 -3786 -3798 0
3785 3786 -3798 0
-3785 3786 3798 0
3785 -3786 3798 0
-3787 -3788 -3800 0
3787 3788 -3800 0
-3787 3788 3800 0
3787 -3788 3800 0
-3789 -3790 -3802 0
3789 3790 -3802 0
-3789 3790 3802 0
3789 -3790 3802 0
-3792 -3794 -3804 0
3792 3794 -3804 0
-3792 3794 3804 0
3792 -3794 3804 0
-3796 -3798 -3806 0
3796 3798 -3806 0
-3796 3798 3806 0
3796 -3798 3806 0
-3800 -3802 -3808 0
3800 3802 -3808 0
-3800 3802 3808 0
3800 -3802 3808 0
-3804 -3806 -3808 0
3804 3806 -3808 0
-3804 3806 3808 0
3804 -3806 3808 0
-3769 -3771 -3812 0
3769 3771 -3812 0
-3769 3771 3812 0
3769 -3771 3812 0
-3773 -3774 -3829 0
3773 3774 -3829 0
-3773 3774 3829 0
3773 -3774 3829 0
-3781 -3783 -3815 0
3781 3783 -3815 0
-3781 3783 3815 0
3781 -3783 3815 0
-3791 -3793 -3819 0
3791 3793 -3819 0
-3791 3793 3819 0
3791 -3793 3819 0
-3795 -3797 -3820 0
3795 3797 -3820 0
-3795 3797 3820 0
3795 -3797 3820 0
-3799 -3801 -3822 0
3799 3801 -3822 0
-3799 3801 3822 0
3799 -3801 3822 0
-3803 -3805 -3824 0
3803 3805 -3824 0
-3803 3805 3824 0
3803 -3805 3824 0
-3807 -3809 -3826 0
3807 3809 -3826 0
-3807 3809 3826 0
3807 -3809 3826 0
-3808 -3810 -3839 0
3808 3810 -3839 0
3808 -3810 3839 0
-3808 3810 3839 0
-3811 -3812 -3828 0
3811 3812 -3828 0
-3811 3812 3828 0
3811 -3812 3828 0
-3813 -3814 -3830 0
3813 3814 -3830 0
-3813 3814 3830 0
3813 -3814 3830 0
-3815 -3816 -3832 0
3815 3816 -3832 0
-3815 3816 3832 0
3815 -3816 3832 0
-3818 -3819 -3834 0
3818 3819 -3834 0
-3818 3819 3834 0
3818 -3819 3834 0
-3820 -3822 -3835 0
3820 3822 -3835 0
-3820 3822 3835 0
3820 -3822 3835 0
-3824 -3826 -3837 0
3824 3826 -3837 0
-3824 3826 3837 0
3824 -3826 3837 0
-3828 -3829 -3840 0
3828 3829 -3840 0
-3828 3829 3840 0
3828 -3829 3840 0
-3830 -3832 -3841 0
3830 3832 -3841 0
-3830 3832 3841 0
3830 -3832 3841 0
-3817 -3834 -3843 0
3817 3834 -3843 0
-3817 3834 3843 0
3817 -3834 3843 0
-3835 -3837 -3845 0
3835 3837 -3845 0
-3835 3837 3845 0
3835 -3837 3845 0
-3839 -3840 -3847 0
3839 3840 -3847 0
-3839 3840 3847 0
3839 -3840 3847 0
-3841 -3843 -3849 0
3841 3843 -3849 0
-3841 3843 3849 0
3841 -3843 3849 0
-3845 -3847 -3849 0
3845 3847 -3849 0
-3845 3847 3849 0
3845 -3847 3849 0
-3821 -3823 -3855 0
3821 3823 -3855 0
-3821 3823 3855 0
3821 -3823 3855 0
-3825 -3827 -3856 0
3825 3827 -3856 0
-3825 3827 3856 0
3825 -3827 3856 0
-3831 -3833 -3859 0
3831 3833 -3859 0
-3831 3833 3859 0
3831 -3833 3859 0
-3836 -3838 -3861 0
3836 3838 -3861 0
-3836 3838 3861 0
3836 -3838 3861 0
-3842 -3844 -3863 0
3842 3844 -3863 0
-3842 3844 3863 0
3842 -3844 3863 0
-3846 -3848 -3864 0
3846 3848 -3864 0
-3846 3848 3864 0
3846 -3848 3864 0
-3850 -3851 -3866 0
3850 3851 -3866 0
-3850 3851 3866 0
3850 -3851 3866 0
-3852 -3853 -3868 0
3852 3853 -3868 0
-3852 3853 3868 0
3852 -3853 3868 0
-3855 -3856 -3870 0
3855 3856 -3870 0
-3855 3856 3870 0
3855 -3856 3870 0
-3857 -3858 -3872 0
3857 3858 -3872 0
-3857 3858 3872 0
3857 -3858 3872 0
-3859 -3860 -3874 0
3859 3860 -3874 0
-3859 3860 3874 0
3859 -3860 3874 0
-3861 -3862 -3876 0
3861 3862 -3876 0
-3861 3862 3876 0
3861 -3862 3876 0
-3863 -3864 -3878 0
3863 3864 -3878 0
-3863 3864 3878 0
3863 -3864 3878 0
-3849 -3866 -3880 0
3849 3866 -3880 0
3849 -3866 3880 0
-3849 3866 3880 0
-3854 -3868 -3882 0
3854 3868 -3882 0
3854 -3868 3882 0
-3854 3868 3882 0
-3869 -3870 -3884 0
3869 3870 -3884 0
-3869 3870 3884 0
3869 -3870 3884 0
-3872 -3874 -3886 0
3872 3874 -3886 0
-3872 3874 3886 0
3872 -3874 3886 0
-3876 -3878 -3888 0
3876 3878 -3888 0
-3876 3878 3888 0
3876 -3878 3888 0
-3880 -3882 -3890 0
3880 3882 -3890 0
-3880 3882 3890 0
3880 -3882 3890 0
-3884 -3886 -3892 0
3884 3886 -3892 0
-3884 3886 3892 0
3884 -3886 3892 0
-3888 -3890 -3892 0
3888 3890 -3892 0
-3888 3890 3892 0
3888 -3890 3892 0
-3865 -3867 -3899 0
3865 3867 -3899 0
-3865 3867 3899 0
3865 -3867 3899 0
-3871 -3873 -3919 0
3871 3873 -3919 0
-3871 3873 3919 0
3871 -3873 3919 0
-3875 -3877 -3901 0
3875 3877 -3901 0
-3875 3877 3901 0
3875 -3877 3901 0
-3879 -3881 -3903 0
3879 3881 -3903 0
-3879 3881 3903 0
3879 -3881 3903 0
-3883 -3885 -3905 0
3883 3885 -3905 0
-3883 3885 3905 0
3883 -3885 3905 0
-3887 -3889 -3907 0
3887 3889 -3907 0
-3887 3889 3907 0
3887 -3889 3907 0
-3891 -3893 -3909 0
3891 3893 -3909 0
-3891 3893 3909 0
3891 -3893 3909 0
-3892 -3894 -3911 0
3892 3894 -3911 0
3892 -3894 3911 0
-3892 3894 3911 0
-3895 -3896 -3914 0
3895 3896 -3914 0
-3895 3896 3914 0
3895 -3896 3914 0
-3897 -3898 -3916 0
3897 3898 -3916 0
-3897 3898 3916 0
3897 -3898 3916 0
-3899 -3900 -3918 0
3899 3900 -3918 0
-3899 3900 3918 0
3899 -3900 3918 0
-3901 -3903 -3920 0
3901 3903 -3920 0
-3901 3903 3920 0
3901 -3903 3920 0
-3905 -3907 -3922 0
3905 3907 -3922 0
-3905 3907 3922 0
3905 -3907 3922 0
-3909 -3911 -3924 0
3909 3911 -3924 0
-3909 3911 3924 0
3909 -3911 3924 0
-3914 -3916 -3925 0
3914 3916 -3925 0
-3914 3916 3925 0
3914 -3916 3925 0
-3918 -3919 -3927 0
3918 3919 -3927 0
-3918 3919 3927 0
3918 -3919 3927 0
-3920 -3922 -3929 0
3920 3922 -3929 0
-3920 3922 3929 0
3920 -3922 3929 0
-3913 -3924 -3931 0
3913 3924 -3931 0
3913 -3924 3931 0
-3913 3924 3931 0
-3925 -3927 -3933 0
3925 3927 -3933 0
-3925 3927 3933 0
3925 -3927 3933 0
-3929 -3931 -3933 0
3929 3931 -3933 0
-3929 3931 3933 0
3929 -3931 3933 0
-3902 -3904 -3938 0
3902 3904 -3938 0
-3902 3904 3938 0
3902 -3904 3938 0
-3906 -3908 -3940 0
3906 3908 -3940 0
-3906 3908 3940 0
3906 -3908 3940 0
-3910 -3912 -3942 0
3910 3912 -3942 0
-3910 3912 3942 0
3910 -3912 3942 0
-3915 -3917 -3955 0
3915 3917 -3955 0
-3915 3917 3955 0
3915 -3917 3955 0
-3921 -3923 -3944 0
3921 3923 -3944 0
-3921 3923 3944 0
3921 -3923 3944 0
-3926 -3928 -3946 0
3926 3928 -3946 0
-3926 3928 3946 0
3926 -3928 3946 0
-3930 -3932 -3948 0
3930 3932 -3948 0
-3930 3932 3948 0
3930 -3932 3948 0
-3934 -3935 -3950 0
3934 3935 -3950 0
-3934 3935 3950 0
3934 -3935 3950 0
-3937 -3938 -3951 0
3937 3938 -3951 0
-3937 3938 3951 0
3937 -3938 3951 0
-3940 -3942 -3953 0
3940 3942 -3953 0
-3940 3942 3953 0
3940 -3942 3953 0
-3943 -3944 -3956 0
3943 3944 -3956 0
-3943 3944 3956 0
3943 -3944 3956 0
-3945 -3946 -3957 0
3945 3946 -3957 0
-3945 3946 3957 0
3945 -3946 3957 0
-3948 -3950 -3959 0
3948 3950 -3959 0
-3948 3950 3959 0
3948 -3950 3959 0
-3936 -3951 -3961 0
3936 3951 -3961 0
-3936 3951 3961 0
3936 -3951 3961 0
-3953 -3955 -3962 0
3953 3955 -3962 0
-3953 3955 3962 0
3953 -3955 3962 0
-3956 -3957 -3964 0
3956 3957 -3964 0
-3956 3957 3964 0
3956 -3957 3964 0
-3933 -3959 -3966 0
3933 3959 -3966 0
3933 -3959 3966 0
-3933 3959 3966 0
-3961 -3962 -3968 0
3961 3962 -3968 0
-3961 3962 3968 0
3961 -3962 3968 0
-3964 -3966 -3968 0
3964 3966 -3968 0
-3964 3966 3968 0
3964 -3966 3968 0
-3939 -3941 -3984 0
3939 3941 -3984 0
-3939 3941 3984 0
3939 -3941 3984 0
-3947 -3949 -3974 0
3947 3949 -3974 0
-3947 3949 3974 0
3947 -3949 3974 0
-3952 -3954 -3976 0
3952 3954 -3976 0
-3952 3954 3976 0
3952 -3954 3976 0
-3958 -3960 -3978 0
3958 3960 -3978 0
-3958 3960 3978 0
3958 -3960 3978 0
-3963 -3965 -3980 0
3963 3965 -3980 0
-3963 3965 3980 0
3963 -3965 3980 0
-3967 -3969 -3982 0
3967 3969 -3982 0
-3967 3969 3982 0
3967 -3969 3982 0
-3968 -3970 -3992 0
3968 3970 -3992 0
3968 -3970 3992 0
-3968 3970 3992 0
-3971 -3972 -3985 0
3971 3972 -3985 0
-3971 3972 3985 0
3971 -3972 3985 0
-3973 -3974 -3986 0
3973 3974 -3986 0
-3973 3974 3986 0
3973 -3974 3986 0
-3976 -3977 -3987 0
3976 3977 -3987 0
-3976 3977 3987 0
3976 -3977 3987 0
-3978 -3979 -3989 0
3978 3979 -3989 0
-3978 3979 3989 0
3978 -3979 3989 0
-3980 -3982 -3991 0
3980 3982 -3991 0
-3980 3982 3991 0
3980 -3982 3991 0
-3984 -3985 -3993 0
3984 3985 -3993 0
-3984 3985 3993 0
3984 -3985 3993 0
-3975 -3986 -3995 0
3975 3986 -3995 0
3975 -3986 3995 0
-3975 3986 3995 0
-3987 -3989 -3997 0
3987 3989 -3997 0
-3987 3989 3997 0
3987 -3989 3997 0
-3991 -3992 -3999 0
3991 3992 -3999 0
-3991 3992 3999 0
3991 -3992 3999 0
-3993 -3995 -4001 0
3993 3995 -4001 0
-3993 3995 4001 0
3993 -3995 4001 0
-3997 -3999 -4001 0
3997 3999 -4001 0
-3997 3999 4001 0
3997 -3999 4001 0
-3981 -3983 -4008 0
3981 3983 -4008 0
-3981 3983 4008 0
3981 -3983 4008 0
-3988 -3990 -4012 0
3988 3990 -4012 0
-3988 3990 4012 0
3988 -3990 4012 0
-3994 -3996 -4014 0
3994 3996 -4014 0
-3994 3996 4014 0
3994 -3996 4014 0
-3998 -4000 -4015 0
3998 4000 -4015 0
-3998 4000 4015 0
3998 -4000 4015 0
-4002 -4003 -4017 0
4002 4003 -4017 0
-4002 4003 4017 0
4002 -4003 4017 0
-4006 -4007 -4019 0
4006 4007 -4019 0
-4006 4007 4019 0
4006 -4007 4019 0
-4008 -4009 -4020 0
4008 4009 -4020 0
-4008 4009 4020 0
4008 -4009 4020 0
-4010 -4011 -4022 0
4010 4011 -4022 0
-4010 4011 4022 0
4010 -4011 4022 0
-4012 -4013 -4024 0
4012 4013 -4024 0
-4012 4013 4024 0
4012 -4013 4024 0
-4014 -4015 -4026 0
4014 4015 -4026 0
-4014 4015 4026 0
4014 -4015 4026 0
-4001 -4017 -4028 0
4001 4017 -4028 0
4001 -4017 4028 0
-4001 4017 4028 0
-4004 -4005 -4030 0
4004 4005 -4030 0
-4004 4005 4030 0
4004 -4005 4030 0
-4019 -4020 -4032 0
4019 4020 -4032 0
-4019 4020 4032 0
4019 -4020 4032 0
-4022 -4024 -4034 0
4022 4024 -4034 0
-4022 4024 4034 0
4022 -4024 4034 0
-4026 -4028 -4036 0
4026 4028 -4036 0
-4026 4028 4036 0
4026 -4028 4036 0
-4030 -4032 -4038 0
4030 4032 -4038 0
-4030 4032 4038 0
4030 -4032 4038 0
-4034 -4036 -4038 0
4034 4036 -4038 0
-4034 4036 4038 0
4034 -4036 4038 0
-4016 -4018 -4042 0
4016 4018 -4042 0
-4016 4018 4042 0
4016 -4018 4042 0
-4021 -4023 -4044 0
4021 4023 -4044 0
-4021 4023 4044 0
4021 -4023 4044 0
-4025 -4027 -4046 0
4025 4027 -4046 0
-4025 4027 4046 0
4025 -4027 4046 0
-4029 -4031 -4048 0
4029 4031 -4048 0
-4029 4031 4048 0
4029 -4031 4048 0
-4033 -4035 -4050 0
4033 4035 -4050 0
-4033 4035 4050 0
4033 -4035 4050 0
-4037 -4039 -4052 0
4037 4039 -4052 0
-4037 4039 4052 0
4037 -4039 4052 0
-4038 -4040 -4054 0
4038 4040 -4054 0
4038 -4040 4054 0
-4038 4040 4054 0
-4041 -4042 -4058 0
4041 4042 -4058 0
-4041 4042 4058 0
4041 -4042 4058 0
-4044 -4046 -4059 0
4044 4046 -4059 0
-4044 4046 4059 0
4044 -4046 4059 0
-4048 -4050 -4060 0
4048 4050 -4060 0
-4048 4050 4060 0
4048 -4050 4060 0
-4052 -4054 -4062 0
4052 4054 -4062 0
-4052 4054 4062 0
4052 -4054 4062 0
-4057 -4058 -4064 0
4057 4058 -4064 0
-4057 4058 4064 0
4057 -4058 4064 0
-4043 -4059 -4065 0
4043 4059 -4065 0
-4043 4059 4065 0
4043 -4059 4065 0
-4060 -4062 -4067 0
4060 4062 -4067 0
-4060 4062 4067 0
4060 -4062 4067 0
-4056 -4064 -4069 0
4056 4064 -4069 0
-4056 4064 4069 0
4056 -4064 4069 0
-4065 -4067 -4069 0
4065 4067 -4069 0
-4065 4067 4069 0
4065 -4067 4069 0
-4045 -4047 -4072 0
4045 4047 -4072 0
-4045 4047 4072 0
4045 -4047 4072 0
-4049 -4051 -4073 0
4049 4051 -4073 0
-4049 4051 4073 0
4049 -4051 4073 0
-4053 -4055 -4084 0
4053 4055 -4084 0
-4053 4055 4084 0
4053 -4055 4084 0
-4061 -4063 -4078 0
4061 4063 -4078 0
-4061 4063 4078 0
4061 -4063 4078 0
-4066 -4068 -4080 0
4066 4068 -4080 0
-4066 4068 4080 0
4066 -4068 4080 0
-4070 -4071 -4081 0
4070 4071 -4081 0
-4070 4071 4081 0
4070 -4071 4081 0
-4072 -4073 -4083 0
4072 4073 -4083 0
-4072 4073 4083 0
4072 -4073 4083 0
-4076 -4077 -4085 0
4076 4077 -4085 0
-4076 4077 4085 0
4076 -4077 4085 0
-4078 -4079 -4087 0
4078 4079 -4087 0
-4078 4079 4087 0
4078 -4079 4087 0
-4080 -4081 -4089 0
4080 4081 -4089 0
-4080 4081 4089 0
4080 -4081 4089 0
-4082 -4083 -4090 0
4082 4083 -4090 0
-4082 4083 4090 0
4082 -4083 4090 0
-4084 -4085 -4092 0
4084 4085 -4092 0
-4084 4085 4092 0
4084 -4085 4092 0
-4087 -4089 -4094 0
4087 4089 -4094 0
-4087 4089 4094 0
4087 -4089 4094 0
-4069 -4090 -4096 0
4069 4090 -4096 0
-4069 4090 4096 0
4069 -4090 4096 0
-4092 -4094 -4096 0
4092 4094 -4096 0
-4092 4094 4096 0
4092 -4094 4096 0
-4074 -4075 -4100 0
4074 4075 -4100 0
-4074 4075 4100 0
4074 -4075 4100 0
-4086 -4088 -4104 0
4086 4088 -4104 0
-4086 4088 4104 0
4086 -4088 4104 0
-4091 -4093 -4106 0
4091 4093 -4106 0
-4091 4093 4106 0
4091 -4093 4106 0
-4095 -4097 -4108 0
4095 4097 -4108 0
-4095 4097 4108 0
4095 -4097 4108 0
-4096 -4098 -4117 0
4096 4098 -4117 0
4096 -4098 4117 0
-4096 4098 4117 0
-4099 -4100 -4110 0
4099 4100 -4110 0
-4099 4100 4110 0
4099 -4100 4110 0
-4101 -4102 -4112 0
4101 4102 -4112 0
-4101 4102 4112 0
4101 -4102 4112 0
-4104 -4105 -4113 0
4104 4105 -4113 0
-4104 4105 4113 0
4104 -4105 4113 0
-4106 -4108 -4115 0
4106 4108 -4115 0
-4106 4108 4115 0
4106 -4108 4115 0
-4110 -4111 -4118 0
4110 4111 -4118 0
-4110 4111 4118 0
4110 -4111 4118 0
-4103 -4112 -4119 0
4103 4112 -4119 0
4103 -4112 4119 0
-4103 4112 4119 0
-4113 -4115 -4121 0
4113 4115 -4121 0
-4113 4115 4121 0
4113 -4115 4121 0
-4117 -4118 -4123 0
4117 4118 -4123 0
-4117 4118 4123 0
4117 -4118 4123 0
-4119 -4121 -4123 0
4119 4121 -4123 0
-4119 4121 4123 0
4119 -4121 4123 0
-4107 -4109 -4127 0
4107 4109 -4127 0
-4107 4109 4127 0
4107 -4109 4127 0
-4114 -4116 -4131 0
4114 4116 -4131 0
-4114 4116 4131 0
4114 -4116 4131 0
-4120 -4122 -4133 0
4120 4122 -4133 0
-4120 4122 4133 0
4120 -4122 4133 0
-4124 -4125 -4135 0
4124 4125 -4135 0
-4124 4125 4135 0
4124 -4125 4135 0
-4126 -4127 -4137 0
4126 4127 -4137 0
-4126 4127 4137 0
4126 -4127 4137 0
-4128 -4129 -4138 0
4128 4129 -4138 0
-4128 4129 4138 0
4128 -4129 4138 0
-4130 -4131 -4140 0
4130 4131 -4140 0
-4130 4131 4140 0
4130 -4131 4140 0
-4132 -4133 -4142 0
4132 4133 -4142 0
-4132 4133 4142 0
4132 -4133 4142 0
-4123 -4135 -4144 0
4123 4135 -4144 0
4123 -4135 4144 0
-4123 4135 4144 0
-4137 -4138 -4147 0
4137 4138 -4147 0
-4137 4138 4147 0
4137 -4138 4147 0
-4140 -4142 -4148 0
4140 4142 -4148 0
-4140 4142 4148 0
4140 -4142 4148 0
-4144 -4146 -4150 0
4144 4146 -4150 0
-4144 4146 4150 0
4144 -4146 4150 0
-4147 -4148 -4150 0
4147 4148 -4150 0
-4147 4148 4150 0
4147 -4148 4150 0
-4134 -4136 -4162 0
4134 4136 -4162 0
-4134 4136 4162 0
4134 -4136 4162 0
-4139 -4141 -4155 0
4139 4141 -4155 0
-4139 4141 4155 0
4139 -4141 4155 0
-4143 -4145 -4156 0
4143 4145 -4156 0
-4143 4145 4156 0
4143 -4145 4156 0
-4149 -4151 -4158 0
4149 4151 -4158 0
-4149 4151 4158 0
4149 -4151 4158 0
-4150 -4152 -4160 0
4150 4152 -4160 0
4150 -4152 4160 0
-4150 4152 4160 0
-4154 -4155 -4163 0
4154 4155 -4163 0
-4154 4155 4163 0
4154 -4155 4163 0
-4156 -4157 -4165 0
4156 4157 -4165 0
-4156 4157 4165 0
4156 -4157 4165 0
-4158 -4160 -4167 0
4158 4160 -4167 0
-4158 4160 4167 0
4158 -4160 4167 0
-4153 -4162 -4169 0
4153 4162 -4169 0
-4153 4162 4169 0
4153 -4162 4169 0
-4163 -4165 -4171 0
4163 4165 -4171 0
-4163 4165 4171 0
4163 -4165 4171 0
-4167 -4168 -4173 0
4167 4168 -4173 0
-4167 4168 4173 0
4167 -4168 4173 0
-4169 -4171 -4173 0
4169 4171 -4173 0
-4169 4171 4173 0
4169 -4171 4173 0
-4159 -4161 -4179 0
4159 4161 -4179 0
-4159 4161 4179 0
4159 -4161 4179 0
-4164 -4166 -4180 0
4164 4166 -4180 0
-4164 4166 4180 0
4164 -4166 4180 0
-4170 -4172 -4182 0
4170 4172 -4182 0
-4170 4172 4182 0
4170 -4172 4182 0
-4174 -4175 -4183 0
4174 4175 -4183 0
-4174 4175 4183 0
4174 -4175 4183 0
-4176 -4177 -4184 0
4176 4177 -4184 0
-4176 4177 4184 0
4176 -4177 4184 0
-4178 -4179 -4185 0
4178 4179 -4185 0
-4178 4179 4185 0
4178 -4179 4185 0
-4180 -4181 -4190 0
4180 4181 -4190 0
-4180 4181 4190 0
4180 -4181 4190 0
-4182 -4183 -4187 0
4182 4183 -4187 0
-4182 4183 4187 0
4182 -4183 4187 0
-4184 -4185 -4189 0
4184 4185 -4189 0
-4184 4185 4189 0
4184 -4185 4189 0
-4173 -4187 -4191 0
4173 4187 -4191 0
4173 -4187 4191 0
-4173 4187 4191 0
-4189 -4190 -4191 0
4189 4190 -4191 0
-4189 4190 4191 0
4189 -4190 4191 0
-4186 -4188 -4199 0
4186 4188 -4199 0
-4186 4188 4199 0
4186 -4188 4199 0
-4191 -4192 -4208 0
4191 4192 -4208 0
4191 -4192 4208 0
-4191 4192 4208 0
-4194 -4195 -4202 0
4194 4195 -4202 0
-4194 4195 4202 0
4194 -4195 4202 0
-4196 -4197 -4203 0
4196 4197 -4203 0
-4196 4197 4203 0
4196 -4197 4203 0
-4198 -4199 -4205 0
4198 4199 -4205 0
-4198 4199 4205 0
4198 -4199 4205 0
-4200 -4201 -4207 0
4200 4201 -4207 0
-4200 4201 4207 0
4200 -4201 4207 0
-4193 -4202 -4209 0
4193 4202 -4209 0
-4193 4202 4209 0
4193 -4202 4209 0
-4203 -4205 -4211 0
4203 4205 -4211 0
-4203 4205 4211 0
4203 -4205 4211 0
-4207 -4208 -4213 0
4207 4208 -4213 0
-4207 4208 4213 0
4207 -4208 4213 0
-4209 -4211 -4213 0
4209 4211 -4213 0
-4209 4211 4213 0
4209 -4211 4213 0
-4204 -4206 -4218 0
4204 4206 -4218 0
-4204 4206 4218 0
4204 -4206 4218 0
-4210 -4212 -4220 0
4210 4212 -4220 0
-4210 4212 4220 0
4210 -4212 4220 0
-4214 -4215 -4222 0
4214 4215 -4222 0
-4214 4215 4222 0
4214 -4215 4222 0
-4217 -4218 -4225 0
4217 4218 -4225 0
-4217 4218 4225 0
4217 -4218 4225 0
-4219 -4220 -4227 0
4219 4220 -4227 0
-4219 4220 4227 0
4219 -4220 4227 0
-4213 -4222 -4229 0
4213 4222 -4229 0
4213 -4222 4229 0
-4213 4222 4229 0
-4216 -4225 -4230 0
4216 4225 -4230 0
-4216 4225 4230 0
4216 -4225 4230 0
-4227 -4229 -4232 0
4227 4229 -4232 0
-4227 4229 4232 0
4227 -4229 4232 0
-4224 -4230 -4232 0
4224 4230 -4232 0
-4224 4230 4232 0
4224 -4230 4232 0
-4221 -4223 -4236 0
4221 4223 -4236 0
-4221 4223 4236 0
4221 -4223 4236 0
-4226 -4228 -4237 0
4226 4228 -4237 0
-4226 4228 4237 0
4226 -4228 4237 0
-4231 -4233 -4239 0
4231 4233 -4239 0
-4231 4233 4239 0
4231 -4233 4239 0
-4232 -4234 -4241 0
4232 4234 -4241 0
4232 -4234 4241 0
-4232 4234 4241 0
-4235 -4236 -4247 0
4235 4236 -4247 0
-4235 4236 4247 0
4235 -4236 4247 0
-4237 -4238 -4243 0
4237 4238 -4243 0
-4237 4238 4243 0
4237 -4238 4243 0
-4239 -4241 -4245 0
4239 4241 -4245 0
-4239 4241 4245 0
4239 -4241 4245 0
-4243 -4245 -4247 0
4243 4245 -4247 0
-4243 4245 4247 0
4243 -4245 4247 0
-4240 -4242 -4253 0
4240 4242 -4253 0
-4240 4242 4253 0
4240 -4242 4253 0
-4244 -4246 -4250 0
4244 4246 -4250 0
-4244 4246 4250 0
4244 -4246 4250 0
-4249 -4250 -4254 0
4249 4250 -4254 0
-4249 4250 4254 0
4249 -4250 4254 0
-4247 -4248 -4255 0
4247 4248 -4255 0
-4247 4248 4255 0
4247 -4248 4255 0
-4252 -4253 -4256 0
4252 4253 -4256 0
-4252 4253 4256 0
4252 -4253 4256 0
-4251 -4254 -4258 0
4251 4254 -4258 0
4251 -4254 4258 0
-4251 4254 4258 0
-4255 -4256 -4258 0
4255 4256 -4258 0
-4255 4256 4258 0
4255 -4256 4258 0
-4257 -4259 -4264 0
4257 4259 -4264 0
-4257 4259 4264 0
4257 -4259 4264 0
-4258 -4260 -4267 0
4258 4260 -4267 0
4258 -4260 4267 0
-4258 4260 4267 0
-4263 -4264 -4266 0
4263 4264 -4266 0
-4263 4264 4266 0
4263 -4264 4266 0
-4261 -4265 -4268 0
4261 4265 -4268 0
4261 -4265 4268 0
-4261 4265 4268 0
-4262 -4266 -4269 0
4262 4266 -4269 0
-4262 4266 4269 0
4262 -4266 4269 0
-4267 -4268 -4269 0
4267 4268 -4269 0
-4267 4268 4269 0
4267 -4268 4269 0
-4270 -4271 -4275 0
4270 4271 -4275 0
-4270 4271 4275 0
4270 -4271 4275 0
-4273 -4274 -4277 0
4273 4274 -4277 0
-4273 4274 4277 0
4273 -4274 4277 0
-4269 -4275 -4279 0
4269 4275 -4279 0
4269 -4275 4279 0
-4269 4275 4279 0
-4272 -4277 -4281 0
4272 4277 -4281 0
-4272 4277 4281 0
4272 -4277 4281 0
-4276 -4279 -4281 0
4276 4279 -4281 0
4276 -4279 4281 0
-4276 4279 4281 0
-4278 -4280 -4286 0
4278 4280 -4286 0
-4278 4280 4286 0
4278 -4280 4286 0
-4281 -4282 -4284 0
4281 4282 -4284 0
4281 -4282 4284 0
-4281 4282 4284 0
-4283 -4284 -4287 0
4283 4284 -4287 0
-4283 4284 4287 0
4283 -4284 4287 0
-4285 -4286 -4287 0
4285 4286 -4287 0
-4285 4286 4287 0
4285 -4286 4287 0
-4288 -4289 -4293 0
4288 4289 -4293 0
-4288 4289 4293 0
4288 -4289 4293 0
-4290 -4291 -4292 0
4290 4291 -4292 0
-4290 4291 4292 0
4290 -4291 4292 0
-4287 -4292 -4293 0
4287 4292 -4293 0
4287 -4292 4293 0
-4287 4292 4293 0
-4293 -4294 -4296 0
4293 4294 -4296 0
4293 -4294 4296 0
-4293 4294 4296 0
-4295 -4296 -4297 0
4295 4296 -4297 0
-4295 4296 4297 0
4295 -4296 4297 0
4297 -4298 4299 0
-4297 4298 4299 0
