c Factorization SAT instance #34: N = 106241 = 131 x 811
c p = 131 (8 bits), q = 811 (10 bits)
c N = 106241 (17 bits)
c Generator: generate_instances.py  d=3, k=50, seed=None
p cnf 4017 14216
-1 -2 10 0
1 -10 0
2 -10 0
-1 -3 11 0
1 -11 0
3 -11 0
-1 -4 12 0
1 -12 0
4 -12 0
-1 -5 13 0
1 -13 0
5 -13 0
-1 -6 14 0
1 -14 0
6 -14 0
-1 -7 15 0
1 -15 0
7 -15 0
-1 -8 16 0
1 -16 0
8 -16 0
-1 -9 17 0
1 -17 0
9 -17 0
-1 -18 19 0
18 -19 0
1 -19 0
-2 -18 20 0
18 -20 0
2 -20 0
-3 -18 21 0
18 -21 0
3 -21 0
-4 -18 22 0
18 -22 0
4 -22 0
-5 -18 23 0
18 -23 0
5 -23 0
-6 -18 24 0
18 -24 0
6 -24 0
-7 -18 25 0
18 -25 0
7 -25 0
-8 -18 26 0
18 -26 0
8 -26 0
-9 -18 27 0
18 -27 0
9 -27 0
-1 -28 29 0
28 -29 0
1 -29 0
-2 -28 30 0
28 -30 0
2 -30 0
-3 -28 31 0
28 -31 0
3 -31 0
-4 -28 32 0
28 -32 0
4 -32 0
-5 -28 33 0
28 -33 0
5 -33 0
-6 -28 34 0
28 -34 0
6 -34 0
-7 -28 35 0
28 -35 0
7 -35 0
-8 -28 36 0
28 -36 0
8 -36 0
-9 -28 37 0
28 -37 0
9 -37 0
-1 -38 39 0
38 -39 0
1 -39 0
-2 -38 40 0
38 -40 0
2 -40 0
-3 -38 41 0
38 -41 0
3 -41 0
-4 -38 42 0
38 -42 0
4 -42 0
-5 -38 43 0
38 -43 0
5 -43 0
-6 -38 44 0
38 -44 0
6 -44 0
-7 -38 45 0
38 -45 0
7 -45 0
-8 -38 46 0
38 -46 0
8 -46 0
-9 -38 47 0
38 -47 0
9 -47 0
-1 -48 49 0
48 -49 0
1 -49 0
-2 -48 50 0
48 -50 0
2 -50 0
-3 -48 51 0
48 -51 0
3 -51 0
-4 -48 52 0
48 -52 0
4 -52 0
-5 -48 53 0
48 -53 0
5 -53 0
-6 -48 54 0
48 -54 0
6 -54 0
-7 -48 55 0
48 -55 0
7 -55 0
-8 -48 56 0
48 -56 0
8 -56 0
-9 -48 57 0
48 -57 0
9 -57 0
-1 -58 59 0
58 -59 0
1 -59 0
-2 -58 60 0
58 -60 0
2 -60 0
-3 -58 61 0
58 -61 0
3 -61 0
-4 -58 62 0
58 -62 0
4 -62 0
-5 -58 63 0
58 -63 0
5 -63 0
-6 -58 64 0
58 -64 0
6 -64 0
-7 -58 65 0
58 -65 0
7 -65 0
-8 -58 66 0
58 -66 0
8 -66 0
-9 -58 67 0
58 -67 0
9 -67 0
-1 -68 69 0
68 -69 0
1 -69 0
-2 -68 70 0
68 -70 0
2 -70 0
-3 -68 71 0
68 -71 0
3 -71 0
-4 -68 72 0
68 -72 0
4 -72 0
-5 -68 73 0
68 -73 0
5 -73 0
-6 -68 74 0
68 -74 0
6 -74 0
-7 -68 75 0
68 -75 0
7 -75 0
-8 -68 76 0
68 -76 0
8 -76 0
-9 -68 77 0
68 -77 0
9 -77 0
-1 -2 79 0
2 -79 0
1 -79 0
-1 -18 80 0
18 -80 0
1 -80 0
-3 -10 82 0
3 -82 0
10 -82 0
-19 -28 84 0
19 -84 0
28 -84 0
-79 -80 86 0
79 -86 0
80 -86 0
-78 -81 88 0
78 -88 0
81 -88 0
-83 -85 89 0
83 -89 0
85 -89 0
-4 -11 91 0
4 -91 0
11 -91 0
-20 -29 93 0
20 -93 0
29 -93 0
-38 -82 95 0
38 -95 0
82 -95 0
-84 -86 97 0
84 -97 0
86 -97 0
-88 -89 99 0
88 -99 0
89 -99 0
-87 -90 101 0
87 -101 0
90 -101 0
-92 -94 103 0
92 -103 0
94 -103 0
-96 -98 105 0
96 -105 0
98 -105 0
-100 -102 106 0
100 -106 0
102 -106 0
-5 -12 108 0
5 -108 0
12 -108 0
-21 -30 110 0
21 -110 0
30 -110 0
-39 -48 112 0
39 -112 0
48 -112 0
-91 -93 114 0
91 -114 0
93 -114 0
-95 -97 116 0
95 -116 0
97 -116 0
-99 -101 118 0
99 -118 0
101 -118 0
-103 -105 120 0
103 -120 0
105 -120 0
-104 -106 122 0
106 -122 0
104 -122 0
-107 -109 124 0
107 -124 0
109 -124 0
-111 -113 126 0
111 -126 0
113 -126 0
-115 -117 128 0
115 -128 0
117 -128 0
-119 -121 130 0
119 -130 0
121 -130 0
-123 -125 132 0
123 -132 0
125 -132 0
-127 -129 133 0
127 -133 0
129 -133 0
-6 -13 135 0
6 -135 0
13 -135 0
-22 -31 137 0
22 -137 0
31 -137 0
-40 -49 139 0
40 -139 0
49 -139 0
-58 -108 141 0
58 -141 0
108 -141 0
-110 -112 143 0
110 -143 0
112 -143 0
-114 -116 145 0
114 -145 0
116 -145 0
-118 -120 147 0
118 -147 0
120 -147 0
-122 -124 149 0
122 -149 0
124 -149 0
-126 -128 151 0
126 -151 0
128 -151 0
-130 -132 153 0
130 -153 0
132 -153 0
-131 -133 155 0
133 -155 0
131 -155 0
-134 -136 157 0
134 -157 0
136 -157 0
-138 -140 159 0
138 -159 0
140 -159 0
-142 -144 161 0
142 -161 0
144 -161 0
-146 -148 163 0
146 -163 0
148 -163 0
-150 -152 165 0
150 -165 0
152 -165 0
-154 -156 167 0
154 -167 0
156 -167 0
-158 -160 169 0
158 -169 0
160 -169 0
-162 -164 171 0
162 -171 0
164 -171 0
-166 -168 172 0
166 -172 0
168 -172 0
-7 -14 174 0
7 -174 0
14 -174 0
-23 -32 176 0
23 -176 0
32 -176 0
-41 -50 178 0
41 -178 0
50 -178 0
-59 -68 180 0
59 -180 0
68 -180 0
-135 -137 182 0
135 -182 0
137 -182 0
-139 -141 184 0
139 -184 0
141 -184 0
-143 -145 186 0
143 -186 0
145 -186 0
-147 -149 188 0
147 -188 0
149 -188 0
-151 -153 190 0
151 -190 0
153 -190 0
-155 -157 192 0
155 -192 0
157 -192 0
-159 -161 194 0
159 -194 0
161 -194 0
-163 -165 196 0
163 -196 0
165 -196 0
-167 -169 198 0
167 -198 0
169 -198 0
-171 -172 200 0
171 -200 0
172 -200 0
-170 -173 202 0
170 -202 0
173 -202 0
-175 -177 204 0
175 -204 0
177 -204 0
-179 -181 206 0
179 -206 0
181 -206 0
-183 -185 208 0
183 -208 0
185 -208 0
-187 -189 210 0
187 -210 0
189 -210 0
-191 -193 212 0
191 -212 0
193 -212 0
-195 -197 214 0
195 -214 0
197 -214 0
-199 -201 216 0
199 -216 0
201 -216 0
-203 -205 218 0
203 -218 0
205 -218 0
-207 -209 220 0
207 -220 0
209 -220 0
-211 -213 222 0
211 -222 0
213 -222 0
-215 -217 224 0
215 -224 0
217 -224 0
-219 -221 225 0
219 -225 0
221 -225 0
-8 -15 227 0
8 -227 0
15 -227 0
-24 -33 229 0
24 -229 0
33 -229 0
-42 -51 231 0
42 -231 0
51 -231 0
-60 -69 233 0
60 -233 0
69 -233 0
-174 -176 235 0
174 -235 0
176 -235 0
-178 -180 237 0
178 -237 0
180 -237 0
-182 -184 239 0
182 -239 0
184 -239 0
-186 -188 241 0
186 -241 0
188 -241 0
-190 -192 243 0
190 -243 0
192 -243 0
-194 -196 245 0
194 -245 0
196 -245 0
-198 -200 247 0
198 -247 0
200 -247 0
-202 -204 249 0
202 -249 0
204 -249 0
-206 -208 251 0
206 -251 0
208 -251 0
-210 -212 253 0
210 -253 0
212 -253 0
-214 -216 255 0
214 -255 0
216 -255 0
-218 -220 257 0
218 -257 0
220 -257 0
-222 -224 259 0
222 -259 0
224 -259 0
-223 -225 261 0
225 -261 0
223 -261 0
-226 -228 263 0
226 -263 0
228 -263 0
-230 -232 265 0
230 -265 0
232 -265 0
-234 -236 267 0
234 -267 0
236 -267 0
-238 -240 269 0
238 -269 0
240 -269 0
-242 -244 271 0
242 -271 0
244 -271 0
-246 -248 273 0
246 -273 0
248 -273 0
-250 -252 275 0
250 -275 0
252 -275 0
-254 -256 277 0
254 -277 0
256 -277 0
-258 -260 279 0
258 -279 0
260 -279 0
-262 -264 281 0
262 -281 0
264 -281 0
-266 -268 283 0
266 -283 0
268 -283 0
-270 -272 285 0
270 -285 0
272 -285 0
-274 -276 287 0
274 -287 0
276 -287 0
-278 -280 289 0
278 -289 0
280 -289 0
-282 -284 291 0
282 -291 0
284 -291 0
-286 -288 292 0
286 -292 0
288 -292 0
-9 -16 293 0
9 -293 0
16 -293 0
-25 -34 295 0
25 -295 0
34 -295 0
-43 -52 297 0
43 -297 0
52 -297 0
-61 -70 299 0
61 -299 0
70 -299 0
-227 -229 301 0
227 -301 0
229 -301 0
-231 -233 303 0
231 -303 0
233 -303 0
-235 -237 305 0
235 -305 0
237 -305 0
-239 -241 307 0
239 -307 0
241 -307 0
-243 -245 309 0
243 -309 0
245 -309 0
-247 -249 311 0
247 -311 0
249 -311 0
-251 -253 313 0
251 -313 0
253 -313 0
-255 -257 315 0
255 -315 0
257 -315 0
-259 -261 317 0
259 -317 0
261 -317 0
-263 -265 319 0
263 -319 0
265 -319 0
-267 -269 321 0
267 -321 0
269 -321 0
-271 -273 323 0
271 -323 0
273 -323 0
-275 -277 325 0
275 -325 0
277 -325 0
-279 -281 327 0
279 -327 0
281 -327 0
-283 -285 329 0
283 -329 0
285 -329 0
-287 -289 331 0
287 -331 0
289 -331 0
-291 -292 333 0
291 -333 0
292 -333 0
-294 -296 398 0
294 -398 0
296 -398 0
-298 -300 337 0
298 -337 0
300 -337 0
-302 -304 339 0
302 -339 0
304 -339 0
-306 -308 341 0
306 -341 0
308 -341 0
-310 -312 343 0
310 -343 0
312 -343 0
-314 -316 345 0
314 -345 0
316 -345 0
-318 -320 347 0
318 -347 0
320 -347 0
-322 -324 349 0
322 -349 0
324 -349 0
-326 -328 351 0
326 -351 0
328 -351 0
-330 -332 353 0
330 -353 0
332 -353 0
-334 -335 355 0
334 -355 0
335 -355 0
-336 -338 357 0
336 -357 0
338 -357 0
-340 -342 359 0
340 -359 0
342 -359 0
-344 -346 361 0
344 -361 0
346 -361 0
-348 -350 363 0
348 -363 0
350 -363 0
-352 -354 365 0
352 -365 0
354 -365 0
-356 -358 367 0
356 -367 0
358 -367 0
-360 -362 369 0
360 -369 0
362 -369 0
-364 -366 370 0
364 -370 0
366 -370 0
-17 -26 371 0
17 -371 0
26 -371 0
-35 -44 373 0
35 -373 0
44 -373 0
-53 -62 375 0
53 -375 0
62 -375 0
-71 -293 377 0
71 -377 0
293 -377 0
-295 -297 379 0
295 -379 0
297 -379 0
-299 -301 381 0
299 -381 0
301 -381 0
-303 -305 383 0
303 -383 0
305 -383 0
-307 -309 385 0
307 -385 0
309 -385 0
-311 -313 387 0
311 -387 0
313 -387 0
-315 -317 389 0
315 -389 0
317 -389 0
-319 -321 391 0
319 -391 0
321 -391 0
-323 -325 393 0
323 -393 0
325 -393 0
-327 -329 395 0
327 -395 0
329 -395 0
-331 -333 397 0
331 -397 0
333 -397 0
-337 -339 477 0
337 -477 0
339 -477 0
-341 -343 401 0
341 -401 0
343 -401 0
-345 -347 403 0
345 -403 0
347 -403 0
-349 -351 405 0
349 -405 0
351 -405 0
-353 -355 407 0
353 -407 0
355 -407 0
-357 -359 409 0
357 -409 0
359 -409 0
-361 -363 411 0
361 -411 0
363 -411 0
-365 -367 413 0
365 -413 0
367 -413 0
-369 -370 415 0
369 -415 0
370 -415 0
-372 -374 486 0
372 -486 0
374 -486 0
-376 -378 419 0
376 -419 0
378 -419 0
-380 -382 421 0
380 -421 0
382 -421 0
-384 -386 423 0
384 -423 0
386 -423 0
-388 -390 425 0
388 -425 0
390 -425 0
-392 -394 427 0
392 -427 0
394 -427 0
-396 -398 429 0
396 -429 0
398 -429 0
-399 -400 431 0
399 -431 0
400 -431 0
-402 -404 433 0
402 -433 0
404 -433 0
-406 -408 435 0
406 -435 0
408 -435 0
-410 -412 437 0
410 -437 0
412 -437 0
-414 -416 439 0
414 -439 0
416 -439 0
-417 -418 441 0
417 -441 0
418 -441 0
-420 -422 443 0
420 -443 0
422 -443 0
-424 -426 445 0
424 -445 0
426 -445 0
-428 -430 447 0
428 -447 0
430 -447 0
-432 -434 449 0
432 -449 0
434 -449 0
-436 -438 451 0
436 -451 0
438 -451 0
-440 -442 453 0
440 -453 0
442 -453 0
-444 -446 455 0
444 -455 0
446 -455 0
-448 -450 457 0
448 -457 0
450 -457 0
-452 -454 505 0
452 -505 0
454 -505 0
-27 -36 459 0
27 -459 0
36 -459 0
-45 -54 461 0
45 -461 0
54 -461 0
-63 -72 463 0
63 -463 0
72 -463 0
-371 -373 465 0
371 -465 0
373 -465 0
-375 -377 467 0
375 -467 0
377 -467 0
-379 -381 469 0
379 -469 0
381 -469 0
-383 -385 471 0
383 -471 0
385 -471 0
-387 -389 473 0
387 -473 0
389 -473 0
-391 -393 475 0
391 -475 0
393 -475 0
-395 -397 567 0
395 -567 0
397 -567 0
-401 -403 479 0
401 -479 0
403 -479 0
-405 -407 481 0
405 -481 0
407 -481 0
-409 -411 483 0
409 -483 0
411 -483 0
-413 -415 485 0
413 -485 0
415 -485 0
-419 -421 572 0
419 -572 0
421 -572 0
-423 -425 489 0
423 -489 0
425 -489 0
-427 -429 491 0
427 -491 0
429 -491 0
-431 -433 493 0
431 -493 0
433 -493 0
-435 -437 495 0
435 -495 0
437 -495 0
-439 -441 497 0
439 -497 0
441 -497 0
-443 -445 499 0
443 -499 0
445 -499 0
-447 -449 501 0
447 -501 0
449 -501 0
-451 -453 503 0
451 -503 0
453 -503 0
-455 -457 579 0
455 -579 0
457 -579 0
-458 -460 507 0
458 -507 0
460 -507 0
-462 -464 509 0
462 -509 0
464 -509 0
-466 -468 511 0
466 -511 0
468 -511 0
-470 -472 513 0
470 -513 0
472 -513 0
-474 -476 515 0
474 -515 0
476 -515 0
-477 -478 517 0
477 -517 0
478 -517 0
-480 -482 519 0
480 -519 0
482 -519 0
-484 -486 521 0
484 -521 0
486 -521 0
-487 -488 523 0
487 -523 0
488 -523 0
-490 -492 525 0
490 -525 0
492 -525 0
-494 -496 527 0
494 -527 0
496 -527 0
-498 -500 529 0
498 -529 0
500 -529 0
-502 -504 531 0
502 -531 0
504 -531 0
-505 -506 533 0
505 -533 0
506 -533 0
-508 -510 535 0
508 -535 0
510 -535 0
-512 -514 537 0
512 -537 0
514 -537 0
-516 -518 539 0
516 -539 0
518 -539 0
-520 -522 541 0
520 -541 0
522 -541 0
-524 -526 543 0
524 -543 0
526 -543 0
-528 -530 545 0
528 -545 0
530 -545 0
-532 -534 547 0
532 -547 0
534 -547 0
-536 -538 549 0
536 -549 0
538 -549 0
-540 -542 551 0
540 -551 0
542 -551 0
-544 -546 553 0
544 -553 0
546 -553 0
-548 -550 604 0
548 -604 0
550 -604 0
-37 -46 555 0
37 -555 0
46 -555 0
-55 -64 557 0
55 -557 0
64 -557 0
-73 -459 559 0
73 -559 0
459 -559 0
-461 -463 561 0
461 -561 0
463 -561 0
-465 -467 563 0
465 -563 0
467 -563 0
-469 -471 565 0
469 -565 0
471 -565 0
-473 -475 666 0
473 -666 0
475 -666 0
-479 -481 569 0
479 -569 0
481 -569 0
-483 -485 571 0
483 -571 0
485 -571 0
-489 -491 668 0
489 -668 0
491 -668 0
-493 -495 575 0
493 -575 0
495 -575 0
-497 -499 577 0
497 -577 0
499 -577 0
-501 -503 670 0
501 -670 0
503 -670 0
-507 -509 581 0
507 -581 0
509 -581 0
-511 -513 583 0
511 -583 0
513 -583 0
-515 -517 585 0
515 -585 0
517 -585 0
-519 -521 587 0
519 -587 0
521 -587 0
-523 -525 589 0
523 -589 0
525 -589 0
-527 -529 591 0
527 -591 0
529 -591 0
-531 -533 593 0
531 -593 0
533 -593 0
-535 -537 595 0
535 -595 0
537 -595 0
-539 -541 597 0
539 -597 0
541 -597 0
-543 -545 599 0
543 -599 0
545 -599 0
-547 -549 601 0
547 -601 0
549 -601 0
-551 -553 603 0
551 -603 0
553 -603 0
-554 -556 681 0
554 -681 0
556 -681 0
-558 -560 607 0
558 -607 0
560 -607 0
-562 -564 609 0
562 -609 0
564 -609 0
-566 -567 611 0
566 -611 0
567 -611 0
-568 -570 613 0
568 -613 0
570 -613 0
-572 -573 615 0
572 -615 0
573 -615 0
-574 -576 617 0
574 -617 0
576 -617 0
-578 -579 619 0
578 -619 0
579 -619 0
-580 -582 621 0
580 -621 0
582 -621 0
-584 -586 623 0
584 -623 0
586 -623 0
-588 -590 625 0
588 -625 0
590 -625 0
-592 -594 627 0
592 -627 0
594 -627 0
-596 -598 629 0
596 -629 0
598 -629 0
-600 -602 631 0
600 -631 0
602 -631 0
-604 -605 633 0
604 -633 0
605 -633 0
-606 -608 635 0
606 -635 0
608 -635 0
-610 -612 637 0
610 -637 0
612 -637 0
-614 -616 639 0
614 -639 0
616 -639 0
-618 -620 641 0
618 -641 0
620 -641 0
-622 -624 643 0
622 -643 0
624 -643 0
-626 -628 645 0
626 -645 0
628 -645 0
-630 -632 647 0
630 -647 0
632 -647 0
-634 -636 649 0
634 -649 0
636 -649 0
-638 -640 651 0
638 -651 0
640 -651 0
-642 -644 653 0
642 -653 0
644 -653 0
-646 -648 655 0
646 -655 0
648 -655 0
-650 -652 656 0
650 -656 0
652 -656 0
-47 -56 657 0
47 -657 0
56 -657 0
-65 -74 659 0
65 -659 0
74 -659 0
-555 -557 661 0
555 -661 0
557 -661 0
-559 -561 663 0
559 -663 0
561 -663 0
-563 -565 665 0
563 -665 0
565 -665 0
-569 -571 771 0
569 -771 0
571 -771 0
-575 -577 772 0
575 -772 0
577 -772 0
-581 -583 773 0
581 -773 0
583 -773 0
-585 -587 673 0
585 -673 0
587 -673 0
-589 -591 675 0
589 -675 0
591 -675 0
-593 -595 677 0
593 -677 0
595 -677 0
-597 -599 679 0
597 -679 0
599 -679 0
-601 -603 776 0
601 -776 0
603 -776 0
-607 -609 683 0
607 -683 0
609 -683 0
-611 -613 685 0
611 -685 0
613 -685 0
-615 -617 687 0
615 -687 0
617 -687 0
-619 -621 689 0
619 -689 0
621 -689 0
-623 -625 691 0
623 -691 0
625 -691 0
-627 -629 693 0
627 -693 0
629 -693 0
-631 -633 695 0
631 -695 0
633 -695 0
-635 -637 697 0
635 -697 0
637 -697 0
-639 -641 699 0
639 -699 0
641 -699 0
-643 -645 701 0
643 -701 0
645 -701 0
-647 -649 703 0
647 -703 0
649 -703 0
-651 -653 705 0
651 -705 0
653 -705 0
-655 -656 789 0
655 -789 0
656 -789 0
-658 -660 709 0
658 -709 0
660 -709 0
-662 -664 711 0
662 -711 0
664 -711 0
-666 -667 713 0
666 -713 0
667 -713 0
-668 -669 715 0
668 -715 0
669 -715 0
-670 -671 717 0
670 -717 0
671 -717 0
-672 -674 719 0
672 -719 0
674 -719 0
-676 -678 721 0
676 -721 0
678 -721 0
-680 -681 723 0
680 -723 0
681 -723 0
-682 -684 725 0
682 -725 0
684 -725 0
-686 -688 727 0
686 -727 0
688 -727 0
-690 -692 729 0
690 -729 0
692 -729 0
-694 -696 731 0
694 -731 0
696 -731 0
-698 -700 733 0
698 -733 0
700 -733 0
-702 -704 735 0
702 -735 0
704 -735 0
-706 -707 737 0
706 -737 0
707 -737 0
-708 -710 739 0
708 -739 0
710 -739 0
-712 -714 741 0
712 -741 0
714 -741 0
-716 -718 743 0
716 -743 0
718 -743 0
-720 -722 745 0
720 -745 0
722 -745 0
-724 -726 747 0
724 -747 0
726 -747 0
-728 -730 749 0
728 -749 0
730 -749 0
-732 -734 751 0
732 -751 0
734 -751 0
-736 -738 753 0
736 -753 0
738 -753 0
-740 -742 755 0
740 -755 0
742 -755 0
-744 -746 757 0
744 -757 0
746 -757 0
-748 -750 759 0
748 -759 0
750 -759 0
-752 -754 761 0
752 -761 0
754 -761 0
-756 -758 762 0
756 -762 0
758 -762 0
-57 -66 764 0
57 -764 0
66 -764 0
-75 -657 766 0
75 -766 0
657 -766 0
-659 -661 768 0
659 -768 0
661 -768 0
-663 -665 770 0
663 -770 0
665 -770 0
-673 -675 881 0
673 -881 0
675 -881 0
-677 -679 882 0
677 -882 0
679 -882 0
-683 -685 778 0
683 -778 0
685 -778 0
-687 -689 780 0
687 -780 0
689 -780 0
-691 -693 782 0
691 -782 0
693 -782 0
-695 -697 784 0
695 -784 0
697 -784 0
-699 -701 786 0
699 -786 0
701 -786 0
-703 -705 788 0
703 -788 0
705 -788 0
-709 -711 888 0
709 -888 0
711 -888 0
-713 -715 792 0
713 -792 0
715 -792 0
-717 -719 794 0
717 -794 0
719 -794 0
-721 -723 796 0
721 -796 0
723 -796 0
-725 -727 798 0
725 -798 0
727 -798 0
-729 -731 800 0
729 -800 0
731 -800 0
-733 -735 802 0
733 -802 0
735 -802 0
-737 -739 804 0
737 -804 0
739 -804 0
-741 -743 806 0
741 -806 0
743 -806 0
-745 -747 808 0
745 -808 0
747 -808 0
-749 -751 810 0
749 -810 0
751 -810 0
-753 -755 812 0
753 -812 0
755 -812 0
-757 -759 814 0
757 -814 0
759 -814 0
-761 -762 816 0
761 -816 0
762 -816 0
-760 -763 818 0
760 -818 0
763 -818 0
-765 -767 820 0
765 -820 0
767 -820 0
-769 -771 822 0
769 -822 0
771 -822 0
-772 -773 824 0
772 -824 0
773 -824 0
-774 -775 826 0
774 -826 0
775 -826 0
-776 -777 828 0
776 -828 0
777 -828 0
-779 -781 830 0
779 -830 0
781 -830 0
-783 -785 832 0
783 -832 0
785 -832 0
-787 -789 834 0
787 -834 0
789 -834 0
-790 -791 836 0
790 -836 0
791 -836 0
-793 -795 838 0
793 -838 0
795 -838 0
-797 -799 840 0
797 -840 0
799 -840 0
-801 -803 842 0
801 -842 0
803 -842 0
-805 -807 844 0
805 -844 0
807 -844 0
-809 -811 846 0
809 -846 0
811 -846 0
-813 -815 848 0
813 -848 0
815 -848 0
-817 -819 850 0
817 -850 0
819 -850 0
-821 -823 852 0
821 -852 0
823 -852 0
-825 -827 854 0
825 -854 0
827 -854 0
-829 -831 856 0
829 -856 0
831 -856 0
-833 -835 858 0
833 -858 0
835 -858 0
-837 -839 860 0
837 -860 0
839 -860 0
-841 -843 862 0
841 -862 0
843 -862 0
-845 -847 864 0
845 -864 0
847 -864 0
-849 -851 866 0
849 -866 0
851 -866 0
-853 -855 868 0
853 -868 0
855 -868 0
-857 -859 870 0
857 -870 0
859 -870 0
-861 -863 872 0
861 -872 0
863 -872 0
-865 -867 874 0
865 -874 0
867 -874 0
-869 -871 875 0
869 -875 0
871 -875 0
-67 -76 877 0
67 -877 0
76 -877 0
-764 -766 879 0
764 -879 0
766 -879 0
-768 -770 880 0
768 -880 0
770 -880 0
-778 -780 992 0
778 -992 0
780 -992 0
-782 -784 885 0
782 -885 0
784 -885 0
-786 -788 887 0
786 -887 0
788 -887 0
-792 -794 994 0
792 -994 0
794 -994 0
-796 -798 891 0
796 -891 0
798 -891 0
-800 -802 893 0
800 -893 0
802 -893 0
-804 -806 895 0
804 -895 0
806 -895 0
-808 -810 897 0
808 -897 0
810 -897 0
-812 -814 899 0
812 -899 0
814 -899 0
-816 -818 901 0
816 -901 0
818 -901 0
-820 -822 903 0
820 -903 0
822 -903 0
-824 -826 905 0
824 -905 0
826 -905 0
-828 -830 907 0
828 -907 0
830 -907 0
-832 -834 909 0
832 -909 0
834 -909 0
-836 -838 911 0
836 -911 0
838 -911 0
-840 -842 913 0
840 -913 0
842 -913 0
-844 -846 915 0
844 -915 0
846 -915 0
-848 -850 917 0
848 -917 0
850 -917 0
-852 -854 919 0
852 -919 0
854 -919 0
-856 -858 921 0
856 -921 0
858 -921 0
-860 -862 923 0
860 -923 0
862 -923 0
-864 -866 925 0
864 -925 0
866 -925 0
-868 -870 927 0
868 -927 0
870 -927 0
-872 -874 929 0
872 -929 0
874 -929 0
-873 -875 931 0
875 -931 0
873 -931 0
-876 -878 933 0
876 -933 0
878 -933 0
-881 -882 1016 0
881 -1016 0
882 -1016 0
-883 -884 937 0
883 -937 0
884 -937 0
-886 -888 939 0
886 -939 0
888 -939 0
-889 -890 941 0
889 -941 0
890 -941 0
-892 -894 943 0
892 -943 0
894 -943 0
-896 -898 945 0
896 -945 0
898 -945 0
-900 -902 947 0
900 -947 0
902 -947 0
-904 -906 949 0
904 -949 0
906 -949 0
-908 -910 951 0
908 -951 0
910 -951 0
-912 -914 953 0
912 -953 0
914 -953 0
-916 -918 955 0
916 -955 0
918 -955 0
-920 -922 957 0
920 -957 0
922 -957 0
-924 -926 959 0
924 -959 0
926 -959 0
-928 -930 961 0
928 -961 0
930 -961 0
-932 -934 963 0
932 -963 0
934 -963 0
-935 -936 965 0
935 -965 0
936 -965 0
-938 -940 967 0
938 -967 0
940 -967 0
-942 -944 969 0
942 -969 0
944 -969 0
-946 -948 971 0
946 -971 0
948 -971 0
-950 -952 973 0
950 -973 0
952 -973 0
-954 -956 975 0
954 -975 0
956 -975 0
-958 -960 977 0
958 -977 0
960 -977 0
-962 -964 979 0
962 -979 0
964 -979 0
-966 -968 981 0
966 -981 0
968 -981 0
-970 -972 983 0
970 -983 0
972 -983 0
-974 -976 985 0
974 -985 0
976 -985 0
-978 -980 987 0
978 -987 0
980 -987 0
-982 -984 1042 0
982 -1042 0
984 -1042 0
-77 -877 989 0
77 -989 0
877 -989 0
-879 -880 991 0
879 -991 0
880 -991 0
-885 -887 1099 0
885 -1099 0
887 -1099 0
-891 -893 996 0
891 -996 0
893 -996 0
-895 -897 998 0
895 -998 0
897 -998 0
-899 -901 1000 0
899 -1000 0
901 -1000 0
-903 -905 1002 0
903 -1002 0
905 -1002 0
-907 -909 1004 0
907 -1004 0
909 -1004 0
-911 -913 1006 0
911 -1006 0
913 -1006 0
-915 -917 1008 0
915 -1008 0
917 -1008 0
-919 -921 1010 0
919 -1010 0
921 -1010 0
-923 -925 1012 0
923 -1012 0
925 -1012 0
-927 -929 1014 0
927 -1014 0
929 -1014 0
-931 -933 1109 0
931 -1109 0
933 -1109 0
-937 -939 1018 0
937 -1018 0
939 -1018 0
-941 -943 1020 0
941 -1020 0
943 -1020 0
-945 -947 1022 0
945 -1022 0
947 -1022 0
-949 -951 1024 0
949 -1024 0
951 -1024 0
-953 -955 1026 0
953 -1026 0
955 -1026 0
-957 -959 1028 0
957 -1028 0
959 -1028 0
-961 -963 1030 0
961 -1030 0
963 -1030 0
-965 -967 1032 0
965 -1032 0
967 -1032 0
-969 -971 1034 0
969 -1034 0
971 -1034 0
-973 -975 1036 0
973 -1036 0
975 -1036 0
-977 -979 1038 0
977 -1038 0
979 -1038 0
-981 -983 1040 0
981 -1040 0
983 -1040 0
-985 -987 1120 0
985 -1120 0
987 -1120 0
-988 -990 1121 0
988 -1121 0
990 -1121 0
-993 -994 1045 0
993 -1045 0
994 -1045 0
-995 -997 1047 0
995 -1047 0
997 -1047 0
-999 -1001 1049 0
999 -1049 0
1001 -1049 0
-1003 -1005 1051 0
1003 -1051 0
1005 -1051 0
-1007 -1009 1053 0
1007 -1053 0
1009 -1053 0
-1011 -1013 1055 0
1011 -1055 0
1013 -1055 0
-1015 -1016 1057 0
1015 -1057 0
1016 -1057 0
-1017 -1019 1059 0
1017 -1059 0
1019 -1059 0
-1021 -1023 1061 0
1021 -1061 0
1023 -1061 0
-1025 -1027 1063 0
1025 -1063 0
1027 -1063 0
-1029 -1031 1065 0
1029 -1065 0
1031 -1065 0
-1033 -1035 1067 0
1033 -1067 0
1035 -1067 0
-1037 -1039 1069 0
1037 -1069 0
1039 -1069 0
-1041 -1042 1071 0
1041 -1071 0
1042 -1071 0
-992 -1043 1073 0
1043 -1073 0
992 -1073 0
-1044 -1046 1075 0
1044 -1075 0
1046 -1075 0
-1048 -1050 1077 0
1048 -1077 0
1050 -1077 0
-1052 -1054 1079 0
1052 -1079 0
1054 -1079 0
-1056 -1058 1081 0
1056 -1081 0
1058 -1081 0
-1060 -1062 1083 0
1060 -1083 0
1062 -1083 0
-1064 -1066 1085 0
1064 -1085 0
1066 -1085 0
-1068 -1070 1087 0
1068 -1087 0
1070 -1087 0
-1072 -1074 1089 0
1072 -1089 0
1074 -1089 0
-1076 -1078 1091 0
1076 -1091 0
1078 -1091 0
-1080 -1082 1093 0
1080 -1093 0
1082 -1093 0
-1084 -1086 1095 0
1084 -1095 0
1086 -1095 0
-1088 -1090 1097 0
1088 -1097 0
1090 -1097 0
-1092 -1094 1098 0
1092 -1098 0
1094 -1098 0
-989 -991 1203 0
989 -1203 0
991 -1203 0
-996 -998 1204 0
996 -1204 0
998 -1204 0
-1000 -1002 1102 0
1000 -1102 0
1002 -1102 0
-1004 -1006 1104 0
1004 -1104 0
1006 -1104 0
-1008 -1010 1106 0
1008 -1106 0
1010 -1106 0
-1012 -1014 1108 0
1012 -1108 0
1014 -1108 0
-1018 -1020 1209 0
1018 -1209 0
1020 -1209 0
-1022 -1024 1112 0
1022 -1112 0
1024 -1112 0
-1026 -1028 1114 0
1026 -1114 0
1028 -1114 0
-1030 -1032 1116 0
1030 -1116 0
1032 -1116 0
-1034 -1036 1118 0
1034 -1118 0
1036 -1118 0
-1038 -1040 1212 0
1038 -1212 0
1040 -1212 0
-1045 -1047 1213 0
1045 -1213 0
1047 -1213 0
-1049 -1051 1124 0
1049 -1124 0
1051 -1124 0
-1053 -1055 1126 0
1053 -1126 0
1055 -1126 0
-1057 -1059 1128 0
1057 -1128 0
1059 -1128 0
-1061 -1063 1130 0
1061 -1130 0
1063 -1130 0
-1065 -1067 1132 0
1065 -1132 0
1067 -1132 0
-1069 -1071 1134 0
1069 -1134 0
1071 -1134 0
-1073 -1075 1136 0
1073 -1136 0
1075 -1136 0
-1077 -1079 1138 0
1077 -1138 0
1079 -1138 0
-1081 -1083 1140 0
1081 -1140 0
1083 -1140 0
-1085 -1087 1142 0
1085 -1142 0
1087 -1142 0
-1089 -1091 1144 0
1089 -1144 0
1091 -1144 0
-1093 -1095 1146 0
1093 -1146 0
1095 -1146 0
-1097 -1098 1224 0
1097 -1224 0
1098 -1224 0
-1100 -1101 1225 0
1100 -1225 0
1101 -1225 0
-1103 -1105 1151 0
1103 -1151 0
1105 -1151 0
-1107 -1109 1153 0
1107 -1153 0
1109 -1153 0
-1110 -1111 1155 0
1110 -1155 0
1111 -1155 0
-1113 -1115 1157 0
1113 -1157 0
1115 -1157 0
-1117 -1119 1159 0
1117 -1159 0
1119 -1159 0
-1120 -1121 1161 0
1120 -1161 0
1121 -1161 0
-1122 -1123 1163 0
1122 -1163 0
1123 -1163 0
-1125 -1127 1165 0
1125 -1165 0
1127 -1165 0
-1129 -1131 1167 0
1129 -1167 0
1131 -1167 0
-1133 -1135 1169 0
1133 -1169 0
1135 -1169 0
-1137 -1139 1171 0
1137 -1171 0
1139 -1171 0
-1141 -1143 1173 0
1141 -1173 0
1143 -1173 0
-1145 -1147 1175 0
1145 -1175 0
1147 -1175 0
-1099 -1148 1177 0
1148 -1177 0
1099 -1177 0
-1149 -1150 1179 0
1149 -1179 0
1150 -1179 0
-1152 -1154 1181 0
1152 -1181 0
1154 -1181 0
-1156 -1158 1183 0
1156 -1183 0
1158 -1183 0
-1160 -1162 1185 0
1160 -1185 0
1162 -1185 0
-1164 -1166 1187 0
1164 -1187 0
1166 -1187 0
-1168 -1170 1189 0
1168 -1189 0
1170 -1189 0
-1172 -1174 1191 0
1172 -1191 0
1174 -1191 0
-1176 -1178 1193 0
1176 -1193 0
1178 -1193 0
-1180 -1182 1195 0
1180 -1195 0
1182 -1195 0
-1184 -1186 1197 0
1184 -1197 0
1186 -1197 0
-1188 -1190 1199 0
1188 -1199 0
1190 -1199 0
-1192 -1194 1201 0
1192 -1201 0
1194 -1201 0
-1196 -1198 1202 0
1196 -1202 0
1198 -1202 0
-1102 -1104 1206 0
1102 -1206 0
1104 -1206 0
-1106 -1108 1208 0
1106 -1208 0
1108 -1208 0
-1112 -1114 1311 0
1112 -1311 0
1114 -1311 0
-1116 -1118 1312 0
1116 -1312 0
1118 -1312 0
-1124 -1126 1313 0
1124 -1313 0
1126 -1313 0
-1128 -1130 1216 0
1128 -1216 0
1130 -1216 0
-1132 -1134 1218 0
1132 -1218 0
1134 -1218 0
-1136 -1138 1220 0
1136 -1220 0
1138 -1220 0
-1140 -1142 1222 0
1140 -1222 0
1142 -1222 0
-1144 -1146 1316 0
1144 -1316 0
1146 -1316 0
-1151 -1153 1317 0
1151 -1317 0
1153 -1317 0
-1155 -1157 1228 0
1155 -1228 0
1157 -1228 0
-1159 -1161 1230 0
1159 -1230 0
1161 -1230 0
-1163 -1165 1232 0
1163 -1232 0
1165 -1232 0
-1167 -1169 1234 0
1167 -1234 0
1169 -1234 0
-1171 -1173 1236 0
1171 -1236 0
1173 -1236 0
-1175 -1177 1238 0
1175 -1238 0
1177 -1238 0
-1179 -1181 1240 0
1179 -1240 0
1181 -1240 0
-1183 -1185 1242 0
1183 -1242 0
1185 -1242 0
-1187 -1189 1244 0
1187 -1244 0
1189 -1244 0
-1191 -1193 1246 0
1191 -1246 0
1193 -1246 0
-1195 -1197 1248 0
1195 -1248 0
1197 -1248 0
-1199 -1201 1250 0
1199 -1250 0
1201 -1250 0
-1200 -1202 1252 0
1202 -1252 0
1200 -1252 0
-1203 -1204 1254 0
1203 -1254 0
1204 -1254 0
-1205 -1207 1256 0
1205 -1256 0
1207 -1256 0
-1209 -1210 1258 0
1209 -1258 0
1210 -1258 0
-1211 -1212 1260 0
1211 -1260 0
1212 -1260 0
-1213 -1214 1262 0
1213 -1262 0
1214 -1262 0
-1215 -1217 1264 0
1215 -1264 0
1217 -1264 0
-1219 -1221 1266 0
1219 -1266 0
1221 -1266 0
-1223 -1224 1268 0
1223 -1268 0
1224 -1268 0
-1225 -1226 1270 0
1225 -1270 0
1226 -1270 0
-1227 -1229 1272 0
1227 -1272 0
1229 -1272 0
-1231 -1233 1274 0
1231 -1274 0
1233 -1274 0
-1235 -1237 1276 0
1235 -1276 0
1237 -1276 0
-1239 -1241 1278 0
1239 -1278 0
1241 -1278 0
-1243 -1245 1280 0
1243 -1280 0
1245 -1280 0
-1247 -1249 1282 0
1247 -1282 0
1249 -1282 0
-1251 -1253 1284 0
1251 -1284 0
1253 -1284 0
-1255 -1257 1286 0
1255 -1286 0
1257 -1286 0
-1259 -1261 1288 0
1259 -1288 0
1261 -1288 0
-1263 -1265 1290 0
1263 -1290 0
1265 -1290 0
-1267 -1269 1292 0
1267 -1292 0
1269 -1292 0
-1271 -1273 1294 0
1271 -1294 0
1273 -1294 0
-1275 -1277 1296 0
1275 -1296 0
1277 -1296 0
-1279 -1281 1298 0
1279 -1298 0
1281 -1298 0
-1283 -1285 1300 0
1283 -1300 0
1285 -1300 0
-1287 -1289 1302 0
1287 -1302 0
1289 -1302 0
-1291 -1293 1304 0
1291 -1304 0
1293 -1304 0
-1295 -1297 1306 0
1295 -1306 0
1297 -1306 0
-1299 -1301 1308 0
1299 -1308 0
1301 -1308 0
-1303 -1305 1309 0
1303 -1309 0
1305 -1309 0
-1206 -1208 1413 0
1206 -1413 0
1208 -1413 0
-1216 -1218 1414 0
1216 -1414 0
1218 -1414 0
-1220 -1222 1415 0
1220 -1415 0
1222 -1415 0
-1228 -1230 1416 0
1228 -1416 0
1230 -1416 0
-1232 -1234 1320 0
1232 -1320 0
1234 -1320 0
-1236 -1238 1322 0
1236 -1322 0
1238 -1322 0
-1240 -1242 1324 0
1240 -1324 0
1242 -1324 0
-1244 -1246 1326 0
1244 -1326 0
1246 -1326 0
-1248 -1250 1328 0
1248 -1328 0
1250 -1328 0
-1252 -1254 1330 0
1252 -1330 0
1254 -1330 0
-1256 -1258 1332 0
1256 -1332 0
1258 -1332 0
-1260 -1262 1334 0
1260 -1334 0
1262 -1334 0
-1264 -1266 1336 0
1264 -1336 0
1266 -1336 0
-1268 -1270 1338 0
1268 -1338 0
1270 -1338 0
-1272 -1274 1340 0
1272 -1340 0
1274 -1340 0
-1276 -1278 1342 0
1276 -1342 0
1278 -1342 0
-1280 -1282 1344 0
1280 -1344 0
1282 -1344 0
-1284 -1286 1346 0
1284 -1346 0
1286 -1346 0
-1288 -1290 1348 0
1288 -1348 0
1290 -1348 0
-1292 -1294 1350 0
1292 -1350 0
1294 -1350 0
-1296 -1298 1352 0
1296 -1352 0
1298 -1352 0
-1300 -1302 1354 0
1300 -1354 0
1302 -1354 0
-1304 -1306 1356 0
1304 -1356 0
1306 -1356 0
-1308 -1309 1358 0
1308 -1358 0
1309 -1358 0
-1310 -1311 1435 0
1310 -1435 0
1311 -1435 0
-1312 -1313 1361 0
1312 -1361 0
1313 -1361 0
-1314 -1315 1363 0
1314 -1363 0
1315 -1363 0
-1316 -1317 1365 0
1316 -1365 0
1317 -1365 0
-1318 -1319 1367 0
1318 -1367 0
1319 -1367 0
-1321 -1323 1369 0
1321 -1369 0
1323 -1369 0
-1325 -1327 1371 0
1325 -1371 0
1327 -1371 0
-1329 -1331 1373 0
1329 -1373 0
1331 -1373 0
-1333 -1335 1375 0
1333 -1375 0
1335 -1375 0
-1337 -1339 1377 0
1337 -1377 0
1339 -1377 0
-1341 -1343 1379 0
1341 -1379 0
1343 -1379 0
-1345 -1347 1381 0
1345 -1381 0
1347 -1381 0
-1349 -1351 1383 0
1349 -1383 0
1351 -1383 0
-1353 -1355 1385 0
1353 -1385 0
1355 -1385 0
-1307 -1357 1387 0
1357 -1387 0
1307 -1387 0
-1359 -1360 1389 0
1359 -1389 0
1360 -1389 0
-1362 -1364 1391 0
1362 -1391 0
1364 -1391 0
-1366 -1368 1393 0
1366 -1393 0
1368 -1393 0
-1370 -1372 1395 0
1370 -1395 0
1372 -1395 0
-1374 -1376 1397 0
1374 -1397 0
1376 -1397 0
-1378 -1380 1399 0
1378 -1399 0
1380 -1399 0
-1382 -1384 1401 0
1382 -1401 0
1384 -1401 0
-1386 -1388 1403 0
1386 -1403 0
1388 -1403 0
-1390 -1392 1405 0
1390 -1405 0
1392 -1405 0
-1394 -1396 1407 0
1394 -1407 0
1396 -1407 0
-1398 -1400 1409 0
1398 -1409 0
1400 -1409 0
-1402 -1404 1411 0
1402 -1411 0
1404 -1411 0
-1406 -1408 1412 0
1406 -1412 0
1408 -1412 0
-1320 -1322 1516 0
1320 -1516 0
1322 -1516 0
-1324 -1326 1419 0
1324 -1419 0
1326 -1419 0
-1328 -1330 1421 0
1328 -1421 0
1330 -1421 0
-1332 -1334 1423 0
1332 -1423 0
1334 -1423 0
-1336 -1338 1425 0
1336 -1425 0
1338 -1425 0
-1340 -1342 1427 0
1340 -1427 0
1342 -1427 0
-1344 -1346 1429 0
1344 -1429 0
1346 -1429 0
-1348 -1350 1431 0
1348 -1431 0
1350 -1431 0
-1352 -1354 1433 0
1352 -1433 0
1354 -1433 0
-1356 -1358 1523 0
1356 -1523 0
1358 -1523 0
-1361 -1363 1437 0
1361 -1437 0
1363 -1437 0
-1365 -1367 1439 0
1365 -1439 0
1367 -1439 0
-1369 -1371 1441 0
1369 -1441 0
1371 -1441 0
-1373 -1375 1443 0
1373 -1443 0
1375 -1443 0
-1377 -1379 1445 0
1377 -1445 0
1379 -1445 0
-1381 -1383 1447 0
1381 -1447 0
1383 -1447 0
-1385 -1387 1449 0
1385 -1449 0
1387 -1449 0
-1389 -1391 1451 0
1389 -1451 0
1391 -1451 0
-1393 -1395 1453 0
1393 -1453 0
1395 -1453 0
-1397 -1399 1455 0
1397 -1455 0
1399 -1455 0
-1401 -1403 1457 0
1401 -1457 0
1403 -1457 0
-1405 -1407 1459 0
1405 -1459 0
1407 -1459 0
-1409 -1411 1461 0
1409 -1461 0
1411 -1461 0
-1410 -1412 1463 0
1412 -1463 0
1410 -1463 0
-1414 -1415 1537 0
1414 -1537 0
1415 -1537 0
-1416 -1417 1466 0
1416 -1466 0
1417 -1466 0
-1418 -1420 1468 0
1418 -1468 0
1420 -1468 0
-1422 -1424 1470 0
1422 -1470 0
1424 -1470 0
-1426 -1428 1472 0
1426 -1472 0
1428 -1472 0
-1430 -1432 1474 0
1430 -1474 0
1432 -1474 0
-1434 -1435 1476 0
1434 -1476 0
1435 -1476 0
-1436 -1438 1478 0
1436 -1478 0
1438 -1478 0
-1440 -1442 1480 0
1440 -1480 0
1442 -1480 0
-1444 -1446 1482 0
1444 -1482 0
1446 -1482 0
-1448 -1450 1484 0
1448 -1484 0
1450 -1484 0
-1452 -1454 1486 0
1452 -1486 0
1454 -1486 0
-1456 -1458 1488 0
1456 -1488 0
1458 -1488 0
-1460 -1462 1490 0
1460 -1490 0
1462 -1490 0
-1413 -1464 1492 0
1413 -1492 0
1464 -1492 0
-1465 -1467 1494 0
1465 -1494 0
1467 -1494 0
-1469 -1471 1496 0
1469 -1496 0
1471 -1496 0
-1473 -1475 1498 0
1473 -1498 0
1475 -1498 0
-1477 -1479 1500 0
1477 -1500 0
1479 -1500 0
-1481 -1483 1502 0
1481 -1502 0
1483 -1502 0
-1485 -1487 1504 0
1485 -1504 0
1487 -1504 0
-1489 -1491 1506 0
1489 -1506 0
1491 -1506 0
-1493 -1495 1508 0
1493 -1508 0
1495 -1508 0
-1497 -1499 1510 0
1497 -1510 0
1499 -1510 0
-1501 -1503 1512 0
1501 -1512 0
1503 -1512 0
-1505 -1507 1514 0
1505 -1514 0
1507 -1514 0
-1509 -1511 1515 0
1509 -1515 0
1511 -1515 0
-1419 -1421 1660 0
1419 -1660 0
1421 -1660 0
-1423 -1425 1519 0
1423 -1519 0
1425 -1519 0
-1427 -1429 1521 0
1427 -1521 0
1429 -1521 0
-1431 -1433 1614 0
1431 -1614 0
1433 -1614 0
-1437 -1439 1525 0
1437 -1525 0
1439 -1525 0
-1441 -1443 1527 0
1441 -1527 0
1443 -1527 0
-1445 -1447 1529 0
1445 -1529 0
1447 -1529 0
-1449 -1451 1531 0
1449 -1531 0
1451 -1531 0
-1453 -1455 1533 0
1453 -1533 0
1455 -1533 0
-1457 -1459 1535 0
1457 -1535 0
1459 -1535 0
-1461 -1463 1620 0
1461 -1620 0
1463 -1620 0
-1466 -1468 1539 0
1466 -1539 0
1468 -1539 0
-1470 -1472 1541 0
1470 -1541 0
1472 -1541 0
-1474 -1476 1543 0
1474 -1543 0
1476 -1543 0
-1478 -1480 1545 0
1478 -1545 0
1480 -1545 0
-1482 -1484 1547 0
1482 -1547 0
1484 -1547 0
-1486 -1488 1549 0
1486 -1549 0
1488 -1549 0
-1490 -1492 1551 0
1490 -1551 0
1492 -1551 0
-1494 -1496 1553 0
1494 -1553 0
1496 -1553 0
-1498 -1500 1555 0
1498 -1555 0
1500 -1555 0
-1502 -1504 1557 0
1502 -1557 0
1504 -1557 0
-1506 -1508 1559 0
1506 -1559 0
1508 -1559 0
-1510 -1512 1561 0
1510 -1561 0
1512 -1561 0
-1514 -1515 1633 0
1514 -1633 0
1515 -1633 0
-1517 -1518 1634 0
1517 -1634 0
1518 -1634 0
-1520 -1522 1565 0
1520 -1565 0
1522 -1565 0
-1523 -1524 1567 0
1523 -1567 0
1524 -1567 0
-1526 -1528 1569 0
1526 -1569 0
1528 -1569 0
-1530 -1532 1571 0
1530 -1571 0
1532 -1571 0
-1534 -1536 1573 0
1534 -1573 0
1536 -1573 0
-1537 -1538 1575 0
1537 -1575 0
1538 -1575 0
-1540 -1542 1577 0
1540 -1577 0
1542 -1577 0
-1544 -1546 1579 0
1544 -1579 0
1546 -1579 0
-1548 -1550 1581 0
1548 -1581 0
1550 -1581 0
-1552 -1554 1583 0
1552 -1583 0
1554 -1583 0
-1556 -1558 1585 0
1556 -1585 0
1558 -1585 0
-1560 -1562 1587 0
1560 -1587 0
1562 -1587 0
-1513 -1516 1589 0
1513 -1589 0
1516 -1589 0
-1563 -1564 1591 0
1563 -1591 0
1564 -1591 0
-1566 -1568 1593 0
1566 -1593 0
1568 -1593 0
-1570 -1572 1595 0
1570 -1595 0
1572 -1595 0
-1574 -1576 1597 0
1574 -1597 0
1576 -1597 0
-1578 -1580 1599 0
1578 -1599 0
1580 -1599 0
-1582 -1584 1601 0
1582 -1601 0
1584 -1601 0
-1586 -1588 1603 0
1586 -1603 0
1588 -1603 0
-1590 -1592 1605 0
1590 -1605 0
1592 -1605 0
-1594 -1596 1607 0
1594 -1607 0
1596 -1607 0
-1598 -1600 1609 0
1598 -1609 0
1600 -1609 0
-1602 -1604 1611 0
1602 -1611 0
1604 -1611 0
-1606 -1608 1612 0
1606 -1612 0
1608 -1612 0
-1519 -1521 1712 0
1519 -1712 0
1521 -1712 0
-1525 -1527 1616 0
1525 -1616 0
1527 -1616 0
-1529 -1531 1618 0
1529 -1618 0
1531 -1618 0
-1533 -1535 1714 0
1533 -1714 0
1535 -1714 0
-1539 -1541 1622 0
1539 -1622 0
1541 -1622 0
-1543 -1545 1624 0
1543 -1624 0
1545 -1624 0
-1547 -1549 1626 0
1547 -1626 0
1549 -1626 0
-1551 -1553 1628 0
1551 -1628 0
1553 -1628 0
-1555 -1557 1630 0
1555 -1630 0
1557 -1630 0
-1559 -1561 1632 0
1559 -1632 0
1561 -1632 0
-1565 -1567 1636 0
1565 -1636 0
1567 -1636 0
-1569 -1571 1638 0
1569 -1638 0
1571 -1638 0
-1573 -1575 1640 0
1573 -1640 0
1575 -1640 0
-1577 -1579 1642 0
1577 -1642 0
1579 -1642 0
-1581 -1583 1644 0
1581 -1644 0
1583 -1644 0
-1585 -1587 1646 0
1585 -1646 0
1587 -1646 0
-1589 -1591 1648 0
1589 -1648 0
1591 -1648 0
-1593 -1595 1650 0
1593 -1650 0
1595 -1650 0
-1597 -1599 1652 0
1597 -1652 0
1599 -1652 0
-1601 -1603 1654 0
1601 -1654 0
1603 -1654 0
-1605 -1607 1656 0
1605 -1656 0
1607 -1656 0
-1609 -1611 1658 0
1609 -1658 0
1611 -1658 0
-1610 -1612 1731 0
1612 -1731 0
1610 -1731 0
-1613 -1614 1662 0
1613 -1662 0
1614 -1662 0
-1615 -1617 1664 0
1615 -1664 0
1617 -1664 0
-1619 -1620 1666 0
1619 -1666 0
1620 -1666 0
-1621 -1623 1668 0
1621 -1668 0
1623 -1668 0
-1625 -1627 1670 0
1625 -1670 0
1627 -1670 0
-1629 -1631 1672 0
1629 -1672 0
1631 -1672 0
-1633 -1634 1674 0
1633 -1674 0
1634 -1674 0
-1635 -1637 1676 0
1635 -1676 0
1637 -1676 0
-1639 -1641 1678 0
1639 -1678 0
1641 -1678 0
-1643 -1645 1680 0
1643 -1680 0
1645 -1680 0
-1647 -1649 1682 0
1647 -1682 0
1649 -1682 0
-1651 -1653 1684 0
1651 -1684 0
1653 -1684 0
-1655 -1657 1686 0
1655 -1686 0
1657 -1686 0
-1659 -1660 1688 0
1659 -1688 0
1660 -1688 0
-1661 -1663 1690 0
1661 -1690 0
1663 -1690 0
-1665 -1667 1692 0
1665 -1692 0
1667 -1692 0
-1669 -1671 1694 0
1669 -1694 0
1671 -1694 0
-1673 -1675 1696 0
1673 -1696 0
1675 -1696 0
-1677 -1679 1698 0
1677 -1698 0
1679 -1698 0
-1681 -1683 1700 0
1681 -1700 0
1683 -1700 0
-1685 -1687 1702 0
1685 -1702 0
1687 -1702 0
-1689 -1691 1704 0
1689 -1704 0
1691 -1704 0
-1693 -1695 1706 0
1693 -1706 0
1695 -1706 0
-1697 -1699 1708 0
1697 -1708 0
1699 -1708 0
-1701 -1703 1710 0
1701 -1710 0
1703 -1710 0
-1705 -1707 1711 0
1705 -1711 0
1707 -1711 0
-1616 -1618 1805 0
1616 -1805 0
1618 -1805 0
-1622 -1624 1716 0
1622 -1716 0
1624 -1716 0
-1626 -1628 1718 0
1626 -1718 0
1628 -1718 0
-1630 -1632 1807 0
1630 -1807 0
1632 -1807 0
-1636 -1638 1720 0
1636 -1720 0
1638 -1720 0
-1640 -1642 1722 0
1640 -1722 0
1642 -1722 0
-1644 -1646 1724 0
1644 -1724 0
1646 -1724 0
-1648 -1650 1726 0
1648 -1726 0
1650 -1726 0
-1652 -1654 1728 0
1652 -1728 0
1654 -1728 0
-1656 -1658 1730 0
1656 -1730 0
1658 -1730 0
-1662 -1664 1813 0
1662 -1813 0
1664 -1813 0
-1666 -1668 1734 0
1666 -1734 0
1668 -1734 0
-1670 -1672 1736 0
1670 -1736 0
1672 -1736 0
-1674 -1676 1738 0
1674 -1738 0
1676 -1738 0
-1678 -1680 1740 0
1678 -1740 0
1680 -1740 0
-1682 -1684 1742 0
1682 -1742 0
1684 -1742 0
-1686 -1688 1744 0
1686 -1744 0
1688 -1744 0
-1690 -1692 1746 0
1690 -1746 0
1692 -1746 0
-1694 -1696 1748 0
1694 -1748 0
1696 -1748 0
-1698 -1700 1750 0
1698 -1750 0
1700 -1750 0
-1702 -1704 1752 0
1702 -1752 0
1704 -1752 0
-1706 -1708 1754 0
1706 -1754 0
1708 -1754 0
-1710 -1711 1756 0
1710 -1756 0
1711 -1756 0
-1712 -1713 1826 0
1712 -1826 0
1713 -1826 0
-1714 -1715 1759 0
1714 -1759 0
1715 -1759 0
-1717 -1719 1761 0
1717 -1761 0
1719 -1761 0
-1721 -1723 1828 0
1721 -1828 0
1723 -1828 0
-1725 -1727 1765 0
1725 -1765 0
1727 -1765 0
-1729 -1731 1767 0
1729 -1767 0
1731 -1767 0
-1732 -1733 1769 0
1732 -1769 0
1733 -1769 0
-1735 -1737 1771 0
1735 -1771 0
1737 -1771 0
-1739 -1741 1773 0
1739 -1773 0
1741 -1773 0
-1743 -1745 1775 0
1743 -1775 0
1745 -1775 0
-1747 -1749 1777 0
1747 -1777 0
1749 -1777 0
-1751 -1753 1779 0
1751 -1779 0
1753 -1779 0
-1709 -1755 1781 0
1755 -1781 0
1709 -1781 0
-1757 -1758 1783 0
1757 -1783 0
1758 -1783 0
-1760 -1762 1785 0
1760 -1785 0
1762 -1785 0
-1763 -1764 1787 0
1763 -1787 0
1764 -1787 0
-1766 -1768 1789 0
1766 -1789 0
1768 -1789 0
-1770 -1772 1791 0
1770 -1791 0
1772 -1791 0
-1774 -1776 1793 0
1774 -1793 0
1776 -1793 0
-1778 -1780 1795 0
1778 -1795 0
1780 -1795 0
-1782 -1784 1797 0
1782 -1797 0
1784 -1797 0
-1786 -1788 1799 0
1786 -1799 0
1788 -1799 0
-1790 -1792 1801 0
1790 -1801 0
1792 -1801 0
-1794 -1796 1803 0
1794 -1803 0
1796 -1803 0
-1798 -1800 1804 0
1798 -1804 0
1800 -1804 0
-1716 -1718 1898 0
1716 -1898 0
1718 -1898 0
-1720 -1722 1809 0
1720 -1809 0
1722 -1809 0
-1724 -1726 1811 0
1724 -1811 0
1726 -1811 0
-1728 -1730 1900 0
1728 -1900 0
1730 -1900 0
-1734 -1736 1815 0
1734 -1815 0
1736 -1815 0
-1738 -1740 1817 0
1738 -1817 0
1740 -1817 0
-1742 -1744 1819 0
1742 -1819 0
1744 -1819 0
-1746 -1748 1821 0
1746 -1821 0
1748 -1821 0
-1750 -1752 1823 0
1750 -1823 0
1752 -1823 0
-1754 -1756 1825 0
1754 -1825 0
1756 -1825 0
-1759 -1761 1906 0
1759 -1906 0
1761 -1906 0
-1765 -1767 1907 0
1765 -1907 0
1767 -1907 0
-1769 -1771 1831 0
1769 -1831 0
1771 -1831 0
-1773 -1775 1833 0
1773 -1833 0
1775 -1833 0
-1777 -1779 1835 0
1777 -1835 0
1779 -1835 0
-1781 -1783 1837 0
1781 -1837 0
1783 -1837 0
-1785 -1787 1839 0
1785 -1839 0
1787 -1839 0
-1789 -1791 1841 0
1789 -1841 0
1791 -1841 0
-1793 -1795 1843 0
1793 -1843 0
1795 -1843 0
-1797 -1799 1845 0
1797 -1845 0
1799 -1845 0
-1801 -1803 1847 0
1801 -1847 0
1803 -1847 0
-1802 -1804 1849 0
1804 -1849 0
1802 -1849 0
-1806 -1807 1917 0
1806 -1917 0
1807 -1917 0
-1808 -1810 1852 0
1808 -1852 0
1810 -1852 0
-1812 -1813 1854 0
1812 -1854 0
1813 -1854 0
-1814 -1816 1856 0
1814 -1856 0
1816 -1856 0
-1818 -1820 1858 0
1818 -1858 0
1820 -1858 0
-1822 -1824 1860 0
1822 -1860 0
1824 -1860 0
-1826 -1827 1862 0
1826 -1862 0
1827 -1862 0
-1828 -1829 1864 0
1828 -1864 0
1829 -1864 0
-1830 -1832 1866 0
1830 -1866 0
1832 -1866 0
-1834 -1836 1868 0
1834 -1868 0
1836 -1868 0
-1838 -1840 1870 0
1838 -1870 0
1840 -1870 0
-1842 -1844 1872 0
1842 -1872 0
1844 -1872 0
-1846 -1848 1874 0
1846 -1874 0
1848 -1874 0
-1805 -1850 1876 0
1805 -1876 0
1850 -1876 0
-1851 -1853 1878 0
1851 -1878 0
1853 -1878 0
-1855 -1857 1880 0
1855 -1880 0
1857 -1880 0
-1859 -1861 1882 0
1859 -1882 0
1861 -1882 0
-1863 -1865 1884 0
1863 -1884 0
1865 -1884 0
-1867 -1869 1886 0
1867 -1886 0
1869 -1886 0
-1871 -1873 1888 0
1871 -1888 0
1873 -1888 0
-1875 -1877 1890 0
1875 -1890 0
1877 -1890 0
-1879 -1881 1892 0
1879 -1892 0
1881 -1892 0
-1883 -1885 1894 0
1883 -1894 0
1885 -1894 0
-1887 -1889 1896 0
1887 -1896 0
1889 -1896 0
-1891 -1893 1897 0
1891 -1897 0
1893 -1897 0
-1809 -1811 1989 0
1809 -1989 0
1811 -1989 0
-1815 -1817 1902 0
1815 -1902 0
1817 -1902 0
-1819 -1821 1904 0
1819 -1904 0
1821 -1904 0
-1823 -1825 1991 0
1823 -1991 0
1825 -1991 0
-1831 -1833 1992 0
1831 -1992 0
1833 -1992 0
-1835 -1837 1910 0
1835 -1910 0
1837 -1910 0
-1839 -1841 1912 0
1839 -1912 0
1841 -1912 0
-1843 -1845 1914 0
1843 -1914 0
1845 -1914 0
-1847 -1849 1916 0
1847 -1916 0
1849 -1916 0
-1852 -1854 1995 0
1852 -1995 0
1854 -1995 0
-1856 -1858 1920 0
1856 -1920 0
1858 -1920 0
-1860 -1862 1922 0
1860 -1922 0
1862 -1922 0
-1864 -1866 1924 0
1864 -1924 0
1866 -1924 0
-1868 -1870 1926 0
1868 -1926 0
1870 -1926 0
-1872 -1874 1928 0
1872 -1928 0
1874 -1928 0
-1876 -1878 1930 0
1876 -1930 0
1878 -1930 0
-1880 -1882 1932 0
1880 -1932 0
1882 -1932 0
-1884 -1886 1934 0
1884 -1934 0
1886 -1934 0
-1888 -1890 1936 0
1888 -1936 0
1890 -1936 0
-1892 -1894 1938 0
1892 -1938 0
1894 -1938 0
-1896 -1897 2005 0
1896 -2005 0
1897 -2005 0
-1898 -1899 1941 0
1898 -1941 0
1899 -1941 0
-1900 -1901 1943 0
1900 -1943 0
1901 -1943 0
-1903 -1905 1945 0
1903 -1945 0
1905 -1945 0
-1906 -1907 1947 0
1906 -1947 0
1907 -1947 0
-1908 -1909 1949 0
1908 -1949 0
1909 -1949 0
-1911 -1913 1951 0
1911 -1951 0
1913 -1951 0
-1915 -1917 1953 0
1915 -1953 0
1917 -1953 0
-1918 -1919 1955 0
1918 -1955 0
1919 -1955 0
-1921 -1923 1957 0
1921 -1957 0
1923 -1957 0
-1925 -1927 1959 0
1925 -1959 0
1927 -1959 0
-1929 -1931 1961 0
1929 -1961 0
1931 -1961 0
-1933 -1935 1963 0
1933 -1963 0
1935 -1963 0
-1937 -1939 1965 0
1937 -1965 0
1939 -1965 0
-1895 -1940 1967 0
1895 -1967 0
1940 -1967 0
-1942 -1944 1969 0
1942 -1969 0
1944 -1969 0
-1946 -1948 1971 0
1946 -1971 0
1948 -1971 0
-1950 -1952 1973 0
1950 -1973 0
1952 -1973 0
-1954 -1956 1975 0
1954 -1975 0
1956 -1975 0
-1958 -1960 1977 0
1958 -1977 0
1960 -1977 0
-1962 -1964 1979 0
1962 -1979 0
1964 -1979 0
-1966 -1968 1981 0
1966 -1981 0
1968 -1981 0
-1970 -1972 1983 0
1970 -1983 0
1972 -1983 0
-1974 -1976 1985 0
1974 -1985 0
1976 -1985 0
-1978 -1980 1987 0
1978 -1987 0
1980 -1987 0
-1982 -1984 1988 0
1982 -1988 0
1984 -1988 0
-1902 -1904 2078 0
1902 -2078 0
1904 -2078 0
-1910 -1912 2079 0
1910 -2079 0
1912 -2079 0
-1914 -1916 2080 0
1914 -2080 0
1916 -2080 0
-1920 -1922 1997 0
1920 -1997 0
1922 -1997 0
-1924 -1926 1999 0
1924 -1999 0
1926 -1999 0
-1928 -1930 2001 0
1928 -2001 0
1930 -2001 0
-1932 -1934 2003 0
1932 -2003 0
1934 -2003 0
-1936 -1938 2085 0
1936 -2085 0
1938 -2085 0
-1941 -1943 2007 0
1941 -2007 0
1943 -2007 0
-1945 -1947 2009 0
1945 -2009 0
1947 -2009 0
-1949 -1951 2011 0
1949 -2011 0
1951 -2011 0
-1953 -1955 2013 0
1953 -2013 0
1955 -2013 0
-1957 -1959 2015 0
1957 -2015 0
1959 -2015 0
-1961 -1963 2017 0
1961 -2017 0
1963 -2017 0
-1965 -1967 2019 0
1965 -2019 0
1967 -2019 0
-1969 -1971 2021 0
1969 -2021 0
1971 -2021 0
-1973 -1975 2023 0
1973 -2023 0
1975 -2023 0
-1977 -1979 2025 0
1977 -2025 0
1979 -2025 0
-1981 -1983 2027 0
1981 -2027 0
1983 -2027 0
-1985 -1987 2029 0
1985 -2029 0
1987 -2029 0
-1986 -1988 2096 0
1988 -2096 0
1986 -2096 0
-1990 -1991 2032 0
1990 -2032 0
1991 -2032 0
-1992 -1993 2034 0
1992 -2034 0
1993 -2034 0
-1994 -1995 2036 0
1994 -2036 0
1995 -2036 0
-1996 -1998 2038 0
1996 -2038 0
1998 -2038 0
-2000 -2002 2040 0
2000 -2040 0
2002 -2040 0
-2004 -2005 2042 0
2004 -2042 0
2005 -2042 0
-2006 -2008 2044 0
2006 -2044 0
2008 -2044 0
-2010 -2012 2046 0
2010 -2046 0
2012 -2046 0
-2014 -2016 2048 0
2014 -2048 0
2016 -2048 0
-2018 -2020 2050 0
2018 -2050 0
2020 -2050 0
-2022 -2024 2052 0
2022 -2052 0
2024 -2052 0
-2026 -2028 2054 0
2026 -2054 0
2028 -2054 0
-1989 -2030 2056 0
2030 -2056 0
1989 -2056 0
-2031 -2033 2058 0
2031 -2058 0
2033 -2058 0
-2035 -2037 2060 0
2035 -2060 0
2037 -2060 0
-2039 -2041 2062 0
2039 -2062 0
2041 -2062 0
-2043 -2045 2064 0
2043 -2064 0
2045 -2064 0
-2047 -2049 2066 0
2047 -2066 0
2049 -2066 0
-2051 -2053 2068 0
2051 -2068 0
2053 -2068 0
-2055 -2057 2070 0
2055 -2070 0
2057 -2070 0
-2059 -2061 2072 0
2059 -2072 0
2061 -2072 0
-2063 -2065 2074 0
2063 -2074 0
2065 -2074 0
-2067 -2069 2076 0
2067 -2076 0
2069 -2076 0
-2071 -2073 2077 0
2071 -2077 0
2073 -2077 0
-1997 -1999 2082 0
1997 -2082 0
1999 -2082 0
-2001 -2003 2084 0
2001 -2084 0
2003 -2084 0
-2007 -2009 2168 0
2007 -2168 0
2009 -2168 0
-2011 -2013 2088 0
2011 -2088 0
2013 -2088 0
-2015 -2017 2090 0
2015 -2090 0
2017 -2090 0
-2019 -2021 2092 0
2019 -2092 0
2021 -2092 0
-2023 -2025 2094 0
2023 -2094 0
2025 -2094 0
-2027 -2029 2173 0
2027 -2173 0
2029 -2173 0
-2032 -2034 2098 0
2032 -2098 0
2034 -2098 0
-2036 -2038 2100 0
2036 -2100 0
2038 -2100 0
-2040 -2042 2102 0
2040 -2102 0
2042 -2102 0
-2044 -2046 2104 0
2044 -2104 0
2046 -2104 0
-2048 -2050 2106 0
2048 -2106 0
2050 -2106 0
-2052 -2054 2108 0
2052 -2108 0
2054 -2108 0
-2056 -2058 2110 0
2056 -2110 0
2058 -2110 0
-2060 -2062 2112 0
2060 -2112 0
2062 -2112 0
-2064 -2066 2114 0
2064 -2114 0
2066 -2114 0
-2068 -2070 2116 0
2068 -2116 0
2070 -2116 0
-2072 -2074 2118 0
2072 -2118 0
2074 -2118 0
-2076 -2077 2120 0
2076 -2120 0
2077 -2120 0
-2078 -2079 2184 0
2078 -2184 0
2079 -2184 0
-2080 -2081 2123 0
2080 -2123 0
2081 -2123 0
-2083 -2085 2125 0
2083 -2125 0
2085 -2125 0
-2086 -2087 2127 0
2086 -2127 0
2087 -2127 0
-2089 -2091 2129 0
2089 -2129 0
2091 -2129 0
-2093 -2095 2131 0
2093 -2131 0
2095 -2131 0
-2096 -2097 2133 0
2096 -2133 0
2097 -2133 0
-2099 -2101 2135 0
2099 -2135 0
2101 -2135 0
-2103 -2105 2137 0
2103 -2137 0
2105 -2137 0
-2107 -2109 2139 0
2107 -2139 0
2109 -2139 0
-2111 -2113 2141 0
2111 -2141 0
2113 -2141 0
-2115 -2117 2143 0
2115 -2143 0
2117 -2143 0
-2075 -2119 2145 0
2119 -2145 0
2075 -2145 0
-2121 -2122 2147 0
2121 -2147 0
2122 -2147 0
-2124 -2126 2149 0
2124 -2149 0
2126 -2149 0
-2128 -2130 2151 0
2128 -2151 0
2130 -2151 0
-2132 -2134 2153 0
2132 -2153 0
2134 -2153 0
-2136 -2138 2155 0
2136 -2155 0
2138 -2155 0
-2140 -2142 2157 0
2140 -2157 0
2142 -2157 0
-2144 -2146 2159 0
2144 -2159 0
2146 -2159 0
-2148 -2150 2161 0
2148 -2161 0
2150 -2161 0
-2152 -2154 2163 0
2152 -2163 0
2154 -2163 0
-2156 -2158 2165 0
2156 -2165 0
2158 -2165 0
-2160 -2162 2166 0
2160 -2166 0
2162 -2166 0
-2082 -2084 2250 0
2082 -2250 0
2084 -2250 0
-2088 -2090 2170 0
2088 -2170 0
2090 -2170 0
-2092 -2094 2172 0
2092 -2172 0
2094 -2172 0
-2098 -2100 2252 0
2098 -2252 0
2100 -2252 0
-2102 -2104 2176 0
2102 -2176 0
2104 -2176 0
-2106 -2108 2178 0
2106 -2178 0
2108 -2178 0
-2110 -2112 2180 0
2110 -2180 0
2112 -2180 0
-2114 -2116 2182 0
2114 -2182 0
2116 -2182 0
-2118 -2120 2257 0
2118 -2257 0
2120 -2257 0
-2123 -2125 2186 0
2123 -2186 0
2125 -2186 0
-2127 -2129 2188 0
2127 -2188 0
2129 -2188 0
-2131 -2133 2190 0
2131 -2190 0
2133 -2190 0
-2135 -2137 2192 0
2135 -2192 0
2137 -2192 0
-2139 -2141 2194 0
2139 -2194 0
2141 -2194 0
-2143 -2145 2196 0
2143 -2196 0
2145 -2196 0
-2147 -2149 2198 0
2147 -2198 0
2149 -2198 0
-2151 -2153 2200 0
2151 -2200 0
2153 -2200 0
-2155 -2157 2202 0
2155 -2202 0
2157 -2202 0
-2159 -2161 2204 0
2159 -2204 0
2161 -2204 0
-2163 -2165 2206 0
2163 -2206 0
2165 -2206 0
-2164 -2166 2208 0
2166 -2208 0
2164 -2208 0
-2167 -2168 2268 0
2167 -2268 0
2168 -2268 0
-2169 -2171 2210 0
2169 -2210 0
2171 -2210 0
-2173 -2174 2212 0
2173 -2212 0
2174 -2212 0
-2175 -2177 2214 0
2175 -2214 0
2177 -2214 0
-2179 -2181 2216 0
2179 -2216 0
2181 -2216 0
-2183 -2184 2218 0
2183 -2218 0
2184 -2218 0
-2185 -2187 2220 0
2185 -2220 0
2187 -2220 0
-2189 -2191 2222 0
2189 -2222 0
2191 -2222 0
-2193 -2195 2224 0
2193 -2224 0
2195 -2224 0
-2197 -2199 2226 0
2197 -2226 0
2199 -2226 0
-2201 -2203 2228 0
2201 -2228 0
2203 -2228 0
-2205 -2207 2278 0
2205 -2278 0
2207 -2278 0
-2209 -2211 2232 0
2209 -2232 0
2211 -2232 0
-2213 -2215 2234 0
2213 -2234 0
2215 -2234 0
-2217 -2219 2236 0
2217 -2236 0
2219 -2236 0
-2221 -2223 2238 0
2221 -2238 0
2223 -2238 0
-2225 -2227 2240 0
2225 -2240 0
2227 -2240 0
-2229 -2230 2242 0
2229 -2242 0
2230 -2242 0
-2231 -2233 2244 0
2231 -2244 0
2233 -2244 0
-2235 -2237 2246 0
2235 -2246 0
2237 -2246 0
-2239 -2241 2248 0
2239 -2248 0
2241 -2248 0
-2243 -2245 2249 0
2243 -2249 0
2245 -2249 0
-2170 -2172 2333 0
2170 -2333 0
2172 -2333 0
-2176 -2178 2254 0
2176 -2254 0
2178 -2254 0
-2180 -2182 2256 0
2180 -2256 0
2182 -2256 0
-2186 -2188 2335 0
2186 -2335 0
2188 -2335 0
-2190 -2192 2260 0
2190 -2260 0
2192 -2260 0
-2194 -2196 2262 0
2194 -2262 0
2196 -2262 0
-2198 -2200 2264 0
2198 -2264 0
2200 -2264 0
-2202 -2204 2266 0
2202 -2266 0
2204 -2266 0
-2206 -2208 2340 0
2206 -2340 0
2208 -2340 0
-2210 -2212 2270 0
2210 -2270 0
2212 -2270 0
-2214 -2216 2272 0
2214 -2272 0
2216 -2272 0
-2218 -2220 2274 0
2218 -2274 0
2220 -2274 0
-2222 -2224 2276 0
2222 -2276 0
2224 -2276 0
-2226 -2228 2343 0
2226 -2343 0
2228 -2343 0
-2232 -2234 2280 0
2232 -2280 0
2234 -2280 0
-2236 -2238 2282 0
2236 -2282 0
2238 -2282 0
-2240 -2242 2284 0
2240 -2284 0
2242 -2284 0
-2244 -2246 2286 0
2244 -2286 0
2246 -2286 0
-2248 -2249 2348 0
2248 -2348 0
2249 -2348 0
-2250 -2251 2289 0
2250 -2289 0
2251 -2289 0
-2252 -2253 2291 0
2252 -2291 0
2253 -2291 0
-2255 -2257 2293 0
2255 -2293 0
2257 -2293 0
-2258 -2259 2295 0
2258 -2295 0
2259 -2295 0
-2261 -2263 2297 0
2261 -2297 0
2263 -2297 0
-2265 -2267 2299 0
2265 -2299 0
2267 -2299 0
-2268 -2269 2301 0
2268 -2301 0
2269 -2301 0
-2271 -2273 2303 0
2271 -2303 0
2273 -2303 0
-2275 -2277 2305 0
2275 -2305 0
2277 -2305 0
-2278 -2279 2307 0
2278 -2307 0
2279 -2307 0
-2281 -2283 2309 0
2281 -2309 0
2283 -2309 0
-2285 -2287 2311 0
2285 -2311 0
2287 -2311 0
-2247 -2288 2313 0
2247 -2313 0
2288 -2313 0
-2290 -2292 2315 0
2290 -2315 0
2292 -2315 0
-2294 -2296 2317 0
2294 -2317 0
2296 -2317 0
-2298 -2300 2319 0
2298 -2319 0
2300 -2319 0
-2302 -2304 2321 0
2302 -2321 0
2304 -2321 0
-2306 -2308 2323 0
2306 -2323 0
2308 -2323 0
-2310 -2312 2325 0
2310 -2325 0
2312 -2325 0
-2314 -2316 2327 0
2314 -2327 0
2316 -2327 0
-2318 -2320 2329 0
2318 -2329 0
2320 -2329 0
-2322 -2324 2331 0
2322 -2331 0
2324 -2331 0
-2326 -2328 2332 0
2326 -2332 0
2328 -2332 0
-2254 -2256 2414 0
2254 -2414 0
2256 -2414 0
-2260 -2262 2337 0
2260 -2337 0
2262 -2337 0
-2264 -2266 2339 0
2264 -2339 0
2266 -2339 0
-2270 -2272 2416 0
2270 -2416 0
2272 -2416 0
-2274 -2276 2417 0
2274 -2417 0
2276 -2417 0
-2280 -2282 2345 0
2280 -2345 0
2282 -2345 0
-2284 -2286 2347 0
2284 -2347 0
2286 -2347 0
-2289 -2291 2419 0
2289 -2419 0
2291 -2419 0
-2293 -2295 2351 0
2293 -2351 0
2295 -2351 0
-2297 -2299 2353 0
2297 -2353 0
2299 -2353 0
-2301 -2303 2355 0
2301 -2355 0
2303 -2355 0
-2305 -2307 2357 0
2305 -2357 0
2307 -2357 0
-2309 -2311 2359 0
2309 -2359 0
2311 -2359 0
-2313 -2315 2361 0
2313 -2361 0
2315 -2361 0
-2317 -2319 2363 0
2317 -2363 0
2319 -2363 0
-2321 -2323 2365 0
2321 -2365 0
2323 -2365 0
-2325 -2327 2367 0
2325 -2367 0
2327 -2367 0
-2329 -2331 2369 0
2329 -2369 0
2331 -2369 0
-2330 -2332 2429 0
2332 -2429 0
2330 -2429 0
-2334 -2335 2372 0
2334 -2372 0
2335 -2372 0
-2336 -2338 2374 0
2336 -2374 0
2338 -2374 0
-2340 -2341 2376 0
2340 -2376 0
2341 -2376 0
-2342 -2343 2378 0
2342 -2378 0
2343 -2378 0
-2344 -2346 2380 0
2344 -2380 0
2346 -2380 0
-2348 -2349 2382 0
2348 -2382 0
2349 -2382 0
-2350 -2352 2384 0
2350 -2384 0
2352 -2384 0
-2354 -2356 2386 0
2354 -2386 0
2356 -2386 0
-2358 -2360 2388 0
2358 -2388 0
2360 -2388 0
-2362 -2364 2390 0
2362 -2390 0
2364 -2390 0
-2366 -2368 2392 0
2366 -2392 0
2368 -2392 0
-2333 -2370 2394 0
2370 -2394 0
2333 -2394 0
-2371 -2373 2396 0
2371 -2396 0
2373 -2396 0
-2375 -2377 2398 0
2375 -2398 0
2377 -2398 0
-2379 -2381 2400 0
2379 -2400 0
2381 -2400 0
-2383 -2385 2402 0
2383 -2402 0
2385 -2402 0
-2387 -2389 2404 0
2387 -2404 0
2389 -2404 0
-2391 -2393 2406 0
2391 -2406 0
2393 -2406 0
-2395 -2397 2408 0
2395 -2408 0
2397 -2408 0
-2399 -2401 2410 0
2399 -2410 0
2401 -2410 0
-2403 -2405 2412 0
2403 -2412 0
2405 -2412 0
-2407 -2409 2413 0
2407 -2413 0
2409 -2413 0
-2337 -2339 2493 0
2337 -2493 0
2339 -2493 0
-2345 -2347 2494 0
2345 -2494 0
2347 -2494 0
-2351 -2353 2495 0
2351 -2495 0
2353 -2495 0
-2355 -2357 2422 0
2355 -2422 0
2357 -2422 0
-2359 -2361 2424 0
2359 -2424 0
2361 -2424 0
-2363 -2365 2426 0
2363 -2426 0
2365 -2426 0
-2367 -2369 2428 0
2367 -2428 0
2369 -2428 0
-2372 -2374 2500 0
2372 -2500 0
2374 -2500 0
-2376 -2378 2432 0
2376 -2432 0
2378 -2432 0
-2380 -2382 2434 0
2380 -2434 0
2382 -2434 0
-2384 -2386 2436 0
2384 -2436 0
2386 -2436 0
-2388 -2390 2438 0
2388 -2438 0
2390 -2438 0
-2392 -2394 2440 0
2392 -2440 0
2394 -2440 0
-2396 -2398 2442 0
2396 -2442 0
2398 -2442 0
-2400 -2402 2444 0
2400 -2444 0
2402 -2444 0
-2404 -2406 2446 0
2404 -2446 0
2406 -2446 0
-2408 -2410 2448 0
2408 -2448 0
2410 -2448 0
-2412 -2413 2450 0
2412 -2450 0
2413 -2450 0
-2414 -2415 2510 0
2414 -2510 0
2415 -2510 0
-2416 -2417 2453 0
2416 -2453 0
2417 -2453 0
-2418 -2419 2455 0
2418 -2455 0
2419 -2455 0
-2420 -2421 2457 0
2420 -2457 0
2421 -2457 0
-2423 -2425 2459 0
2423 -2459 0
2425 -2459 0
-2427 -2429 2461 0
2427 -2461 0
2429 -2461 0
-2430 -2431 2463 0
2430 -2463 0
2431 -2463 0
-2433 -2435 2465 0
2433 -2465 0
2435 -2465 0
-2437 -2439 2467 0
2437 -2467 0
2439 -2467 0
-2441 -2443 2469 0
2441 -2469 0
2443 -2469 0
-2445 -2447 2471 0
2445 -2471 0
2447 -2471 0
-2411 -2449 2473 0
2449 -2473 0
2411 -2473 0
-2451 -2452 2475 0
2451 -2475 0
2452 -2475 0
-2454 -2456 2477 0
2454 -2477 0
2456 -2477 0
-2458 -2460 2479 0
2458 -2479 0
2460 -2479 0
-2462 -2464 2481 0
2462 -2481 0
2464 -2481 0
-2466 -2468 2483 0
2466 -2483 0
2468 -2483 0
-2470 -2472 2485 0
2470 -2485 0
2472 -2485 0
-2474 -2476 2487 0
2474 -2487 0
2476 -2487 0
-2478 -2480 2489 0
2478 -2489 0
2480 -2489 0
-2482 -2484 2491 0
2482 -2491 0
2484 -2491 0
-2486 -2488 2492 0
2486 -2492 0
2488 -2492 0
-2422 -2424 2497 0
2422 -2497 0
2424 -2497 0
-2426 -2428 2499 0
2426 -2499 0
2428 -2499 0
-2432 -2434 2572 0
2432 -2572 0
2434 -2572 0
-2436 -2438 2503 0
2436 -2503 0
2438 -2503 0
-2440 -2442 2505 0
2440 -2505 0
2442 -2505 0
-2444 -2446 2507 0
2444 -2507 0
2446 -2507 0
-2448 -2450 2509 0
2448 -2509 0
2450 -2509 0
-2453 -2455 2577 0
2453 -2577 0
2455 -2577 0
-2457 -2459 2513 0
2457 -2513 0
2459 -2513 0
-2461 -2463 2515 0
2461 -2515 0
2463 -2515 0
-2465 -2467 2517 0
2465 -2517 0
2467 -2517 0
-2469 -2471 2519 0
2469 -2519 0
2471 -2519 0
-2473 -2475 2521 0
2473 -2521 0
2475 -2521 0
-2477 -2479 2523 0
2477 -2523 0
2479 -2523 0
-2481 -2483 2525 0
2481 -2525 0
2483 -2525 0
-2485 -2487 2527 0
2485 -2527 0
2487 -2527 0
-2489 -2491 2529 0
2489 -2529 0
2491 -2529 0
-2490 -2492 2531 0
2492 -2531 0
2490 -2531 0
-2494 -2495 2587 0
2494 -2587 0
2495 -2587 0
-2496 -2498 2534 0
2496 -2534 0
2498 -2534 0
-2500 -2501 2536 0
2500 -2536 0
2501 -2536 0
-2502 -2504 2538 0
2502 -2538 0
2504 -2538 0
-2506 -2508 2540 0
2506 -2540 0
2508 -2540 0
-2510 -2511 2542 0
2510 -2542 0
2511 -2542 0
-2512 -2514 2544 0
2512 -2544 0
2514 -2544 0
-2516 -2518 2546 0
2516 -2546 0
2518 -2546 0
-2520 -2522 2548 0
2520 -2548 0
2522 -2548 0
-2524 -2526 2550 0
2524 -2550 0
2526 -2550 0
-2528 -2530 2552 0
2528 -2552 0
2530 -2552 0
-2493 -2532 2554 0
2493 -2554 0
2532 -2554 0
-2533 -2535 2556 0
2533 -2556 0
2535 -2556 0
-2537 -2539 2558 0
2537 -2558 0
2539 -2558 0
-2541 -2543 2560 0
2541 -2560 0
2543 -2560 0
-2545 -2547 2562 0
2545 -2562 0
2547 -2562 0
-2549 -2551 2564 0
2549 -2564 0
2551 -2564 0
-2553 -2555 2566 0
2553 -2566 0
2555 -2566 0
-2557 -2559 2568 0
2557 -2568 0
2559 -2568 0
-2561 -2563 2570 0
2561 -2570 0
2563 -2570 0
-2565 -2567 2571 0
2565 -2571 0
2567 -2571 0
-2497 -2499 2645 0
2497 -2645 0
2499 -2645 0
-2503 -2505 2574 0
2503 -2574 0
2505 -2574 0
-2507 -2509 2576 0
2507 -2576 0
2509 -2576 0
-2513 -2515 2647 0
2513 -2647 0
2515 -2647 0
-2517 -2519 2580 0
2517 -2580 0
2519 -2580 0
-2521 -2523 2582 0
2521 -2582 0
2523 -2582 0
-2525 -2527 2584 0
2525 -2584 0
2527 -2584 0
-2529 -2531 2586 0
2529 -2586 0
2531 -2586 0
-2534 -2536 2652 0
2534 -2652 0
2536 -2652 0
-2538 -2540 2590 0
2538 -2590 0
2540 -2590 0
-2542 -2544 2592 0
2542 -2592 0
2544 -2592 0
-2546 -2548 2594 0
2546 -2594 0
2548 -2594 0
-2550 -2552 2596 0
2550 -2596 0
2552 -2596 0
-2554 -2556 2598 0
2554 -2598 0
2556 -2598 0
-2558 -2560 2600 0
2558 -2600 0
2560 -2600 0
-2562 -2564 2602 0
2562 -2602 0
2564 -2602 0
-2566 -2568 2604 0
2566 -2604 0
2568 -2604 0
-2570 -2571 2659 0
2570 -2659 0
2571 -2659 0
-2572 -2573 2660 0
2572 -2660 0
2573 -2660 0
-2575 -2577 2609 0
2575 -2609 0
2577 -2609 0
-2578 -2579 2611 0
2578 -2611 0
2579 -2611 0
-2581 -2583 2613 0
2581 -2613 0
2583 -2613 0
-2585 -2587 2615 0
2585 -2615 0
2587 -2615 0
-2588 -2589 2617 0
2588 -2617 0
2589 -2617 0
-2591 -2593 2619 0
2591 -2619 0
2593 -2619 0
-2595 -2597 2621 0
2595 -2621 0
2597 -2621 0
-2599 -2601 2623 0
2599 -2623 0
2601 -2623 0
-2603 -2605 2625 0
2603 -2625 0
2605 -2625 0
-2569 -2606 2627 0
2569 -2627 0
2606 -2627 0
-2607 -2608 2629 0
2607 -2629 0
2608 -2629 0
-2610 -2612 2631 0
2610 -2631 0
2612 -2631 0
-2614 -2616 2633 0
2614 -2633 0
2616 -2633 0
-2618 -2620 2635 0
2618 -2635 0
2620 -2635 0
-2622 -2624 2637 0
2622 -2637 0
2624 -2637 0
-2626 -2628 2639 0
2626 -2639 0
2628 -2639 0
-2630 -2632 2641 0
2630 -2641 0
2632 -2641 0
-2634 -2636 2643 0
2634 -2643 0
2636 -2643 0
-2638 -2640 2644 0
2638 -2644 0
2640 -2644 0
-2574 -2576 2718 0
2574 -2718 0
2576 -2718 0
-2580 -2582 2649 0
2580 -2649 0
2582 -2649 0
-2584 -2586 2651 0
2584 -2651 0
2586 -2651 0
-2590 -2592 2720 0
2590 -2720 0
2592 -2720 0
-2594 -2596 2655 0
2594 -2655 0
2596 -2655 0
-2598 -2600 2657 0
2598 -2657 0
2600 -2657 0
-2602 -2604 2722 0
2602 -2722 0
2604 -2722 0
-2609 -2611 2723 0
2609 -2723 0
2611 -2723 0
-2613 -2615 2663 0
2613 -2663 0
2615 -2663 0
-2617 -2619 2665 0
2617 -2665 0
2619 -2665 0
-2621 -2623 2667 0
2621 -2667 0
2623 -2667 0
-2625 -2627 2669 0
2625 -2669 0
2627 -2669 0
-2629 -2631 2671 0
2629 -2671 0
2631 -2671 0
-2633 -2635 2673 0
2633 -2673 0
2635 -2673 0
-2637 -2639 2675 0
2637 -2675 0
2639 -2675 0
-2641 -2643 2677 0
2641 -2677 0
2643 -2677 0
-2642 -2644 2730 0
2644 -2730 0
2642 -2730 0
-2646 -2647 2680 0
2646 -2680 0
2647 -2680 0
-2648 -2650 2682 0
2648 -2682 0
2650 -2682 0
-2652 -2653 2684 0
2652 -2684 0
2653 -2684 0
-2654 -2656 2686 0
2654 -2686 0
2656 -2686 0
-2658 -2659 2688 0
2658 -2688 0
2659 -2688 0
-2660 -2661 2690 0
2660 -2690 0
2661 -2690 0
-2662 -2664 2692 0
2662 -2692 0
2664 -2692 0
-2666 -2668 2694 0
2666 -2694 0
2668 -2694 0
-2670 -2672 2696 0
2670 -2696 0
2672 -2696 0
-2674 -2676 2698 0
2674 -2698 0
2676 -2698 0
-2645 -2678 2700 0
2678 -2700 0
2645 -2700 0
-2679 -2681 2702 0
2679 -2702 0
2681 -2702 0
-2683 -2685 2704 0
2683 -2704 0
2685 -2704 0
-2687 -2689 2706 0
2687 -2706 0
2689 -2706 0
-2691 -2693 2708 0
2691 -2708 0
2693 -2708 0
-2695 -2697 2710 0
2695 -2710 0
2697 -2710 0
-2699 -2701 2712 0
2699 -2712 0
2701 -2712 0
-2703 -2705 2714 0
2703 -2714 0
2705 -2714 0
-2707 -2709 2716 0
2707 -2716 0
2709 -2716 0
-2711 -2713 2717 0
2711 -2717 0
2713 -2717 0
-2649 -2651 2789 0
2649 -2789 0
2651 -2789 0
-2655 -2657 2790 0
2655 -2790 0
2657 -2790 0
-2663 -2665 2791 0
2663 -2791 0
2665 -2791 0
-2667 -2669 2726 0
2667 -2726 0
2669 -2726 0
-2671 -2673 2728 0
2671 -2728 0
2673 -2728 0
-2675 -2677 2793 0
2675 -2793 0
2677 -2793 0
-2680 -2682 2732 0
2680 -2732 0
2682 -2732 0
-2684 -2686 2734 0
2684 -2734 0
2686 -2734 0
-2688 -2690 2736 0
2688 -2736 0
2690 -2736 0
-2692 -2694 2738 0
2692 -2738 0
2694 -2738 0
-2696 -2698 2740 0
2696 -2740 0
2698 -2740 0
-2700 -2702 2742 0
2700 -2742 0
2702 -2742 0
-2704 -2706 2744 0
2704 -2744 0
2706 -2744 0
-2708 -2710 2746 0
2708 -2746 0
2710 -2746 0
-2712 -2714 2748 0
2712 -2748 0
2714 -2748 0
-2716 -2717 2750 0
2716 -2750 0
2717 -2750 0
-2718 -2719 2803 0
2718 -2803 0
2719 -2803 0
-2720 -2721 2753 0
2720 -2753 0
2721 -2753 0
-2722 -2723 2755 0
2722 -2755 0
2723 -2755 0
-2724 -2725 2757 0
2724 -2757 0
2725 -2757 0
-2727 -2729 2759 0
2727 -2759 0
2729 -2759 0
-2730 -2731 2761 0
2730 -2761 0
2731 -2761 0
-2733 -2735 2763 0
2733 -2763 0
2735 -2763 0
-2737 -2739 2765 0
2737 -2765 0
2739 -2765 0
-2741 -2743 2767 0
2741 -2767 0
2743 -2767 0
-2745 -2747 2769 0
2745 -2769 0
2747 -2769 0
-2715 -2749 2771 0
2749 -2771 0
2715 -2771 0
-2751 -2752 2773 0
2751 -2773 0
2752 -2773 0
-2754 -2756 2775 0
2754 -2775 0
2756 -2775 0
-2758 -2760 2777 0
2758 -2777 0
2760 -2777 0
-2762 -2764 2779 0
2762 -2779 0
2764 -2779 0
-2766 -2768 2781 0
2766 -2781 0
2768 -2781 0
-2770 -2772 2783 0
2770 -2783 0
2772 -2783 0
-2774 -2776 2785 0
2774 -2785 0
2776 -2785 0
-2778 -2780 2787 0
2778 -2787 0
2780 -2787 0
-2782 -2784 2788 0
2782 -2788 0
2784 -2788 0
-2726 -2728 2860 0
2726 -2860 0
2728 -2860 0
-2732 -2734 2795 0
2732 -2795 0
2734 -2795 0
-2736 -2738 2797 0
2736 -2797 0
2738 -2797 0
-2740 -2742 2799 0
2740 -2799 0
2742 -2799 0
-2744 -2746 2801 0
2744 -2801 0
2746 -2801 0
-2748 -2750 2863 0
2748 -2863 0
2750 -2863 0
-2753 -2755 2805 0
2753 -2805 0
2755 -2805 0
-2757 -2759 2807 0
2757 -2807 0
2759 -2807 0
-2761 -2763 2809 0
2761 -2809 0
2763 -2809 0
-2765 -2767 2811 0
2765 -2811 0
2767 -2811 0
-2769 -2771 2813 0
2769 -2813 0
2771 -2813 0
-2773 -2775 2815 0
2773 -2815 0
2775 -2815 0
-2777 -2779 2817 0
2777 -2817 0
2779 -2817 0
-2781 -2783 2819 0
2781 -2819 0
2783 -2819 0
-2785 -2787 2821 0
2785 -2821 0
2787 -2821 0
-2786 -2788 2823 0
2788 -2823 0
2786 -2823 0
-2790 -2791 2873 0
2790 -2873 0
2791 -2873 0
-2792 -2793 2826 0
2792 -2826 0
2793 -2826 0
-2794 -2796 2828 0
2794 -2828 0
2796 -2828 0
-2798 -2800 2830 0
2798 -2830 0
2800 -2830 0
-2802 -2803 2832 0
2802 -2832 0
2803 -2832 0
-2804 -2806 2834 0
2804 -2834 0
2806 -2834 0
-2808 -2810 2836 0
2808 -2836 0
2810 -2836 0
-2812 -2814 2838 0
2812 -2838 0
2814 -2838 0
-2816 -2818 2840 0
2816 -2840 0
2818 -2840 0
-2820 -2822 2842 0
2820 -2842 0
2822 -2842 0
-2789 -2824 2844 0
2789 -2844 0
2824 -2844 0
-2825 -2827 2846 0
2825 -2846 0
2827 -2846 0
-2829 -2831 2848 0
2829 -2848 0
2831 -2848 0
-2833 -2835 2850 0
2833 -2850 0
2835 -2850 0
-2837 -2839 2852 0
2837 -2852 0
2839 -2852 0
-2841 -2843 2854 0
2841 -2854 0
2843 -2854 0
-2845 -2847 2856 0
2845 -2856 0
2847 -2856 0
-2849 -2851 2858 0
2849 -2858 0
2851 -2858 0
-2853 -2855 2859 0
2853 -2859 0
2855 -2859 0
-2795 -2797 2925 0
2795 -2925 0
2797 -2925 0
-2799 -2801 2926 0
2799 -2926 0
2801 -2926 0
-2805 -2807 2865 0
2805 -2865 0
2807 -2865 0
-2809 -2811 2867 0
2809 -2867 0
2811 -2867 0
-2813 -2815 2869 0
2813 -2869 0
2815 -2869 0
-2817 -2819 2871 0
2817 -2871 0
2819 -2871 0
-2821 -2823 2929 0
2821 -2929 0
2823 -2929 0
-2826 -2828 2875 0
2826 -2875 0
2828 -2875 0
-2830 -2832 2877 0
2830 -2877 0
2832 -2877 0
-2834 -2836 2879 0
2834 -2879 0
2836 -2879 0
-2838 -2840 2881 0
2838 -2881 0
2840 -2881 0
-2842 -2844 2883 0
2842 -2883 0
2844 -2883 0
-2846 -2848 2885 0
2846 -2885 0
2848 -2885 0
-2850 -2852 2887 0
2850 -2887 0
2852 -2887 0
-2854 -2856 2889 0
2854 -2889 0
2856 -2889 0
-2858 -2859 2938 0
2858 -2938 0
2859 -2938 0
-2861 -2862 2939 0
2861 -2939 0
2862 -2939 0
-2863 -2864 2893 0
2863 -2893 0
2864 -2893 0
-2866 -2868 2895 0
2866 -2895 0
2868 -2895 0
-2870 -2872 2897 0
2870 -2897 0
2872 -2897 0
-2873 -2874 2899 0
2873 -2899 0
2874 -2899 0
-2876 -2878 2901 0
2876 -2901 0
2878 -2901 0
-2880 -2882 2903 0
2880 -2903 0
2882 -2903 0
-2884 -2886 2905 0
2884 -2905 0
2886 -2905 0
-2888 -2890 2907 0
2888 -2907 0
2890 -2907 0
-2857 -2860 2909 0
2857 -2909 0
2860 -2909 0
-2891 -2892 2911 0
2891 -2911 0
2892 -2911 0
-2894 -2896 2913 0
2894 -2913 0
2896 -2913 0
-2898 -2900 2915 0
2898 -2915 0
2900 -2915 0
-2902 -2904 2917 0
2902 -2917 0
2904 -2917 0
-2906 -2908 2919 0
2906 -2919 0
2908 -2919 0
-2910 -2912 2921 0
2910 -2921 0
2912 -2921 0
-2914 -2916 2923 0
2914 -2923 0
2916 -2923 0
-2918 -2920 2924 0
2918 -2924 0
2920 -2924 0
-2865 -2867 2992 0
2865 -2992 0
2867 -2992 0
-2869 -2871 2993 0
2869 -2993 0
2871 -2993 0
-2875 -2877 2931 0
2875 -2931 0
2877 -2931 0
-2879 -2881 2933 0
2879 -2933 0
2881 -2933 0
-2883 -2885 2935 0
2883 -2935 0
2885 -2935 0
-2887 -2889 2937 0
2887 -2937 0
2889 -2937 0
-2893 -2895 2941 0
2893 -2941 0
2895 -2941 0
-2897 -2899 2943 0
2897 -2943 0
2899 -2943 0
-2901 -2903 2945 0
2901 -2945 0
2903 -2945 0
-2905 -2907 2947 0
2905 -2947 0
2907 -2947 0
-2909 -2911 2949 0
2909 -2949 0
2911 -2949 0
-2913 -2915 2951 0
2913 -2951 0
2915 -2951 0
-2917 -2919 2953 0
2917 -2953 0
2919 -2953 0
-2921 -2923 2955 0
2921 -2955 0
2923 -2955 0
-2922 -2924 3003 0
2924 -3003 0
2922 -3003 0
-2926 -2927 2958 0
2926 -2958 0
2927 -2958 0
-2928 -2929 2960 0
2928 -2960 0
2929 -2960 0
-2930 -2932 2962 0
2930 -2962 0
2932 -2962 0
-2934 -2936 2964 0
2934 -2964 0
2936 -2964 0
-2938 -2939 2966 0
2938 -2966 0
2939 -2966 0
-2940 -2942 2968 0
2940 -2968 0
2942 -2968 0
-2944 -2946 2970 0
2944 -2970 0
2946 -2970 0
-2948 -2950 2972 0
2948 -2972 0
2950 -2972 0
-2952 -2954 2974 0
2952 -2974 0
2954 -2974 0
-2925 -2956 2976 0
2956 -2976 0
2925 -2976 0
-2957 -2959 2978 0
2957 -2978 0
2959 -2978 0
-2961 -2963 2980 0
2961 -2980 0
2963 -2980 0
-2965 -2967 2982 0
2965 -2982 0
2967 -2982 0
-2969 -2971 2984 0
2969 -2984 0
2971 -2984 0
-2973 -2975 2986 0
2973 -2986 0
2975 -2986 0
-2977 -2979 2988 0
2977 -2988 0
2979 -2988 0
-2981 -2983 2990 0
2981 -2990 0
2983 -2990 0
-2985 -2987 2991 0
2985 -2991 0
2987 -2991 0
-2931 -2933 3053 0
2931 -3053 0
2933 -3053 0
-2935 -2937 3054 0
2935 -3054 0
2937 -3054 0
-2941 -2943 2996 0
2941 -2996 0
2943 -2996 0
-2945 -2947 2998 0
2945 -2998 0
2947 -2998 0
-2949 -2951 3000 0
2949 -3000 0
2951 -3000 0
-2953 -2955 3002 0
2953 -3002 0
2955 -3002 0
-2958 -2960 3057 0
2958 -3057 0
2960 -3057 0
-2962 -2964 3006 0
2962 -3006 0
2964 -3006 0
-2966 -2968 3008 0
2966 -3008 0
2968 -3008 0
-2970 -2972 3010 0
2970 -3010 0
2972 -3010 0
-2974 -2976 3012 0
2974 -3012 0
2976 -3012 0
-2978 -2980 3014 0
2978 -3014 0
2980 -3014 0
-2982 -2984 3016 0
2982 -3016 0
2984 -3016 0
-2986 -2988 3018 0
2986 -3018 0
2988 -3018 0
-2990 -2991 3020 0
2990 -3020 0
2991 -3020 0
-2992 -2993 3066 0
2992 -3066 0
2993 -3066 0
-2994 -2995 3067 0
2994 -3067 0
2995 -3067 0
-2997 -2999 3025 0
2997 -3025 0
2999 -3025 0
-3001 -3003 3027 0
3001 -3027 0
3003 -3027 0
-3004 -3005 3029 0
3004 -3029 0
3005 -3029 0
-3007 -3009 3031 0
3007 -3031 0
3009 -3031 0
-3011 -3013 3033 0
3011 -3033 0
3013 -3033 0
-3015 -3017 3035 0
3015 -3035 0
3017 -3035 0
-2989 -3019 3037 0
3019 -3037 0
2989 -3037 0
-3021 -3022 3039 0
3021 -3039 0
3022 -3039 0
-3023 -3024 3041 0
3023 -3041 0
3024 -3041 0
-3026 -3028 3043 0
3026 -3043 0
3028 -3043 0
-3030 -3032 3045 0
3030 -3045 0
3032 -3045 0
-3034 -3036 3047 0
3034 -3047 0
3036 -3047 0
-3038 -3040 3049 0
3038 -3049 0
3040 -3049 0
-3042 -3044 3051 0
3042 -3051 0
3044 -3051 0
-3046 -3048 3052 0
3046 -3052 0
3048 -3052 0
-2996 -2998 3116 0
2996 -3116 0
2998 -3116 0
-3000 -3002 3117 0
3000 -3117 0
3002 -3117 0
-3006 -3008 3059 0
3006 -3059 0
3008 -3059 0
-3010 -3012 3061 0
3010 -3061 0
3012 -3061 0
-3014 -3016 3063 0
3014 -3063 0
3016 -3063 0
-3018 -3020 3065 0
3018 -3065 0
3020 -3065 0
-3025 -3027 3069 0
3025 -3069 0
3027 -3069 0
-3029 -3031 3071 0
3029 -3071 0
3031 -3071 0
-3033 -3035 3073 0
3033 -3073 0
3035 -3073 0
-3037 -3039 3075 0
3037 -3075 0
3039 -3075 0
-3041 -3043 3077 0
3041 -3077 0
3043 -3077 0
-3045 -3047 3079 0
3045 -3079 0
3047 -3079 0
-3049 -3051 3081 0
3049 -3081 0
3051 -3081 0
-3050 -3052 3083 0
3052 -3083 0
3050 -3083 0
-3054 -3055 3127 0
3054 -3127 0
3055 -3127 0
-3056 -3057 3086 0
3056 -3086 0
3057 -3086 0
-3058 -3060 3088 0
3058 -3088 0
3060 -3088 0
-3062 -3064 3090 0
3062 -3090 0
3064 -3090 0
-3066 -3067 3092 0
3066 -3092 0
3067 -3092 0
-3068 -3070 3094 0
3068 -3094 0
3070 -3094 0
-3072 -3074 3096 0
3072 -3096 0
3074 -3096 0
-3076 -3078 3098 0
3076 -3098 0
3078 -3098 0
-3080 -3082 3100 0
3080 -3100 0
3082 -3100 0
-3053 -3084 3102 0
3053 -3102 0
3084 -3102 0
-3085 -3087 3104 0
3085 -3104 0
3087 -3104 0
-3089 -3091 3106 0
3089 -3106 0
3091 -3106 0
-3093 -3095 3108 0
3093 -3108 0
3095 -3108 0
-3097 -3099 3110 0
3097 -3110 0
3099 -3110 0
-3101 -3103 3112 0
3101 -3112 0
3103 -3112 0
-3105 -3107 3114 0
3105 -3114 0
3107 -3114 0
-3109 -3111 3115 0
3109 -3115 0
3111 -3115 0
-3059 -3061 3173 0
3059 -3173 0
3061 -3173 0
-3063 -3065 3174 0
3063 -3174 0
3065 -3174 0
-3069 -3071 3120 0
3069 -3120 0
3071 -3120 0
-3073 -3075 3122 0
3073 -3122 0
3075 -3122 0
-3077 -3079 3124 0
3077 -3124 0
3079 -3124 0
-3081 -3083 3126 0
3081 -3126 0
3083 -3126 0
-3086 -3088 3177 0
3086 -3177 0
3088 -3177 0
-3090 -3092 3130 0
3090 -3130 0
3092 -3130 0
-3094 -3096 3132 0
3094 -3132 0
3096 -3132 0
-3098 -3100 3134 0
3098 -3134 0
3100 -3134 0
-3102 -3104 3136 0
3102 -3136 0
3104 -3136 0
-3106 -3108 3138 0
3106 -3138 0
3108 -3138 0
-3110 -3112 3140 0
3110 -3140 0
3112 -3140 0
-3114 -3115 3183 0
3114 -3183 0
3115 -3183 0
-3116 -3117 3143 0
3116 -3143 0
3117 -3143 0
-3118 -3119 3145 0
3118 -3145 0
3119 -3145 0
-3121 -3123 3185 0
3121 -3185 0
3123 -3185 0
-3125 -3127 3149 0
3125 -3149 0
3127 -3149 0
-3128 -3129 3151 0
3128 -3151 0
3129 -3151 0
-3131 -3133 3153 0
3131 -3153 0
3133 -3153 0
-3135 -3137 3155 0
3135 -3155 0
3137 -3155 0
-3139 -3141 3157 0
3139 -3157 0
3141 -3157 0
-3113 -3142 3159 0
3113 -3159 0
3142 -3159 0
-3144 -3146 3161 0
3144 -3161 0
3146 -3161 0
-3147 -3148 3163 0
3147 -3163 0
3148 -3163 0
-3150 -3152 3165 0
3150 -3165 0
3152 -3165 0
-3154 -3156 3167 0
3154 -3167 0
3156 -3167 0
-3158 -3160 3169 0
3158 -3169 0
3160 -3169 0
-3162 -3164 3171 0
3162 -3171 0
3164 -3171 0
-3166 -3168 3172 0
3166 -3172 0
3168 -3172 0
-3120 -3122 3230 0
3120 -3230 0
3122 -3230 0
-3124 -3126 3231 0
3124 -3231 0
3126 -3231 0
-3130 -3132 3179 0
3130 -3179 0
3132 -3179 0
-3134 -3136 3181 0
3134 -3181 0
3136 -3181 0
-3138 -3140 3233 0
3138 -3233 0
3140 -3233 0
-3143 -3145 3234 0
3143 -3234 0
3145 -3234 0
-3149 -3151 3187 0
3149 -3187 0
3151 -3187 0
-3153 -3155 3189 0
3153 -3189 0
3155 -3189 0
-3157 -3159 3191 0
3157 -3191 0
3159 -3191 0
-3161 -3163 3193 0
3161 -3193 0
3163 -3193 0
-3165 -3167 3195 0
3165 -3195 0
3167 -3195 0
-3169 -3171 3197 0
3169 -3197 0
3171 -3197 0
-3170 -3172 3240 0
3172 -3240 0
3170 -3240 0
-3174 -3175 3200 0
3174 -3200 0
3175 -3200 0
-3176 -3177 3202 0
3176 -3202 0
3177 -3202 0
-3178 -3180 3204 0
3178 -3204 0
3180 -3204 0
-3182 -3183 3206 0
3182 -3206 0
3183 -3206 0
-3184 -3185 3208 0
3184 -3208 0
3185 -3208 0
-3186 -3188 3210 0
3186 -3210 0
3188 -3210 0
-3190 -3192 3212 0
3190 -3212 0
3192 -3212 0
-3194 -3196 3214 0
3194 -3214 0
3196 -3214 0
-3173 -3198 3216 0
3198 -3216 0
3173 -3216 0
-3199 -3201 3218 0
3199 -3218 0
3201 -3218 0
-3203 -3205 3220 0
3203 -3220 0
3205 -3220 0
-3207 -3209 3222 0
3207 -3222 0
3209 -3222 0
-3211 -3213 3224 0
3211 -3224 0
3213 -3224 0
-3215 -3217 3226 0
3215 -3226 0
3217 -3226 0
-3219 -3221 3228 0
3219 -3228 0
3221 -3228 0
-3223 -3225 3229 0
3223 -3229 0
3225 -3229 0
-3179 -3181 3287 0
3179 -3287 0
3181 -3287 0
-3187 -3189 3236 0
3187 -3236 0
3189 -3236 0
-3191 -3193 3238 0
3191 -3238 0
3193 -3238 0
-3195 -3197 3288 0
3195 -3288 0
3197 -3288 0
-3200 -3202 3242 0
3200 -3242 0
3202 -3242 0
-3204 -3206 3244 0
3204 -3244 0
3206 -3244 0
-3208 -3210 3246 0
3208 -3246 0
3210 -3246 0
-3212 -3214 3248 0
3212 -3248 0
3214 -3248 0
-3216 -3218 3250 0
3216 -3250 0
3218 -3250 0
-3220 -3222 3252 0
3220 -3252 0
3222 -3252 0
-3224 -3226 3254 0
3224 -3254 0
3226 -3254 0
-3228 -3229 3256 0
3228 -3256 0
3229 -3256 0
-3230 -3231 3295 0
3230 -3295 0
3231 -3295 0
-3232 -3233 3259 0
3232 -3259 0
3233 -3259 0
-3234 -3235 3261 0
3234 -3261 0
3235 -3261 0
-3237 -3239 3263 0
3237 -3263 0
3239 -3263 0
-3240 -3241 3265 0
3240 -3265 0
3241 -3265 0
-3243 -3245 3267 0
3243 -3267 0
3245 -3267 0
-3247 -3249 3269 0
3247 -3269 0
3249 -3269 0
-3251 -3253 3271 0
3251 -3271 0
3253 -3271 0
-3227 -3255 3273 0
3255 -3273 0
3227 -3273 0
-3257 -3258 3275 0
3257 -3275 0
3258 -3275 0
-3260 -3262 3277 0
3260 -3277 0
3262 -3277 0
-3264 -3266 3279 0
3264 -3279 0
3266 -3279 0
-3268 -3270 3281 0
3268 -3281 0
3270 -3281 0
-3272 -3274 3283 0
3272 -3283 0
3274 -3283 0
-3276 -3278 3285 0
3276 -3285 0
3278 -3285 0
-3280 -3282 3286 0
3280 -3286 0
3282 -3286 0
-3236 -3238 3340 0
3236 -3340 0
3238 -3340 0
-3242 -3244 3341 0
3242 -3341 0
3244 -3341 0
-3246 -3248 3291 0
3246 -3291 0
3248 -3291 0
-3250 -3252 3293 0
3250 -3293 0
3252 -3293 0
-3254 -3256 3343 0
3254 -3343 0
3256 -3343 0
-3259 -3261 3297 0
3259 -3297 0
3261 -3297 0
-3263 -3265 3299 0
3263 -3299 0
3265 -3299 0
-3267 -3269 3301 0
3267 -3301 0
3269 -3301 0
-3271 -3273 3303 0
3271 -3303 0
3273 -3303 0
-3275 -3277 3305 0
3275 -3305 0
3277 -3305 0
-3279 -3281 3307 0
3279 -3307 0
3281 -3307 0
-3283 -3285 3309 0
3283 -3309 0
3285 -3309 0
-3284 -3286 3311 0
3286 -3311 0
3284 -3311 0
-3288 -3289 3314 0
3288 -3314 0
3289 -3314 0
-3290 -3292 3316 0
3290 -3316 0
3292 -3316 0
-3294 -3295 3318 0
3294 -3318 0
3295 -3318 0
-3296 -3298 3320 0
3296 -3320 0
3298 -3320 0
-3300 -3302 3322 0
3300 -3322 0
3302 -3322 0
-3304 -3306 3324 0
3304 -3324 0
3306 -3324 0
-3308 -3310 3326 0
3308 -3326 0
3310 -3326 0
-3287 -3312 3328 0
3287 -3328 0
3312 -3328 0
-3313 -3315 3330 0
3313 -3330 0
3315 -3330 0
-3317 -3319 3332 0
3317 -3332 0
3319 -3332 0
-3321 -3323 3334 0
3321 -3334 0
3323 -3334 0
-3325 -3327 3336 0
3325 -3336 0
3327 -3336 0
-3329 -3331 3338 0
3329 -3338 0
3331 -3338 0
-3333 -3335 3339 0
3333 -3339 0
3335 -3339 0
-3291 -3293 3389 0
3291 -3389 0
3293 -3389 0
-3297 -3299 3390 0
3297 -3390 0
3299 -3390 0
-3301 -3303 3346 0
3301 -3346 0
3303 -3346 0
-3305 -3307 3348 0
3305 -3348 0
3307 -3348 0
-3309 -3311 3392 0
3309 -3392 0
3311 -3392 0
-3314 -3316 3350 0
3314 -3350 0
3316 -3350 0
-3318 -3320 3352 0
3318 -3352 0
3320 -3352 0
-3322 -3324 3354 0
3322 -3354 0
3324 -3354 0
-3326 -3328 3356 0
3326 -3356 0
3328 -3356 0
-3330 -3332 3358 0
3330 -3358 0
3332 -3358 0
-3334 -3336 3360 0
3334 -3360 0
3336 -3360 0
-3338 -3339 3398 0
3338 -3398 0
3339 -3398 0
-3340 -3341 3363 0
3340 -3363 0
3341 -3363 0
-3342 -3343 3365 0
3342 -3365 0
3343 -3365 0
-3344 -3345 3367 0
3344 -3367 0
3345 -3367 0
-3347 -3349 3369 0
3347 -3369 0
3349 -3369 0
-3351 -3353 3401 0
3351 -3401 0
3353 -3401 0
-3355 -3357 3373 0
3355 -3373 0
3357 -3373 0
-3359 -3361 3375 0
3359 -3375 0
3361 -3375 0
-3337 -3362 3377 0
3337 -3377 0
3362 -3377 0
-3364 -3366 3379 0
3364 -3379 0
3366 -3379 0
-3368 -3370 3381 0
3368 -3381 0
3370 -3381 0
-3371 -3372 3383 0
3371 -3383 0
3372 -3383 0
-3374 -3376 3385 0
3374 -3385 0
3376 -3385 0
-3378 -3380 3387 0
3378 -3387 0
3380 -3387 0
-3382 -3384 3388 0
3382 -3388 0
3384 -3388 0
-3346 -3348 3438 0
3346 -3438 0
3348 -3438 0
-3350 -3352 3439 0
3350 -3439 0
3352 -3439 0
-3354 -3356 3395 0
3354 -3395 0
3356 -3395 0
-3358 -3360 3397 0
3358 -3397 0
3360 -3397 0
-3363 -3365 3441 0
3363 -3441 0
3365 -3441 0
-3367 -3369 3442 0
3367 -3442 0
3369 -3442 0
-3373 -3375 3403 0
3373 -3403 0
3375 -3403 0
-3377 -3379 3405 0
3377 -3405 0
3379 -3405 0
-3381 -3383 3407 0
3381 -3407 0
3383 -3407 0
-3385 -3387 3409 0
3385 -3409 0
3387 -3409 0
-3386 -3388 3447 0
3388 -3447 0
3386 -3447 0
-3390 -3391 3412 0
3390 -3412 0
3391 -3412 0
-3392 -3393 3414 0
3392 -3414 0
3393 -3414 0
-3394 -3396 3416 0
3394 -3416 0
3396 -3416 0
-3398 -3399 3418 0
3398 -3418 0
3399 -3418 0
-3400 -3401 3420 0
3400 -3420 0
3401 -3420 0
-3402 -3404 3422 0
3402 -3422 0
3404 -3422 0
-3406 -3408 3424 0
3406 -3424 0
3408 -3424 0
-3389 -3410 3426 0
3410 -3426 0
3389 -3426 0
-3411 -3413 3428 0
3411 -3428 0
3413 -3428 0
-3415 -3417 3430 0
3415 -3430 0
3417 -3430 0
-3419 -3421 3432 0
3419 -3432 0
3421 -3432 0
-3423 -3425 3434 0
3423 -3434 0
3425 -3434 0
-3427 -3429 3436 0
3427 -3436 0
3429 -3436 0
-3431 -3433 3437 0
3431 -3437 0
3433 -3437 0
-3395 -3397 3487 0
3395 -3487 0
3397 -3487 0
-3403 -3405 3444 0
3403 -3444 0
3405 -3444 0
-3407 -3409 3446 0
3407 -3446 0
3409 -3446 0
-3412 -3414 3488 0
3412 -3488 0
3414 -3488 0
-3416 -3418 3450 0
3416 -3450 0
3418 -3450 0
-3420 -3422 3452 0
3420 -3452 0
3422 -3452 0
-3424 -3426 3454 0
3424 -3454 0
3426 -3454 0
-3428 -3430 3456 0
3428 -3456 0
3430 -3456 0
-3432 -3434 3458 0
3432 -3458 0
3434 -3458 0
-3436 -3437 3460 0
3436 -3460 0
3437 -3460 0
-3438 -3439 3494 0
3438 -3494 0
3439 -3494 0
-3440 -3441 3463 0
3440 -3463 0
3441 -3463 0
-3442 -3443 3465 0
3442 -3465 0
3443 -3465 0
-3445 -3447 3467 0
3445 -3467 0
3447 -3467 0
-3448 -3449 3469 0
3448 -3469 0
3449 -3469 0
-3451 -3453 3471 0
3451 -3471 0
3453 -3471 0
-3455 -3457 3473 0
3455 -3473 0
3457 -3473 0
-3435 -3459 3475 0
3459 -3475 0
3435 -3475 0
-3461 -3462 3477 0
3461 -3477 0
3462 -3477 0
-3464 -3466 3479 0
3464 -3479 0
3466 -3479 0
-3468 -3470 3481 0
3468 -3481 0
3470 -3481 0
-3472 -3474 3483 0
3472 -3483 0
3474 -3483 0
-3476 -3478 3485 0
3476 -3485 0
3478 -3485 0
-3480 -3482 3486 0
3480 -3486 0
3482 -3486 0
-3444 -3446 3532 0
3444 -3532 0
3446 -3532 0
-3450 -3452 3533 0
3450 -3533 0
3452 -3533 0
-3454 -3456 3491 0
3454 -3491 0
3456 -3491 0
-3458 -3460 3493 0
3458 -3493 0
3460 -3493 0
-3463 -3465 3535 0
3463 -3535 0
3465 -3535 0
-3467 -3469 3497 0
3467 -3497 0
3469 -3497 0
-3471 -3473 3499 0
3471 -3499 0
3473 -3499 0
-3475 -3477 3501 0
3475 -3501 0
3477 -3501 0
-3479 -3481 3503 0
3479 -3503 0
3481 -3503 0
-3483 -3485 3505 0
3483 -3505 0
3485 -3505 0
-3484 -3486 3507 0
3486 -3507 0
3484 -3507 0
-3488 -3489 3510 0
3488 -3510 0
3489 -3510 0
-3490 -3492 3512 0
3490 -3512 0
3492 -3512 0
-3494 -3495 3514 0
3494 -3514 0
3495 -3514 0
-3496 -3498 3516 0
3496 -3516 0
3498 -3516 0
-3500 -3502 3518 0
3500 -3518 0
3502 -3518 0
-3504 -3506 3520 0
3504 -3520 0
3506 -3520 0
-3487 -3508 3522 0
3487 -3522 0
3508 -3522 0
-3509 -3511 3524 0
3509 -3524 0
3511 -3524 0
-3513 -3515 3526 0
3513 -3526 0
3515 -3526 0
-3517 -3519 3528 0
3517 -3528 0
3519 -3528 0
-3521 -3523 3530 0
3521 -3530 0
3523 -3530 0
-3525 -3527 3531 0
3525 -3531 0
3527 -3531 0
-3491 -3493 3573 0
3491 -3573 0
3493 -3573 0
-3497 -3499 3574 0
3497 -3574 0
3499 -3574 0
-3501 -3503 3538 0
3501 -3538 0
3503 -3538 0
-3505 -3507 3539 0
3505 -3539 0
3507 -3539 0
-3510 -3512 3576 0
3510 -3576 0
3512 -3576 0
-3514 -3516 3542 0
3514 -3542 0
3516 -3542 0
-3518 -3520 3544 0
3518 -3544 0
3520 -3544 0
-3522 -3524 3546 0
3522 -3546 0
3524 -3546 0
-3526 -3528 3548 0
3526 -3548 0
3528 -3548 0
-3530 -3531 3579 0
3530 -3579 0
3531 -3579 0
-3532 -3533 3551 0
3532 -3551 0
3533 -3551 0
-3534 -3535 3553 0
3534 -3553 0
3535 -3553 0
-3536 -3537 3581 0
3536 -3581 0
3537 -3581 0
-3540 -3541 3557 0
3540 -3557 0
3541 -3557 0
-3543 -3545 3559 0
3543 -3559 0
3545 -3559 0
-3547 -3549 3561 0
3547 -3561 0
3549 -3561 0
-3529 -3550 3563 0
3529 -3563 0
3550 -3563 0
-3552 -3554 3565 0
3552 -3565 0
3554 -3565 0
-3555 -3556 3567 0
3555 -3567 0
3556 -3567 0
-3558 -3560 3569 0
3558 -3569 0
3560 -3569 0
-3562 -3564 3571 0
3562 -3571 0
3564 -3571 0
-3566 -3568 3572 0
3566 -3572 0
3568 -3572 0
-3538 -3539 3614 0
3538 -3614 0
3539 -3614 0
-3542 -3544 3615 0
3542 -3615 0
3544 -3615 0
-3546 -3548 3616 0
3546 -3616 0
3548 -3616 0
-3551 -3553 3617 0
3551 -3617 0
3553 -3617 0
-3557 -3559 3583 0
3557 -3583 0
3559 -3583 0
-3561 -3563 3585 0
3561 -3585 0
3563 -3585 0
-3565 -3567 3587 0
3565 -3587 0
3567 -3587 0
-3569 -3571 3589 0
3569 -3589 0
3571 -3589 0
-3570 -3572 3620 0
3572 -3620 0
3570 -3620 0
-3574 -3575 3592 0
3574 -3592 0
3575 -3592 0
-3576 -3577 3594 0
3576 -3594 0
3577 -3594 0
-3578 -3579 3596 0
3578 -3596 0
3579 -3596 0
-3580 -3581 3598 0
3580 -3598 0
3581 -3598 0
-3582 -3584 3600 0
3582 -3600 0
3584 -3600 0
-3586 -3588 3602 0
3586 -3602 0
3588 -3602 0
-3573 -3590 3604 0
3590 -3604 0
3573 -3604 0
-3591 -3593 3606 0
3591 -3606 0
3593 -3606 0
-3595 -3597 3608 0
3595 -3608 0
3597 -3608 0
-3599 -3601 3610 0
3599 -3610 0
3601 -3610 0
-3603 -3605 3612 0
3603 -3612 0
3605 -3612 0
-3607 -3609 3613 0
3607 -3613 0
3609 -3613 0
-3583 -3585 3655 0
3583 -3655 0
3585 -3655 0
-3587 -3589 3656 0
3587 -3656 0
3589 -3656 0
-3592 -3594 3622 0
3592 -3622 0
3594 -3622 0
-3596 -3598 3624 0
3596 -3624 0
3598 -3624 0
-3600 -3602 3626 0
3600 -3626 0
3602 -3626 0
-3604 -3606 3628 0
3604 -3628 0
3606 -3628 0
-3608 -3610 3630 0
3608 -3630 0
3610 -3630 0
-3612 -3613 3632 0
3612 -3632 0
3613 -3632 0
-3614 -3615 3662 0
3614 -3662 0
3615 -3662 0
-3616 -3617 3635 0
3616 -3635 0
3617 -3635 0
-3618 -3619 3637 0
3618 -3637 0
3619 -3637 0
-3620 -3621 3639 0
3620 -3639 0
3621 -3639 0
-3623 -3625 3641 0
3623 -3641 0
3625 -3641 0
-3627 -3629 3643 0
3627 -3643 0
3629 -3643 0
-3611 -3631 3645 0
3631 -3645 0
3611 -3645 0
-3633 -3634 3647 0
3633 -3647 0
3634 -3647 0
-3636 -3638 3649 0
3636 -3649 0
3638 -3649 0
-3640 -3642 3651 0
3640 -3651 0
3642 -3651 0
-3644 -3646 3653 0
3644 -3653 0
3646 -3653 0
-3648 -3650 3654 0
3648 -3654 0
3650 -3654 0
-3622 -3624 3658 0
3622 -3658 0
3624 -3658 0
-3626 -3628 3660 0
3626 -3660 0
3628 -3660 0
-3630 -3632 3692 0
3630 -3692 0
3632 -3692 0
-3635 -3637 3664 0
3635 -3664 0
3637 -3664 0
-3639 -3641 3666 0
3639 -3666 0
3641 -3666 0
-3643 -3645 3668 0
3643 -3668 0
3645 -3668 0
-3647 -3649 3670 0
3647 -3670 0
3649 -3670 0
-3651 -3653 3672 0
3651 -3672 0
3653 -3672 0
-3652 -3654 3674 0
3654 -3674 0
3652 -3674 0
-3655 -3656 3698 0
3655 -3698 0
3656 -3698 0
-3657 -3659 3676 0
3657 -3676 0
3659 -3676 0
-3661 -3662 3678 0
3661 -3678 0
3662 -3678 0
-3663 -3665 3680 0
3663 -3680 0
3665 -3680 0
-3667 -3669 3682 0
3667 -3682 0
3669 -3682 0
-3671 -3673 3703 0
3671 -3703 0
3673 -3703 0
-3675 -3677 3686 0
3675 -3686 0
3677 -3686 0
-3679 -3681 3688 0
3679 -3688 0
3681 -3688 0
-3683 -3684 3690 0
3683 -3690 0
3684 -3690 0
-3685 -3687 3691 0
3685 -3691 0
3687 -3691 0
-3658 -3660 3725 0
3658 -3725 0
3660 -3725 0
-3664 -3666 3694 0
3664 -3694 0
3666 -3694 0
-3668 -3670 3696 0
3668 -3696 0
3670 -3696 0
-3672 -3674 3727 0
3672 -3727 0
3674 -3727 0
-3676 -3678 3700 0
3676 -3700 0
3678 -3700 0
-3680 -3682 3702 0
3680 -3702 0
3682 -3702 0
-3686 -3688 3729 0
3686 -3729 0
3688 -3729 0
-3690 -3691 3730 0
3690 -3730 0
3691 -3730 0
-3692 -3693 3731 0
3692 -3731 0
3693 -3731 0
-3695 -3697 3709 0
3695 -3709 0
3697 -3709 0
-3698 -3699 3711 0
3698 -3711 0
3699 -3711 0
-3701 -3703 3713 0
3701 -3713 0
3703 -3713 0
-3704 -3705 3715 0
3704 -3715 0
3705 -3715 0
-3689 -3706 3717 0
3689 -3717 0
3706 -3717 0
-3707 -3708 3719 0
3707 -3719 0
3708 -3719 0
-3710 -3712 3721 0
3710 -3721 0
3712 -3721 0
-3714 -3716 3723 0
3714 -3723 0
3716 -3723 0
-3718 -3720 3724 0
3718 -3724 0
3720 -3724 0
-3694 -3696 3760 0
3694 -3760 0
3696 -3760 0
-3700 -3702 3761 0
3700 -3761 0
3702 -3761 0
-3709 -3711 3733 0
3709 -3733 0
3711 -3733 0
-3713 -3715 3735 0
3713 -3735 0
3715 -3735 0
-3717 -3719 3737 0
3717 -3737 0
3719 -3737 0
-3721 -3723 3739 0
3721 -3739 0
3723 -3739 0
-3722 -3724 3765 0
3724 -3765 0
3722 -3765 0
-3726 -3727 3742 0
3726 -3742 0
3727 -3742 0
-3728 -3729 3744 0
3728 -3744 0
3729 -3744 0
-3730 -3731 3746 0
3730 -3746 0
3731 -3746 0
-3732 -3734 3748 0
3732 -3748 0
3734 -3748 0
-3736 -3738 3750 0
3736 -3750 0
3738 -3750 0
-3725 -3740 3752 0
3740 -3752 0
3725 -3752 0
-3741 -3743 3754 0
3741 -3754 0
3743 -3754 0
-3745 -3747 3756 0
3745 -3756 0
3747 -3756 0
-3749 -3751 3758 0
3749 -3758 0
3751 -3758 0
-3753 -3755 3759 0
3753 -3759 0
3755 -3759 0
-3733 -3735 3762 0
3733 -3762 0
3735 -3762 0
-3737 -3739 3764 0
3737 -3764 0
3739 -3764 0
-3742 -3744 3792 0
3742 -3792 0
3744 -3792 0
-3746 -3748 3768 0
3746 -3768 0
3748 -3768 0
-3750 -3752 3770 0
3750 -3770 0
3752 -3770 0
-3754 -3756 3772 0
3754 -3772 0
3756 -3772 0
-3758 -3759 3774 0
3758 -3774 0
3759 -3774 0
-3760 -3761 3797 0
3760 -3797 0
3761 -3797 0
-3763 -3765 3798 0
3763 -3798 0
3765 -3798 0
-3766 -3767 3779 0
3766 -3779 0
3767 -3779 0
-3769 -3771 3781 0
3769 -3781 0
3771 -3781 0
-3757 -3773 3783 0
3773 -3783 0
3757 -3783 0
-3775 -3776 3785 0
3775 -3785 0
3776 -3785 0
-3777 -3778 3787 0
3777 -3787 0
3778 -3787 0
-3780 -3782 3789 0
3780 -3789 0
3782 -3789 0
-3784 -3786 3790 0
3784 -3790 0
3786 -3790 0
-3762 -3764 3820 0
3762 -3820 0
3764 -3820 0
-3768 -3770 3794 0
3768 -3794 0
3770 -3794 0
-3772 -3774 3796 0
3772 -3796 0
3774 -3796 0
-3779 -3781 3800 0
3779 -3800 0
3781 -3800 0
-3783 -3785 3802 0
3783 -3802 0
3785 -3802 0
-3787 -3789 3804 0
3787 -3804 0
3789 -3804 0
-3788 -3790 3806 0
3790 -3806 0
3788 -3806 0
-3791 -3792 3825 0
3791 -3825 0
3792 -3825 0
-3793 -3795 3808 0
3793 -3808 0
3795 -3808 0
-3797 -3798 3810 0
3797 -3810 0
3798 -3810 0
-3799 -3801 3812 0
3799 -3812 0
3801 -3812 0
-3803 -3805 3814 0
3803 -3814 0
3805 -3814 0
-3807 -3809 3828 0
3807 -3828 0
3809 -3828 0
-3811 -3813 3818 0
3811 -3818 0
3813 -3818 0
-3815 -3816 3819 0
3815 -3819 0
3816 -3819 0
-3794 -3796 3845 0
3794 -3845 0
3796 -3845 0
-3800 -3802 3822 0
3800 -3822 0
3802 -3822 0
-3804 -3806 3824 0
3804 -3824 0
3806 -3824 0
-3808 -3810 3847 0
3808 -3847 0
3810 -3847 0
-3812 -3814 3848 0
3812 -3848 0
3814 -3848 0
-3818 -3819 3849 0
3818 -3849 0
3819 -3849 0
-3820 -3821 3850 0
3820 -3850 0
3821 -3850 0
-3823 -3825 3833 0
3823 -3833 0
3825 -3833 0
-3826 -3827 3835 0
3826 -3835 0
3827 -3835 0
-3828 -3829 3837 0
3828 -3837 0
3829 -3837 0
-3817 -3830 3839 0
3817 -3839 0
3830 -3839 0
-3831 -3832 3841 0
3831 -3841 0
3832 -3841 0
-3834 -3836 3843 0
3834 -3843 0
3836 -3843 0
-3838 -3840 3844 0
3838 -3844 0
3840 -3844 0
-3822 -3824 3872 0
3822 -3872 0
3824 -3872 0
-3833 -3835 3873 0
3833 -3873 0
3835 -3873 0
-3837 -3839 3853 0
3837 -3853 0
3839 -3853 0
-3841 -3843 3855 0
3841 -3855 0
3843 -3855 0
-3842 -3844 3875 0
3844 -3875 0
3842 -3875 0
-3846 -3847 3858 0
3846 -3858 0
3847 -3858 0
-3848 -3849 3860 0
3848 -3860 0
3849 -3860 0
-3850 -3851 3862 0
3850 -3862 0
3851 -3862 0
-3852 -3854 3864 0
3852 -3864 0
3854 -3864 0
-3845 -3856 3866 0
3856 -3866 0
3845 -3866 0
-3857 -3859 3868 0
3857 -3868 0
3859 -3868 0
-3861 -3863 3870 0
3861 -3870 0
3863 -3870 0
-3865 -3867 3871 0
3865 -3871 0
3867 -3871 0
-3853 -3855 3897 0
3853 -3897 0
3855 -3897 0
-3858 -3860 3877 0
3858 -3877 0
3860 -3877 0
-3862 -3864 3879 0
3862 -3879 0
3864 -3879 0
-3866 -3868 3881 0
3866 -3881 0
3868 -3881 0
-3870 -3871 3883 0
3870 -3883 0
3871 -3883 0
-3873 -3874 3885 0
3873 -3885 0
3874 -3885 0
-3875 -3876 3887 0
3875 -3887 0
3876 -3887 0
-3878 -3880 3889 0
3878 -3889 0
3880 -3889 0
-3869 -3882 3891 0
3882 -3891 0
3869 -3891 0
-3872 -3884 3893 0
3872 -3893 0
3884 -3893 0
-3886 -3888 3895 0
3886 -3895 0
3888 -3895 0
-3890 -3892 3896 0
3890 -3896 0
3892 -3896 0
-3877 -3879 3914 0
3877 -3914 0
3879 -3914 0
-3881 -3883 3915 0
3881 -3915 0
3883 -3915 0
-3885 -3887 3900 0
3885 -3900 0
3887 -3900 0
-3889 -3891 3902 0
3889 -3902 0
3891 -3902 0
-3893 -3895 3904 0
3893 -3904 0
3895 -3904 0
-3894 -3896 3906 0
3896 -3906 0
3894 -3906 0
-3897 -3898 3918 0
3897 -3918 0
3898 -3918 0
-3899 -3901 3919 0
3899 -3919 0
3901 -3919 0
-3903 -3905 3920 0
3903 -3920 0
3905 -3920 0
-3907 -3908 3912 0
3907 -3912 0
3908 -3912 0
-3909 -3910 3913 0
3909 -3913 0
3910 -3913 0
-3900 -3902 3935 0
3900 -3935 0
3902 -3935 0
-3904 -3906 3936 0
3904 -3936 0
3906 -3936 0
-3912 -3913 3937 0
3912 -3937 0
3913 -3937 0
-3914 -3915 3923 0
3914 -3923 0
3915 -3923 0
-3916 -3917 3925 0
3916 -3925 0
3917 -3925 0
-3918 -3919 3927 0
3918 -3927 0
3919 -3927 0
-3920 -3921 3929 0
3920 -3929 0
3921 -3929 0
-3911 -3922 3931 0
3911 -3931 0
3922 -3931 0
-3924 -3926 3933 0
3924 -3933 0
3926 -3933 0
-3928 -3930 3934 0
3928 -3934 0
3930 -3934 0
-3923 -3925 3952 0
3923 -3952 0
3925 -3952 0
-3927 -3929 3940 0
3927 -3940 0
3929 -3940 0
-3931 -3933 3942 0
3931 -3942 0
3933 -3942 0
-3932 -3934 3954 0
3934 -3954 0
3932 -3954 0
-3937 -3938 3955 0
3937 -3955 0
3938 -3955 0
-3939 -3941 3946 0
3939 -3946 0
3941 -3946 0
-3935 -3943 3948 0
3943 -3948 0
3935 -3948 0
-3936 -3944 3950 0
3936 -3950 0
3944 -3950 0
-3945 -3947 3951 0
3945 -3951 0
3947 -3951 0
-3940 -3942 3969 0
3940 -3969 0
3942 -3969 0
-3946 -3948 3957 0
3946 -3957 0
3948 -3957 0
-3950 -3951 3959 0
3950 -3959 0
3951 -3959 0
-3953 -3954 3961 0
3953 -3961 0
3954 -3961 0
-3955 -3956 3963 0
3955 -3963 0
3956 -3963 0
-3949 -3958 3965 0
3958 -3965 0
3949 -3965 0
-3952 -3960 3967 0
3952 -3967 0
3960 -3967 0
-3962 -3964 3968 0
3962 -3968 0
3964 -3968 0
-3957 -3959 3980 0
3957 -3980 0
3959 -3980 0
-3961 -3963 3981 0
3961 -3981 0
3963 -3981 0
-3965 -3967 3971 0
3965 -3971 0
3967 -3971 0
-3966 -3968 3973 0
3968 -3973 0
3966 -3973 0
-3970 -3972 3982 0
3970 -3982 0
3972 -3982 0
-3969 -3974 3978 0
3969 -3978 0
3974 -3978 0
-3975 -3976 3979 0
3975 -3979 0
3976 -3979 0
-3971 -3973 3991 0
3971 -3991 0
3973 -3991 0
-3978 -3979 3992 0
3978 -3992 0
3979 -3992 0
-3980 -3981 3993 0
3980 -3993 0
3981 -3993 0
-3982 -3983 3987 0
3982 -3987 0
3983 -3987 0
-3977 -3984 3989 0
3977 -3989 0
3984 -3989 0
-3985 -3986 3990 0
3985 -3990 0
3986 -3990 0
-3987 -3989 4003 0
3987 -4003 0
3989 -4003 0
-3988 -3990 4000 0
3990 -4000 0
3988 -4000 0
-3993 -3994 4001 0
3993 -4001 0
3994 -4001 0
-3991 -3995 3998 0
3995 -3998 0
3991 -3998 0
-3992 -3996 3999 0
3992 -3999 0
3996 -3999 0
-3998 -3999 4013 0
3998 -4013 0
3999 -4013 0
-4000 -4001 4005 0
4000 -4005 0
4001 -4005 0
-3997 -4002 4007 0
4002 -4007 0
3997 -4007 0
-4003 -4004 4008 0
4003 -4008 0
4004 -4008 0
-4005 -4007 4010 0
4005 -4010 0
4007 -4010 0
-4006 -4008 4012 0
4008 -4012 0
4006 -4012 0
-4009 -4011 4015 0
4009 -4015 0
4011 -4015 0
-4010 -4012 4017 0
-4013 -4014 4016 0
4013 -4016 0
4014 -4016 0
-4015 -4016 0
-4017 0
-1 -2 -78 0
1 2 -78 0
1 -2 78 0
-1 2 78 0
-1 -18 -78 0
1 18 -78 0
1 -18 78 0
-1 18 78 0
-3 -10 -81 0
3 10 -81 0
-3 10 81 0
3 -10 81 0
-19 -28 -83 0
19 28 -83 0
-19 28 83 0
19 -28 83 0
-79 -80 -85 0
79 80 -85 0
-79 80 85 0
79 -80 85 0
-78 -81 -87 0
78 81 -87 0
-78 81 87 0
78 -81 87 0
-83 -85 -87 0
83 85 -87 0
-83 85 87 0
83 -85 87 0
-4 -11 -90 0
4 11 -90 0
-4 11 90 0
4 -11 90 0
-20 -29 -92 0
20 29 -92 0
-20 29 92 0
20 -29 92 0
-38 -82 -94 0
38 82 -94 0
-38 82 94 0
38 -82 94 0
-84 -86 -96 0
84 86 -96 0
-84 86 96 0
84 -86 96 0
-88 -89 -98 0
88 89 -98 0
-88 89 98 0
88 -89 98 0
-87 -90 -100 0
87 90 -100 0
-87 90 100 0
87 -90 100 0
-92 -94 -102 0
92 94 -102 0
-92 94 102 0
92 -94 102 0
-96 -98 -104 0
96 98 -104 0
-96 98 104 0
96 -98 104 0
-100 -102 -104 0
100 102 -104 0
-100 102 104 0
100 -102 104 0
-5 -12 -107 0
5 12 -107 0
-5 12 107 0
5 -12 107 0
-21 -30 -109 0
21 30 -109 0
-21 30 109 0
21 -30 109 0
-39 -48 -111 0
39 48 -111 0
-39 48 111 0
39 -48 111 0
-91 -93 -113 0
91 93 -113 0
-91 93 113 0
91 -93 113 0
-95 -97 -115 0
95 97 -115 0
-95 97 115 0
95 -97 115 0
-99 -101 -117 0
99 101 -117 0
-99 101 117 0
99 -101 117 0
-103 -105 -119 0
103 105 -119 0
-103 105 119 0
103 -105 119 0
-104 -106 -121 0
104 106 -121 0
104 -106 121 0
-104 106 121 0
-107 -109 -123 0
107 109 -123 0
-107 109 123 0
107 -109 123 0
-111 -113 -125 0
111 113 -125 0
-111 113 125 0
111 -113 125 0
-115 -117 -127 0
115 117 -127 0
-115 117 127 0
115 -117 127 0
-119 -121 -129 0
119 121 -129 0
-119 121 129 0
119 -121 129 0
-123 -125 -131 0
123 125 -131 0
-123 125 131 0
123 -125 131 0
-127 -129 -131 0
127 129 -131 0
-127 129 131 0
127 -129 131 0
-6 -13 -134 0
6 13 -134 0
-6 13 134 0
6 -13 134 0
-22 -31 -136 0
22 31 -136 0
-22 31 136 0
22 -31 136 0
-40 -49 -138 0
40 49 -138 0
-40 49 138 0
40 -49 138 0
-58 -108 -140 0
58 108 -140 0
-58 108 140 0
58 -108 140 0
-110 -112 -142 0
110 112 -142 0
-110 112 142 0
110 -112 142 0
-114 -116 -144 0
114 116 -144 0
-114 116 144 0
114 -116 144 0
-118 -120 -146 0
118 120 -146 0
-118 120 146 0
118 -120 146 0
-122 -124 -148 0
122 124 -148 0
-122 124 148 0
122 -124 148 0
-126 -128 -150 0
126 128 -150 0
-126 128 150 0
126 -128 150 0
-130 -132 -152 0
130 132 -152 0
-130 132 152 0
130 -132 152 0
-131 -133 -154 0
131 133 -154 0
131 -133 154 0
-131 133 154 0
-134 -136 -156 0
134 136 -156 0
-134 136 156 0
134 -136 156 0
-138 -140 -158 0
138 140 -158 0
-138 140 158 0
138 -140 158 0
-142 -144 -160 0
142 144 -160 0
-142 144 160 0
142 -144 160 0
-146 -148 -162 0
146 148 -162 0
-146 148 162 0
146 -148 162 0
-150 -152 -164 0
150 152 -164 0
-150 152 164 0
150 -152 164 0
-154 -156 -166 0
154 156 -166 0
-154 156 166 0
154 -156 166 0
-158 -160 -168 0
158 160 -168 0
-158 160 168 0
158 -160 168 0
-162 -164 -170 0
162 164 -170 0
-162 164 170 0
162 -164 170 0
-166 -168 -170 0
166 168 -170 0
-166 168 170 0
166 -168 170 0
-7 -14 -173 0
7 14 -173 0
-7 14 173 0
7 -14 173 0
-23 -32 -175 0
23 32 -175 0
-23 32 175 0
23 -32 175 0
-41 -50 -177 0
41 50 -177 0
-41 50 177 0
41 -50 177 0
-59 -68 -179 0
59 68 -179 0
-59 68 179 0
59 -68 179 0
-135 -137 -181 0
135 137 -181 0
-135 137 181 0
135 -137 181 0
-139 -141 -183 0
139 141 -183 0
-139 141 183 0
139 -141 183 0
-143 -145 -185 0
143 145 -185 0
-143 145 185 0
143 -145 185 0
-147 -149 -187 0
147 149 -187 0
-147 149 187 0
147 -149 187 0
-151 -153 -189 0
151 153 -189 0
-151 153 189 0
151 -153 189 0
-155 -157 -191 0
155 157 -191 0
-155 157 191 0
155 -157 191 0
-159 -161 -193 0
159 161 -193 0
-159 161 193 0
159 -161 193 0
-163 -165 -195 0
163 165 -195 0
-163 165 195 0
163 -165 195 0
-167 -169 -197 0
167 169 -197 0
-167 169 197 0
167 -169 197 0
-171 -172 -199 0
171 172 -199 0
-171 172 199 0
171 -172 199 0
-170 -173 -201 0
170 173 -201 0
-170 173 201 0
170 -173 201 0
-175 -177 -203 0
175 177 -203 0
-175 177 203 0
175 -177 203 0
-179 -181 -205 0
179 181 -205 0
-179 181 205 0
179 -181 205 0
-183 -185 -207 0
183 185 -207 0
-183 185 207 0
183 -185 207 0
-187 -189 -209 0
187 189 -209 0
-187 189 209 0
187 -189 209 0
-191 -193 -211 0
191 193 -211 0
-191 193 211 0
191 -193 211 0
-195 -197 -213 0
195 197 -213 0
-195 197 213 0
195 -197 213 0
-199 -201 -215 0
199 201 -215 0
-199 201 215 0
199 -201 215 0
-203 -205 -217 0
203 205 -217 0
-203 205 217 0
203 -205 217 0
-207 -209 -219 0
207 209 -219 0
-207 209 219 0
207 -209 219 0
-211 -213 -221 0
211 213 -221 0
-211 213 221 0
211 -213 221 0
-215 -217 -223 0
215 217 -223 0
-215 217 223 0
215 -217 223 0
-219 -221 -223 0
219 221 -223 0
-219 221 223 0
219 -221 223 0
-8 -15 -226 0
8 15 -226 0
-8 15 226 0
8 -15 226 0
-24 -33 -228 0
24 33 -228 0
-24 33 228 0
24 -33 228 0
-42 -51 -230 0
42 51 -230 0
-42 51 230 0
42 -51 230 0
-60 -69 -232 0
60 69 -232 0
-60 69 232 0
60 -69 232 0
-174 -176 -234 0
174 176 -234 0
-174 176 234 0
174 -176 234 0
-178 -180 -236 0
178 180 -236 0
-178 180 236 0
178 -180 236 0
-182 -184 -238 0
182 184 -238 0
-182 184 238 0
182 -184 238 0
-186 -188 -240 0
186 188 -240 0
-186 188 240 0
186 -188 240 0
-190 -192 -242 0
190 192 -242 0
-190 192 242 0
190 -192 242 0
-194 -196 -244 0
194 196 -244 0
-194 196 244 0
194 -196 244 0
-198 -200 -246 0
198 200 -246 0
-198 200 246 0
198 -200 246 0
-202 -204 -248 0
202 204 -248 0
-202 204 248 0
202 -204 248 0
-206 -208 -250 0
206 208 -250 0
-206 208 250 0
206 -208 250 0
-210 -212 -252 0
210 212 -252 0
-210 212 252 0
210 -212 252 0
-214 -216 -254 0
214 216 -254 0
-214 216 254 0
214 -216 254 0
-218 -220 -256 0
218 220 -256 0
-218 220 256 0
218 -220 256 0
-222 -224 -258 0
222 224 -258 0
-222 224 258 0
222 -224 258 0
-223 -225 -260 0
223 225 -260 0
223 -225 260 0
-223 225 260 0
-226 -228 -262 0
226 228 -262 0
-226 228 262 0
226 -228 262 0
-230 -232 -264 0
230 232 -264 0
-230 232 264 0
230 -232 264 0
-234 -236 -266 0
234 236 -266 0
-234 236 266 0
234 -236 266 0
-238 -240 -268 0
238 240 -268 0
-238 240 268 0
238 -240 268 0
-242 -244 -270 0
242 244 -270 0
-242 244 270 0
242 -244 270 0
-246 -248 -272 0
246 248 -272 0
-246 248 272 0
246 -248 272 0
-250 -252 -274 0
250 252 -274 0
-250 252 274 0
250 -252 274 0
-254 -256 -276 0
254 256 -276 0
-254 256 276 0
254 -256 276 0
-258 -260 -278 0
258 260 -278 0
-258 260 278 0
258 -260 278 0
-262 -264 -280 0
262 264 -280 0
-262 264 280 0
262 -264 280 0
-266 -268 -282 0
266 268 -282 0
-266 268 282 0
266 -268 282 0
-270 -272 -284 0
270 272 -284 0
-270 272 284 0
270 -272 284 0
-274 -276 -286 0
274 276 -286 0
-274 276 286 0
274 -276 286 0
-278 -280 -288 0
278 280 -288 0
-278 280 288 0
278 -280 288 0
-282 -284 -290 0
282 284 -290 0
-282 284 290 0
282 -284 290 0
-286 -288 290 0
286 288 290 0
-286 288 -290 0
286 -288 -290 0
-9 -16 -334 0
9 16 -334 0
-9 16 334 0
9 -16 334 0
-25 -34 -294 0
25 34 -294 0
-25 34 294 0
25 -34 294 0
-43 -52 -296 0
43 52 -296 0
-43 52 296 0
43 -52 296 0
-61 -70 -298 0
61 70 -298 0
-61 70 298 0
61 -70 298 0
-227 -229 -300 0
227 229 -300 0
-227 229 300 0
227 -229 300 0
-231 -233 -302 0
231 233 -302 0
-231 233 302 0
231 -233 302 0
-235 -237 -304 0
235 237 -304 0
-235 237 304 0
235 -237 304 0
-239 -241 -306 0
239 241 -306 0
-239 241 306 0
239 -241 306 0
-243 -245 -308 0
243 245 -308 0
-243 245 308 0
243 -245 308 0
-247 -249 -310 0
247 249 -310 0
-247 249 310 0
247 -249 310 0
-251 -253 -312 0
251 253 -312 0
-251 253 312 0
251 -253 312 0
-255 -257 -314 0
255 257 -314 0
-255 257 314 0
255 -257 314 0
-259 -261 -316 0
259 261 -316 0
-259 261 316 0
259 -261 316 0
-263 -265 -318 0
263 265 -318 0
-263 265 318 0
263 -265 318 0
-267 -269 -320 0
267 269 -320 0
-267 269 320 0
267 -269 320 0
-271 -273 -322 0
271 273 -322 0
-271 273 322 0
271 -273 322 0
-275 -277 -324 0
275 277 -324 0
-275 277 324 0
275 -277 324 0
-279 -281 -326 0
279 281 -326 0
-279 281 326 0
279 -281 326 0
-283 -285 -328 0
283 285 -328 0
-283 285 328 0
283 -285 328 0
-287 -289 -330 0
287 289 -330 0
-287 289 330 0
287 -289 330 0
-291 -292 -332 0
291 292 -332 0
-291 292 332 0
291 -292 332 0
-294 -296 -335 0
294 296 -335 0
-294 296 335 0
294 -296 335 0
-298 -300 -336 0
298 300 -336 0
-298 300 336 0
298 -300 336 0
-302 -304 -338 0
302 304 -338 0
-302 304 338 0
302 -304 338 0
-306 -308 -340 0
306 308 -340 0
-306 308 340 0
306 -308 340 0
-310 -312 -342 0
310 312 -342 0
-310 312 342 0
310 -312 342 0
-314 -316 -344 0
314 316 -344 0
-314 316 344 0
314 -316 344 0
-318 -320 -346 0
318 320 -346 0
-318 320 346 0
318 -320 346 0
-322 -324 -348 0
322 324 -348 0
-322 324 348 0
322 -324 348 0
-326 -328 -350 0
326 328 -350 0
-326 328 350 0
326 -328 350 0
-330 -332 -352 0
330 332 -352 0
-330 332 352 0
330 -332 352 0
-334 -335 -354 0
334 335 -354 0
-334 335 354 0
334 -335 354 0
-336 -338 -356 0
336 338 -356 0
-336 338 356 0
336 -338 356 0
-340 -342 -358 0
340 342 -358 0
-340 342 358 0
340 -342 358 0
-344 -346 -360 0
344 346 -360 0
-344 346 360 0
344 -346 360 0
-348 -350 -362 0
348 350 -362 0
-348 350 362 0
348 -350 362 0
-352 -354 -364 0
352 354 -364 0
-352 354 364 0
352 -354 364 0
-356 -358 -366 0
356 358 -366 0
-356 358 366 0
356 -358 366 0
-360 -362 -368 0
360 362 -368 0
-360 362 368 0
360 -362 368 0
-364 -366 368 0
364 366 368 0
-364 366 -368 0
364 -366 -368 0
-17 -26 -416 0
17 26 -416 0
-17 26 416 0
17 -26 416 0
-35 -44 -372 0
35 44 -372 0
-35 44 372 0
35 -44 372 0
-53 -62 -374 0
53 62 -374 0
-53 62 374 0
53 -62 374 0
-71 -293 -376 0
71 293 -376 0
-71 293 376 0
71 -293 376 0
-295 -297 -378 0
295 297 -378 0
-295 297 378 0
295 -297 378 0
-299 -301 -380 0
299 301 -380 0
-299 301 380 0
299 -301 380 0
-303 -305 -382 0
303 305 -382 0
-303 305 382 0
303 -305 382 0
-307 -309 -384 0
307 309 -384 0
-307 309 384 0
307 -309 384 0
-311 -313 -386 0
311 313 -386 0
-311 313 386 0
311 -313 386 0
-315 -317 -388 0
315 317 -388 0
-315 317 388 0
315 -317 388 0
-319 -321 -390 0
319 321 -390 0
-319 321 390 0
319 -321 390 0
-323 -325 -392 0
323 325 -392 0
-323 325 392 0
323 -325 392 0
-327 -329 -394 0
327 329 -394 0
-327 329 394 0
327 -329 394 0
-331 -333 -396 0
331 333 -396 0
-331 333 396 0
331 -333 396 0
-337 -339 -399 0
337 339 -399 0
-337 339 399 0
337 -339 399 0
-341 -343 -400 0
341 343 -400 0
-341 343 400 0
341 -343 400 0
-345 -347 -402 0
345 347 -402 0
-345 347 402 0
345 -347 402 0
-349 -351 -404 0
349 351 -404 0
-349 351 404 0
349 -351 404 0
-353 -355 -406 0
353 355 -406 0
-353 355 406 0
353 -355 406 0
-357 -359 -408 0
357 359 -408 0
-357 359 408 0
357 -359 408 0
-361 -363 -410 0
361 363 -410 0
-361 363 410 0
361 -363 410 0
-365 -367 -412 0
365 367 -412 0
-365 367 412 0
365 -367 412 0
-369 -370 -414 0
369 370 -414 0
-369 370 414 0
369 -370 414 0
-372 -374 -417 0
372 374 -417 0
-372 374 417 0
372 -374 417 0
-376 -378 -418 0
376 378 -418 0
-376 378 418 0
376 -378 418 0
-380 -382 -420 0
380 382 -420 0
-380 382 420 0
380 -382 420 0
-384 -386 -422 0
384 386 -422 0
-384 386 422 0
384 -386 422 0
-388 -390 -424 0
388 390 -424 0
-388 390 424 0
388 -390 424 0
-392 -394 -426 0
392 394 -426 0
-392 394 426 0
392 -394 426 0
-396 -398 -428 0
396 398 -428 0
-396 398 428 0
396 -398 428 0
-399 -400 -430 0
399 400 -430 0
-399 400 430 0
399 -400 430 0
-402 -404 -432 0
402 404 -432 0
-402 404 432 0
402 -404 432 0
-406 -408 -434 0
406 408 -434 0
-406 408 434 0
406 -408 434 0
-410 -412 -436 0
410 412 -436 0
-410 412 436 0
410 -412 436 0
-414 -416 -438 0
414 416 -438 0
-414 416 438 0
414 -416 438 0
-417 -418 -440 0
417 418 -440 0
-417 418 440 0
417 -418 440 0
-420 -422 -442 0
420 422 -442 0
-420 422 442 0
420 -422 442 0
-424 -426 -444 0
424 426 -444 0
-424 426 444 0
424 -426 444 0
-428 -430 -446 0
428 430 -446 0
-428 430 446 0
428 -430 446 0
-432 -434 -448 0
432 434 -448 0
-432 434 448 0
432 -434 448 0
-436 -438 -450 0
436 438 -450 0
-436 438 450 0
436 -438 450 0
-440 -442 -452 0
440 442 -452 0
-440 442 452 0
440 -442 452 0
-444 -446 -454 0
444 446 -454 0
-444 446 454 0
444 -446 454 0
-448 -450 -456 0
448 450 -456 0
-448 450 456 0
448 -450 456 0
-452 -454 456 0
452 454 456 0
-452 454 -456 0
452 -454 -456 0
-27 -36 -458 0
27 36 -458 0
-27 36 458 0
27 -36 458 0
-45 -54 -460 0
45 54 -460 0
-45 54 460 0
45 -54 460 0
-63 -72 -462 0
63 72 -462 0
-63 72 462 0
63 -72 462 0
-371 -373 -464 0
371 373 -464 0
-371 373 464 0
371 -373 464 0
-375 -377 -466 0
375 377 -466 0
-375 377 466 0
375 -377 466 0
-379 -381 -468 0
379 381 -468 0
-379 381 468 0
379 -381 468 0
-383 -385 -470 0
383 385 -470 0
-383 385 470 0
383 -385 470 0
-387 -389 -472 0
387 389 -472 0
-387 389 472 0
387 -389 472 0
-391 -393 -474 0
391 393 -474 0
-391 393 474 0
391 -393 474 0
-395 -397 -476 0
395 397 -476 0
-395 397 476 0
395 -397 476 0
-401 -403 -478 0
401 403 -478 0
-401 403 478 0
401 -403 478 0
-405 -407 -480 0
405 407 -480 0
-405 407 480 0
405 -407 480 0
-409 -411 -482 0
409 411 -482 0
-409 411 482 0
409 -411 482 0
-413 -415 -484 0
413 415 -484 0
-413 415 484 0
413 -415 484 0
-419 -421 -487 0
419 421 -487 0
-419 421 487 0
419 -421 487 0
-423 -425 -488 0
423 425 -488 0
-423 425 488 0
423 -425 488 0
-427 -429 -490 0
427 429 -490 0
-427 429 490 0
427 -429 490 0
-431 -433 -492 0
431 433 -492 0
-431 433 492 0
431 -433 492 0
-435 -437 -494 0
435 437 -494 0
-435 437 494 0
435 -437 494 0
-439 -441 -496 0
439 441 -496 0
-439 441 496 0
439 -441 496 0
-443 -445 -498 0
443 445 -498 0
-443 445 498 0
443 -445 498 0
-447 -449 -500 0
447 449 -500 0
-447 449 500 0
447 -449 500 0
-451 -453 -502 0
451 453 -502 0
-451 453 502 0
451 -453 502 0
-455 -457 -504 0
455 457 -504 0
-455 457 504 0
455 -457 504 0
-458 -460 -506 0
458 460 -506 0
-458 460 506 0
458 -460 506 0
-462 -464 -508 0
462 464 -508 0
-462 464 508 0
462 -464 508 0
-466 -468 -510 0
466 468 -510 0
-466 468 510 0
466 -468 510 0
-470 -472 -512 0
470 472 -512 0
-470 472 512 0
470 -472 512 0
-474 -476 -514 0
474 476 -514 0
-474 476 514 0
474 -476 514 0
-477 -478 -516 0
477 478 -516 0
-477 478 516 0
477 -478 516 0
-480 -482 -518 0
480 482 -518 0
-480 482 518 0
480 -482 518 0
-484 -486 -520 0
484 486 -520 0
-484 486 520 0
484 -486 520 0
-487 -488 -522 0
487 488 -522 0
-487 488 522 0
487 -488 522 0
-490 -492 -524 0
490 492 -524 0
-490 492 524 0
490 -492 524 0
-494 -496 -526 0
494 496 -526 0
-494 496 526 0
494 -496 526 0
-498 -500 -528 0
498 500 -528 0
-498 500 528 0
498 -500 528 0
-502 -504 -530 0
502 504 -530 0
-502 504 530 0
502 -504 530 0
-505 -506 -532 0
505 506 -532 0
-505 506 532 0
505 -506 532 0
-508 -510 -534 0
508 510 -534 0
-508 510 534 0
508 -510 534 0
-512 -514 -536 0
512 514 -536 0
-512 514 536 0
512 -514 536 0
-516 -518 -538 0
516 518 -538 0
-516 518 538 0
516 -518 538 0
-520 -522 -540 0
520 522 -540 0
-520 522 540 0
520 -522 540 0
-524 -526 -542 0
524 526 -542 0
-524 526 542 0
524 -526 542 0
-528 -530 -544 0
528 530 -544 0
-528 530 544 0
528 -530 544 0
-532 -534 -546 0
532 534 -546 0
-532 534 546 0
532 -534 546 0
-536 -538 -548 0
536 538 -548 0
-536 538 548 0
536 -538 548 0
-540 -542 -550 0
540 542 -550 0
-540 542 550 0
540 -542 550 0
-544 -546 -552 0
544 546 -552 0
-544 546 552 0
544 -546 552 0
-548 -550 552 0
548 550 552 0
-548 550 -552 0
548 -550 -552 0
-37 -46 -554 0
37 46 -554 0
-37 46 554 0
37 -46 554 0
-55 -64 -556 0
55 64 -556 0
-55 64 556 0
55 -64 556 0
-73 -459 -558 0
73 459 -558 0
-73 459 558 0
73 -459 558 0
-461 -463 -560 0
461 463 -560 0
-461 463 560 0
461 -463 560 0
-465 -467 -562 0
465 467 -562 0
-465 467 562 0
465 -467 562 0
-469 -471 -564 0
469 471 -564 0
-469 471 564 0
469 -471 564 0
-473 -475 -566 0
473 475 -566 0
-473 475 566 0
473 -475 566 0
-479 -481 -568 0
479 481 -568 0
-479 481 568 0
479 -481 568 0
-483 -485 -570 0
483 485 -570 0
-483 485 570 0
483 -485 570 0
-489 -491 -573 0
489 491 -573 0
-489 491 573 0
489 -491 573 0
-493 -495 -574 0
493 495 -574 0
-493 495 574 0
493 -495 574 0
-497 -499 -576 0
497 499 -576 0
-497 499 576 0
497 -499 576 0
-501 -503 -578 0
501 503 -578 0
-501 503 578 0
501 -503 578 0
-507 -509 -580 0
507 509 -580 0
-507 509 580 0
507 -509 580 0
-511 -513 -582 0
511 513 -582 0
-511 513 582 0
511 -513 582 0
-515 -517 -584 0
515 517 -584 0
-515 517 584 0
515 -517 584 0
-519 -521 -586 0
519 521 -586 0
-519 521 586 0
519 -521 586 0
-523 -525 -588 0
523 525 -588 0
-523 525 588 0
523 -525 588 0
-527 -529 -590 0
527 529 -590 0
-527 529 590 0
527 -529 590 0
-531 -533 -592 0
531 533 -592 0
-531 533 592 0
531 -533 592 0
-535 -537 -594 0
535 537 -594 0
-535 537 594 0
535 -537 594 0
-539 -541 -596 0
539 541 -596 0
-539 541 596 0
539 -541 596 0
-543 -545 -598 0
543 545 -598 0
-543 545 598 0
543 -545 598 0
-547 -549 -600 0
547 549 -600 0
-547 549 600 0
547 -549 600 0
-551 -553 -602 0
551 553 -602 0
-551 553 602 0
551 -553 602 0
-554 -556 -605 0
554 556 -605 0
-554 556 605 0
554 -556 605 0
-558 -560 -606 0
558 560 -606 0
-558 560 606 0
558 -560 606 0
-562 -564 -608 0
562 564 -608 0
-562 564 608 0
562 -564 608 0
-566 -567 -610 0
566 567 -610 0
-566 567 610 0
566 -567 610 0
-568 -570 -612 0
568 570 -612 0
-568 570 612 0
568 -570 612 0
-572 -573 -614 0
572 573 -614 0
-572 573 614 0
572 -573 614 0
-574 -576 -616 0
574 576 -616 0
-574 576 616 0
574 -576 616 0
-578 -579 -618 0
578 579 -618 0
-578 579 618 0
578 -579 618 0
-580 -582 -620 0
580 582 -620 0
-580 582 620 0
580 -582 620 0
-584 -586 -622 0
584 586 -622 0
-584 586 622 0
584 -586 622 0
-588 -590 -624 0
588 590 -624 0
-588 590 624 0
588 -590 624 0
-592 -594 -626 0
592 594 -626 0
-592 594 626 0
592 -594 626 0
-596 -598 -628 0
596 598 -628 0
-596 598 628 0
596 -598 628 0
-600 -602 -630 0
600 602 -630 0
-600 602 630 0
600 -602 630 0
-604 -605 -632 0
604 605 -632 0
-604 605 632 0
604 -605 632 0
-606 -608 -634 0
606 608 -634 0
-606 608 634 0
606 -608 634 0
-610 -612 -636 0
610 612 -636 0
-610 612 636 0
610 -612 636 0
-614 -616 -638 0
614 616 -638 0
-614 616 638 0
614 -616 638 0
-618 -620 -640 0
618 620 -640 0
-618 620 640 0
618 -620 640 0
-622 -624 -642 0
622 624 -642 0
-622 624 642 0
622 -624 642 0
-626 -628 -644 0
626 628 -644 0
-626 628 644 0
626 -628 644 0
-630 -632 -646 0
630 632 -646 0
-630 632 646 0
630 -632 646 0
-634 -636 -648 0
634 636 -648 0
-634 636 648 0
634 -636 648 0
-638 -640 -650 0
638 640 -650 0
-638 640 650 0
638 -640 650 0
-642 -644 -652 0
642 644 -652 0
-642 644 652 0
642 -644 652 0
-646 -648 -654 0
646 648 -654 0
-646 648 654 0
646 -648 654 0
-650 -652 654 0
650 652 654 0
-650 652 -654 0
650 -652 -654 0
-47 -56 -707 0
47 56 -707 0
-47 56 707 0
47 -56 707 0
-65 -74 -658 0
65 74 -658 0
-65 74 658 0
65 -74 658 0
-555 -557 -660 0
555 557 -660 0
-555 557 660 0
555 -557 660 0
-559 -561 -662 0
559 561 -662 0
-559 561 662 0
559 -561 662 0
-563 -565 -664 0
563 565 -664 0
-563 565 664 0
563 -565 664 0
-569 -571 -667 0
569 571 -667 0
-569 571 667 0
569 -571 667 0
-575 -577 -669 0
575 577 -669 0
-575 577 669 0
575 -577 669 0
-581 -583 -671 0
581 583 -671 0
-581 583 671 0
581 -583 671 0
-585 -587 -672 0
585 587 -672 0
-585 587 672 0
585 -587 672 0
-589 -591 -674 0
589 591 -674 0
-589 591 674 0
589 -591 674 0
-593 -595 -676 0
593 595 -676 0
-593 595 676 0
593 -595 676 0
-597 -599 -678 0
597 599 -678 0
-597 599 678 0
597 -599 678 0
-601 -603 -680 0
601 603 -680 0
-601 603 680 0
601 -603 680 0
-607 -609 -682 0
607 609 -682 0
-607 609 682 0
607 -609 682 0
-611 -613 -684 0
611 613 -684 0
-611 613 684 0
611 -613 684 0
-615 -617 -686 0
615 617 -686 0
-615 617 686 0
615 -617 686 0
-619 -621 -688 0
619 621 -688 0
-619 621 688 0
619 -621 688 0
-623 -625 -690 0
623 625 -690 0
-623 625 690 0
623 -625 690 0
-627 -629 -692 0
627 629 -692 0
-627 629 692 0
627 -629 692 0
-631 -633 -694 0
631 633 -694 0
-631 633 694 0
631 -633 694 0
-635 -637 -696 0
635 637 -696 0
-635 637 696 0
635 -637 696 0
-639 -641 -698 0
639 641 -698 0
-639 641 698 0
639 -641 698 0
-643 -645 -700 0
643 645 -700 0
-643 645 700 0
643 -645 700 0
-647 -649 -702 0
647 649 -702 0
-647 649 702 0
647 -649 702 0
-651 -653 -704 0
651 653 -704 0
-651 653 704 0
651 -653 704 0
-655 -656 -706 0
655 656 -706 0
-655 656 706 0
655 -656 706 0
-658 -660 -708 0
658 660 -708 0
-658 660 708 0
658 -660 708 0
-662 -664 -710 0
662 664 -710 0
-662 664 710 0
662 -664 710 0
-666 -667 -712 0
666 667 -712 0
-666 667 712 0
666 -667 712 0
-668 -669 -714 0
668 669 -714 0
-668 669 714 0
668 -669 714 0
-670 -671 -716 0
670 671 -716 0
-670 671 716 0
670 -671 716 0
-672 -674 -718 0
672 674 -718 0
-672 674 718 0
672 -674 718 0
-676 -678 -720 0
676 678 -720 0
-676 678 720 0
676 -678 720 0
-680 -681 -722 0
680 681 -722 0
-680 681 722 0
680 -681 722 0
-682 -684 -724 0
682 684 -724 0
-682 684 724 0
682 -684 724 0
-686 -688 -726 0
686 688 -726 0
-686 688 726 0
686 -688 726 0
-690 -692 -728 0
690 692 -728 0
-690 692 728 0
690 -692 728 0
-694 -696 -730 0
694 696 -730 0
-694 696 730 0
694 -696 730 0
-698 -700 -732 0
698 700 -732 0
-698 700 732 0
698 -700 732 0
-702 -704 -734 0
702 704 -734 0
-702 704 734 0
702 -704 734 0
-706 -707 -736 0
706 707 -736 0
-706 707 736 0
706 -707 736 0
-708 -710 -738 0
708 710 -738 0
-708 710 738 0
708 -710 738 0
-712 -714 -740 0
712 714 -740 0
-712 714 740 0
712 -714 740 0
-716 -718 -742 0
716 718 -742 0
-716 718 742 0
716 -718 742 0
-720 -722 -744 0
720 722 -744 0
-720 722 744 0
720 -722 744 0
-724 -726 -746 0
724 726 -746 0
-724 726 746 0
724 -726 746 0
-728 -730 -748 0
728 730 -748 0
-728 730 748 0
728 -730 748 0
-732 -734 -750 0
732 734 -750 0
-732 734 750 0
732 -734 750 0
-736 -738 -752 0
736 738 -752 0
-736 738 752 0
736 -738 752 0
-740 -742 -754 0
740 742 -754 0
-740 742 754 0
740 -742 754 0
-744 -746 -756 0
744 746 -756 0
-744 746 756 0
744 -746 756 0
-748 -750 -758 0
748 750 -758 0
-748 750 758 0
748 -750 758 0
-752 -754 -760 0
752 754 -760 0
-752 754 760 0
752 -754 760 0
-756 -758 -760 0
756 758 -760 0
-756 758 760 0
756 -758 760 0
-57 -66 -763 0
57 66 -763 0
-57 66 763 0
57 -66 763 0
-75 -657 -765 0
75 657 -765 0
-75 657 765 0
75 -657 765 0
-659 -661 -767 0
659 661 -767 0
-659 661 767 0
659 -661 767 0
-663 -665 -769 0
663 665 -769 0
-663 665 769 0
663 -665 769 0
-673 -675 -774 0
673 675 -774 0
-673 675 774 0
673 -675 774 0
-677 -679 -775 0
677 679 -775 0
-677 679 775 0
677 -679 775 0
-683 -685 -777 0
683 685 -777 0
-683 685 777 0
683 -685 777 0
-687 -689 -779 0
687 689 -779 0
-687 689 779 0
687 -689 779 0
-691 -693 -781 0
691 693 -781 0
-691 693 781 0
691 -693 781 0
-695 -697 -783 0
695 697 -783 0
-695 697 783 0
695 -697 783 0
-699 -701 -785 0
699 701 -785 0
-699 701 785 0
699 -701 785 0
-703 -705 -787 0
703 705 -787 0
-703 705 787 0
703 -705 787 0
-709 -711 -790 0
709 711 -790 0
-709 711 790 0
709 -711 790 0
-713 -715 -791 0
713 715 -791 0
-713 715 791 0
713 -715 791 0
-717 -719 -793 0
717 719 -793 0
-717 719 793 0
717 -719 793 0
-721 -723 -795 0
721 723 -795 0
-721 723 795 0
721 -723 795 0
-725 -727 -797 0
725 727 -797 0
-725 727 797 0
725 -727 797 0
-729 -731 -799 0
729 731 -799 0
-729 731 799 0
729 -731 799 0
-733 -735 -801 0
733 735 -801 0
-733 735 801 0
733 -735 801 0
-737 -739 -803 0
737 739 -803 0
-737 739 803 0
737 -739 803 0
-741 -743 -805 0
741 743 -805 0
-741 743 805 0
741 -743 805 0
-745 -747 -807 0
745 747 -807 0
-745 747 807 0
745 -747 807 0
-749 -751 -809 0
749 751 -809 0
-749 751 809 0
749 -751 809 0
-753 -755 -811 0
753 755 -811 0
-753 755 811 0
753 -755 811 0
-757 -759 -813 0
757 759 -813 0
-757 759 813 0
757 -759 813 0
-761 -762 -815 0
761 762 -815 0
-761 762 815 0
761 -762 815 0
-760 -763 -817 0
760 763 -817 0
-760 763 817 0
760 -763 817 0
-765 -767 -819 0
765 767 -819 0
-765 767 819 0
765 -767 819 0
-769 -771 -821 0
769 771 -821 0
-769 771 821 0
769 -771 821 0
-772 -773 -823 0
772 773 -823 0
-772 773 823 0
772 -773 823 0
-774 -775 -825 0
774 775 -825 0
-774 775 825 0
774 -775 825 0
-776 -777 -827 0
776 777 -827 0
-776 777 827 0
776 -777 827 0
-779 -781 -829 0
779 781 -829 0
-779 781 829 0
779 -781 829 0
-783 -785 -831 0
783 785 -831 0
-783 785 831 0
783 -785 831 0
-787 -789 -833 0
787 789 -833 0
-787 789 833 0
787 -789 833 0
-790 -791 -835 0
790 791 -835 0
-790 791 835 0
790 -791 835 0
-793 -795 -837 0
793 795 -837 0
-793 795 837 0
793 -795 837 0
-797 -799 -839 0
797 799 -839 0
-797 799 839 0
797 -799 839 0
-801 -803 -841 0
801 803 -841 0
-801 803 841 0
801 -803 841 0
-805 -807 -843 0
805 807 -843 0
-805 807 843 0
805 -807 843 0
-809 -811 -845 0
809 811 -845 0
-809 811 845 0
809 -811 845 0
-813 -815 -847 0
813 815 -847 0
-813 815 847 0
813 -815 847 0
-817 -819 -849 0
817 819 -849 0
-817 819 849 0
817 -819 849 0
-821 -823 -851 0
821 823 -851 0
-821 823 851 0
821 -823 851 0
-825 -827 -853 0
825 827 -853 0
-825 827 853 0
825 -827 853 0
-829 -831 -855 0
829 831 -855 0
-829 831 855 0
829 -831 855 0
-833 -835 -857 0
833 835 -857 0
-833 835 857 0
833 -835 857 0
-837 -839 -859 0
837 839 -859 0
-837 839 859 0
837 -839 859 0
-841 -843 -861 0
841 843 -861 0
-841 843 861 0
841 -843 861 0
-845 -847 -863 0
845 847 -863 0
-845 847 863 0
845 -847 863 0
-849 -851 -865 0
849 851 -865 0
-849 851 865 0
849 -851 865 0
-853 -855 -867 0
853 855 -867 0
-853 855 867 0
853 -855 867 0
-857 -859 -869 0
857 859 -869 0
-857 859 869 0
857 -859 869 0
-861 -863 -871 0
861 863 -871 0
-861 863 871 0
861 -863 871 0
-865 -867 -873 0
865 867 -873 0
-865 867 873 0
865 -867 873 0
-869 -871 -873 0
869 871 -873 0
-869 871 873 0
869 -871 873 0
-67 -76 -876 0
67 76 -876 0
-67 76 876 0
67 -76 876 0
-764 -766 -878 0
764 766 -878 0
-764 766 878 0
764 -766 878 0
-768 -770 -934 0
768 770 -934 0
-768 770 934 0
768 -770 934 0
-778 -780 -883 0
778 780 -883 0
-778 780 883 0
778 -780 883 0
-782 -784 -884 0
782 784 -884 0
-782 784 884 0
782 -784 884 0
-786 -788 -886 0
786 788 -886 0
-786 788 886 0
786 -788 886 0
-792 -794 -889 0
792 794 -889 0
-792 794 889 0
792 -794 889 0
-796 -798 -890 0
796 798 -890 0
-796 798 890 0
796 -798 890 0
-800 -802 -892 0
800 802 -892 0
-800 802 892 0
800 -802 892 0
-804 -806 -894 0
804 806 -894 0
-804 806 894 0
804 -806 894 0
-808 -810 -896 0
808 810 -896 0
-808 810 896 0
808 -810 896 0
-812 -814 -898 0
812 814 -898 0
-812 814 898 0
812 -814 898 0
-816 -818 -900 0
816 818 -900 0
-816 818 900 0
816 -818 900 0
-820 -822 -902 0
820 822 -902 0
-820 822 902 0
820 -822 902 0
-824 -826 -904 0
824 826 -904 0
-824 826 904 0
824 -826 904 0
-828 -830 -906 0
828 830 -906 0
-828 830 906 0
828 -830 906 0
-832 -834 -908 0
832 834 -908 0
-832 834 908 0
832 -834 908 0
-836 -838 -910 0
836 838 -910 0
-836 838 910 0
836 -838 910 0
-840 -842 -912 0
840 842 -912 0
-840 842 912 0
840 -842 912 0
-844 -846 -914 0
844 846 -914 0
-844 846 914 0
844 -846 914 0
-848 -850 -916 0
848 850 -916 0
-848 850 916 0
848 -850 916 0
-852 -854 -918 0
852 854 -918 0
-852 854 918 0
852 -854 918 0
-856 -858 -920 0
856 858 -920 0
-856 858 920 0
856 -858 920 0
-860 -862 -922 0
860 862 -922 0
-860 862 922 0
860 -862 922 0
-864 -866 -924 0
864 866 -924 0
-864 866 924 0
864 -866 924 0
-868 -870 -926 0
868 870 -926 0
-868 870 926 0
868 -870 926 0
-872 -874 -928 0
872 874 -928 0
-872 874 928 0
872 -874 928 0
-873 -875 -930 0
873 875 -930 0
873 -875 930 0
-873 875 930 0
-876 -878 -932 0
876 878 -932 0
-876 878 932 0
876 -878 932 0
-881 -882 -935 0
881 882 -935 0
-881 882 935 0
881 -882 935 0
-883 -884 -936 0
883 884 -936 0
-883 884 936 0
883 -884 936 0
-886 -888 -938 0
886 888 -938 0
-886 888 938 0
886 -888 938 0
-889 -890 -940 0
889 890 -940 0
-889 890 940 0
889 -890 940 0
-892 -894 -942 0
892 894 -942 0
-892 894 942 0
892 -894 942 0
-896 -898 -944 0
896 898 -944 0
-896 898 944 0
896 -898 944 0
-900 -902 -946 0
900 902 -946 0
-900 902 946 0
900 -902 946 0
-904 -906 -948 0
904 906 -948 0
-904 906 948 0
904 -906 948 0
-908 -910 -950 0
908 910 -950 0
-908 910 950 0
908 -910 950 0
-912 -914 -952 0
912 914 -952 0
-912 914 952 0
912 -914 952 0
-916 -918 -954 0
916 918 -954 0
-916 918 954 0
916 -918 954 0
-920 -922 -956 0
920 922 -956 0
-920 922 956 0
920 -922 956 0
-924 -926 -958 0
924 926 -958 0
-924 926 958 0
924 -926 958 0
-928 -930 -960 0
928 930 -960 0
-928 930 960 0
928 -930 960 0
-932 -934 -962 0
932 934 -962 0
-932 934 962 0
932 -934 962 0
-935 -936 -964 0
935 936 -964 0
-935 936 964 0
935 -936 964 0
-938 -940 -966 0
938 940 -966 0
-938 940 966 0
938 -940 966 0
-942 -944 -968 0
942 944 -968 0
-942 944 968 0
942 -944 968 0
-946 -948 -970 0
946 948 -970 0
-946 948 970 0
946 -948 970 0
-950 -952 -972 0
950 952 -972 0
-950 952 972 0
950 -952 972 0
-954 -956 -974 0
954 956 -974 0
-954 956 974 0
954 -956 974 0
-958 -960 -976 0
958 960 -976 0
-958 960 976 0
958 -960 976 0
-962 -964 -978 0
962 964 -978 0
-962 964 978 0
962 -964 978 0
-966 -968 -980 0
966 968 -980 0
-966 968 980 0
966 -968 980 0
-970 -972 -982 0
970 972 -982 0
-970 972 982 0
970 -972 982 0
-974 -976 -984 0
974 976 -984 0
-974 976 984 0
974 -976 984 0
-978 -980 -986 0
978 980 -986 0
-978 980 986 0
978 -980 986 0
-982 -984 986 0
982 984 986 0
-982 984 -986 0
982 -984 -986 0
-77 -877 -988 0
77 877 -988 0
-77 877 988 0
77 -877 988 0
-879 -880 -990 0
879 880 -990 0
-879 880 990 0
879 -880 990 0
-885 -887 -993 0
885 887 -993 0
-885 887 993 0
885 -887 993 0
-891 -893 -995 0
891 893 -995 0
-891 893 995 0
891 -893 995 0
-895 -897 -997 0
895 897 -997 0
-895 897 997 0
895 -897 997 0
-899 -901 -999 0
899 901 -999 0
-899 901 999 0
899 -901 999 0
-903 -905 -1001 0
903 905 -1001 0
-903 905 1001 0
903 -905 1001 0
-907 -909 -1003 0
907 909 -1003 0
-907 909 1003 0
907 -909 1003 0
-911 -913 -1005 0
911 913 -1005 0
-911 913 1005 0
911 -913 1005 0
-915 -917 -1007 0
915 917 -1007 0
-915 917 1007 0
915 -917 1007 0
-919 -921 -1009 0
919 921 -1009 0
-919 921 1009 0
919 -921 1009 0
-923 -925 -1011 0
923 925 -1011 0
-923 925 1011 0
923 -925 1011 0
-927 -929 -1013 0
927 929 -1013 0
-927 929 1013 0
927 -929 1013 0
-931 -933 -1015 0
931 933 -1015 0
-931 933 1015 0
931 -933 1015 0
-937 -939 -1017 0
937 939 -1017 0
-937 939 1017 0
937 -939 1017 0
-941 -943 -1019 0
941 943 -1019 0
-941 943 1019 0
941 -943 1019 0
-945 -947 -1021 0
945 947 -1021 0
-945 947 1021 0
945 -947 1021 0
-949 -951 -1023 0
949 951 -1023 0
-949 951 1023 0
949 -951 1023 0
-953 -955 -1025 0
953 955 -1025 0
-953 955 1025 0
953 -955 1025 0
-957 -959 -1027 0
957 959 -1027 0
-957 959 1027 0
957 -959 1027 0
-961 -963 -1029 0
961 963 -1029 0
-961 963 1029 0
961 -963 1029 0
-965 -967 -1031 0
965 967 -1031 0
-965 967 1031 0
965 -967 1031 0
-969 -971 -1033 0
969 971 -1033 0
-969 971 1033 0
969 -971 1033 0
-973 -975 -1035 0
973 975 -1035 0
-973 975 1035 0
973 -975 1035 0
-977 -979 -1037 0
977 979 -1037 0
-977 979 1037 0
977 -979 1037 0
-981 -983 -1039 0
981 983 -1039 0
-981 983 1039 0
981 -983 1039 0
-985 -987 -1041 0
985 987 -1041 0
-985 987 1041 0
985 -987 1041 0
-988 -990 -1043 0
988 990 -1043 0
-988 990 1043 0
988 -990 1043 0
-993 -994 -1044 0
993 994 -1044 0
-993 994 1044 0
993 -994 1044 0
-995 -997 -1046 0
995 997 -1046 0
-995 997 1046 0
995 -997 1046 0
-999 -1001 -1048 0
999 1001 -1048 0
-999 1001 1048 0
999 -1001 1048 0
-1003 -1005 -1050 0
1003 1005 -1050 0
-1003 1005 1050 0
1003 -1005 1050 0
-1007 -1009 -1052 0
1007 1009 -1052 0
-1007 1009 1052 0
1007 -1009 1052 0
-1011 -1013 -1054 0
1011 1013 -1054 0
-1011 1013 1054 0
1011 -1013 1054 0
-1015 -1016 -1056 0
1015 1016 -1056 0
-1015 1016 1056 0
1015 -1016 1056 0
-1017 -1019 -1058 0
1017 1019 -1058 0
-1017 1019 1058 0
1017 -1019 1058 0
-1021 -1023 -1060 0
1021 1023 -1060 0
-1021 1023 1060 0
1021 -1023 1060 0
-1025 -1027 -1062 0
1025 1027 -1062 0
-1025 1027 1062 0
1025 -1027 1062 0
-1029 -1031 -1064 0
1029 1031 -1064 0
-1029 1031 1064 0
1029 -1031 1064 0
-1033 -1035 -1066 0
1033 1035 -1066 0
-1033 1035 1066 0
1033 -1035 1066 0
-1037 -1039 -1068 0
1037 1039 -1068 0
-1037 1039 1068 0
1037 -1039 1068 0
-1041 -1042 -1070 0
1041 1042 -1070 0
-1041 1042 1070 0
1041 -1042 1070 0
-992 -1043 -1072 0
992 1043 -1072 0
992 -1043 1072 0
-992 1043 1072 0
-1044 -1046 -1074 0
1044 1046 -1074 0
-1044 1046 1074 0
1044 -1046 1074 0
-1048 -1050 -1076 0
1048 1050 -1076 0
-1048 1050 1076 0
1048 -1050 1076 0
-1052 -1054 -1078 0
1052 1054 -1078 0
-1052 1054 1078 0
1052 -1054 1078 0
-1056 -1058 -1080 0
1056 1058 -1080 0
-1056 1058 1080 0
1056 -1058 1080 0
-1060 -1062 -1082 0
1060 1062 -1082 0
-1060 1062 1082 0
1060 -1062 1082 0
-1064 -1066 -1084 0
1064 1066 -1084 0
-1064 1066 1084 0
1064 -1066 1084 0
-1068 -1070 -1086 0
1068 1070 -1086 0
-1068 1070 1086 0
1068 -1070 1086 0
-1072 -1074 -1088 0
1072 1074 -1088 0
-1072 1074 1088 0
1072 -1074 1088 0
-1076 -1078 -1090 0
1076 1078 -1090 0
-1076 1078 1090 0
1076 -1078 1090 0
-1080 -1082 -1092 0
1080 1082 -1092 0
-1080 1082 1092 0
1080 -1082 1092 0
-1084 -1086 -1094 0
1084 1086 -1094 0
-1084 1086 1094 0
1084 -1086 1094 0
-1088 -1090 -1096 0
1088 1090 -1096 0
-1088 1090 1096 0
1088 -1090 1096 0
-1092 -1094 1096 0
1092 1094 1096 0
-1092 1094 -1096 0
1092 -1094 -1096 0
-989 -991 -1148 0
989 991 -1148 0
-989 991 1148 0
989 -991 1148 0
-996 -998 -1100 0
996 998 -1100 0
-996 998 1100 0
996 -998 1100 0
-1000 -1002 -1101 0
1000 1002 -1101 0
-1000 1002 1101 0
1000 -1002 1101 0
-1004 -1006 -1103 0
1004 1006 -1103 0
-1004 1006 1103 0
1004 -1006 1103 0
-1008 -1010 -1105 0
1008 1010 -1105 0
-1008 1010 1105 0
1008 -1010 1105 0
-1012 -1014 -1107 0
1012 1014 -1107 0
-1012 1014 1107 0
1012 -1014 1107 0
-1018 -1020 -1110 0
1018 1020 -1110 0
-1018 1020 1110 0
1018 -1020 1110 0
-1022 -1024 -1111 0
1022 1024 -1111 0
-1022 1024 1111 0
1022 -1024 1111 0
-1026 -1028 -1113 0
1026 1028 -1113 0
-1026 1028 1113 0
1026 -1028 1113 0
-1030 -1032 -1115 0
1030 1032 -1115 0
-1030 1032 1115 0
1030 -1032 1115 0
-1034 -1036 -1117 0
1034 1036 -1117 0
-1034 1036 1117 0
1034 -1036 1117 0
-1038 -1040 -1119 0
1038 1040 -1119 0
-1038 1040 1119 0
1038 -1040 1119 0
-1045 -1047 -1122 0
1045 1047 -1122 0
-1045 1047 1122 0
1045 -1047 1122 0
-1049 -1051 -1123 0
1049 1051 -1123 0
-1049 1051 1123 0
1049 -1051 1123 0
-1053 -1055 -1125 0
1053 1055 -1125 0
-1053 1055 1125 0
1053 -1055 1125 0
-1057 -1059 -1127 0
1057 1059 -1127 0
-1057 1059 1127 0
1057 -1059 1127 0
-1061 -1063 -1129 0
1061 1063 -1129 0
-1061 1063 1129 0
1061 -1063 1129 0
-1065 -1067 -1131 0
1065 1067 -1131 0
-1065 1067 1131 0
1065 -1067 1131 0
-1069 -1071 -1133 0
1069 1071 -1133 0
-1069 1071 1133 0
1069 -1071 1133 0
-1073 -1075 -1135 0
1073 1075 -1135 0
-1073 1075 1135 0
1073 -1075 1135 0
-1077 -1079 -1137 0
1077 1079 -1137 0
-1077 1079 1137 0
1077 -1079 1137 0
-1081 -1083 -1139 0
1081 1083 -1139 0
-1081 1083 1139 0
1081 -1083 1139 0
-1085 -1087 -1141 0
1085 1087 -1141 0
-1085 1087 1141 0
1085 -1087 1141 0
-1089 -1091 -1143 0
1089 1091 -1143 0
-1089 1091 1143 0
1089 -1091 1143 0
-1093 -1095 -1145 0
1093 1095 -1145 0
-1093 1095 1145 0
1093 -1095 1145 0
-1097 -1098 -1147 0
1097 1098 -1147 0
-1097 1098 1147 0
1097 -1098 1147 0
-1100 -1101 -1149 0
1100 1101 -1149 0
-1100 1101 1149 0
1100 -1101 1149 0
-1103 -1105 -1150 0
1103 1105 -1150 0
-1103 1105 1150 0
1103 -1105 1150 0
-1107 -1109 -1152 0
1107 1109 -1152 0
-1107 1109 1152 0
1107 -1109 1152 0
-1110 -1111 -1154 0
1110 1111 -1154 0
-1110 1111 1154 0
1110 -1111 1154 0
-1113 -1115 -1156 0
1113 1115 -1156 0
-1113 1115 1156 0
1113 -1115 1156 0
-1117 -1119 -1158 0
1117 1119 -1158 0
-1117 1119 1158 0
1117 -1119 1158 0
-1120 -1121 -1160 0
1120 1121 -1160 0
-1120 1121 1160 0
1120 -1121 1160 0
-1122 -1123 -1162 0
1122 1123 -1162 0
-1122 1123 1162 0
1122 -1123 1162 0
-1125 -1127 -1164 0
1125 1127 -1164 0
-1125 1127 1164 0
1125 -1127 1164 0
-1129 -1131 -1166 0
1129 1131 -1166 0
-1129 1131 1166 0
1129 -1131 1166 0
-1133 -1135 -1168 0
1133 1135 -1168 0
-1133 1135 1168 0
1133 -1135 1168 0
-1137 -1139 -1170 0
1137 1139 -1170 0
-1137 1139 1170 0
1137 -1139 1170 0
-1141 -1143 -1172 0
1141 1143 -1172 0
-1141 1143 1172 0
1141 -1143 1172 0
-1145 -1147 -1174 0
1145 1147 -1174 0
-1145 1147 1174 0
1145 -1147 1174 0
-1099 -1148 -1176 0
1099 1148 -1176 0
1099 -1148 1176 0
-1099 1148 1176 0
-1149 -1150 -1178 0
1149 1150 -1178 0
-1149 1150 1178 0
1149 -1150 1178 0
-1152 -1154 -1180 0
1152 1154 -1180 0
-1152 1154 1180 0
1152 -1154 1180 0
-1156 -1158 -1182 0
1156 1158 -1182 0
-1156 1158 1182 0
1156 -1158 1182 0
-1160 -1162 -1184 0
1160 1162 -1184 0
-1160 1162 1184 0
1160 -1162 1184 0
-1164 -1166 -1186 0
1164 1166 -1186 0
-1164 1166 1186 0
1164 -1166 1186 0
-1168 -1170 -1188 0
1168 1170 -1188 0
-1168 1170 1188 0
1168 -1170 1188 0
-1172 -1174 -1190 0
1172 1174 -1190 0
-1172 1174 1190 0
1172 -1174 1190 0
-1176 -1178 -1192 0
1176 1178 -1192 0
-1176 1178 1192 0
1176 -1178 1192 0
-1180 -1182 -1194 0
1180 1182 -1194 0
-1180 1182 1194 0
1180 -1182 1194 0
-1184 -1186 -1196 0
1184 1186 -1196 0
-1184 1186 1196 0
1184 -1186 1196 0
-1188 -1190 -1198 0
1188 1190 -1198 0
-1188 1190 1198 0
1188 -1190 1198 0
-1192 -1194 -1200 0
1192 1194 -1200 0
-1192 1194 1200 0
1192 -1194 1200 0
-1196 -1198 -1200 0
1196 1198 -1200 0
-1196 1198 1200 0
1196 -1198 1200 0
-1102 -1104 -1205 0
1102 1104 -1205 0
-1102 1104 1205 0
1102 -1104 1205 0
-1106 -1108 -1207 0
1106 1108 -1207 0
-1106 1108 1207 0
1106 -1108 1207 0
-1112 -1114 -1210 0
1112 1114 -1210 0
-1112 1114 1210 0
1112 -1114 1210 0
-1116 -1118 -1211 0
1116 1118 -1211 0
-1116 1118 1211 0
1116 -1118 1211 0
-1124 -1126 -1214 0
1124 1126 -1214 0
-1124 1126 1214 0
1124 -1126 1214 0
-1128 -1130 -1215 0
1128 1130 -1215 0
-1128 1130 1215 0
1128 -1130 1215 0
-1132 -1134 -1217 0
1132 1134 -1217 0
-1132 1134 1217 0
1132 -1134 1217 0
-1136 -1138 -1219 0
1136 1138 -1219 0
-1136 1138 1219 0
1136 -1138 1219 0
-1140 -1142 -1221 0
1140 1142 -1221 0
-1140 1142 1221 0
1140 -1142 1221 0
-1144 -1146 -1223 0
1144 1146 -1223 0
-1144 1146 1223 0
1144 -1146 1223 0
-1151 -1153 -1226 0
1151 1153 -1226 0
-1151 1153 1226 0
1151 -1153 1226 0
-1155 -1157 -1227 0
1155 1157 -1227 0
-1155 1157 1227 0
1155 -1157 1227 0
-1159 -1161 -1229 0
1159 1161 -1229 0
-1159 1161 1229 0
1159 -1161 1229 0
-1163 -1165 -1231 0
1163 1165 -1231 0
-1163 1165 1231 0
1163 -1165 1231 0
-1167 -1169 -1233 0
1167 1169 -1233 0
-1167 1169 1233 0
1167 -1169 1233 0
-1171 -1173 -1235 0
1171 1173 -1235 0
-1171 1173 1235 0
1171 -1173 1235 0
-1175 -1177 -1237 0
1175 1177 -1237 0
-1175 1177 1237 0
1175 -1177 1237 0
-1179 -1181 -1239 0
1179 1181 -1239 0
-1179 1181 1239 0
1179 -1181 1239 0
-1183 -1185 -1241 0
1183 1185 -1241 0
-1183 1185 1241 0
1183 -1185 1241 0
-1187 -1189 -1243 0
1187 1189 -1243 0
-1187 1189 1243 0
1187 -1189 1243 0
-1191 -1193 -1245 0
1191 1193 -1245 0
-1191 1193 1245 0
1191 -1193 1245 0
-1195 -1197 -1247 0
1195 1197 -1247 0
-1195 1197 1247 0
1195 -1197 1247 0
-1199 -1201 -1249 0
1199 1201 -1249 0
-1199 1201 1249 0
1199 -1201 1249 0
-1200 -1202 -1251 0
1200 1202 -1251 0
1200 -1202 1251 0
-1200 1202 1251 0
-1203 -1204 -1253 0
1203 1204 -1253 0
-1203 1204 1253 0
1203 -1204 1253 0
-1205 -1207 -1255 0
1205 1207 -1255 0
-1205 1207 1255 0
1205 -1207 1255 0
-1209 -1210 -1257 0
1209 1210 -1257 0
-1209 1210 1257 0
1209 -1210 1257 0
-1211 -1212 -1259 0
1211 1212 -1259 0
-1211 1212 1259 0
1211 -1212 1259 0
-1213 -1214 -1261 0
1213 1214 -1261 0
-1213 1214 1261 0
1213 -1214 1261 0
-1215 -1217 -1263 0
1215 1217 -1263 0
-1215 1217 1263 0
1215 -1217 1263 0
-1219 -1221 -1265 0
1219 1221 -1265 0
-1219 1221 1265 0
1219 -1221 1265 0
-1223 -1224 -1267 0
1223 1224 -1267 0
-1223 1224 1267 0
1223 -1224 1267 0
-1225 -1226 -1269 0
1225 1226 -1269 0
-1225 1226 1269 0
1225 -1226 1269 0
-1227 -1229 -1271 0
1227 1229 -1271 0
-1227 1229 1271 0
1227 -1229 1271 0
-1231 -1233 -1273 0
1231 1233 -1273 0
-1231 1233 1273 0
1231 -1233 1273 0
-1235 -1237 -1275 0
1235 1237 -1275 0
-1235 1237 1275 0
1235 -1237 1275 0
-1239 -1241 -1277 0
1239 1241 -1277 0
-1239 1241 1277 0
1239 -1241 1277 0
-1243 -1245 -1279 0
1243 1245 -1279 0
-1243 1245 1279 0
1243 -1245 1279 0
-1247 -1249 -1281 0
1247 1249 -1281 0
-1247 1249 1281 0
1247 -1249 1281 0
-1251 -1253 -1283 0
1251 1253 -1283 0
-1251 1253 1283 0
1251 -1253 1283 0
-1255 -1257 -1285 0
1255 1257 -1285 0
-1255 1257 1285 0
1255 -1257 1285 0
-1259 -1261 -1287 0
1259 1261 -1287 0
-1259 1261 1287 0
1259 -1261 1287 0
-1263 -1265 -1289 0
1263 1265 -1289 0
-1263 1265 1289 0
1263 -1265 1289 0
-1267 -1269 -1291 0
1267 1269 -1291 0
-1267 1269 1291 0
1267 -1269 1291 0
-1271 -1273 -1293 0
1271 1273 -1293 0
-1271 1273 1293 0
1271 -1273 1293 0
-1275 -1277 -1295 0
1275 1277 -1295 0
-1275 1277 1295 0
1275 -1277 1295 0
-1279 -1281 -1297 0
1279 1281 -1297 0
-1279 1281 1297 0
1279 -1281 1297 0
-1283 -1285 -1299 0
1283 1285 -1299 0
-1283 1285 1299 0
1283 -1285 1299 0
-1287 -1289 -1301 0
1287 1289 -1301 0
-1287 1289 1301 0
1287 -1289 1301 0
-1291 -1293 -1303 0
1291 1293 -1303 0
-1291 1293 1303 0
1291 -1293 1303 0
-1295 -1297 -1305 0
1295 1297 -1305 0
-1295 1297 1305 0
1295 -1297 1305 0
-1299 -1301 -1307 0
1299 1301 -1307 0
-1299 1301 1307 0
1299 -1301 1307 0
-1303 -1305 -1307 0
1303 1305 -1307 0
-1303 1305 1307 0
1303 -1305 1307 0
-1206 -1208 -1310 0
1206 1208 -1310 0
-1206 1208 1310 0
1206 -1208 1310 0
-1216 -1218 -1314 0
1216 1218 -1314 0
-1216 1218 1314 0
1216 -1218 1314 0
-1220 -1222 -1315 0
1220 1222 -1315 0
-1220 1222 1315 0
1220 -1222 1315 0
-1228 -1230 -1318 0
1228 1230 -1318 0
-1228 1230 1318 0
1228 -1230 1318 0
-1232 -1234 -1319 0
1232 1234 -1319 0
-1232 1234 1319 0
1232 -1234 1319 0
-1236 -1238 -1321 0
1236 1238 -1321 0
-1236 1238 1321 0
1236 -1238 1321 0
-1240 -1242 -1323 0
1240 1242 -1323 0
-1240 1242 1323 0
1240 -1242 1323 0
-1244 -1246 -1325 0
1244 1246 -1325 0
-1244 1246 1325 0
1244 -1246 1325 0
-1248 -1250 -1327 0
1248 1250 -1327 0
-1248 1250 1327 0
1248 -1250 1327 0
-1252 -1254 -1329 0
1252 1254 -1329 0
-1252 1254 1329 0
1252 -1254 1329 0
-1256 -1258 -1331 0
1256 1258 -1331 0
-1256 1258 1331 0
1256 -1258 1331 0
-1260 -1262 -1333 0
1260 1262 -1333 0
-1260 1262 1333 0
1260 -1262 1333 0
-1264 -1266 -1335 0
1264 1266 -1335 0
-1264 1266 1335 0
1264 -1266 1335 0
-1268 -1270 -1337 0
1268 1270 -1337 0
-1268 1270 1337 0
1268 -1270 1337 0
-1272 -1274 -1339 0
1272 1274 -1339 0
-1272 1274 1339 0
1272 -1274 1339 0
-1276 -1278 -1341 0
1276 1278 -1341 0
-1276 1278 1341 0
1276 -1278 1341 0
-1280 -1282 -1343 0
1280 1282 -1343 0
-1280 1282 1343 0
1280 -1282 1343 0
-1284 -1286 -1345 0
1284 1286 -1345 0
-1284 1286 1345 0
1284 -1286 1345 0
-1288 -1290 -1347 0
1288 1290 -1347 0
-1288 1290 1347 0
1288 -1290 1347 0
-1292 -1294 -1349 0
1292 1294 -1349 0
-1292 1294 1349 0
1292 -1294 1349 0
-1296 -1298 -1351 0
1296 1298 -1351 0
-1296 1298 1351 0
1296 -1298 1351 0
-1300 -1302 -1353 0
1300 1302 -1353 0
-1300 1302 1353 0
1300 -1302 1353 0
-1304 -1306 -1355 0
1304 1306 -1355 0
-1304 1306 1355 0
1304 -1306 1355 0
-1308 -1309 -1357 0
1308 1309 -1357 0
-1308 1309 1357 0
1308 -1309 1357 0
-1310 -1311 -1359 0
1310 1311 -1359 0
-1310 1311 1359 0
1310 -1311 1359 0
-1312 -1313 -1360 0
1312 1313 -1360 0
-1312 1313 1360 0
1312 -1313 1360 0
-1314 -1315 -1362 0
1314 1315 -1362 0
-1314 1315 1362 0
1314 -1315 1362 0
-1316 -1317 -1364 0
1316 1317 -1364 0
-1316 1317 1364 0
1316 -1317 1364 0
-1318 -1319 -1366 0
1318 1319 -1366 0
-1318 1319 1366 0
1318 -1319 1366 0
-1321 -1323 -1368 0
1321 1323 -1368 0
-1321 1323 1368 0
1321 -1323 1368 0
-1325 -1327 -1370 0
1325 1327 -1370 0
-1325 1327 1370 0
1325 -1327 1370 0
-1329 -1331 -1372 0
1329 1331 -1372 0
-1329 1331 1372 0
1329 -1331 1372 0
-1333 -1335 -1374 0
1333 1335 -1374 0
-1333 1335 1374 0
1333 -1335 1374 0
-1337 -1339 -1376 0
1337 1339 -1376 0
-1337 1339 1376 0
1337 -1339 1376 0
-1341 -1343 -1378 0
1341 1343 -1378 0
-1341 1343 1378 0
1341 -1343 1378 0
-1345 -1347 -1380 0
1345 1347 -1380 0
-1345 1347 1380 0
1345 -1347 1380 0
-1349 -1351 -1382 0
1349 1351 -1382 0
-1349 1351 1382 0
1349 -1351 1382 0
-1353 -1355 -1384 0
1353 1355 -1384 0
-1353 1355 1384 0
1353 -1355 1384 0
-1307 -1357 -1386 0
1307 1357 -1386 0
1307 -1357 1386 0
-1307 1357 1386 0
-1359 -1360 -1388 0
1359 1360 -1388 0
-1359 1360 1388 0
1359 -1360 1388 0
-1362 -1364 -1390 0
1362 1364 -1390 0
-1362 1364 1390 0
1362 -1364 1390 0
-1366 -1368 -1392 0
1366 1368 -1392 0
-1366 1368 1392 0
1366 -1368 1392 0
-1370 -1372 -1394 0
1370 1372 -1394 0
-1370 1372 1394 0
1370 -1372 1394 0
-1374 -1376 -1396 0
1374 1376 -1396 0
-1374 1376 1396 0
1374 -1376 1396 0
-1378 -1380 -1398 0
1378 1380 -1398 0
-1378 1380 1398 0
1378 -1380 1398 0
-1382 -1384 -1400 0
1382 1384 -1400 0
-1382 1384 1400 0
1382 -1384 1400 0
-1386 -1388 -1402 0
1386 1388 -1402 0
-1386 1388 1402 0
1386 -1388 1402 0
-1390 -1392 -1404 0
1390 1392 -1404 0
-1390 1392 1404 0
1390 -1392 1404 0
-1394 -1396 -1406 0
1394 1396 -1406 0
-1394 1396 1406 0
1394 -1396 1406 0
-1398 -1400 -1408 0
1398 1400 -1408 0
-1398 1400 1408 0
1398 -1400 1408 0
-1402 -1404 -1410 0
1402 1404 -1410 0
-1402 1404 1410 0
1402 -1404 1410 0
-1406 -1408 -1410 0
1406 1408 -1410 0
-1406 1408 1410 0
1406 -1408 1410 0
-1320 -1322 -1417 0
1320 1322 -1417 0
-1320 1322 1417 0
1320 -1322 1417 0
-1324 -1326 -1418 0
1324 1326 -1418 0
-1324 1326 1418 0
1324 -1326 1418 0
-1328 -1330 -1420 0
1328 1330 -1420 0
-1328 1330 1420 0
1328 -1330 1420 0
-1332 -1334 -1422 0
1332 1334 -1422 0
-1332 1334 1422 0
1332 -1334 1422 0
-1336 -1338 -1424 0
1336 1338 -1424 0
-1336 1338 1424 0
1336 -1338 1424 0
-1340 -1342 -1426 0
1340 1342 -1426 0
-1340 1342 1426 0
1340 -1342 1426 0
-1344 -1346 -1428 0
1344 1346 -1428 0
-1344 1346 1428 0
1344 -1346 1428 0
-1348 -1350 -1430 0
1348 1350 -1430 0
-1348 1350 1430 0
1348 -1350 1430 0
-1352 -1354 -1432 0
1352 1354 -1432 0
-1352 1354 1432 0
1352 -1354 1432 0
-1356 -1358 -1434 0
1356 1358 -1434 0
-1356 1358 1434 0
1356 -1358 1434 0
-1361 -1363 -1436 0
1361 1363 -1436 0
-1361 1363 1436 0
1361 -1363 1436 0
-1365 -1367 -1438 0
1365 1367 -1438 0
-1365 1367 1438 0
1365 -1367 1438 0
-1369 -1371 -1440 0
1369 1371 -1440 0
-1369 1371 1440 0
1369 -1371 1440 0
-1373 -1375 -1442 0
1373 1375 -1442 0
-1373 1375 1442 0
1373 -1375 1442 0
-1377 -1379 -1444 0
1377 1379 -1444 0
-1377 1379 1444 0
1377 -1379 1444 0
-1381 -1383 -1446 0
1381 1383 -1446 0
-1381 1383 1446 0
1381 -1383 1446 0
-1385 -1387 -1448 0
1385 1387 -1448 0
-1385 1387 1448 0
1385 -1387 1448 0
-1389 -1391 -1450 0
1389 1391 -1450 0
-1389 1391 1450 0
1389 -1391 1450 0
-1393 -1395 -1452 0
1393 1395 -1452 0
-1393 1395 1452 0
1393 -1395 1452 0
-1397 -1399 -1454 0
1397 1399 -1454 0
-1397 1399 1454 0
1397 -1399 1454 0
-1401 -1403 -1456 0
1401 1403 -1456 0
-1401 1403 1456 0
1401 -1403 1456 0
-1405 -1407 -1458 0
1405 1407 -1458 0
-1405 1407 1458 0
1405 -1407 1458 0
-1409 -1411 -1460 0
1409 1411 -1460 0
-1409 1411 1460 0
1409 -1411 1460 0
-1410 -1412 -1462 0
1410 1412 -1462 0
1410 -1412 1462 0
-1410 1412 1462 0
-1414 -1415 -1464 0
1414 1415 -1464 0
-1414 1415 1464 0
1414 -1415 1464 0
-1416 -1417 -1465 0
1416 1417 -1465 0
-1416 1417 1465 0
1416 -1417 1465 0
-1418 -1420 -1467 0
1418 1420 -1467 0
-1418 1420 1467 0
1418 -1420 1467 0
-1422 -1424 -1469 0
1422 1424 -1469 0
-1422 1424 1469 0
1422 -1424 1469 0
-1426 -1428 -1471 0
1426 1428 -1471 0
-1426 1428 1471 0
1426 -1428 1471 0
-1430 -1432 -1473 0
1430 1432 -1473 0
-1430 1432 1473 0
1430 -1432 1473 0
-1434 -1435 -1475 0
1434 1435 -1475 0
-1434 1435 1475 0
1434 -1435 1475 0
-1436 -1438 -1477 0
1436 1438 -1477 0
-1436 1438 1477 0
1436 -1438 1477 0
-1440 -1442 -1479 0
1440 1442 -1479 0
-1440 1442 1479 0
1440 -1442 1479 0
-1444 -1446 -1481 0
1444 1446 -1481 0
-1444 1446 1481 0
1444 -1446 1481 0
-1448 -1450 -1483 0
1448 1450 -1483 0
-1448 1450 1483 0
1448 -1450 1483 0
-1452 -1454 -1485 0
1452 1454 -1485 0
-1452 1454 1485 0
1452 -1454 1485 0
-1456 -1458 -1487 0
1456 1458 -1487 0
-1456 1458 1487 0
1456 -1458 1487 0
-1460 -1462 -1489 0
1460 1462 -1489 0
-1460 1462 1489 0
1460 -1462 1489 0
-1413 -1464 -1491 0
1413 1464 -1491 0
-1413 1464 1491 0
1413 -1464 1491 0
-1465 -1467 -1493 0
1465 1467 -1493 0
-1465 1467 1493 0
1465 -1467 1493 0
-1469 -1471 -1495 0
1469 1471 -1495 0
-1469 1471 1495 0
1469 -1471 1495 0
-1473 -1475 -1497 0
1473 1475 -1497 0
-1473 1475 1497 0
1473 -1475 1497 0
-1477 -1479 -1499 0
1477 1479 -1499 0
-1477 1479 1499 0
1477 -1479 1499 0
-1481 -1483 -1501 0
1481 1483 -1501 0
-1481 1483 1501 0
1481 -1483 1501 0
-1485 -1487 -1503 0
1485 1487 -1503 0
-1485 1487 1503 0
1485 -1487 1503 0
-1489 -1491 -1505 0
1489 1491 -1505 0
-1489 1491 1505 0
1489 -1491 1505 0
-1493 -1495 -1507 0
1493 1495 -1507 0
-1493 1495 1507 0
1493 -1495 1507 0
-1497 -1499 -1509 0
1497 1499 -1509 0
-1497 1499 1509 0
1497 -1499 1509 0
-1501 -1503 -1511 0
1501 1503 -1511 0
-1501 1503 1511 0
1501 -1503 1511 0
-1505 -1507 -1513 0
1505 1507 -1513 0
-1505 1507 1513 0
1505 -1507 1513 0
-1509 -1511 -1513 0
1509 1511 -1513 0
-1509 1511 1513 0
1509 -1511 1513 0
-1419 -1421 -1517 0
1419 1421 -1517 0
-1419 1421 1517 0
1419 -1421 1517 0
-1423 -1425 -1518 0
1423 1425 -1518 0
-1423 1425 1518 0
1423 -1425 1518 0
-1427 -1429 -1520 0
1427 1429 -1520 0
-1427 1429 1520 0
1427 -1429 1520 0
-1431 -1433 -1522 0
1431 1433 -1522 0
-1431 1433 1522 0
1431 -1433 1522 0
-1437 -1439 -1524 0
1437 1439 -1524 0
-1437 1439 1524 0
1437 -1439 1524 0
-1441 -1443 -1526 0
1441 1443 -1526 0
-1441 1443 1526 0
1441 -1443 1526 0
-1445 -1447 -1528 0
1445 1447 -1528 0
-1445 1447 1528 0
1445 -1447 1528 0
-1449 -1451 -1530 0
1449 1451 -1530 0
-1449 1451 1530 0
1449 -1451 1530 0
-1453 -1455 -1532 0
1453 1455 -1532 0
-1453 1455 1532 0
1453 -1455 1532 0
-1457 -1459 -1534 0
1457 1459 -1534 0
-1457 1459 1534 0
1457 -1459 1534 0
-1461 -1463 -1536 0
1461 1463 -1536 0
-1461 1463 1536 0
1461 -1463 1536 0
-1466 -1468 -1538 0
1466 1468 -1538 0
-1466 1468 1538 0
1466 -1468 1538 0
-1470 -1472 -1540 0
1470 1472 -1540 0
-1470 1472 1540 0
1470 -1472 1540 0
-1474 -1476 -1542 0
1474 1476 -1542 0
-1474 1476 1542 0
1474 -1476 1542 0
-1478 -1480 -1544 0
1478 1480 -1544 0
-1478 1480 1544 0
1478 -1480 1544 0
-1482 -1484 -1546 0
1482 1484 -1546 0
-1482 1484 1546 0
1482 -1484 1546 0
-1486 -1488 -1548 0
1486 1488 -1548 0
-1486 1488 1548 0
1486 -1488 1548 0
-1490 -1492 -1550 0
1490 1492 -1550 0
-1490 1492 1550 0
1490 -1492 1550 0
-1494 -1496 -1552 0
1494 1496 -1552 0
-1494 1496 1552 0
1494 -1496 1552 0
-1498 -1500 -1554 0
1498 1500 -1554 0
-1498 1500 1554 0
1498 -1500 1554 0
-1502 -1504 -1556 0
1502 1504 -1556 0
-1502 1504 1556 0
1502 -1504 1556 0
-1506 -1508 -1558 0
1506 1508 -1558 0
-1506 1508 1558 0
1506 -1508 1558 0
-1510 -1512 -1560 0
1510 1512 -1560 0
-1510 1512 1560 0
1510 -1512 1560 0
-1514 -1515 -1562 0
1514 1515 -1562 0
-1514 1515 1562 0
1514 -1515 1562 0
-1517 -1518 -1563 0
1517 1518 -1563 0
-1517 1518 1563 0
1517 -1518 1563 0
-1520 -1522 -1564 0
1520 1522 -1564 0
-1520 1522 1564 0
1520 -1522 1564 0
-1523 -1524 -1566 0
1523 1524 -1566 0
-1523 1524 1566 0
1523 -1524 1566 0
-1526 -1528 -1568 0
1526 1528 -1568 0
-1526 1528 1568 0
1526 -1528 1568 0
-1530 -1532 -1570 0
1530 1532 -1570 0
-1530 1532 1570 0
1530 -1532 1570 0
-1534 -1536 -1572 0
1534 1536 -1572 0
-1534 1536 1572 0
1534 -1536 1572 0
-1537 -1538 -1574 0
1537 1538 -1574 0
-1537 1538 1574 0
1537 -1538 1574 0
-1540 -1542 -1576 0
1540 1542 -1576 0
-1540 1542 1576 0
1540 -1542 1576 0
-1544 -1546 -1578 0
1544 1546 -1578 0
-1544 1546 1578 0
1544 -1546 1578 0
-1548 -1550 -1580 0
1548 1550 -1580 0
-1548 1550 1580 0
1548 -1550 1580 0
-1552 -1554 -1582 0
1552 1554 -1582 0
-1552 1554 1582 0
1552 -1554 1582 0
-1556 -1558 -1584 0
1556 1558 -1584 0
-1556 1558 1584 0
1556 -1558 1584 0
-1560 -1562 -1586 0
1560 1562 -1586 0
-1560 1562 1586 0
1560 -1562 1586 0
-1513 -1516 -1588 0
1513 1516 -1588 0
-1513 1516 1588 0
1513 -1516 1588 0
-1563 -1564 -1590 0
1563 1564 -1590 0
-1563 1564 1590 0
1563 -1564 1590 0
-1566 -1568 -1592 0
1566 1568 -1592 0
-1566 1568 1592 0
1566 -1568 1592 0
-1570 -1572 -1594 0
1570 1572 -1594 0
-1570 1572 1594 0
1570 -1572 1594 0
-1574 -1576 -1596 0
1574 1576 -1596 0
-1574 1576 1596 0
1574 -1576 1596 0
-1578 -1580 -1598 0
1578 1580 -1598 0
-1578 1580 1598 0
1578 -1580 1598 0
-1582 -1584 -1600 0
1582 1584 -1600 0
-1582 1584 1600 0
1582 -1584 1600 0
-1586 -1588 -1602 0
1586 1588 -1602 0
-1586 1588 1602 0
1586 -1588 1602 0
-1590 -1592 -1604 0
1590 1592 -1604 0
-1590 1592 1604 0
1590 -1592 1604 0
-1594 -1596 -1606 0
1594 1596 -1606 0
-1594 1596 1606 0
1594 -1596 1606 0
-1598 -1600 -1608 0
1598 1600 -1608 0
-1598 1600 1608 0
1598 -1600 1608 0
-1602 -1604 -1610 0
1602 1604 -1610 0
-1602 1604 1610 0
1602 -1604 1610 0
-1606 -1608 -1610 0
1606 1608 -1610 0
-1606 1608 1610 0
1606 -1608 1610 0
-1519 -1521 -1613 0
1519 1521 -1613 0
-1519 1521 1613 0
1519 -1521 1613 0
-1525 -1527 -1615 0
1525 1527 -1615 0
-1525 1527 1615 0
1525 -1527 1615 0
-1529 -1531 -1617 0
1529 1531 -1617 0
-1529 1531 1617 0
1529 -1531 1617 0
-1533 -1535 -1619 0
1533 1535 -1619 0
-1533 1535 1619 0
1533 -1535 1619 0
-1539 -1541 -1621 0
1539 1541 -1621 0
-1539 1541 1621 0
1539 -1541 1621 0
-1543 -1545 -1623 0
1543 1545 -1623 0
-1543 1545 1623 0
1543 -1545 1623 0
-1547 -1549 -1625 0
1547 1549 -1625 0
-1547 1549 1625 0
1547 -1549 1625 0
-1551 -1553 -1627 0
1551 1553 -1627 0
-1551 1553 1627 0
1551 -1553 1627 0
-1555 -1557 -1629 0
1555 1557 -1629 0
-1555 1557 1629 0
1555 -1557 1629 0
-1559 -1561 -1631 0
1559 1561 -1631 0
-1559 1561 1631 0
1559 -1561 1631 0
-1565 -1567 -1635 0
1565 1567 -1635 0
-1565 1567 1635 0
1565 -1567 1635 0
-1569 -1571 -1637 0
1569 1571 -1637 0
-1569 1571 1637 0
1569 -1571 1637 0
-1573 -1575 -1639 0
1573 1575 -1639 0
-1573 1575 1639 0
1573 -1575 1639 0
-1577 -1579 -1641 0
1577 1579 -1641 0
-1577 1579 1641 0
1577 -1579 1641 0
-1581 -1583 -1643 0
1581 1583 -1643 0
-1581 1583 1643 0
1581 -1583 1643 0
-1585 -1587 -1645 0
1585 1587 -1645 0
-1585 1587 1645 0
1585 -1587 1645 0
-1589 -1591 -1647 0
1589 1591 -1647 0
-1589 1591 1647 0
1589 -1591 1647 0
-1593 -1595 -1649 0
1593 1595 -1649 0
-1593 1595 1649 0
1593 -1595 1649 0
-1597 -1599 -1651 0
1597 1599 -1651 0
-1597 1599 1651 0
1597 -1599 1651 0
-1601 -1603 -1653 0
1601 1603 -1653 0
-1601 1603 1653 0
1601 -1603 1653 0
-1605 -1607 -1655 0
1605 1607 -1655 0
-1605 1607 1655 0
1605 -1607 1655 0
-1609 -1611 -1657 0
1609 1611 -1657 0
-1609 1611 1657 0
1609 -1611 1657 0
-1610 -1612 -1659 0
1610 1612 -1659 0
1610 -1612 1659 0
-1610 1612 1659 0
-1613 -1614 -1661 0
1613 1614 -1661 0
-1613 1614 1661 0
1613 -1614 1661 0
-1615 -1617 -1663 0
1615 1617 -1663 0
-1615 1617 1663 0
1615 -1617 1663 0
-1619 -1620 -1665 0
1619 1620 -1665 0
-1619 1620 1665 0
1619 -1620 1665 0
-1621 -1623 -1667 0
1621 1623 -1667 0
-1621 1623 1667 0
1621 -1623 1667 0
-1625 -1627 -1669 0
1625 1627 -1669 0
-1625 1627 1669 0
1625 -1627 1669 0
-1629 -1631 -1671 0
1629 1631 -1671 0
-1629 1631 1671 0
1629 -1631 1671 0
-1633 -1634 -1673 0
1633 1634 -1673 0
-1633 1634 1673 0
1633 -1634 1673 0
-1635 -1637 -1675 0
1635 1637 -1675 0
-1635 1637 1675 0
1635 -1637 1675 0
-1639 -1641 -1677 0
1639 1641 -1677 0
-1639 1641 1677 0
1639 -1641 1677 0
-1643 -1645 -1679 0
1643 1645 -1679 0
-1643 1645 1679 0
1643 -1645 1679 0
-1647 -1649 -1681 0
1647 1649 -1681 0
-1647 1649 1681 0
1647 -1649 1681 0
-1651 -1653 -1683 0
1651 1653 -1683 0
-1651 1653 1683 0
1651 -1653 1683 0
-1655 -1657 -1685 0
1655 1657 -1685 0
-1655 1657 1685 0
1655 -1657 1685 0
-1659 -1660 -1687 0
1659 1660 -1687 0
-1659 1660 1687 0
1659 -1660 1687 0
-1661 -1663 -1689 0
1661 1663 -1689 0
-1661 1663 1689 0
1661 -1663 1689 0
-1665 -1667 -1691 0
1665 1667 -1691 0
-1665 1667 1691 0
1665 -1667 1691 0
-1669 -1671 -1693 0
1669 1671 -1693 0
-1669 1671 1693 0
1669 -1671 1693 0
-1673 -1675 -1695 0
1673 1675 -1695 0
-1673 1675 1695 0
1673 -1675 1695 0
-1677 -1679 -1697 0
1677 1679 -1697 0
-1677 1679 1697 0
1677 -1679 1697 0
-1681 -1683 -1699 0
1681 1683 -1699 0
-1681 1683 1699 0
1681 -1683 1699 0
-1685 -1687 -1701 0
1685 1687 -1701 0
-1685 1687 1701 0
1685 -1687 1701 0
-1689 -1691 -1703 0
1689 1691 -1703 0
-1689 1691 1703 0
1689 -1691 1703 0
-1693 -1695 -1705 0
1693 1695 -1705 0
-1693 1695 1705 0
1693 -1695 1705 0
-1697 -1699 -1707 0
1697 1699 -1707 0
-1697 1699 1707 0
1697 -1699 1707 0
-1701 -1703 -1709 0
1701 1703 -1709 0
-1701 1703 1709 0
1701 -1703 1709 0
-1705 -1707 -1709 0
1705 1707 -1709 0
-1705 1707 1709 0
1705 -1707 1709 0
-1616 -1618 -1713 0
1616 1618 -1713 0
-1616 1618 1713 0
1616 -1618 1713 0
-1622 -1624 -1715 0
1622 1624 -1715 0
-1622 1624 1715 0
1622 -1624 1715 0
-1626 -1628 -1717 0
1626 1628 -1717 0
-1626 1628 1717 0
1626 -1628 1717 0
-1630 -1632 -1719 0
1630 1632 -1719 0
-1630 1632 1719 0
1630 -1632 1719 0
-1636 -1638 -1762 0
1636 1638 -1762 0
-1636 1638 1762 0
1636 -1638 1762 0
-1640 -1642 -1721 0
1640 1642 -1721 0
-1640 1642 1721 0
1640 -1642 1721 0
-1644 -1646 -1723 0
1644 1646 -1723 0
-1644 1646 1723 0
1644 -1646 1723 0
-1648 -1650 -1725 0
1648 1650 -1725 0
-1648 1650 1725 0
1648 -1650 1725 0
-1652 -1654 -1727 0
1652 1654 -1727 0
-1652 1654 1727 0
1652 -1654 1727 0
-1656 -1658 -1729 0
1656 1658 -1729 0
-1656 1658 1729 0
1656 -1658 1729 0
-1662 -1664 -1732 0
1662 1664 -1732 0
-1662 1664 1732 0
1662 -1664 1732 0
-1666 -1668 -1733 0
1666 1668 -1733 0
-1666 1668 1733 0
1666 -1668 1733 0
-1670 -1672 -1735 0
1670 1672 -1735 0
-1670 1672 1735 0
1670 -1672 1735 0
-1674 -1676 -1737 0
1674 1676 -1737 0
-1674 1676 1737 0
1674 -1676 1737 0
-1678 -1680 -1739 0
1678 1680 -1739 0
-1678 1680 1739 0
1678 -1680 1739 0
-1682 -1684 -1741 0
1682 1684 -1741 0
-1682 1684 1741 0
1682 -1684 1741 0
-1686 -1688 -1743 0
1686 1688 -1743 0
-1686 1688 1743 0
1686 -1688 1743 0
-1690 -1692 -1745 0
1690 1692 -1745 0
-1690 1692 1745 0
1690 -1692 1745 0
-1694 -1696 -1747 0
1694 1696 -1747 0
-1694 1696 1747 0
1694 -1696 1747 0
-1698 -1700 -1749 0
1698 1700 -1749 0
-1698 1700 1749 0
1698 -1700 1749 0
-1702 -1704 -1751 0
1702 1704 -1751 0
-1702 1704 1751 0
1702 -1704 1751 0
-1706 -1708 -1753 0
1706 1708 -1753 0
-1706 1708 1753 0
1706 -1708 1753 0
-1710 -1711 -1755 0
1710 1711 -1755 0
-1710 1711 1755 0
1710 -1711 1755 0
-1712 -1713 -1757 0
1712 1713 -1757 0
-1712 1713 1757 0
1712 -1713 1757 0
-1714 -1715 -1758 0
1714 1715 -1758 0
-1714 1715 1758 0
1714 -1715 1758 0
-1717 -1719 -1760 0
1717 1719 -1760 0
-1717 1719 1760 0
1717 -1719 1760 0
-1721 -1723 -1763 0
1721 1723 -1763 0
-1721 1723 1763 0
1721 -1723 1763 0
-1725 -1727 -1764 0
1725 1727 -1764 0
-1725 1727 1764 0
1725 -1727 1764 0
-1729 -1731 -1766 0
1729 1731 -1766 0
-1729 1731 1766 0
1729 -1731 1766 0
-1732 -1733 -1768 0
1732 1733 -1768 0
-1732 1733 1768 0
1732 -1733 1768 0
-1735 -1737 -1770 0
1735 1737 -1770 0
-1735 1737 1770 0
1735 -1737 1770 0
-1739 -1741 -1772 0
1739 1741 -1772 0
-1739 1741 1772 0
1739 -1741 1772 0
-1743 -1745 -1774 0
1743 1745 -1774 0
-1743 1745 1774 0
1743 -1745 1774 0
-1747 -1749 -1776 0
1747 1749 -1776 0
-1747 1749 1776 0
1747 -1749 1776 0
-1751 -1753 -1778 0
1751 1753 -1778 0
-1751 1753 1778 0
1751 -1753 1778 0
-1709 -1755 -1780 0
1709 1755 -1780 0
1709 -1755 1780 0
-1709 1755 1780 0
-1757 -1758 -1782 0
1757 1758 -1782 0
-1757 1758 1782 0
1757 -1758 1782 0
-1760 -1762 -1784 0
1760 1762 -1784 0
-1760 1762 1784 0
1760 -1762 1784 0
-1763 -1764 -1786 0
1763 1764 -1786 0
-1763 1764 1786 0
1763 -1764 1786 0
-1766 -1768 -1788 0
1766 1768 -1788 0
-1766 1768 1788 0
1766 -1768 1788 0
-1770 -1772 -1790 0
1770 1772 -1790 0
-1770 1772 1790 0
1770 -1772 1790 0
-1774 -1776 -1792 0
1774 1776 -1792 0
-1774 1776 1792 0
1774 -1776 1792 0
-1778 -1780 -1794 0
1778 1780 -1794 0
-1778 1780 1794 0
1778 -1780 1794 0
-1782 -1784 -1796 0
1782 1784 -1796 0
-1782 1784 1796 0
1782 -1784 1796 0
-1786 -1788 -1798 0
1786 1788 -1798 0
-1786 1788 1798 0
1786 -1788 1798 0
-1790 -1792 -1800 0
1790 1792 -1800 0
-1790 1792 1800 0
1790 -1792 1800 0
-1794 -1796 -1802 0
1794 1796 -1802 0
-1794 1796 1802 0
1794 -1796 1802 0
-1798 -1800 -1802 0
1798 1800 -1802 0
-1798 1800 1802 0
1798 -1800 1802 0
-1716 -1718 -1806 0
1716 1718 -1806 0
-1716 1718 1806 0
1716 -1718 1806 0
-1720 -1722 -1808 0
1720 1722 -1808 0
-1720 1722 1808 0
1720 -1722 1808 0
-1724 -1726 -1810 0
1724 1726 -1810 0
-1724 1726 1810 0
1724 -1726 1810 0
-1728 -1730 -1812 0
1728 1730 -1812 0
-1728 1730 1812 0
1728 -1730 1812 0
-1734 -1736 -1814 0
1734 1736 -1814 0
-1734 1736 1814 0
1734 -1736 1814 0
-1738 -1740 -1816 0
1738 1740 -1816 0
-1738 1740 1816 0
1738 -1740 1816 0
-1742 -1744 -1818 0
1742 1744 -1818 0
-1742 1744 1818 0
1742 -1744 1818 0
-1746 -1748 -1820 0
1746 1748 -1820 0
-1746 1748 1820 0
1746 -1748 1820 0
-1750 -1752 -1822 0
1750 1752 -1822 0
-1750 1752 1822 0
1750 -1752 1822 0
-1754 -1756 -1824 0
1754 1756 -1824 0
-1754 1756 1824 0
1754 -1756 1824 0
-1759 -1761 -1827 0
1759 1761 -1827 0
-1759 1761 1827 0
1759 -1761 1827 0
-1765 -1767 -1829 0
1765 1767 -1829 0
-1765 1767 1829 0
1765 -1767 1829 0
-1769 -1771 -1830 0
1769 1771 -1830 0
-1769 1771 1830 0
1769 -1771 1830 0
-1773 -1775 -1832 0
1773 1775 -1832 0
-1773 1775 1832 0
1773 -1775 1832 0
-1777 -1779 -1834 0
1777 1779 -1834 0
-1777 1779 1834 0
1777 -1779 1834 0
-1781 -1783 -1836 0
1781 1783 -1836 0
-1781 1783 1836 0
1781 -1783 1836 0
-1785 -1787 -1838 0
1785 1787 -1838 0
-1785 1787 1838 0
1785 -1787 1838 0
-1789 -1791 -1840 0
1789 1791 -1840 0
-1789 1791 1840 0
1789 -1791 1840 0
-1793 -1795 -1842 0
1793 1795 -1842 0
-1793 1795 1842 0
1793 -1795 1842 0
-1797 -1799 -1844 0
1797 1799 -1844 0
-1797 1799 1844 0
1797 -1799 1844 0
-1801 -1803 -1846 0
1801 1803 -1846 0
-1801 1803 1846 0
1801 -1803 1846 0
-1802 -1804 -1848 0
1802 1804 -1848 0
1802 -1804 1848 0
-1802 1804 1848 0
-1806 -1807 -1850 0
1806 1807 -1850 0
-1806 1807 1850 0
1806 -1807 1850 0
-1808 -1810 -1851 0
1808 1810 -1851 0
-1808 1810 1851 0
1808 -1810 1851 0
-1812 -1813 -1853 0
1812 1813 -1853 0
-1812 1813 1853 0
1812 -1813 1853 0
-1814 -1816 -1855 0
1814 1816 -1855 0
-1814 1816 1855 0
1814 -1816 1855 0
-1818 -1820 -1857 0
1818 1820 -1857 0
-1818 1820 1857 0
1818 -1820 1857 0
-1822 -1824 -1859 0
1822 1824 -1859 0
-1822 1824 1859 0
1822 -1824 1859 0
-1826 -1827 -1861 0
1826 1827 -1861 0
-1826 1827 1861 0
1826 -1827 1861 0
-1828 -1829 -1863 0
1828 1829 -1863 0
-1828 1829 1863 0
1828 -1829 1863 0
-1830 -1832 -1865 0
1830 1832 -1865 0
-1830 1832 1865 0
1830 -1832 1865 0
-1834 -1836 -1867 0
1834 1836 -1867 0
-1834 1836 1867 0
1834 -1836 1867 0
-1838 -1840 -1869 0
1838 1840 -1869 0
-1838 1840 1869 0
1838 -1840 1869 0
-1842 -1844 -1871 0
1842 1844 -1871 0
-1842 1844 1871 0
1842 -1844 1871 0
-1846 -1848 -1873 0
1846 1848 -1873 0
-1846 1848 1873 0
1846 -1848 1873 0
-1805 -1850 -1875 0
1805 1850 -1875 0
-1805 1850 1875 0
1805 -1850 1875 0
-1851 -1853 -1877 0
1851 1853 -1877 0
-1851 1853 1877 0
1851 -1853 1877 0
-1855 -1857 -1879 0
1855 1857 -1879 0
-1855 1857 1879 0
1855 -1857 1879 0
-1859 -1861 -1881 0
1859 1861 -1881 0
-1859 1861 1881 0
1859 -1861 1881 0
-1863 -1865 -1883 0
1863 1865 -1883 0
-1863 1865 1883 0
1863 -1865 1883 0
-1867 -1869 -1885 0
1867 1869 -1885 0
-1867 1869 1885 0
1867 -1869 1885 0
-1871 -1873 -1887 0
1871 1873 -1887 0
-1871 1873 1887 0
1871 -1873 1887 0
-1875 -1877 -1889 0
1875 1877 -1889 0
-1875 1877 1889 0
1875 -1877 1889 0
-1879 -1881 -1891 0
1879 1881 -1891 0
-1879 1881 1891 0
1879 -1881 1891 0
-1883 -1885 -1893 0
1883 1885 -1893 0
-1883 1885 1893 0
1883 -1885 1893 0
-1887 -1889 -1895 0
1887 1889 -1895 0
-1887 1889 1895 0
1887 -1889 1895 0
-1891 -1893 -1895 0
1891 1893 -1895 0
-1891 1893 1895 0
1891 -1893 1895 0
-1809 -1811 -1899 0
1809 1811 -1899 0
-1809 1811 1899 0
1809 -1811 1899 0
-1815 -1817 -1901 0
1815 1817 -1901 0
-1815 1817 1901 0
1815 -1817 1901 0
-1819 -1821 -1903 0
1819 1821 -1903 0
-1819 1821 1903 0
1819 -1821 1903 0
-1823 -1825 -1905 0
1823 1825 -1905 0
-1823 1825 1905 0
1823 -1825 1905 0
-1831 -1833 -1908 0
1831 1833 -1908 0
-1831 1833 1908 0
1831 -1833 1908 0
-1835 -1837 -1909 0
1835 1837 -1909 0
-1835 1837 1909 0
1835 -1837 1909 0
-1839 -1841 -1911 0
1839 1841 -1911 0
-1839 1841 1911 0
1839 -1841 1911 0
-1843 -1845 -1913 0
1843 1845 -1913 0
-1843 1845 1913 0
1843 -1845 1913 0
-1847 -1849 -1915 0
1847 1849 -1915 0
-1847 1849 1915 0
1847 -1849 1915 0
-1852 -1854 -1918 0
1852 1854 -1918 0
-1852 1854 1918 0
1852 -1854 1918 0
-1856 -1858 -1919 0
1856 1858 -1919 0
-1856 1858 1919 0
1856 -1858 1919 0
-1860 -1862 -1921 0
1860 1862 -1921 0
-1860 1862 1921 0
1860 -1862 1921 0
-1864 -1866 -1923 0
1864 1866 -1923 0
-1864 1866 1923 0
1864 -1866 1923 0
-1868 -1870 -1925 0
1868 1870 -1925 0
-1868 1870 1925 0
1868 -1870 1925 0
-1872 -1874 -1927 0
1872 1874 -1927 0
-1872 1874 1927 0
1872 -1874 1927 0
-1876 -1878 -1929 0
1876 1878 -1929 0
-1876 1878 1929 0
1876 -1878 1929 0
-1880 -1882 -1931 0
1880 1882 -1931 0
-1880 1882 1931 0
1880 -1882 1931 0
-1884 -1886 -1933 0
1884 1886 -1933 0
-1884 1886 1933 0
1884 -1886 1933 0
-1888 -1890 -1935 0
1888 1890 -1935 0
-1888 1890 1935 0
1888 -1890 1935 0
-1892 -1894 -1937 0
1892 1894 -1937 0
-1892 1894 1937 0
1892 -1894 1937 0
-1896 -1897 -1939 0
1896 1897 -1939 0
-1896 1897 1939 0
1896 -1897 1939 0
-1898 -1899 -1940 0
1898 1899 -1940 0
-1898 1899 1940 0
1898 -1899 1940 0
-1900 -1901 -1942 0
1900 1901 -1942 0
-1900 1901 1942 0
1900 -1901 1942 0
-1903 -1905 -1944 0
1903 1905 -1944 0
-1903 1905 1944 0
1903 -1905 1944 0
-1906 -1907 -1946 0
1906 1907 -1946 0
-1906 1907 1946 0
1906 -1907 1946 0
-1908 -1909 -1948 0
1908 1909 -1948 0
-1908 1909 1948 0
1908 -1909 1948 0
-1911 -1913 -1950 0
1911 1913 -1950 0
-1911 1913 1950 0
1911 -1913 1950 0
-1915 -1917 -1952 0
1915 1917 -1952 0
-1915 1917 1952 0
1915 -1917 1952 0
-1918 -1919 -1954 0
1918 1919 -1954 0
-1918 1919 1954 0
1918 -1919 1954 0
-1921 -1923 -1956 0
1921 1923 -1956 0
-1921 1923 1956 0
1921 -1923 1956 0
-1925 -1927 -1958 0
1925 1927 -1958 0
-1925 1927 1958 0
1925 -1927 1958 0
-1929 -1931 -1960 0
1929 1931 -1960 0
-1929 1931 1960 0
1929 -1931 1960 0
-1933 -1935 -1962 0
1933 1935 -1962 0
-1933 1935 1962 0
1933 -1935 1962 0
-1937 -1939 -1964 0
1937 1939 -1964 0
-1937 1939 1964 0
1937 -1939 1964 0
-1895 -1940 -1966 0
1895 1940 -1966 0
-1895 1940 1966 0
1895 -1940 1966 0
-1942 -1944 -1968 0
1942 1944 -1968 0
-1942 1944 1968 0
1942 -1944 1968 0
-1946 -1948 -1970 0
1946 1948 -1970 0
-1946 1948 1970 0
1946 -1948 1970 0
-1950 -1952 -1972 0
1950 1952 -1972 0
-1950 1952 1972 0
1950 -1952 1972 0
-1954 -1956 -1974 0
1954 1956 -1974 0
-1954 1956 1974 0
1954 -1956 1974 0
-1958 -1960 -1976 0
1958 1960 -1976 0
-1958 1960 1976 0
1958 -1960 1976 0
-1962 -1964 -1978 0
1962 1964 -1978 0
-1962 1964 1978 0
1962 -1964 1978 0
-1966 -1968 -1980 0
1966 1968 -1980 0
-1966 1968 1980 0
1966 -1968 1980 0
-1970 -1972 -1982 0
1970 1972 -1982 0
-1970 1972 1982 0
1970 -1972 1982 0
-1974 -1976 -1984 0
1974 1976 -1984 0
-1974 1976 1984 0
1974 -1976 1984 0
-1978 -1980 -1986 0
1978 1980 -1986 0
-1978 1980 1986 0
1978 -1980 1986 0
-1982 -1984 -1986 0
1982 1984 -1986 0
-1982 1984 1986 0
1982 -1984 1986 0
-1902 -1904 -1990 0
1902 1904 -1990 0
-1902 1904 1990 0
1902 -1904 1990 0
-1910 -1912 -1993 0
1910 1912 -1993 0
-1910 1912 1993 0
1910 -1912 1993 0
-1914 -1916 -1994 0
1914 1916 -1994 0
-1914 1916 1994 0
1914 -1916 1994 0
-1920 -1922 -1996 0
1920 1922 -1996 0
-1920 1922 1996 0
1920 -1922 1996 0
-1924 -1926 -1998 0
1924 1926 -1998 0
-1924 1926 1998 0
1924 -1926 1998 0
-1928 -1930 -2000 0
1928 1930 -2000 0
-1928 1930 2000 0
1928 -1930 2000 0
-1932 -1934 -2002 0
1932 1934 -2002 0
-1932 1934 2002 0
1932 -1934 2002 0
-1936 -1938 -2004 0
1936 1938 -2004 0
-1936 1938 2004 0
1936 -1938 2004 0
-1941 -1943 -2006 0
1941 1943 -2006 0
-1941 1943 2006 0
1941 -1943 2006 0
-1945 -1947 -2008 0
1945 1947 -2008 0
-1945 1947 2008 0
1945 -1947 2008 0
-1949 -1951 -2010 0
1949 1951 -2010 0
-1949 1951 2010 0
1949 -1951 2010 0
-1953 -1955 -2012 0
1953 1955 -2012 0
-1953 1955 2012 0
1953 -1955 2012 0
-1957 -1959 -2014 0
1957 1959 -2014 0
-1957 1959 2014 0
1957 -1959 2014 0
-1961 -1963 -2016 0
1961 1963 -2016 0
-1961 1963 2016 0
1961 -1963 2016 0
-1965 -1967 -2018 0
1965 1967 -2018 0
-1965 1967 2018 0
1965 -1967 2018 0
-1969 -1971 -2020 0
1969 1971 -2020 0
-1969 1971 2020 0
1969 -1971 2020 0
-1973 -1975 -2022 0
1973 1975 -2022 0
-1973 1975 2022 0
1973 -1975 2022 0
-1977 -1979 -2024 0
1977 1979 -2024 0
-1977 1979 2024 0
1977 -1979 2024 0
-1981 -1983 -2026 0
1981 1983 -2026 0
-1981 1983 2026 0
1981 -1983 2026 0
-1985 -1987 -2028 0
1985 1987 -2028 0
-1985 1987 2028 0
1985 -1987 2028 0
-1986 -1988 -2030 0
1986 1988 -2030 0
1986 -1988 2030 0
-1986 1988 2030 0
-1990 -1991 -2031 0
1990 1991 -2031 0
-1990 1991 2031 0
1990 -1991 2031 0
-1992 -1993 -2033 0
1992 1993 -2033 0
-1992 1993 2033 0
1992 -1993 2033 0
-1994 -1995 -2035 0
1994 1995 -2035 0
-1994 1995 2035 0
1994 -1995 2035 0
-1996 -1998 -2037 0
1996 1998 -2037 0
-1996 1998 2037 0
1996 -1998 2037 0
-2000 -2002 -2039 0
2000 2002 -2039 0
-2000 2002 2039 0
2000 -2002 2039 0
-2004 -2005 -2041 0
2004 2005 -2041 0
-2004 2005 2041 0
2004 -2005 2041 0
-2006 -2008 -2043 0
2006 2008 -2043 0
-2006 2008 2043 0
2006 -2008 2043 0
-2010 -2012 -2045 0
2010 2012 -2045 0
-2010 2012 2045 0
2010 -2012 2045 0
-2014 -2016 -2047 0
2014 2016 -2047 0
-2014 2016 2047 0
2014 -2016 2047 0
-2018 -2020 -2049 0
2018 2020 -2049 0
-2018 2020 2049 0
2018 -2020 2049 0
-2022 -2024 -2051 0
2022 2024 -2051 0
-2022 2024 2051 0
2022 -2024 2051 0
-2026 -2028 -2053 0
2026 2028 -2053 0
-2026 2028 2053 0
2026 -2028 2053 0
-1989 -2030 -2055 0
1989 2030 -2055 0
1989 -2030 2055 0
-1989 2030 2055 0
-2031 -2033 -2057 0
2031 2033 -2057 0
-2031 2033 2057 0
2031 -2033 2057 0
-2035 -2037 -2059 0
2035 2037 -2059 0
-2035 2037 2059 0
2035 -2037 2059 0
-2039 -2041 -2061 0
2039 2041 -2061 0
-2039 2041 2061 0
2039 -2041 2061 0
-2043 -2045 -2063 0
2043 2045 -2063 0
-2043 2045 2063 0
2043 -2045 2063 0
-2047 -2049 -2065 0
2047 2049 -2065 0
-2047 2049 2065 0
2047 -2049 2065 0
-2051 -2053 -2067 0
2051 2053 -2067 0
-2051 2053 2067 0
2051 -2053 2067 0
-2055 -2057 -2069 0
2055 2057 -2069 0
-2055 2057 2069 0
2055 -2057 2069 0
-2059 -2061 -2071 0
2059 2061 -2071 0
-2059 2061 2071 0
2059 -2061 2071 0
-2063 -2065 -2073 0
2063 2065 -2073 0
-2063 2065 2073 0
2063 -2065 2073 0
-2067 -2069 -2075 0
2067 2069 -2075 0
-2067 2069 2075 0
2067 -2069 2075 0
-2071 -2073 -2075 0
2071 2073 -2075 0
-2071 2073 2075 0
2071 -2073 2075 0
-1997 -1999 -2081 0
1997 1999 -2081 0
-1997 1999 2081 0
1997 -1999 2081 0
-2001 -2003 -2083 0
2001 2003 -2083 0
-2001 2003 2083 0
2001 -2003 2083 0
-2007 -2009 -2086 0
2007 2009 -2086 0
-2007 2009 2086 0
2007 -2009 2086 0
-2011 -2013 -2087 0
2011 2013 -2087 0
-2011 2013 2087 0
2011 -2013 2087 0
-2015 -2017 -2089 0
2015 2017 -2089 0
-2015 2017 2089 0
2015 -2017 2089 0
-2019 -2021 -2091 0
2019 2021 -2091 0
-2019 2021 2091 0
2019 -2021 2091 0
-2023 -2025 -2093 0
2023 2025 -2093 0
-2023 2025 2093 0
2023 -2025 2093 0
-2027 -2029 -2095 0
2027 2029 -2095 0
-2027 2029 2095 0
2027 -2029 2095 0
-2032 -2034 -2097 0
2032 2034 -2097 0
-2032 2034 2097 0
2032 -2034 2097 0
-2036 -2038 -2099 0
2036 2038 -2099 0
-2036 2038 2099 0
2036 -2038 2099 0
-2040 -2042 -2101 0
2040 2042 -2101 0
-2040 2042 2101 0
2040 -2042 2101 0
-2044 -2046 -2103 0
2044 2046 -2103 0
-2044 2046 2103 0
2044 -2046 2103 0
-2048 -2050 -2105 0
2048 2050 -2105 0
-2048 2050 2105 0
2048 -2050 2105 0
-2052 -2054 -2107 0
2052 2054 -2107 0
-2052 2054 2107 0
2052 -2054 2107 0
-2056 -2058 -2109 0
2056 2058 -2109 0
-2056 2058 2109 0
2056 -2058 2109 0
-2060 -2062 -2111 0
2060 2062 -2111 0
-2060 2062 2111 0
2060 -2062 2111 0
-2064 -2066 -2113 0
2064 2066 -2113 0
-2064 2066 2113 0
2064 -2066 2113 0
-2068 -2070 -2115 0
2068 2070 -2115 0
-2068 2070 2115 0
2068 -2070 2115 0
-2072 -2074 -2117 0
2072 2074 -2117 0
-2072 2074 2117 0
2072 -2074 2117 0
-2076 -2077 -2119 0
2076 2077 -2119 0
-2076 2077 2119 0
2076 -2077 2119 0
-2078 -2079 -2121 0
2078 2079 -2121 0
-2078 2079 2121 0
2078 -2079 2121 0
-2080 -2081 -2122 0
2080 2081 -2122 0
-2080 2081 2122 0
2080 -2081 2122 0
-2083 -2085 -2124 0
2083 2085 -2124 0
-2083 2085 2124 0
2083 -2085 2124 0
-2086 -2087 -2126 0
2086 2087 -2126 0
-2086 2087 2126 0
2086 -2087 2126 0
-2089 -2091 -2128 0
2089 2091 -2128 0
-2089 2091 2128 0
2089 -2091 2128 0
-2093 -2095 -2130 0
2093 2095 -2130 0
-2093 2095 2130 0
2093 -2095 2130 0
-2096 -2097 -2132 0
2096 2097 -2132 0
-2096 2097 2132 0
2096 -2097 2132 0
-2099 -2101 -2134 0
2099 2101 -2134 0
-2099 2101 2134 0
2099 -2101 2134 0
-2103 -2105 -2136 0
2103 2105 -2136 0
-2103 2105 2136 0
2103 -2105 2136 0
-2107 -2109 -2138 0
2107 2109 -2138 0
-2107 2109 2138 0
2107 -2109 2138 0
-2111 -2113 -2140 0
2111 2113 -2140 0
-2111 2113 2140 0
2111 -2113 2140 0
-2115 -2117 -2142 0
2115 2117 -2142 0
-2115 2117 2142 0
2115 -2117 2142 0
-2075 -2119 -2144 0
2075 2119 -2144 0
2075 -2119 2144 0
-2075 2119 2144 0
-2121 -2122 -2146 0
2121 2122 -2146 0
-2121 2122 2146 0
2121 -2122 2146 0
-2124 -2126 -2148 0
2124 2126 -2148 0
-2124 2126 2148 0
2124 -2126 2148 0
-2128 -2130 -2150 0
2128 2130 -2150 0
-2128 2130 2150 0
2128 -2130 2150 0
-2132 -2134 -2152 0
2132 2134 -2152 0
-2132 2134 2152 0
2132 -2134 2152 0
-2136 -2138 -2154 0
2136 2138 -2154 0
-2136 2138 2154 0
2136 -2138 2154 0
-2140 -2142 -2156 0
2140 2142 -2156 0
-2140 2142 2156 0
2140 -2142 2156 0
-2144 -2146 -2158 0
2144 2146 -2158 0
-2144 2146 2158 0
2144 -2146 2158 0
-2148 -2150 -2160 0
2148 2150 -2160 0
-2148 2150 2160 0
2148 -2150 2160 0
-2152 -2154 -2162 0
2152 2154 -2162 0
-2152 2154 2162 0
2152 -2154 2162 0
-2156 -2158 -2164 0
2156 2158 -2164 0
-2156 2158 2164 0
2156 -2158 2164 0
-2160 -2162 -2164 0
2160 2162 -2164 0
-2160 2162 2164 0
2160 -2162 2164 0
-2082 -2084 -2167 0
2082 2084 -2167 0
-2082 2084 2167 0
2082 -2084 2167 0
-2088 -2090 -2169 0
2088 2090 -2169 0
-2088 2090 2169 0
2088 -2090 2169 0
-2092 -2094 -2171 0
2092 2094 -2171 0
-2092 2094 2171 0
2092 -2094 2171 0
-2098 -2100 -2174 0
2098 2100 -2174 0
-2098 2100 2174 0
2098 -2100 2174 0
-2102 -2104 -2175 0
2102 2104 -2175 0
-2102 2104 2175 0
2102 -2104 2175 0
-2106 -2108 -2177 0
2106 2108 -2177 0
-2106 2108 2177 0
2106 -2108 2177 0
-2110 -2112 -2179 0
2110 2112 -2179 0
-2110 2112 2179 0
2110 -2112 2179 0
-2114 -2116 -2181 0
2114 2116 -2181 0
-2114 2116 2181 0
2114 -2116 2181 0
-2118 -2120 -2183 0
2118 2120 -2183 0
-2118 2120 2183 0
2118 -2120 2183 0
-2123 -2125 -2185 0
2123 2125 -2185 0
-2123 2125 2185 0
2123 -2125 2185 0
-2127 -2129 -2187 0
2127 2129 -2187 0
-2127 2129 2187 0
2127 -2129 2187 0
-2131 -2133 -2189 0
2131 2133 -2189 0
-2131 2133 2189 0
2131 -2133 2189 0
-2135 -2137 -2191 0
2135 2137 -2191 0
-2135 2137 2191 0
2135 -2137 2191 0
-2139 -2141 -2193 0
2139 2141 -2193 0
-2139 2141 2193 0
2139 -2141 2193 0
-2143 -2145 -2195 0
2143 2145 -2195 0
-2143 2145 2195 0
2143 -2145 2195 0
-2147 -2149 -2197 0
2147 2149 -2197 0
-2147 2149 2197 0
2147 -2149 2197 0
-2151 -2153 -2199 0
2151 2153 -2199 0
-2151 2153 2199 0
2151 -2153 2199 0
-2155 -2157 -2201 0
2155 2157 -2201 0
-2155 2157 2201 0
2155 -2157 2201 0
-2159 -2161 -2203 0
2159 2161 -2203 0
-2159 2161 2203 0
2159 -2161 2203 0
-2163 -2165 -2205 0
2163 2165 -2205 0
-2163 2165 2205 0
2163 -2165 2205 0
-2164 -2166 -2207 0
2164 2166 -2207 0
2164 -2166 2207 0
-2164 2166 2207 0
-2167 -2168 -2230 0
2167 2168 -2230 0
-2167 2168 2230 0
2167 -2168 2230 0
-2169 -2171 -2209 0
2169 2171 -2209 0
-2169 2171 2209 0
2169 -2171 2209 0
-2173 -2174 -2211 0
2173 2174 -2211 0
-2173 2174 2211 0
2173 -2174 2211 0
-2175 -2177 -2213 0
2175 2177 -2213 0
-2175 2177 2213 0
2175 -2177 2213 0
-2179 -2181 -2215 0
2179 2181 -2215 0
-2179 2181 2215 0
2179 -2181 2215 0
-2183 -2184 -2217 0
2183 2184 -2217 0
-2183 2184 2217 0
2183 -2184 2217 0
-2185 -2187 -2219 0
2185 2187 -2219 0
-2185 2187 2219 0
2185 -2187 2219 0
-2189 -2191 -2221 0
2189 2191 -2221 0
-2189 2191 2221 0
2189 -2191 2221 0
-2193 -2195 -2223 0
2193 2195 -2223 0
-2193 2195 2223 0
2193 -2195 2223 0
-2197 -2199 -2225 0
2197 2199 -2225 0
-2197 2199 2225 0
2197 -2199 2225 0
-2201 -2203 -2227 0
2201 2203 -2227 0
-2201 2203 2227 0
2201 -2203 2227 0
-2205 -2207 -2229 0
2205 2207 -2229 0
-2205 2207 2229 0
2205 -2207 2229 0
-2209 -2211 -2231 0
2209 2211 -2231 0
-2209 2211 2231 0
2209 -2211 2231 0
-2213 -2215 -2233 0
2213 2215 -2233 0
-2213 2215 2233 0
2213 -2215 2233 0
-2217 -2219 -2235 0
2217 2219 -2235 0
-2217 2219 2235 0
2217 -2219 2235 0
-2221 -2223 -2237 0
2221 2223 -2237 0
-2221 2223 2237 0
2221 -2223 2237 0
-2225 -2227 -2239 0
2225 2227 -2239 0
-2225 2227 2239 0
2225 -2227 2239 0
-2229 -2230 -2241 0
2229 2230 -2241 0
-2229 2230 2241 0
2229 -2230 2241 0
-2231 -2233 -2243 0
2231 2233 -2243 0
-2231 2233 2243 0
2231 -2233 2243 0
-2235 -2237 -2245 0
2235 2237 -2245 0
-2235 2237 2245 0
2235 -2237 2245 0
-2239 -2241 -2247 0
2239 2241 -2247 0
-2239 2241 2247 0
2239 -2241 2247 0
-2243 -2245 -2247 0
2243 2245 -2247 0
-2243 2245 2247 0
2243 -2245 2247 0
-2170 -2172 -2251 0
2170 2172 -2251 0
-2170 2172 2251 0
2170 -2172 2251 0
-2176 -2178 -2253 0
2176 2178 -2253 0
-2176 2178 2253 0
2176 -2178 2253 0
-2180 -2182 -2255 0
2180 2182 -2255 0
-2180 2182 2255 0
2180 -2182 2255 0
-2186 -2188 -2258 0
2186 2188 -2258 0
-2186 2188 2258 0
2186 -2188 2258 0
-2190 -2192 -2259 0
2190 2192 -2259 0
-2190 2192 2259 0
2190 -2192 2259 0
-2194 -2196 -2261 0
2194 2196 -2261 0
-2194 2196 2261 0
2194 -2196 2261 0
-2198 -2200 -2263 0
2198 2200 -2263 0
-2198 2200 2263 0
2198 -2200 2263 0
-2202 -2204 -2265 0
2202 2204 -2265 0
-2202 2204 2265 0
2202 -2204 2265 0
-2206 -2208 -2267 0
2206 2208 -2267 0
-2206 2208 2267 0
2206 -2208 2267 0
-2210 -2212 -2269 0
2210 2212 -2269 0
-2210 2212 2269 0
2210 -2212 2269 0
-2214 -2216 -2271 0
2214 2216 -2271 0
-2214 2216 2271 0
2214 -2216 2271 0
-2218 -2220 -2273 0
2218 2220 -2273 0
-2218 2220 2273 0
2218 -2220 2273 0
-2222 -2224 -2275 0
2222 2224 -2275 0
-2222 2224 2275 0
2222 -2224 2275 0
-2226 -2228 -2277 0
2226 2228 -2277 0
-2226 2228 2277 0
2226 -2228 2277 0
-2232 -2234 -2279 0
2232 2234 -2279 0
-2232 2234 2279 0
2232 -2234 2279 0
-2236 -2238 -2281 0
2236 2238 -2281 0
-2236 2238 2281 0
2236 -2238 2281 0
-2240 -2242 -2283 0
2240 2242 -2283 0
-2240 2242 2283 0
2240 -2242 2283 0
-2244 -2246 -2285 0
2244 2246 -2285 0
-2244 2246 2285 0
2244 -2246 2285 0
-2248 -2249 -2287 0
2248 2249 -2287 0
-2248 2249 2287 0
2248 -2249 2287 0
-2250 -2251 -2288 0
2250 2251 -2288 0
-2250 2251 2288 0
2250 -2251 2288 0
-2252 -2253 -2290 0
2252 2253 -2290 0
-2252 2253 2290 0
2252 -2253 2290 0
-2255 -2257 -2292 0
2255 2257 -2292 0
-2255 2257 2292 0
2255 -2257 2292 0
-2258 -2259 -2294 0
2258 2259 -2294 0
-2258 2259 2294 0
2258 -2259 2294 0
-2261 -2263 -2296 0
2261 2263 -2296 0
-2261 2263 2296 0
2261 -2263 2296 0
-2265 -2267 -2298 0
2265 2267 -2298 0
-2265 2267 2298 0
2265 -2267 2298 0
-2268 -2269 -2300 0
2268 2269 -2300 0
-2268 2269 2300 0
2268 -2269 2300 0
-2271 -2273 -2302 0
2271 2273 -2302 0
-2271 2273 2302 0
2271 -2273 2302 0
-2275 -2277 -2304 0
2275 2277 -2304 0
-2275 2277 2304 0
2275 -2277 2304 0
-2278 -2279 -2306 0
2278 2279 -2306 0
-2278 2279 2306 0
2278 -2279 2306 0
-2281 -2283 -2308 0
2281 2283 -2308 0
-2281 2283 2308 0
2281 -2283 2308 0
-2285 -2287 -2310 0
2285 2287 -2310 0
-2285 2287 2310 0
2285 -2287 2310 0
-2247 -2288 -2312 0
2247 2288 -2312 0
-2247 2288 2312 0
2247 -2288 2312 0
-2290 -2292 -2314 0
2290 2292 -2314 0
-2290 2292 2314 0
2290 -2292 2314 0
-2294 -2296 -2316 0
2294 2296 -2316 0
-2294 2296 2316 0
2294 -2296 2316 0
-2298 -2300 -2318 0
2298 2300 -2318 0
-2298 2300 2318 0
2298 -2300 2318 0
-2302 -2304 -2320 0
2302 2304 -2320 0
-2302 2304 2320 0
2302 -2304 2320 0
-2306 -2308 -2322 0
2306 2308 -2322 0
-2306 2308 2322 0
2306 -2308 2322 0
-2310 -2312 -2324 0
2310 2312 -2324 0
-2310 2312 2324 0
2310 -2312 2324 0
-2314 -2316 -2326 0
2314 2316 -2326 0
-2314 2316 2326 0
2314 -2316 2326 0
-2318 -2320 -2328 0
2318 2320 -2328 0
-2318 2320 2328 0
2318 -2320 2328 0
-2322 -2324 -2330 0
2322 2324 -2330 0
-2322 2324 2330 0
2322 -2324 2330 0
-2326 -2328 -2330 0
2326 2328 -2330 0
-2326 2328 2330 0
2326 -2328 2330 0
-2254 -2256 -2334 0
2254 2256 -2334 0
-2254 2256 2334 0
2254 -2256 2334 0
-2260 -2262 -2336 0
2260 2262 -2336 0
-2260 2262 2336 0
2260 -2262 2336 0
-2264 -2266 -2338 0
2264 2266 -2338 0
-2264 2266 2338 0
2264 -2266 2338 0
-2270 -2272 -2341 0
2270 2272 -2341 0
-2270 2272 2341 0
2270 -2272 2341 0
-2274 -2276 -2342 0
2274 2276 -2342 0
-2274 2276 2342 0
2274 -2276 2342 0
-2280 -2282 -2344 0
2280 2282 -2344 0
-2280 2282 2344 0
2280 -2282 2344 0
-2284 -2286 -2346 0
2284 2286 -2346 0
-2284 2286 2346 0
2284 -2286 2346 0
-2289 -2291 -2349 0
2289 2291 -2349 0
-2289 2291 2349 0
2289 -2291 2349 0
-2293 -2295 -2350 0
2293 2295 -2350 0
-2293 2295 2350 0
2293 -2295 2350 0
-2297 -2299 -2352 0
2297 2299 -2352 0
-2297 2299 2352 0
2297 -2299 2352 0
-2301 -2303 -2354 0
2301 2303 -2354 0
-2301 2303 2354 0
2301 -2303 2354 0
-2305 -2307 -2356 0
2305 2307 -2356 0
-2305 2307 2356 0
2305 -2307 2356 0
-2309 -2311 -2358 0
2309 2311 -2358 0
-2309 2311 2358 0
2309 -2311 2358 0
-2313 -2315 -2360 0
2313 2315 -2360 0
-2313 2315 2360 0
2313 -2315 2360 0
-2317 -2319 -2362 0
2317 2319 -2362 0
-2317 2319 2362 0
2317 -2319 2362 0
-2321 -2323 -2364 0
2321 2323 -2364 0
-2321 2323 2364 0
2321 -2323 2364 0
-2325 -2327 -2366 0
2325 2327 -2366 0
-2325 2327 2366 0
2325 -2327 2366 0
-2329 -2331 -2368 0
2329 2331 -2368 0
-2329 2331 2368 0
2329 -2331 2368 0
-2330 -2332 -2370 0
2330 2332 -2370 0
2330 -2332 2370 0
-2330 2332 2370 0
-2334 -2335 -2371 0
2334 2335 -2371 0
-2334 2335 2371 0
2334 -2335 2371 0
-2336 -2338 -2373 0
2336 2338 -2373 0
-2336 2338 2373 0
2336 -2338 2373 0
-2340 -2341 -2375 0
2340 2341 -2375 0
-2340 2341 2375 0
2340 -2341 2375 0
-2342 -2343 -2377 0
2342 2343 -2377 0
-2342 2343 2377 0
2342 -2343 2377 0
-2344 -2346 -2379 0
2344 2346 -2379 0
-2344 2346 2379 0
2344 -2346 2379 0
-2348 -2349 -2381 0
2348 2349 -2381 0
-2348 2349 2381 0
2348 -2349 2381 0
-2350 -2352 -2383 0
2350 2352 -2383 0
-2350 2352 2383 0
2350 -2352 2383 0
-2354 -2356 -2385 0
2354 2356 -2385 0
-2354 2356 2385 0
2354 -2356 2385 0
-2358 -2360 -2387 0
2358 2360 -2387 0
-2358 2360 2387 0
2358 -2360 2387 0
-2362 -2364 -2389 0
2362 2364 -2389 0
-2362 2364 2389 0
2362 -2364 2389 0
-2366 -2368 -2391 0
2366 2368 -2391 0
-2366 2368 2391 0
2366 -2368 2391 0
-2333 -2370 -2393 0
2333 2370 -2393 0
2333 -2370 2393 0
-2333 2370 2393 0
-2371 -2373 -2395 0
2371 2373 -2395 0
-2371 2373 2395 0
2371 -2373 2395 0
-2375 -2377 -2397 0
2375 2377 -2397 0
-2375 2377 2397 0
2375 -2377 2397 0
-2379 -2381 -2399 0
2379 2381 -2399 0
-2379 2381 2399 0
2379 -2381 2399 0
-2383 -2385 -2401 0
2383 2385 -2401 0
-2383 2385 2401 0
2383 -2385 2401 0
-2387 -2389 -2403 0
2387 2389 -2403 0
-2387 2389 2403 0
2387 -2389 2403 0
-2391 -2393 -2405 0
2391 2393 -2405 0
-2391 2393 2405 0
2391 -2393 2405 0
-2395 -2397 -2407 0
2395 2397 -2407 0
-2395 2397 2407 0
2395 -2397 2407 0
-2399 -2401 -2409 0
2399 2401 -2409 0
-2399 2401 2409 0
2399 -2401 2409 0
-2403 -2405 -2411 0
2403 2405 -2411 0
-2403 2405 2411 0
2403 -2405 2411 0
-2407 -2409 -2411 0
2407 2409 -2411 0
-2407 2409 2411 0
2407 -2409 2411 0
-2337 -2339 -2415 0
2337 2339 -2415 0
-2337 2339 2415 0
2337 -2339 2415 0
-2345 -2347 -2418 0
2345 2347 -2418 0
-2345 2347 2418 0
2345 -2347 2418 0
-2351 -2353 -2420 0
2351 2353 -2420 0
-2351 2353 2420 0
2351 -2353 2420 0
-2355 -2357 -2421 0
2355 2357 -2421 0
-2355 2357 2421 0
2355 -2357 2421 0
-2359 -2361 -2423 0
2359 2361 -2423 0
-2359 2361 2423 0
2359 -2361 2423 0
-2363 -2365 -2425 0
2363 2365 -2425 0
-2363 2365 2425 0
2363 -2365 2425 0
-2367 -2369 -2427 0
2367 2369 -2427 0
-2367 2369 2427 0
2367 -2369 2427 0
-2372 -2374 -2430 0
2372 2374 -2430 0
-2372 2374 2430 0
2372 -2374 2430 0
-2376 -2378 -2431 0
2376 2378 -2431 0
-2376 2378 2431 0
2376 -2378 2431 0
-2380 -2382 -2433 0
2380 2382 -2433 0
-2380 2382 2433 0
2380 -2382 2433 0
-2384 -2386 -2435 0
2384 2386 -2435 0
-2384 2386 2435 0
2384 -2386 2435 0
-2388 -2390 -2437 0
2388 2390 -2437 0
-2388 2390 2437 0
2388 -2390 2437 0
-2392 -2394 -2439 0
2392 2394 -2439 0
-2392 2394 2439 0
2392 -2394 2439 0
-2396 -2398 -2441 0
2396 2398 -2441 0
-2396 2398 2441 0
2396 -2398 2441 0
-2400 -2402 -2443 0
2400 2402 -2443 0
-2400 2402 2443 0
2400 -2402 2443 0
-2404 -2406 -2445 0
2404 2406 -2445 0
-2404 2406 2445 0
2404 -2406 2445 0
-2408 -2410 -2447 0
2408 2410 -2447 0
-2408 2410 2447 0
2408 -2410 2447 0
-2412 -2413 -2449 0
2412 2413 -2449 0
-2412 2413 2449 0
2412 -2413 2449 0
-2414 -2415 -2451 0
2414 2415 -2451 0
-2414 2415 2451 0
2414 -2415 2451 0
-2416 -2417 -2452 0
2416 2417 -2452 0
-2416 2417 2452 0
2416 -2417 2452 0
-2418 -2419 -2454 0
2418 2419 -2454 0
-2418 2419 2454 0
2418 -2419 2454 0
-2420 -2421 -2456 0
2420 2421 -2456 0
-2420 2421 2456 0
2420 -2421 2456 0
-2423 -2425 -2458 0
2423 2425 -2458 0
-2423 2425 2458 0
2423 -2425 2458 0
-2427 -2429 -2460 0
2427 2429 -2460 0
-2427 2429 2460 0
2427 -2429 2460 0
-2430 -2431 -2462 0
2430 2431 -2462 0
-2430 2431 2462 0
2430 -2431 2462 0
-2433 -2435 -2464 0
2433 2435 -2464 0
-2433 2435 2464 0
2433 -2435 2464 0
-2437 -2439 -2466 0
2437 2439 -2466 0
-2437 2439 2466 0
2437 -2439 2466 0
-2441 -2443 -2468 0
2441 2443 -2468 0
-2441 2443 2468 0
2441 -2443 2468 0
-2445 -2447 -2470 0
2445 2447 -2470 0
-2445 2447 2470 0
2445 -2447 2470 0
-2411 -2449 -2472 0
2411 2449 -2472 0
2411 -2449 2472 0
-2411 2449 2472 0
-2451 -2452 -2474 0
2451 2452 -2474 0
-2451 2452 2474 0
2451 -2452 2474 0
-2454 -2456 -2476 0
2454 2456 -2476 0
-2454 2456 2476 0
2454 -2456 2476 0
-2458 -2460 -2478 0
2458 2460 -2478 0
-2458 2460 2478 0
2458 -2460 2478 0
-2462 -2464 -2480 0
2462 2464 -2480 0
-2462 2464 2480 0
2462 -2464 2480 0
-2466 -2468 -2482 0
2466 2468 -2482 0
-2466 2468 2482 0
2466 -2468 2482 0
-2470 -2472 -2484 0
2470 2472 -2484 0
-2470 2472 2484 0
2470 -2472 2484 0
-2474 -2476 -2486 0
2474 2476 -2486 0
-2474 2476 2486 0
2474 -2476 2486 0
-2478 -2480 -2488 0
2478 2480 -2488 0
-2478 2480 2488 0
2478 -2480 2488 0
-2482 -2484 -2490 0
2482 2484 -2490 0
-2482 2484 2490 0
2482 -2484 2490 0
-2486 -2488 -2490 0
2486 2488 -2490 0
-2486 2488 2490 0
2486 -2488 2490 0
-2422 -2424 -2496 0
2422 2424 -2496 0
-2422 2424 2496 0
2422 -2424 2496 0
-2426 -2428 -2498 0
2426 2428 -2498 0
-2426 2428 2498 0
2426 -2428 2498 0
-2432 -2434 -2501 0
2432 2434 -2501 0
-2432 2434 2501 0
2432 -2434 2501 0
-2436 -2438 -2502 0
2436 2438 -2502 0
-2436 2438 2502 0
2436 -2438 2502 0
-2440 -2442 -2504 0
2440 2442 -2504 0
-2440 2442 2504 0
2440 -2442 2504 0
-2444 -2446 -2506 0
2444 2446 -2506 0
-2444 2446 2506 0
2444 -2446 2506 0
-2448 -2450 -2508 0
2448 2450 -2508 0
-2448 2450 2508 0
2448 -2450 2508 0
-2453 -2455 -2511 0
2453 2455 -2511 0
-2453 2455 2511 0
2453 -2455 2511 0
-2457 -2459 -2512 0
2457 2459 -2512 0
-2457 2459 2512 0
2457 -2459 2512 0
-2461 -2463 -2514 0
2461 2463 -2514 0
-2461 2463 2514 0
2461 -2463 2514 0
-2465 -2467 -2516 0
2465 2467 -2516 0
-2465 2467 2516 0
2465 -2467 2516 0
-2469 -2471 -2518 0
2469 2471 -2518 0
-2469 2471 2518 0
2469 -2471 2518 0
-2473 -2475 -2520 0
2473 2475 -2520 0
-2473 2475 2520 0
2473 -2475 2520 0
-2477 -2479 -2522 0
2477 2479 -2522 0
-2477 2479 2522 0
2477 -2479 2522 0
-2481 -2483 -2524 0
2481 2483 -2524 0
-2481 2483 2524 0
2481 -2483 2524 0
-2485 -2487 -2526 0
2485 2487 -2526 0
-2485 2487 2526 0
2485 -2487 2526 0
-2489 -2491 -2528 0
2489 2491 -2528 0
-2489 2491 2528 0
2489 -2491 2528 0
-2490 -2492 -2530 0
2490 2492 -2530 0
2490 -2492 2530 0
-2490 2492 2530 0
-2494 -2495 -2532 0
2494 2495 -2532 0
-2494 2495 2532 0
2494 -2495 2532 0
-2496 -2498 -2533 0
2496 2498 -2533 0
-2496 2498 2533 0
2496 -2498 2533 0
-2500 -2501 -2535 0
2500 2501 -2535 0
-2500 2501 2535 0
2500 -2501 2535 0
-2502 -2504 -2537 0
2502 2504 -2537 0
-2502 2504 2537 0
2502 -2504 2537 0
-2506 -2508 -2539 0
2506 2508 -2539 0
-2506 2508 2539 0
2506 -2508 2539 0
-2510 -2511 -2541 0
2510 2511 -2541 0
-2510 2511 2541 0
2510 -2511 2541 0
-2512 -2514 -2543 0
2512 2514 -2543 0
-2512 2514 2543 0
2512 -2514 2543 0
-2516 -2518 -2545 0
2516 2518 -2545 0
-2516 2518 2545 0
2516 -2518 2545 0
-2520 -2522 -2547 0
2520 2522 -2547 0
-2520 2522 2547 0
2520 -2522 2547 0
-2524 -2526 -2549 0
2524 2526 -2549 0
-2524 2526 2549 0
2524 -2526 2549 0
-2528 -2530 -2551 0
2528 2530 -2551 0
-2528 2530 2551 0
2528 -2530 2551 0
-2493 -2532 -2553 0
2493 2532 -2553 0
-2493 2532 2553 0
2493 -2532 2553 0
-2533 -2535 -2555 0
2533 2535 -2555 0
-2533 2535 2555 0
2533 -2535 2555 0
-2537 -2539 -2557 0
2537 2539 -2557 0
-2537 2539 2557 0
2537 -2539 2557 0
-2541 -2543 -2559 0
2541 2543 -2559 0
-2541 2543 2559 0
2541 -2543 2559 0
-2545 -2547 -2561 0
2545 2547 -2561 0
-2545 2547 2561 0
2545 -2547 2561 0
-2549 -2551 -2563 0
2549 2551 -2563 0
-2549 2551 2563 0
2549 -2551 2563 0
-2553 -2555 -2565 0
2553 2555 -2565 0
-2553 2555 2565 0
2553 -2555 2565 0
-2557 -2559 -2567 0
2557 2559 -2567 0
-2557 2559 2567 0
2557 -2559 2567 0
-2561 -2563 -2569 0
2561 2563 -2569 0
-2561 2563 2569 0
2561 -2563 2569 0
-2565 -2567 -2569 0
2565 2567 -2569 0
-2565 2567 2569 0
2565 -2567 2569 0
-2497 -2499 -2606 0
2497 2499 -2606 0
-2497 2499 2606 0
2497 -2499 2606 0
-2503 -2505 -2573 0
2503 2505 -2573 0
-2503 2505 2573 0
2503 -2505 2573 0
-2507 -2509 -2575 0
2507 2509 -2575 0
-2507 2509 2575 0
2507 -2509 2575 0
-2513 -2515 -2578 0
2513 2515 -2578 0
-2513 2515 2578 0
2513 -2515 2578 0
-2517 -2519 -2579 0
2517 2519 -2579 0
-2517 2519 2579 0
2517 -2519 2579 0
-2521 -2523 -2581 0
2521 2523 -2581 0
-2521 2523 2581 0
2521 -2523 2581 0
-2525 -2527 -2583 0
2525 2527 -2583 0
-2525 2527 2583 0
2525 -2527 2583 0
-2529 -2531 -2585 0
2529 2531 -2585 0
-2529 2531 2585 0
2529 -2531 2585 0
-2534 -2536 -2588 0
2534 2536 -2588 0
-2534 2536 2588 0
2534 -2536 2588 0
-2538 -2540 -2589 0
2538 2540 -2589 0
-2538 2540 2589 0
2538 -2540 2589 0
-2542 -2544 -2591 0
2542 2544 -2591 0
-2542 2544 2591 0
2542 -2544 2591 0
-2546 -2548 -2593 0
2546 2548 -2593 0
-2546 2548 2593 0
2546 -2548 2593 0
-2550 -2552 -2595 0
2550 2552 -2595 0
-2550 2552 2595 0
2550 -2552 2595 0
-2554 -2556 -2597 0
2554 2556 -2597 0
-2554 2556 2597 0
2554 -2556 2597 0
-2558 -2560 -2599 0
2558 2560 -2599 0
-2558 2560 2599 0
2558 -2560 2599 0
-2562 -2564 -2601 0
2562 2564 -2601 0
-2562 2564 2601 0
2562 -2564 2601 0
-2566 -2568 -2603 0
2566 2568 -2603 0
-2566 2568 2603 0
2566 -2568 2603 0
-2570 -2571 -2605 0
2570 2571 -2605 0
-2570 2571 2605 0
2570 -2571 2605 0
-2572 -2573 -2607 0
2572 2573 -2607 0
-2572 2573 2607 0
2572 -2573 2607 0
-2575 -2577 -2608 0
2575 2577 -2608 0
-2575 2577 2608 0
2575 -2577 2608 0
-2578 -2579 -2610 0
2578 2579 -2610 0
-2578 2579 2610 0
2578 -2579 2610 0
-2581 -2583 -2612 0
2581 2583 -2612 0
-2581 2583 2612 0
2581 -2583 2612 0
-2585 -2587 -2614 0
2585 2587 -2614 0
-2585 2587 2614 0
2585 -2587 2614 0
-2588 -2589 -2616 0
2588 2589 -2616 0
-2588 2589 2616 0
2588 -2589 2616 0
-2591 -2593 -2618 0
2591 2593 -2618 0
-2591 2593 2618 0
2591 -2593 2618 0
-2595 -2597 -2620 0
2595 2597 -2620 0
-2595 2597 2620 0
2595 -2597 2620 0
-2599 -2601 -2622 0
2599 2601 -2622 0
-2599 2601 2622 0
2599 -2601 2622 0
-2603 -2605 -2624 0
2603 2605 -2624 0
-2603 2605 2624 0
2603 -2605 2624 0
-2569 -2606 -2626 0
2569 2606 -2626 0
-2569 2606 2626 0
2569 -2606 2626 0
-2607 -2608 -2628 0
2607 2608 -2628 0
-2607 2608 2628 0
2607 -2608 2628 0
-2610 -2612 -2630 0
2610 2612 -2630 0
-2610 2612 2630 0
2610 -2612 2630 0
-2614 -2616 -2632 0
2614 2616 -2632 0
-2614 2616 2632 0
2614 -2616 2632 0
-2618 -2620 -2634 0
2618 2620 -2634 0
-2618 2620 2634 0
2618 -2620 2634 0
-2622 -2624 -2636 0
2622 2624 -2636 0
-2622 2624 2636 0
2622 -2624 2636 0
-2626 -2628 -2638 0
2626 2628 -2638 0
-2626 2628 2638 0
2626 -2628 2638 0
-2630 -2632 -2640 0
2630 2632 -2640 0
-2630 2632 2640 0
2630 -2632 2640 0
-2634 -2636 -2642 0
2634 2636 -2642 0
-2634 2636 2642 0
2634 -2636 2642 0
-2638 -2640 -2642 0
2638 2640 -2642 0
-2638 2640 2642 0
2638 -2640 2642 0
-2574 -2576 -2646 0
2574 2576 -2646 0
-2574 2576 2646 0
2574 -2576 2646 0
-2580 -2582 -2648 0
2580 2582 -2648 0
-2580 2582 2648 0
2580 -2582 2648 0
-2584 -2586 -2650 0
2584 2586 -2650 0
-2584 2586 2650 0
2584 -2586 2650 0
-2590 -2592 -2653 0
2590 2592 -2653 0
-2590 2592 2653 0
2590 -2592 2653 0
-2594 -2596 -2654 0
2594 2596 -2654 0
-2594 2596 2654 0
2594 -2596 2654 0
-2598 -2600 -2656 0
2598 2600 -2656 0
-2598 2600 2656 0
2598 -2600 2656 0
-2602 -2604 -2658 0
2602 2604 -2658 0
-2602 2604 2658 0
2602 -2604 2658 0
-2609 -2611 -2661 0
2609 2611 -2661 0
-2609 2611 2661 0
2609 -2611 2661 0
-2613 -2615 -2662 0
2613 2615 -2662 0
-2613 2615 2662 0
2613 -2615 2662 0
-2617 -2619 -2664 0
2617 2619 -2664 0
-2617 2619 2664 0
2617 -2619 2664 0
-2621 -2623 -2666 0
2621 2623 -2666 0
-2621 2623 2666 0
2621 -2623 2666 0
-2625 -2627 -2668 0
2625 2627 -2668 0
-2625 2627 2668 0
2625 -2627 2668 0
-2629 -2631 -2670 0
2629 2631 -2670 0
-2629 2631 2670 0
2629 -2631 2670 0
-2633 -2635 -2672 0
2633 2635 -2672 0
-2633 2635 2672 0
2633 -2635 2672 0
-2637 -2639 -2674 0
2637 2639 -2674 0
-2637 2639 2674 0
2637 -2639 2674 0
-2641 -2643 -2676 0
2641 2643 -2676 0
-2641 2643 2676 0
2641 -2643 2676 0
-2642 -2644 -2678 0
2642 2644 -2678 0
2642 -2644 2678 0
-2642 2644 2678 0
-2646 -2647 -2679 0
2646 2647 -2679 0
-2646 2647 2679 0
2646 -2647 2679 0
-2648 -2650 -2681 0
2648 2650 -2681 0
-2648 2650 2681 0
2648 -2650 2681 0
-2652 -2653 -2683 0
2652 2653 -2683 0
-2652 2653 2683 0
2652 -2653 2683 0
-2654 -2656 -2685 0
2654 2656 -2685 0
-2654 2656 2685 0
2654 -2656 2685 0
-2658 -2659 -2687 0
2658 2659 -2687 0
-2658 2659 2687 0
2658 -2659 2687 0
-2660 -2661 -2689 0
2660 2661 -2689 0
-2660 2661 2689 0
2660 -2661 2689 0
-2662 -2664 -2691 0
2662 2664 -2691 0
-2662 2664 2691 0
2662 -2664 2691 0
-2666 -2668 -2693 0
2666 2668 -2693 0
-2666 2668 2693 0
2666 -2668 2693 0
-2670 -2672 -2695 0
2670 2672 -2695 0
-2670 2672 2695 0
2670 -2672 2695 0
-2674 -2676 -2697 0
2674 2676 -2697 0
-2674 2676 2697 0
2674 -2676 2697 0
-2645 -2678 -2699 0
2645 2678 -2699 0
2645 -2678 2699 0
-2645 2678 2699 0
-2679 -2681 -2701 0
2679 2681 -2701 0
-2679 2681 2701 0
2679 -2681 2701 0
-2683 -2685 -2703 0
2683 2685 -2703 0
-2683 2685 2703 0
2683 -2685 2703 0
-2687 -2689 -2705 0
2687 2689 -2705 0
-2687 2689 2705 0
2687 -2689 2705 0
-2691 -2693 -2707 0
2691 2693 -2707 0
-2691 2693 2707 0
2691 -2693 2707 0
-2695 -2697 -2709 0
2695 2697 -2709 0
-2695 2697 2709 0
2695 -2697 2709 0
-2699 -2701 -2711 0
2699 2701 -2711 0
-2699 2701 2711 0
2699 -2701 2711 0
-2703 -2705 -2713 0
2703 2705 -2713 0
-2703 2705 2713 0
2703 -2705 2713 0
-2707 -2709 -2715 0
2707 2709 -2715 0
-2707 2709 2715 0
2707 -2709 2715 0
-2711 -2713 -2715 0
2711 2713 -2715 0
-2711 2713 2715 0
2711 -2713 2715 0
-2649 -2651 -2719 0
2649 2651 -2719 0
-2649 2651 2719 0
2649 -2651 2719 0
-2655 -2657 -2721 0
2655 2657 -2721 0
-2655 2657 2721 0
2655 -2657 2721 0
-2663 -2665 -2724 0
2663 2665 -2724 0
-2663 2665 2724 0
2663 -2665 2724 0
-2667 -2669 -2725 0
2667 2669 -2725 0
-2667 2669 2725 0
2667 -2669 2725 0
-2671 -2673 -2727 0
2671 2673 -2727 0
-2671 2673 2727 0
2671 -2673 2727 0
-2675 -2677 -2729 0
2675 2677 -2729 0
-2675 2677 2729 0
2675 -2677 2729 0
-2680 -2682 -2731 0
2680 2682 -2731 0
-2680 2682 2731 0
2680 -2682 2731 0
-2684 -2686 -2733 0
2684 2686 -2733 0
-2684 2686 2733 0
2684 -2686 2733 0
-2688 -2690 -2735 0
2688 2690 -2735 0
-2688 2690 2735 0
2688 -2690 2735 0
-2692 -2694 -2737 0
2692 2694 -2737 0
-2692 2694 2737 0
2692 -2694 2737 0
-2696 -2698 -2739 0
2696 2698 -2739 0
-2696 2698 2739 0
2696 -2698 2739 0
-2700 -2702 -2741 0
2700 2702 -2741 0
-2700 2702 2741 0
2700 -2702 2741 0
-2704 -2706 -2743 0
2704 2706 -2743 0
-2704 2706 2743 0
2704 -2706 2743 0
-2708 -2710 -2745 0
2708 2710 -2745 0
-2708 2710 2745 0
2708 -2710 2745 0
-2712 -2714 -2747 0
2712 2714 -2747 0
-2712 2714 2747 0
2712 -2714 2747 0
-2716 -2717 -2749 0
2716 2717 -2749 0
-2716 2717 2749 0
2716 -2717 2749 0
-2718 -2719 -2751 0
2718 2719 -2751 0
-2718 2719 2751 0
2718 -2719 2751 0
-2720 -2721 -2752 0
2720 2721 -2752 0
-2720 2721 2752 0
2720 -2721 2752 0
-2722 -2723 -2754 0
2722 2723 -2754 0
-2722 2723 2754 0
2722 -2723 2754 0
-2724 -2725 -2756 0
2724 2725 -2756 0
-2724 2725 2756 0
2724 -2725 2756 0
-2727 -2729 -2758 0
2727 2729 -2758 0
-2727 2729 2758 0
2727 -2729 2758 0
-2730 -2731 -2760 0
2730 2731 -2760 0
-2730 2731 2760 0
2730 -2731 2760 0
-2733 -2735 -2762 0
2733 2735 -2762 0
-2733 2735 2762 0
2733 -2735 2762 0
-2737 -2739 -2764 0
2737 2739 -2764 0
-2737 2739 2764 0
2737 -2739 2764 0
-2741 -2743 -2766 0
2741 2743 -2766 0
-2741 2743 2766 0
2741 -2743 2766 0
-2745 -2747 -2768 0
2745 2747 -2768 0
-2745 2747 2768 0
2745 -2747 2768 0
-2715 -2749 -2770 0
2715 2749 -2770 0
2715 -2749 2770 0
-2715 2749 2770 0
-2751 -2752 -2772 0
2751 2752 -2772 0
-2751 2752 2772 0
2751 -2752 2772 0
-2754 -2756 -2774 0
2754 2756 -2774 0
-2754 2756 2774 0
2754 -2756 2774 0
-2758 -2760 -2776 0
2758 2760 -2776 0
-2758 2760 2776 0
2758 -2760 2776 0
-2762 -2764 -2778 0
2762 2764 -2778 0
-2762 2764 2778 0
2762 -2764 2778 0
-2766 -2768 -2780 0
2766 2768 -2780 0
-2766 2768 2780 0
2766 -2768 2780 0
-2770 -2772 -2782 0
2770 2772 -2782 0
-2770 2772 2782 0
2770 -2772 2782 0
-2774 -2776 -2784 0
2774 2776 -2784 0
-2774 2776 2784 0
2774 -2776 2784 0
-2778 -2780 -2786 0
2778 2780 -2786 0
-2778 2780 2786 0
2778 -2780 2786 0
-2782 -2784 -2786 0
2782 2784 -2786 0
-2782 2784 2786 0
2782 -2784 2786 0
-2726 -2728 -2792 0
2726 2728 -2792 0
-2726 2728 2792 0
2726 -2728 2792 0
-2732 -2734 -2794 0
2732 2734 -2794 0
-2732 2734 2794 0
2732 -2734 2794 0
-2736 -2738 -2796 0
2736 2738 -2796 0
-2736 2738 2796 0
2736 -2738 2796 0
-2740 -2742 -2798 0
2740 2742 -2798 0
-2740 2742 2798 0
2740 -2742 2798 0
-2744 -2746 -2800 0
2744 2746 -2800 0
-2744 2746 2800 0
2744 -2746 2800 0
-2748 -2750 -2802 0
2748 2750 -2802 0
-2748 2750 2802 0
2748 -2750 2802 0
-2753 -2755 -2804 0
2753 2755 -2804 0
-2753 2755 2804 0
2753 -2755 2804 0
-2757 -2759 -2806 0
2757 2759 -2806 0
-2757 2759 2806 0
2757 -2759 2806 0
-2761 -2763 -2808 0
2761 2763 -2808 0
-2761 2763 2808 0
2761 -2763 2808 0
-2765 -2767 -2810 0
2765 2767 -2810 0
-2765 2767 2810 0
2765 -2767 2810 0
-2769 -2771 -2812 0
2769 2771 -2812 0
-2769 2771 2812 0
2769 -2771 2812 0
-2773 -2775 -2814 0
2773 2775 -2814 0
-2773 2775 2814 0
2773 -2775 2814 0
-2777 -2779 -2816 0
2777 2779 -2816 0
-2777 2779 2816 0
2777 -2779 2816 0
-2781 -2783 -2818 0
2781 2783 -2818 0
-2781 2783 2818 0
2781 -2783 2818 0
-2785 -2787 -2820 0
2785 2787 -2820 0
-2785 2787 2820 0
2785 -2787 2820 0
-2786 -2788 -2822 0
2786 2788 -2822 0
2786 -2788 2822 0
-2786 2788 2822 0
-2790 -2791 -2824 0
2790 2791 -2824 0
-2790 2791 2824 0
2790 -2791 2824 0
-2792 -2793 -2825 0
2792 2793 -2825 0
-2792 2793 2825 0
2792 -2793 2825 0
-2794 -2796 -2827 0
2794 2796 -2827 0
-2794 2796 2827 0
2794 -2796 2827 0
-2798 -2800 -2829 0
2798 2800 -2829 0
-2798 2800 2829 0
2798 -2800 2829 0
-2802 -2803 -2831 0
2802 2803 -2831 0
-2802 2803 2831 0
2802 -2803 2831 0
-2804 -2806 -2833 0
2804 2806 -2833 0
-2804 2806 2833 0
2804 -2806 2833 0
-2808 -2810 -2835 0
2808 2810 -2835 0
-2808 2810 2835 0
2808 -2810 2835 0
-2812 -2814 -2837 0
2812 2814 -2837 0
-2812 2814 2837 0
2812 -2814 2837 0
-2816 -2818 -2839 0
2816 2818 -2839 0
-2816 2818 2839 0
2816 -2818 2839 0
-2820 -2822 -2841 0
2820 2822 -2841 0
-2820 2822 2841 0
2820 -2822 2841 0
-2789 -2824 -2843 0
2789 2824 -2843 0
-2789 2824 2843 0
2789 -2824 2843 0
-2825 -2827 -2845 0
2825 2827 -2845 0
-2825 2827 2845 0
2825 -2827 2845 0
-2829 -2831 -2847 0
2829 2831 -2847 0
-2829 2831 2847 0
2829 -2831 2847 0
-2833 -2835 -2849 0
2833 2835 -2849 0
-2833 2835 2849 0
2833 -2835 2849 0
-2837 -2839 -2851 0
2837 2839 -2851 0
-2837 2839 2851 0
2837 -2839 2851 0
-2841 -2843 -2853 0
2841 2843 -2853 0
-2841 2843 2853 0
2841 -2843 2853 0
-2845 -2847 -2855 0
2845 2847 -2855 0
-2845 2847 2855 0
2845 -2847 2855 0
-2849 -2851 -2857 0
2849 2851 -2857 0
-2849 2851 2857 0
2849 -2851 2857 0
-2853 -2855 -2857 0
2853 2855 -2857 0
-2853 2855 2857 0
2853 -2855 2857 0
-2795 -2797 -2861 0
2795 2797 -2861 0
-2795 2797 2861 0
2795 -2797 2861 0
-2799 -2801 -2862 0
2799 2801 -2862 0
-2799 2801 2862 0
2799 -2801 2862 0
-2805 -2807 -2864 0
2805 2807 -2864 0
-2805 2807 2864 0
2805 -2807 2864 0
-2809 -2811 -2866 0
2809 2811 -2866 0
-2809 2811 2866 0
2809 -2811 2866 0
-2813 -2815 -2868 0
2813 2815 -2868 0
-2813 2815 2868 0
2813 -2815 2868 0
-2817 -2819 -2870 0
2817 2819 -2870 0
-2817 2819 2870 0
2817 -2819 2870 0
-2821 -2823 -2872 0
2821 2823 -2872 0
-2821 2823 2872 0
2821 -2823 2872 0
-2826 -2828 -2874 0
2826 2828 -2874 0
-2826 2828 2874 0
2826 -2828 2874 0
-2830 -2832 -2876 0
2830 2832 -2876 0
-2830 2832 2876 0
2830 -2832 2876 0
-2834 -2836 -2878 0
2834 2836 -2878 0
-2834 2836 2878 0
2834 -2836 2878 0
-2838 -2840 -2880 0
2838 2840 -2880 0
-2838 2840 2880 0
2838 -2840 2880 0
-2842 -2844 -2882 0
2842 2844 -2882 0
-2842 2844 2882 0
2842 -2844 2882 0
-2846 -2848 -2884 0
2846 2848 -2884 0
-2846 2848 2884 0
2846 -2848 2884 0
-2850 -2852 -2886 0
2850 2852 -2886 0
-2850 2852 2886 0
2850 -2852 2886 0
-2854 -2856 -2888 0
2854 2856 -2888 0
-2854 2856 2888 0
2854 -2856 2888 0
-2858 -2859 -2890 0
2858 2859 -2890 0
-2858 2859 2890 0
2858 -2859 2890 0
-2861 -2862 -2891 0
2861 2862 -2891 0
-2861 2862 2891 0
2861 -2862 2891 0
-2863 -2864 -2892 0
2863 2864 -2892 0
-2863 2864 2892 0
2863 -2864 2892 0
-2866 -2868 -2894 0
2866 2868 -2894 0
-2866 2868 2894 0
2866 -2868 2894 0
-2870 -2872 -2896 0
2870 2872 -2896 0
-2870 2872 2896 0
2870 -2872 2896 0
-2873 -2874 -2898 0
2873 2874 -2898 0
-2873 2874 2898 0
2873 -2874 2898 0
-2876 -2878 -2900 0
2876 2878 -2900 0
-2876 2878 2900 0
2876 -2878 2900 0
-2880 -2882 -2902 0
2880 2882 -2902 0
-2880 2882 2902 0
2880 -2882 2902 0
-2884 -2886 -2904 0
2884 2886 -2904 0
-2884 2886 2904 0
2884 -2886 2904 0
-2888 -2890 -2906 0
2888 2890 -2906 0
-2888 2890 2906 0
2888 -2890 2906 0
-2857 -2860 -2908 0
2857 2860 -2908 0
-2857 2860 2908 0
2857 -2860 2908 0
-2891 -2892 -2910 0
2891 2892 -2910 0
-2891 2892 2910 0
2891 -2892 2910 0
-2894 -2896 -2912 0
2894 2896 -2912 0
-2894 2896 2912 0
2894 -2896 2912 0
-2898 -2900 -2914 0
2898 2900 -2914 0
-2898 2900 2914 0
2898 -2900 2914 0
-2902 -2904 -2916 0
2902 2904 -2916 0
-2902 2904 2916 0
2902 -2904 2916 0
-2906 -2908 -2918 0
2906 2908 -2918 0
-2906 2908 2918 0
2906 -2908 2918 0
-2910 -2912 -2920 0
2910 2912 -2920 0
-2910 2912 2920 0
2910 -2912 2920 0
-2914 -2916 -2922 0
2914 2916 -2922 0
-2914 2916 2922 0
2914 -2916 2922 0
-2918 -2920 -2922 0
2918 2920 -2922 0
-2918 2920 2922 0
2918 -2920 2922 0
-2865 -2867 -2927 0
2865 2867 -2927 0
-2865 2867 2927 0
2865 -2867 2927 0
-2869 -2871 -2928 0
2869 2871 -2928 0
-2869 2871 2928 0
2869 -2871 2928 0
-2875 -2877 -2930 0
2875 2877 -2930 0
-2875 2877 2930 0
2875 -2877 2930 0
-2879 -2881 -2932 0
2879 2881 -2932 0
-2879 2881 2932 0
2879 -2881 2932 0
-2883 -2885 -2934 0
2883 2885 -2934 0
-2883 2885 2934 0
2883 -2885 2934 0
-2887 -2889 -2936 0
2887 2889 -2936 0
-2887 2889 2936 0
2887 -2889 2936 0
-2893 -2895 -2940 0
2893 2895 -2940 0
-2893 2895 2940 0
2893 -2895 2940 0
-2897 -2899 -2942 0
2897 2899 -2942 0
-2897 2899 2942 0
2897 -2899 2942 0
-2901 -2903 -2944 0
2901 2903 -2944 0
-2901 2903 2944 0
2901 -2903 2944 0
-2905 -2907 -2946 0
2905 2907 -2946 0
-2905 2907 2946 0
2905 -2907 2946 0
-2909 -2911 -2948 0
2909 2911 -2948 0
-2909 2911 2948 0
2909 -2911 2948 0
-2913 -2915 -2950 0
2913 2915 -2950 0
-2913 2915 2950 0
2913 -2915 2950 0
-2917 -2919 -2952 0
2917 2919 -2952 0
-2917 2919 2952 0
2917 -2919 2952 0
-2921 -2923 -2954 0
2921 2923 -2954 0
-2921 2923 2954 0
2921 -2923 2954 0
-2922 -2924 -2956 0
2922 2924 -2956 0
2922 -2924 2956 0
-2922 2924 2956 0
-2926 -2927 -2957 0
2926 2927 -2957 0
-2926 2927 2957 0
2926 -2927 2957 0
-2928 -2929 -2959 0
2928 2929 -2959 0
-2928 2929 2959 0
2928 -2929 2959 0
-2930 -2932 -2961 0
2930 2932 -2961 0
-2930 2932 2961 0
2930 -2932 2961 0
-2934 -2936 -2963 0
2934 2936 -2963 0
-2934 2936 2963 0
2934 -2936 2963 0
-2938 -2939 -2965 0
2938 2939 -2965 0
-2938 2939 2965 0
2938 -2939 2965 0
-2940 -2942 -2967 0
2940 2942 -2967 0
-2940 2942 2967 0
2940 -2942 2967 0
-2944 -2946 -2969 0
2944 2946 -2969 0
-2944 2946 2969 0
2944 -2946 2969 0
-2948 -2950 -2971 0
2948 2950 -2971 0
-2948 2950 2971 0
2948 -2950 2971 0
-2952 -2954 -2973 0
2952 2954 -2973 0
-2952 2954 2973 0
2952 -2954 2973 0
-2925 -2956 -2975 0
2925 2956 -2975 0
2925 -2956 2975 0
-2925 2956 2975 0
-2957 -2959 -2977 0
2957 2959 -2977 0
-2957 2959 2977 0
2957 -2959 2977 0
-2961 -2963 -2979 0
2961 2963 -2979 0
-2961 2963 2979 0
2961 -2963 2979 0
-2965 -2967 -2981 0
2965 2967 -2981 0
-2965 2967 2981 0
2965 -2967 2981 0
-2969 -2971 -2983 0
2969 2971 -2983 0
-2969 2971 2983 0
2969 -2971 2983 0
-2973 -2975 -2985 0
2973 2975 -2985 0
-2973 2975 2985 0
2973 -2975 2985 0
-2977 -2979 -2987 0
2977 2979 -2987 0
-2977 2979 2987 0
2977 -2979 2987 0
-2981 -2983 -2989 0
2981 2983 -2989 0
-2981 2983 2989 0
2981 -2983 2989 0
-2985 -2987 -2989 0
2985 2987 -2989 0
-2985 2987 2989 0
2985 -2987 2989 0
-2931 -2933 -2994 0
2931 2933 -2994 0
-2931 2933 2994 0
2931 -2933 2994 0
-2935 -2937 -2995 0
2935 2937 -2995 0
-2935 2937 2995 0
2935 -2937 2995 0
-2941 -2943 -3023 0
2941 2943 -3023 0
-2941 2943 3023 0
2941 -2943 3023 0
-2945 -2947 -2997 0
2945 2947 -2997 0
-2945 2947 2997 0
2945 -2947 2997 0
-2949 -2951 -2999 0
2949 2951 -2999 0
-2949 2951 2999 0
2949 -2951 2999 0
-2953 -2955 -3001 0
2953 2955 -3001 0
-2953 2955 3001 0
2953 -2955 3001 0
-2958 -2960 -3004 0
2958 2960 -3004 0
-2958 2960 3004 0
2958 -2960 3004 0
-2962 -2964 -3005 0
2962 2964 -3005 0
-2962 2964 3005 0
2962 -2964 3005 0
-2966 -2968 -3007 0
2966 2968 -3007 0
-2966 2968 3007 0
2966 -2968 3007 0
-2970 -2972 -3009 0
2970 2972 -3009 0
-2970 2972 3009 0
2970 -2972 3009 0
-2974 -2976 -3011 0
2974 2976 -3011 0
-2974 2976 3011 0
2974 -2976 3011 0
-2978 -2980 -3013 0
2978 2980 -3013 0
-2978 2980 3013 0
2978 -2980 3013 0
-2982 -2984 -3015 0
2982 2984 -3015 0
-2982 2984 3015 0
2982 -2984 3015 0
-2986 -2988 -3017 0
2986 2988 -3017 0
-2986 2988 3017 0
2986 -2988 3017 0
-2990 -2991 -3019 0
2990 2991 -3019 0
-2990 2991 3019 0
2990 -2991 3019 0
-2992 -2993 -3021 0
2992 2993 -3021 0
-2992 2993 3021 0
2992 -2993 3021 0
-2994 -2995 -3022 0
2994 2995 -3022 0
-2994 2995 3022 0
2994 -2995 3022 0
-2997 -2999 -3024 0
2997 2999 -3024 0
-2997 2999 3024 0
2997 -2999 3024 0
-3001 -3003 -3026 0
3001 3003 -3026 0
-3001 3003 3026 0
3001 -3003 3026 0
-3004 -3005 -3028 0
3004 3005 -3028 0
-3004 3005 3028 0
3004 -3005 3028 0
-3007 -3009 -3030 0
3007 3009 -3030 0
-3007 3009 3030 0
3007 -3009 3030 0
-3011 -3013 -3032 0
3011 3013 -3032 0
-3011 3013 3032 0
3011 -3013 3032 0
-3015 -3017 -3034 0
3015 3017 -3034 0
-3015 3017 3034 0
3015 -3017 3034 0
-2989 -3019 -3036 0
2989 3019 -3036 0
2989 -3019 3036 0
-2989 3019 3036 0
-3021 -3022 -3038 0
3021 3022 -3038 0
-3021 3022 3038 0
3021 -3022 3038 0
-3023 -3024 -3040 0
3023 3024 -3040 0
-3023 3024 3040 0
3023 -3024 3040 0
-3026 -3028 -3042 0
3026 3028 -3042 0
-3026 3028 3042 0
3026 -3028 3042 0
-3030 -3032 -3044 0
3030 3032 -3044 0
-3030 3032 3044 0
3030 -3032 3044 0
-3034 -3036 -3046 0
3034 3036 -3046 0
-3034 3036 3046 0
3034 -3036 3046 0
-3038 -3040 -3048 0
3038 3040 -3048 0
-3038 3040 3048 0
3038 -3040 3048 0
-3042 -3044 -3050 0
3042 3044 -3050 0
-3042 3044 3050 0
3042 -3044 3050 0
-3046 -3048 -3050 0
3046 3048 -3050 0
-3046 3048 3050 0
3046 -3048 3050 0
-2996 -2998 -3055 0
2996 2998 -3055 0
-2996 2998 3055 0
2996 -2998 3055 0
-3000 -3002 -3056 0
3000 3002 -3056 0
-3000 3002 3056 0
3000 -3002 3056 0
-3006 -3008 -3058 0
3006 3008 -3058 0
-3006 3008 3058 0
3006 -3008 3058 0
-3010 -3012 -3060 0
3010 3012 -3060 0
-3010 3012 3060 0
3010 -3012 3060 0
-3014 -3016 -3062 0
3014 3016 -3062 0
-3014 3016 3062 0
3014 -3016 3062 0
-3018 -3020 -3064 0
3018 3020 -3064 0
-3018 3020 3064 0
3018 -3020 3064 0
-3025 -3027 -3068 0
3025 3027 -3068 0
-3025 3027 3068 0
3025 -3027 3068 0
-3029 -3031 -3070 0
3029 3031 -3070 0
-3029 3031 3070 0
3029 -3031 3070 0
-3033 -3035 -3072 0
3033 3035 -3072 0
-3033 3035 3072 0
3033 -3035 3072 0
-3037 -3039 -3074 0
3037 3039 -3074 0
-3037 3039 3074 0
3037 -3039 3074 0
-3041 -3043 -3076 0
3041 3043 -3076 0
-3041 3043 3076 0
3041 -3043 3076 0
-3045 -3047 -3078 0
3045 3047 -3078 0
-3045 3047 3078 0
3045 -3047 3078 0
-3049 -3051 -3080 0
3049 3051 -3080 0
-3049 3051 3080 0
3049 -3051 3080 0
-3050 -3052 -3082 0
3050 3052 -3082 0
3050 -3052 3082 0
-3050 3052 3082 0
-3054 -3055 -3084 0
3054 3055 -3084 0
-3054 3055 3084 0
3054 -3055 3084 0
-3056 -3057 -3085 0
3056 3057 -3085 0
-3056 3057 3085 0
3056 -3057 3085 0
-3058 -3060 -3087 0
3058 3060 -3087 0
-3058 3060 3087 0
3058 -3060 3087 0
-3062 -3064 -3089 0
3062 3064 -3089 0
-3062 3064 3089 0
3062 -3064 3089 0
-3066 -3067 -3091 0
3066 3067 -3091 0
-3066 3067 3091 0
3066 -3067 3091 0
-3068 -3070 -3093 0
3068 3070 -3093 0
-3068 3070 3093 0
3068 -3070 3093 0
-3072 -3074 -3095 0
3072 3074 -3095 0
-3072 3074 3095 0
3072 -3074 3095 0
-3076 -3078 -3097 0
3076 3078 -3097 0
-3076 3078 3097 0
3076 -3078 3097 0
-3080 -3082 -3099 0
3080 3082 -3099 0
-3080 3082 3099 0
3080 -3082 3099 0
-3053 -3084 -3101 0
3053 3084 -3101 0
-3053 3084 3101 0
3053 -3084 3101 0
-3085 -3087 -3103 0
3085 3087 -3103 0
-3085 3087 3103 0
3085 -3087 3103 0
-3089 -3091 -3105 0
3089 3091 -3105 0
-3089 3091 3105 0
3089 -3091 3105 0
-3093 -3095 -3107 0
3093 3095 -3107 0
-3093 3095 3107 0
3093 -3095 3107 0
-3097 -3099 -3109 0
3097 3099 -3109 0
-3097 3099 3109 0
3097 -3099 3109 0
-3101 -3103 -3111 0
3101 3103 -3111 0
-3101 3103 3111 0
3101 -3103 3111 0
-3105 -3107 -3113 0
3105 3107 -3113 0
-3105 3107 3113 0
3105 -3107 3113 0
-3109 -3111 -3113 0
3109 3111 -3113 0
-3109 3111 3113 0
3109 -3111 3113 0
-3059 -3061 -3118 0
3059 3061 -3118 0
-3059 3061 3118 0
3059 -3061 3118 0
-3063 -3065 -3119 0
3063 3065 -3119 0
-3063 3065 3119 0
3063 -3065 3119 0
-3069 -3071 -3146 0
3069 3071 -3146 0
-3069 3071 3146 0
3069 -3071 3146 0
-3073 -3075 -3121 0
3073 3075 -3121 0
-3073 3075 3121 0
3073 -3075 3121 0
-3077 -3079 -3123 0
3077 3079 -3123 0
-3077 3079 3123 0
3077 -3079 3123 0
-3081 -3083 -3125 0
3081 3083 -3125 0
-3081 3083 3125 0
3081 -3083 3125 0
-3086 -3088 -3128 0
3086 3088 -3128 0
-3086 3088 3128 0
3086 -3088 3128 0
-3090 -3092 -3129 0
3090 3092 -3129 0
-3090 3092 3129 0
3090 -3092 3129 0
-3094 -3096 -3131 0
3094 3096 -3131 0
-3094 3096 3131 0
3094 -3096 3131 0
-3098 -3100 -3133 0
3098 3100 -3133 0
-3098 3100 3133 0
3098 -3100 3133 0
-3102 -3104 -3135 0
3102 3104 -3135 0
-3102 3104 3135 0
3102 -3104 3135 0
-3106 -3108 -3137 0
3106 3108 -3137 0
-3106 3108 3137 0
3106 -3108 3137 0
-3110 -3112 -3139 0
3110 3112 -3139 0
-3110 3112 3139 0
3110 -3112 3139 0
-3114 -3115 -3141 0
3114 3115 -3141 0
-3114 3115 3141 0
3114 -3115 3141 0
-3116 -3117 -3142 0
3116 3117 -3142 0
-3116 3117 3142 0
3116 -3117 3142 0
-3118 -3119 -3144 0
3118 3119 -3144 0
-3118 3119 3144 0
3118 -3119 3144 0
-3121 -3123 -3147 0
3121 3123 -3147 0
-3121 3123 3147 0
3121 -3123 3147 0
-3125 -3127 -3148 0
3125 3127 -3148 0
-3125 3127 3148 0
3125 -3127 3148 0
-3128 -3129 -3150 0
3128 3129 -3150 0
-3128 3129 3150 0
3128 -3129 3150 0
-3131 -3133 -3152 0
3131 3133 -3152 0
-3131 3133 3152 0
3131 -3133 3152 0
-3135 -3137 -3154 0
3135 3137 -3154 0
-3135 3137 3154 0
3135 -3137 3154 0
-3139 -3141 -3156 0
3139 3141 -3156 0
-3139 3141 3156 0
3139 -3141 3156 0
-3113 -3142 -3158 0
3113 3142 -3158 0
-3113 3142 3158 0
3113 -3142 3158 0
-3144 -3146 -3160 0
3144 3146 -3160 0
-3144 3146 3160 0
3144 -3146 3160 0
-3147 -3148 -3162 0
3147 3148 -3162 0
-3147 3148 3162 0
3147 -3148 3162 0
-3150 -3152 -3164 0
3150 3152 -3164 0
-3150 3152 3164 0
3150 -3152 3164 0
-3154 -3156 -3166 0
3154 3156 -3166 0
-3154 3156 3166 0
3154 -3156 3166 0
-3158 -3160 -3168 0
3158 3160 -3168 0
-3158 3160 3168 0
3158 -3160 3168 0
-3162 -3164 -3170 0
3162 3164 -3170 0
-3162 3164 3170 0
3162 -3164 3170 0
-3166 -3168 -3170 0
3166 3168 -3170 0
-3166 3168 3170 0
3166 -3168 3170 0
-3120 -3122 -3175 0
3120 3122 -3175 0
-3120 3122 3175 0
3120 -3122 3175 0
-3124 -3126 -3176 0
3124 3126 -3176 0
-3124 3126 3176 0
3124 -3126 3176 0
-3130 -3132 -3178 0
3130 3132 -3178 0
-3130 3132 3178 0
3130 -3132 3178 0
-3134 -3136 -3180 0
3134 3136 -3180 0
-3134 3136 3180 0
3134 -3136 3180 0
-3138 -3140 -3182 0
3138 3140 -3182 0
-3138 3140 3182 0
3138 -3140 3182 0
-3143 -3145 -3184 0
3143 3145 -3184 0
-3143 3145 3184 0
3143 -3145 3184 0
-3149 -3151 -3186 0
3149 3151 -3186 0
-3149 3151 3186 0
3149 -3151 3186 0
-3153 -3155 -3188 0
3153 3155 -3188 0
-3153 3155 3188 0
3153 -3155 3188 0
-3157 -3159 -3190 0
3157 3159 -3190 0
-3157 3159 3190 0
3157 -3159 3190 0
-3161 -3163 -3192 0
3161 3163 -3192 0
-3161 3163 3192 0
3161 -3163 3192 0
-3165 -3167 -3194 0
3165 3167 -3194 0
-3165 3167 3194 0
3165 -3167 3194 0
-3169 -3171 -3196 0
3169 3171 -3196 0
-3169 3171 3196 0
3169 -3171 3196 0
-3170 -3172 -3198 0
3170 3172 -3198 0
3170 -3172 3198 0
-3170 3172 3198 0
-3174 -3175 -3199 0
3174 3175 -3199 0
-3174 3175 3199 0
3174 -3175 3199 0
-3176 -3177 -3201 0
3176 3177 -3201 0
-3176 3177 3201 0
3176 -3177 3201 0
-3178 -3180 -3203 0
3178 3180 -3203 0
-3178 3180 3203 0
3178 -3180 3203 0
-3182 -3183 -3205 0
3182 3183 -3205 0
-3182 3183 3205 0
3182 -3183 3205 0
-3184 -3185 -3207 0
3184 3185 -3207 0
-3184 3185 3207 0
3184 -3185 3207 0
-3186 -3188 -3209 0
3186 3188 -3209 0
-3186 3188 3209 0
3186 -3188 3209 0
-3190 -3192 -3211 0
3190 3192 -3211 0
-3190 3192 3211 0
3190 -3192 3211 0
-3194 -3196 -3213 0
3194 3196 -3213 0
-3194 3196 3213 0
3194 -3196 3213 0
-3173 -3198 -3215 0
3173 3198 -3215 0
3173 -3198 3215 0
-3173 3198 3215 0
-3199 -3201 -3217 0
3199 3201 -3217 0
-3199 3201 3217 0
3199 -3201 3217 0
-3203 -3205 -3219 0
3203 3205 -3219 0
-3203 3205 3219 0
3203 -3205 3219 0
-3207 -3209 -3221 0
3207 3209 -3221 0
-3207 3209 3221 0
3207 -3209 3221 0
-3211 -3213 -3223 0
3211 3213 -3223 0
-3211 3213 3223 0
3211 -3213 3223 0
-3215 -3217 -3225 0
3215 3217 -3225 0
-3215 3217 3225 0
3215 -3217 3225 0
-3219 -3221 -3227 0
3219 3221 -3227 0
-3219 3221 3227 0
3219 -3221 3227 0
-3223 -3225 -3227 0
3223 3225 -3227 0
-3223 3225 3227 0
3223 -3225 3227 0
-3179 -3181 -3232 0
3179 3181 -3232 0
-3179 3181 3232 0
3179 -3181 3232 0
-3187 -3189 -3235 0
3187 3189 -3235 0
-3187 3189 3235 0
3187 -3189 3235 0
-3191 -3193 -3237 0
3191 3193 -3237 0
-3191 3193 3237 0
3191 -3193 3237 0
-3195 -3197 -3239 0
3195 3197 -3239 0
-3195 3197 3239 0
3195 -3197 3239 0
-3200 -3202 -3241 0
3200 3202 -3241 0
-3200 3202 3241 0
3200 -3202 3241 0
-3204 -3206 -3243 0
3204 3206 -3243 0
-3204 3206 3243 0
3204 -3206 3243 0
-3208 -3210 -3245 0
3208 3210 -3245 0
-3208 3210 3245 0
3208 -3210 3245 0
-3212 -3214 -3247 0
3212 3214 -3247 0
-3212 3214 3247 0
3212 -3214 3247 0
-3216 -3218 -3249 0
3216 3218 -3249 0
-3216 3218 3249 0
3216 -3218 3249 0
-3220 -3222 -3251 0
3220 3222 -3251 0
-3220 3222 3251 0
3220 -3222 3251 0
-3224 -3226 -3253 0
3224 3226 -3253 0
-3224 3226 3253 0
3224 -3226 3253 0
-3228 -3229 -3255 0
3228 3229 -3255 0
-3228 3229 3255 0
3228 -3229 3255 0
-3230 -3231 -3257 0
3230 3231 -3257 0
-3230 3231 3257 0
3230 -3231 3257 0
-3232 -3233 -3258 0
3232 3233 -3258 0
-3232 3233 3258 0
3232 -3233 3258 0
-3234 -3235 -3260 0
3234 3235 -3260 0
-3234 3235 3260 0
3234 -3235 3260 0
-3237 -3239 -3262 0
3237 3239 -3262 0
-3237 3239 3262 0
3237 -3239 3262 0
-3240 -3241 -3264 0
3240 3241 -3264 0
-3240 3241 3264 0
3240 -3241 3264 0
-3243 -3245 -3266 0
3243 3245 -3266 0
-3243 3245 3266 0
3243 -3245 3266 0
-3247 -3249 -3268 0
3247 3249 -3268 0
-3247 3249 3268 0
3247 -3249 3268 0
-3251 -3253 -3270 0
3251 3253 -3270 0
-3251 3253 3270 0
3251 -3253 3270 0
-3227 -3255 -3272 0
3227 3255 -3272 0
3227 -3255 3272 0
-3227 3255 3272 0
-3257 -3258 -3274 0
3257 3258 -3274 0
-3257 3258 3274 0
3257 -3258 3274 0
-3260 -3262 -3276 0
3260 3262 -3276 0
-3260 3262 3276 0
3260 -3262 3276 0
-3264 -3266 -3278 0
3264 3266 -3278 0
-3264 3266 3278 0
3264 -3266 3278 0
-3268 -3270 -3280 0
3268 3270 -3280 0
-3268 3270 3280 0
3268 -3270 3280 0
-3272 -3274 -3282 0
3272 3274 -3282 0
-3272 3274 3282 0
3272 -3274 3282 0
-3276 -3278 -3284 0
3276 3278 -3284 0
-3276 3278 3284 0
3276 -3278 3284 0
-3280 -3282 -3284 0
3280 3282 -3284 0
-3280 3282 3284 0
3280 -3282 3284 0
-3236 -3238 -3312 0
3236 3238 -3312 0
-3236 3238 3312 0
3236 -3238 3312 0
-3242 -3244 -3289 0
3242 3244 -3289 0
-3242 3244 3289 0
3242 -3244 3289 0
-3246 -3248 -3290 0
3246 3248 -3290 0
-3246 3248 3290 0
3246 -3248 3290 0
-3250 -3252 -3292 0
3250 3252 -3292 0
-3250 3252 3292 0
3250 -3252 3292 0
-3254 -3256 -3294 0
3254 3256 -3294 0
-3254 3256 3294 0
3254 -3256 3294 0
-3259 -3261 -3296 0
3259 3261 -3296 0
-3259 3261 3296 0
3259 -3261 3296 0
-3263 -3265 -3298 0
3263 3265 -3298 0
-3263 3265 3298 0
3263 -3265 3298 0
-3267 -3269 -3300 0
3267 3269 -3300 0
-3267 3269 3300 0
3267 -3269 3300 0
-3271 -3273 -3302 0
3271 3273 -3302 0
-3271 3273 3302 0
3271 -3273 3302 0
-3275 -3277 -3304 0
3275 3277 -3304 0
-3275 3277 3304 0
3275 -3277 3304 0
-3279 -3281 -3306 0
3279 3281 -3306 0
-3279 3281 3306 0
3279 -3281 3306 0
-3283 -3285 -3308 0
3283 3285 -3308 0
-3283 3285 3308 0
3283 -3285 3308 0
-3284 -3286 -3310 0
3284 3286 -3310 0
3284 -3286 3310 0
-3284 3286 3310 0
-3288 -3289 -3313 0
3288 3289 -3313 0
-3288 3289 3313 0
3288 -3289 3313 0
-3290 -3292 -3315 0
3290 3292 -3315 0
-3290 3292 3315 0
3290 -3292 3315 0
-3294 -3295 -3317 0
3294 3295 -3317 0
-3294 3295 3317 0
3294 -3295 3317 0
-3296 -3298 -3319 0
3296 3298 -3319 0
-3296 3298 3319 0
3296 -3298 3319 0
-3300 -3302 -3321 0
3300 3302 -3321 0
-3300 3302 3321 0
3300 -3302 3321 0
-3304 -3306 -3323 0
3304 3306 -3323 0
-3304 3306 3323 0
3304 -3306 3323 0
-3308 -3310 -3325 0
3308 3310 -3325 0
-3308 3310 3325 0
3308 -3310 3325 0
-3287 -3312 -3327 0
3287 3312 -3327 0
-3287 3312 3327 0
3287 -3312 3327 0
-3313 -3315 -3329 0
3313 3315 -3329 0
-3313 3315 3329 0
3313 -3315 3329 0
-3317 -3319 -3331 0
3317 3319 -3331 0
-3317 3319 3331 0
3317 -3319 3331 0
-3321 -3323 -3333 0
3321 3323 -3333 0
-3321 3323 3333 0
3321 -3323 3333 0
-3325 -3327 -3335 0
3325 3327 -3335 0
-3325 3327 3335 0
3325 -3327 3335 0
-3329 -3331 -3337 0
3329 3331 -3337 0
-3329 3331 3337 0
3329 -3331 3337 0
-3333 -3335 -3337 0
3333 3335 -3337 0
-3333 3335 3337 0
3333 -3335 3337 0
-3291 -3293 -3342 0
3291 3293 -3342 0
-3291 3293 3342 0
3291 -3293 3342 0
-3297 -3299 -3344 0
3297 3299 -3344 0
-3297 3299 3344 0
3297 -3299 3344 0
-3301 -3303 -3345 0
3301 3303 -3345 0
-3301 3303 3345 0
3301 -3303 3345 0
-3305 -3307 -3347 0
3305 3307 -3347 0
-3305 3307 3347 0
3305 -3307 3347 0
-3309 -3311 -3349 0
3309 3311 -3349 0
-3309 3311 3349 0
3309 -3311 3349 0
-3314 -3316 -3370 0
3314 3316 -3370 0
-3314 3316 3370 0
3314 -3316 3370 0
-3318 -3320 -3351 0
3318 3320 -3351 0
-3318 3320 3351 0
3318 -3320 3351 0
-3322 -3324 -3353 0
3322 3324 -3353 0
-3322 3324 3353 0
3322 -3324 3353 0
-3326 -3328 -3355 0
3326 3328 -3355 0
-3326 3328 3355 0
3326 -3328 3355 0
-3330 -3332 -3357 0
3330 3332 -3357 0
-3330 3332 3357 0
3330 -3332 3357 0
-3334 -3336 -3359 0
3334 3336 -3359 0
-3334 3336 3359 0
3334 -3336 3359 0
-3338 -3339 -3361 0
3338 3339 -3361 0
-3338 3339 3361 0
3338 -3339 3361 0
-3340 -3341 -3362 0
3340 3341 -3362 0
-3340 3341 3362 0
3340 -3341 3362 0
-3342 -3343 -3364 0
3342 3343 -3364 0
-3342 3343 3364 0
3342 -3343 3364 0
-3344 -3345 -3366 0
3344 3345 -3366 0
-3344 3345 3366 0
3344 -3345 3366 0
-3347 -3349 -3368 0
3347 3349 -3368 0
-3347 3349 3368 0
3347 -3349 3368 0
-3351 -3353 -3371 0
3351 3353 -3371 0
-3351 3353 3371 0
3351 -3353 3371 0
-3355 -3357 -3372 0
3355 3357 -3372 0
-3355 3357 3372 0
3355 -3357 3372 0
-3359 -3361 -3374 0
3359 3361 -3374 0
-3359 3361 3374 0
3359 -3361 3374 0
-3337 -3362 -3376 0
3337 3362 -3376 0
-3337 3362 3376 0
3337 -3362 3376 0
-3364 -3366 -3378 0
3364 3366 -3378 0
-3364 3366 3378 0
3364 -3366 3378 0
-3368 -3370 -3380 0
3368 3370 -3380 0
-3368 3370 3380 0
3368 -3370 3380 0
-3371 -3372 -3382 0
3371 3372 -3382 0
-3371 3372 3382 0
3371 -3372 3382 0
-3374 -3376 -3384 0
3374 3376 -3384 0
-3374 3376 3384 0
3374 -3376 3384 0
-3378 -3380 -3386 0
3378 3380 -3386 0
-3378 3380 3386 0
3378 -3380 3386 0
-3382 -3384 -3386 0
3382 3384 -3386 0
-3382 3384 3386 0
3382 -3384 3386 0
-3346 -3348 -3391 0
3346 3348 -3391 0
-3346 3348 3391 0
3346 -3348 3391 0
-3350 -3352 -3393 0
3350 3352 -3393 0
-3350 3352 3393 0
3350 -3352 3393 0
-3354 -3356 -3394 0
3354 3356 -3394 0
-3354 3356 3394 0
3354 -3356 3394 0
-3358 -3360 -3396 0
3358 3360 -3396 0
-3358 3360 3396 0
3358 -3360 3396 0
-3363 -3365 -3399 0
3363 3365 -3399 0
-3363 3365 3399 0
3363 -3365 3399 0
-3367 -3369 -3400 0
3367 3369 -3400 0
-3367 3369 3400 0
3367 -3369 3400 0
-3373 -3375 -3402 0
3373 3375 -3402 0
-3373 3375 3402 0
3373 -3375 3402 0
-3377 -3379 -3404 0
3377 3379 -3404 0
-3377 3379 3404 0
3377 -3379 3404 0
-3381 -3383 -3406 0
3381 3383 -3406 0
-3381 3383 3406 0
3381 -3383 3406 0
-3385 -3387 -3408 0
3385 3387 -3408 0
-3385 3387 3408 0
3385 -3387 3408 0
-3386 -3388 -3410 0
3386 3388 -3410 0
3386 -3388 3410 0
-3386 3388 3410 0
-3390 -3391 -3411 0
3390 3391 -3411 0
-3390 3391 3411 0
3390 -3391 3411 0
-3392 -3393 -3413 0
3392 3393 -3413 0
-3392 3393 3413 0
3392 -3393 3413 0
-3394 -3396 -3415 0
3394 3396 -3415 0
-3394 3396 3415 0
3394 -3396 3415 0
-3398 -3399 -3417 0
3398 3399 -3417 0
-3398 3399 3417 0
3398 -3399 3417 0
-3400 -3401 -3419 0
3400 3401 -3419 0
-3400 3401 3419 0
3400 -3401 3419 0
-3402 -3404 -3421 0
3402 3404 -3421 0
-3402 3404 3421 0
3402 -3404 3421 0
-3406 -3408 -3423 0
3406 3408 -3423 0
-3406 3408 3423 0
3406 -3408 3423 0
-3389 -3410 -3425 0
3389 3410 -3425 0
3389 -3410 3425 0
-3389 3410 3425 0
-3411 -3413 -3427 0
3411 3413 -3427 0
-3411 3413 3427 0
3411 -3413 3427 0
-3415 -3417 -3429 0
3415 3417 -3429 0
-3415 3417 3429 0
3415 -3417 3429 0
-3419 -3421 -3431 0
3419 3421 -3431 0
-3419 3421 3431 0
3419 -3421 3431 0
-3423 -3425 -3433 0
3423 3425 -3433 0
-3423 3425 3433 0
3423 -3425 3433 0
-3427 -3429 -3435 0
3427 3429 -3435 0
-3427 3429 3435 0
3427 -3429 3435 0
-3431 -3433 -3435 0
3431 3433 -3435 0
-3431 3433 3435 0
3431 -3433 3435 0
-3395 -3397 -3440 0
3395 3397 -3440 0
-3395 3397 3440 0
3395 -3397 3440 0
-3403 -3405 -3443 0
3403 3405 -3443 0
-3403 3405 3443 0
3403 -3405 3443 0
-3407 -3409 -3445 0
3407 3409 -3445 0
-3407 3409 3445 0
3407 -3409 3445 0
-3412 -3414 -3448 0
3412 3414 -3448 0
-3412 3414 3448 0
3412 -3414 3448 0
-3416 -3418 -3449 0
3416 3418 -3449 0
-3416 3418 3449 0
3416 -3418 3449 0
-3420 -3422 -3451 0
3420 3422 -3451 0
-3420 3422 3451 0
3420 -3422 3451 0
-3424 -3426 -3453 0
3424 3426 -3453 0
-3424 3426 3453 0
3424 -3426 3453 0
-3428 -3430 -3455 0
3428 3430 -3455 0
-3428 3430 3455 0
3428 -3430 3455 0
-3432 -3434 -3457 0
3432 3434 -3457 0
-3432 3434 3457 0
3432 -3434 3457 0
-3436 -3437 -3459 0
3436 3437 -3459 0
-3436 3437 3459 0
3436 -3437 3459 0
-3438 -3439 -3461 0
3438 3439 -3461 0
-3438 3439 3461 0
3438 -3439 3461 0
-3440 -3441 -3462 0
3440 3441 -3462 0
-3440 3441 3462 0
3440 -3441 3462 0
-3442 -3443 -3464 0
3442 3443 -3464 0
-3442 3443 3464 0
3442 -3443 3464 0
-3445 -3447 -3466 0
3445 3447 -3466 0
-3445 3447 3466 0
3445 -3447 3466 0
-3448 -3449 -3468 0
3448 3449 -3468 0
-3448 3449 3468 0
3448 -3449 3468 0
-3451 -3453 -3470 0
3451 3453 -3470 0
-3451 3453 3470 0
3451 -3453 3470 0
-3455 -3457 -3472 0
3455 3457 -3472 0
-3455 3457 3472 0
3455 -3457 3472 0
-3435 -3459 -3474 0
3435 3459 -3474 0
3435 -3459 3474 0
-3435 3459 3474 0
-3461 -3462 -3476 0
3461 3462 -3476 0
-3461 3462 3476 0
3461 -3462 3476 0
-3464 -3466 -3478 0
3464 3466 -3478 0
-3464 3466 3478 0
3464 -3466 3478 0
-3468 -3470 -3480 0
3468 3470 -3480 0
-3468 3470 3480 0
3468 -3470 3480 0
-3472 -3474 -3482 0
3472 3474 -3482 0
-3472 3474 3482 0
3472 -3474 3482 0
-3476 -3478 -3484 0
3476 3478 -3484 0
-3476 3478 3484 0
3476 -3478 3484 0
-3480 -3482 -3484 0
3480 3482 -3484 0
-3480 3482 3484 0
3480 -3482 3484 0
-3444 -3446 -3508 0
3444 3446 -3508 0
-3444 3446 3508 0
3444 -3446 3508 0
-3450 -3452 -3489 0
3450 3452 -3489 0
-3450 3452 3489 0
3450 -3452 3489 0
-3454 -3456 -3490 0
3454 3456 -3490 0
-3454 3456 3490 0
3454 -3456 3490 0
-3458 -3460 -3492 0
3458 3460 -3492 0
-3458 3460 3492 0
3458 -3460 3492 0
-3463 -3465 -3495 0
3463 3465 -3495 0
-3463 3465 3495 0
3463 -3465 3495 0
-3467 -3469 -3496 0
3467 3469 -3496 0
-3467 3469 3496 0
3467 -3469 3496 0
-3471 -3473 -3498 0
3471 3473 -3498 0
-3471 3473 3498 0
3471 -3473 3498 0
-3475 -3477 -3500 0
3475 3477 -3500 0
-3475 3477 3500 0
3475 -3477 3500 0
-3479 -3481 -3502 0
3479 3481 -3502 0
-3479 3481 3502 0
3479 -3481 3502 0
-3483 -3485 -3504 0
3483 3485 -3504 0
-3483 3485 3504 0
3483 -3485 3504 0
-3484 -3486 -3506 0
3484 3486 -3506 0
3484 -3486 3506 0
-3484 3486 3506 0
-3488 -3489 -3509 0
3488 3489 -3509 0
-3488 3489 3509 0
3488 -3489 3509 0
-3490 -3492 -3511 0
3490 3492 -3511 0
-3490 3492 3511 0
3490 -3492 3511 0
-3494 -3495 -3513 0
3494 3495 -3513 0
-3494 3495 3513 0
3494 -3495 3513 0
-3496 -3498 -3515 0
3496 3498 -3515 0
-3496 3498 3515 0
3496 -3498 3515 0
-3500 -3502 -3517 0
3500 3502 -3517 0
-3500 3502 3517 0
3500 -3502 3517 0
-3504 -3506 -3519 0
3504 3506 -3519 0
-3504 3506 3519 0
3504 -3506 3519 0
-3487 -3508 -3521 0
3487 3508 -3521 0
-3487 3508 3521 0
3487 -3508 3521 0
-3509 -3511 -3523 0
3509 3511 -3523 0
-3509 3511 3523 0
3509 -3511 3523 0
-3513 -3515 -3525 0
3513 3515 -3525 0
-3513 3515 3525 0
3513 -3515 3525 0
-3517 -3519 -3527 0
3517 3519 -3527 0
-3517 3519 3527 0
3517 -3519 3527 0
-3521 -3523 -3529 0
3521 3523 -3529 0
-3521 3523 3529 0
3521 -3523 3529 0
-3525 -3527 -3529 0
3525 3527 -3529 0
-3525 3527 3529 0
3525 -3527 3529 0
-3491 -3493 -3534 0
3491 3493 -3534 0
-3491 3493 3534 0
3491 -3493 3534 0
-3497 -3499 -3536 0
3497 3499 -3536 0
-3497 3499 3536 0
3497 -3499 3536 0
-3501 -3503 -3537 0
3501 3503 -3537 0
-3501 3503 3537 0
3501 -3503 3537 0
-3505 -3507 -3555 0
3505 3507 -3555 0
-3505 3507 3555 0
3505 -3507 3555 0
-3510 -3512 -3540 0
3510 3512 -3540 0
-3510 3512 3540 0
3510 -3512 3540 0
-3514 -3516 -3541 0
3514 3516 -3541 0
-3514 3516 3541 0
3514 -3516 3541 0
-3518 -3520 -3543 0
3518 3520 -3543 0
-3518 3520 3543 0
3518 -3520 3543 0
-3522 -3524 -3545 0
3522 3524 -3545 0
-3522 3524 3545 0
3522 -3524 3545 0
-3526 -3528 -3547 0
3526 3528 -3547 0
-3526 3528 3547 0
3526 -3528 3547 0
-3530 -3531 -3549 0
3530 3531 -3549 0
-3530 3531 3549 0
3530 -3531 3549 0
-3532 -3533 -3550 0
3532 3533 -3550 0
-3532 3533 3550 0
3532 -3533 3550 0
-3534 -3535 -3552 0
3534 3535 -3552 0
-3534 3535 3552 0
3534 -3535 3552 0
-3536 -3537 -3554 0
3536 3537 -3554 0
-3536 3537 3554 0
3536 -3537 3554 0
-3540 -3541 -3556 0
3540 3541 -3556 0
-3540 3541 3556 0
3540 -3541 3556 0
-3543 -3545 -3558 0
3543 3545 -3558 0
-3543 3545 3558 0
3543 -3545 3558 0
-3547 -3549 -3560 0
3547 3549 -3560 0
-3547 3549 3560 0
3547 -3549 3560 0
-3529 -3550 -3562 0
3529 3550 -3562 0
-3529 3550 3562 0
3529 -3550 3562 0
-3552 -3554 -3564 0
3552 3554 -3564 0
-3552 3554 3564 0
3552 -3554 3564 0
-3555 -3556 -3566 0
3555 3556 -3566 0
-3555 3556 3566 0
3555 -3556 3566 0
-3558 -3560 -3568 0
3558 3560 -3568 0
-3558 3560 3568 0
3558 -3560 3568 0
-3562 -3564 -3570 0
3562 3564 -3570 0
-3562 3564 3570 0
3562 -3564 3570 0
-3566 -3568 -3570 0
3566 3568 -3570 0
-3566 3568 3570 0
3566 -3568 3570 0
-3538 -3539 -3575 0
3538 3539 -3575 0
-3538 3539 3575 0
3538 -3539 3575 0
-3542 -3544 -3577 0
3542 3544 -3577 0
-3542 3544 3577 0
3542 -3544 3577 0
-3546 -3548 -3578 0
3546 3548 -3578 0
-3546 3548 3578 0
3546 -3548 3578 0
-3551 -3553 -3580 0
3551 3553 -3580 0
-3551 3553 3580 0
3551 -3553 3580 0
-3557 -3559 -3582 0
3557 3559 -3582 0
-3557 3559 3582 0
3557 -3559 3582 0
-3561 -3563 -3584 0
3561 3563 -3584 0
-3561 3563 3584 0
3561 -3563 3584 0
-3565 -3567 -3586 0
3565 3567 -3586 0
-3565 3567 3586 0
3565 -3567 3586 0
-3569 -3571 -3588 0
3569 3571 -3588 0
-3569 3571 3588 0
3569 -3571 3588 0
-3570 -3572 -3590 0
3570 3572 -3590 0
3570 -3572 3590 0
-3570 3572 3590 0
-3574 -3575 -3591 0
3574 3575 -3591 0
-3574 3575 3591 0
3574 -3575 3591 0
-3576 -3577 -3593 0
3576 3577 -3593 0
-3576 3577 3593 0
3576 -3577 3593 0
-3578 -3579 -3595 0
3578 3579 -3595 0
-3578 3579 3595 0
3578 -3579 3595 0
-3580 -3581 -3597 0
3580 3581 -3597 0
-3580 3581 3597 0
3580 -3581 3597 0
-3582 -3584 -3599 0
3582 3584 -3599 0
-3582 3584 3599 0
3582 -3584 3599 0
-3586 -3588 -3601 0
3586 3588 -3601 0
-3586 3588 3601 0
3586 -3588 3601 0
-3573 -3590 -3603 0
3573 3590 -3603 0
3573 -3590 3603 0
-3573 3590 3603 0
-3591 -3593 -3605 0
3591 3593 -3605 0
-3591 3593 3605 0
3591 -3593 3605 0
-3595 -3597 -3607 0
3595 3597 -3607 0
-3595 3597 3607 0
3595 -3597 3607 0
-3599 -3601 -3609 0
3599 3601 -3609 0
-3599 3601 3609 0
3599 -3601 3609 0
-3603 -3605 -3611 0
3603 3605 -3611 0
-3603 3605 3611 0
3603 -3605 3611 0
-3607 -3609 -3611 0
3607 3609 -3611 0
-3607 3609 3611 0
3607 -3609 3611 0
-3583 -3585 -3618 0
3583 3585 -3618 0
-3583 3585 3618 0
3583 -3585 3618 0
-3587 -3589 -3619 0
3587 3589 -3619 0
-3587 3589 3619 0
3587 -3589 3619 0
-3592 -3594 -3621 0
3592 3594 -3621 0
-3592 3594 3621 0
3592 -3594 3621 0
-3596 -3598 -3623 0
3596 3598 -3623 0
-3596 3598 3623 0
3596 -3598 3623 0
-3600 -3602 -3625 0
3600 3602 -3625 0
-3600 3602 3625 0
3600 -3602 3625 0
-3604 -3606 -3627 0
3604 3606 -3627 0
-3604 3606 3627 0
3604 -3606 3627 0
-3608 -3610 -3629 0
3608 3610 -3629 0
-3608 3610 3629 0
3608 -3610 3629 0
-3612 -3613 -3631 0
3612 3613 -3631 0
-3612 3613 3631 0
3612 -3613 3631 0
-3614 -3615 -3633 0
3614 3615 -3633 0
-3614 3615 3633 0
3614 -3615 3633 0
-3616 -3617 -3634 0
3616 3617 -3634 0
-3616 3617 3634 0
3616 -3617 3634 0
-3618 -3619 -3636 0
3618 3619 -3636 0
-3618 3619 3636 0
3618 -3619 3636 0
-3620 -3621 -3638 0
3620 3621 -3638 0
-3620 3621 3638 0
3620 -3621 3638 0
-3623 -3625 -3640 0
3623 3625 -3640 0
-3623 3625 3640 0
3623 -3625 3640 0
-3627 -3629 -3642 0
3627 3629 -3642 0
-3627 3629 3642 0
3627 -3629 3642 0
-3611 -3631 -3644 0
3611 3631 -3644 0
3611 -3631 3644 0
-3611 3631 3644 0
-3633 -3634 -3646 0
3633 3634 -3646 0
-3633 3634 3646 0
3633 -3634 3646 0
-3636 -3638 -3648 0
3636 3638 -3648 0
-3636 3638 3648 0
3636 -3638 3648 0
-3640 -3642 -3650 0
3640 3642 -3650 0
-3640 3642 3650 0
3640 -3642 3650 0
-3644 -3646 -3652 0
3644 3646 -3652 0
-3644 3646 3652 0
3644 -3646 3652 0
-3648 -3650 -3652 0
3648 3650 -3652 0
-3648 3650 3652 0
3648 -3650 3652 0
-3622 -3624 -3657 0
3622 3624 -3657 0
-3622 3624 3657 0
3622 -3624 3657 0
-3626 -3628 -3659 0
3626 3628 -3659 0
-3626 3628 3659 0
3626 -3628 3659 0
-3630 -3632 -3661 0
3630 3632 -3661 0
-3630 3632 3661 0
3630 -3632 3661 0
-3635 -3637 -3663 0
3635 3637 -3663 0
-3635 3637 3663 0
3635 -3637 3663 0
-3639 -3641 -3665 0
3639 3641 -3665 0
-3639 3641 3665 0
3639 -3641 3665 0
-3643 -3645 -3667 0
3643 3645 -3667 0
-3643 3645 3667 0
3643 -3645 3667 0
-3647 -3649 -3669 0
3647 3649 -3669 0
-3647 3649 3669 0
3647 -3649 3669 0
-3651 -3653 -3671 0
3651 3653 -3671 0
-3651 3653 3671 0
3651 -3653 3671 0
-3652 -3654 -3673 0
3652 3654 -3673 0
3652 -3654 3673 0
-3652 3654 3673 0
-3655 -3656 -3684 0
3655 3656 -3684 0
-3655 3656 3684 0
3655 -3656 3684 0
-3657 -3659 -3675 0
3657 3659 -3675 0
-3657 3659 3675 0
3657 -3659 3675 0
-3661 -3662 -3677 0
3661 3662 -3677 0
-3661 3662 3677 0
3661 -3662 3677 0
-3663 -3665 -3679 0
3663 3665 -3679 0
-3663 3665 3679 0
3663 -3665 3679 0
-3667 -3669 -3681 0
3667 3669 -3681 0
-3667 3669 3681 0
3667 -3669 3681 0
-3671 -3673 -3683 0
3671 3673 -3683 0
-3671 3673 3683 0
3671 -3673 3683 0
-3675 -3677 -3685 0
3675 3677 -3685 0
-3675 3677 3685 0
3675 -3677 3685 0
-3679 -3681 -3687 0
3679 3681 -3687 0
-3679 3681 3687 0
3679 -3681 3687 0
-3683 -3684 -3689 0
3683 3684 -3689 0
-3683 3684 3689 0
3683 -3684 3689 0
-3685 -3687 -3689 0
3685 3687 -3689 0
-3685 3687 3689 0
3685 -3687 3689 0
-3658 -3660 -3706 0
3658 3660 -3706 0
-3658 3660 3706 0
3658 -3660 3706 0
-3664 -3666 -3693 0
3664 3666 -3693 0
-3664 3666 3693 0
3664 -3666 3693 0
-3668 -3670 -3695 0
3668 3670 -3695 0
-3668 3670 3695 0
3668 -3670 3695 0
-3672 -3674 -3697 0
3672 3674 -3697 0
-3672 3674 3697 0
3672 -3674 3697 0
-3676 -3678 -3699 0
3676 3678 -3699 0
-3676 3678 3699 0
3676 -3678 3699 0
-3680 -3682 -3701 0
3680 3682 -3701 0
-3680 3682 3701 0
3680 -3682 3701 0
-3686 -3688 -3704 0
3686 3688 -3704 0
-3686 3688 3704 0
3686 -3688 3704 0
-3690 -3691 -3705 0
3690 3691 -3705 0
-3690 3691 3705 0
3690 -3691 3705 0
-3692 -3693 -3707 0
3692 3693 -3707 0
-3692 3693 3707 0
3692 -3693 3707 0
-3695 -3697 -3708 0
3695 3697 -3708 0
-3695 3697 3708 0
3695 -3697 3708 0
-3698 -3699 -3710 0
3698 3699 -3710 0
-3698 3699 3710 0
3698 -3699 3710 0
-3701 -3703 -3712 0
3701 3703 -3712 0
-3701 3703 3712 0
3701 -3703 3712 0
-3704 -3705 -3714 0
3704 3705 -3714 0
-3704 3705 3714 0
3704 -3705 3714 0
-3689 -3706 -3716 0
3689 3706 -3716 0
-3689 3706 3716 0
3689 -3706 3716 0
-3707 -3708 -3718 0
3707 3708 -3718 0
-3707 3708 3718 0
3707 -3708 3718 0
-3710 -3712 -3720 0
3710 3712 -3720 0
-3710 3712 3720 0
3710 -3712 3720 0
-3714 -3716 -3722 0
3714 3716 -3722 0
-3714 3716 3722 0
3714 -3716 3722 0
-3718 -3720 -3722 0
3718 3720 -3722 0
-3718 3720 3722 0
3718 -3720 3722 0
-3694 -3696 -3726 0
3694 3696 -3726 0
-3694 3696 3726 0
3694 -3696 3726 0
-3700 -3702 -3728 0
3700 3702 -3728 0
-3700 3702 3728 0
3700 -3702 3728 0
-3709 -3711 -3732 0
3709 3711 -3732 0
-3709 3711 3732 0
3709 -3711 3732 0
-3713 -3715 -3734 0
3713 3715 -3734 0
-3713 3715 3734 0
3713 -3715 3734 0
-3717 -3719 -3736 0
3717 3719 -3736 0
-3717 3719 3736 0
3717 -3719 3736 0
-3721 -3723 -3738 0
3721 3723 -3738 0
-3721 3723 3738 0
3721 -3723 3738 0
-3722 -3724 -3740 0
3722 3724 -3740 0
3722 -3724 3740 0
-3722 3724 3740 0
-3726 -3727 -3741 0
3726 3727 -3741 0
-3726 3727 3741 0
3726 -3727 3741 0
-3728 -3729 -3743 0
3728 3729 -3743 0
-3728 3729 3743 0
3728 -3729 3743 0
-3730 -3731 -3745 0
3730 3731 -3745 0
-3730 3731 3745 0
3730 -3731 3745 0
-3732 -3734 -3747 0
3732 3734 -3747 0
-3732 3734 3747 0
3732 -3734 3747 0
-3736 -3738 -3749 0
3736 3738 -3749 0
-3736 3738 3749 0
3736 -3738 3749 0
-3725 -3740 -3751 0
3725 3740 -3751 0
3725 -3740 3751 0
-3725 3740 3751 0
-3741 -3743 -3753 0
3741 3743 -3753 0
-3741 3743 3753 0
3741 -3743 3753 0
-3745 -3747 -3755 0
3745 3747 -3755 0
-3745 3747 3755 0
3745 -3747 3755 0
-3749 -3751 -3757 0
3749 3751 -3757 0
-3749 3751 3757 0
3749 -3751 3757 0
-3753 -3755 -3757 0
3753 3755 -3757 0
-3753 3755 3757 0
3753 -3755 3757 0
-3733 -3735 -3776 0
3733 3735 -3776 0
-3733 3735 3776 0
3733 -3735 3776 0
-3737 -3739 -3763 0
3737 3739 -3763 0
-3737 3739 3763 0
3737 -3739 3763 0
-3742 -3744 -3766 0
3742 3744 -3766 0
-3742 3744 3766 0
3742 -3744 3766 0
-3746 -3748 -3767 0
3746 3748 -3767 0
-3746 3748 3767 0
3746 -3748 3767 0
-3750 -3752 -3769 0
3750 3752 -3769 0
-3750 3752 3769 0
3750 -3752 3769 0
-3754 -3756 -3771 0
3754 3756 -3771 0
-3754 3756 3771 0
3754 -3756 3771 0
-3758 -3759 -3773 0
3758 3759 -3773 0
-3758 3759 3773 0
3758 -3759 3773 0
-3760 -3761 -3775 0
3760 3761 -3775 0
-3760 3761 3775 0
3760 -3761 3775 0
-3763 -3765 -3777 0
3763 3765 -3777 0
-3763 3765 3777 0
3763 -3765 3777 0
-3766 -3767 -3778 0
3766 3767 -3778 0
-3766 3767 3778 0
3766 -3767 3778 0
-3769 -3771 -3780 0
3769 3771 -3780 0
-3769 3771 3780 0
3769 -3771 3780 0
-3757 -3773 -3782 0
3757 3773 -3782 0
3757 -3773 3782 0
-3757 3773 3782 0
-3775 -3776 -3784 0
3775 3776 -3784 0
-3775 3776 3784 0
3775 -3776 3784 0
-3777 -3778 -3786 0
3777 3778 -3786 0
-3777 3778 3786 0
3777 -3778 3786 0
-3780 -3782 -3788 0
3780 3782 -3788 0
-3780 3782 3788 0
3780 -3782 3788 0
-3784 -3786 -3788 0
3784 3786 -3788 0
-3784 3786 3788 0
3784 -3786 3788 0
-3762 -3764 -3791 0
3762 3764 -3791 0
-3762 3764 3791 0
3762 -3764 3791 0
-3768 -3770 -3793 0
3768 3770 -3793 0
-3768 3770 3793 0
3768 -3770 3793 0
-3772 -3774 -3795 0
3772 3774 -3795 0
-3772 3774 3795 0
3772 -3774 3795 0
-3779 -3781 -3799 0
3779 3781 -3799 0
-3779 3781 3799 0
3779 -3781 3799 0
-3783 -3785 -3801 0
3783 3785 -3801 0
-3783 3785 3801 0
3783 -3785 3801 0
-3787 -3789 -3803 0
3787 3789 -3803 0
-3787 3789 3803 0
3787 -3789 3803 0
-3788 -3790 -3805 0
3788 3790 -3805 0
3788 -3790 3805 0
-3788 3790 3805 0
-3791 -3792 -3815 0
3791 3792 -3815 0
-3791 3792 3815 0
3791 -3792 3815 0
-3793 -3795 -3807 0
3793 3795 -3807 0
-3793 3795 3807 0
3793 -3795 3807 0
-3797 -3798 -3809 0
3797 3798 -3809 0
-3797 3798 3809 0
3797 -3798 3809 0
-3799 -3801 -3811 0
3799 3801 -3811 0
-3799 3801 3811 0
3799 -3801 3811 0
-3803 -3805 -3813 0
3803 3805 -3813 0
-3803 3805 3813 0
3803 -3805 3813 0
-3807 -3809 -3816 0
3807 3809 -3816 0
-3807 3809 3816 0
3807 -3809 3816 0
-3811 -3813 -3817 0
3811 3813 -3817 0
-3811 3813 3817 0
3811 -3813 3817 0
-3815 -3816 -3817 0
3815 3816 -3817 0
-3815 3816 3817 0
3815 -3816 3817 0
-3794 -3796 -3821 0
3794 3796 -3821 0
-3794 3796 3821 0
3794 -3796 3821 0
-3800 -3802 -3831 0
3800 3802 -3831 0
-3800 3802 3831 0
3800 -3802 3831 0
-3804 -3806 -3823 0
3804 3806 -3823 0
-3804 3806 3823 0
3804 -3806 3823 0
-3808 -3810 -3826 0
3808 3810 -3826 0
-3808 3810 3826 0
3808 -3810 3826 0
-3812 -3814 -3827 0
3812 3814 -3827 0
-3812 3814 3827 0
3812 -3814 3827 0
-3818 -3819 -3829 0
3818 3819 -3829 0
-3818 3819 3829 0
3818 -3819 3829 0
-3820 -3821 -3830 0
3820 3821 -3830 0
-3820 3821 3830 0
3820 -3821 3830 0
-3823 -3825 -3832 0
3823 3825 -3832 0
-3823 3825 3832 0
3823 -3825 3832 0
-3826 -3827 -3834 0
3826 3827 -3834 0
-3826 3827 3834 0
3826 -3827 3834 0
-3828 -3829 -3836 0
3828 3829 -3836 0
-3828 3829 3836 0
3828 -3829 3836 0
-3817 -3830 -3838 0
3817 3830 -3838 0
-3817 3830 3838 0
3817 -3830 3838 0
-3831 -3832 -3840 0
3831 3832 -3840 0
-3831 3832 3840 0
3831 -3832 3840 0
-3834 -3836 -3842 0
3834 3836 -3842 0
-3834 3836 3842 0
3834 -3836 3842 0
-3838 -3840 -3842 0
3838 3840 -3842 0
-3838 3840 3842 0
3838 -3840 3842 0
-3822 -3824 -3846 0
3822 3824 -3846 0
-3822 3824 3846 0
3822 -3824 3846 0
-3833 -3835 -3851 0
3833 3835 -3851 0
-3833 3835 3851 0
3833 -3835 3851 0
-3837 -3839 -3852 0
3837 3839 -3852 0
-3837 3839 3852 0
3837 -3839 3852 0
-3841 -3843 -3854 0
3841 3843 -3854 0
-3841 3843 3854 0
3841 -3843 3854 0
-3842 -3844 -3856 0
3842 3844 -3856 0
3842 -3844 3856 0
-3842 3844 3856 0
-3846 -3847 -3857 0
3846 3847 -3857 0
-3846 3847 3857 0
3846 -3847 3857 0
-3848 -3849 -3859 0
3848 3849 -3859 0
-3848 3849 3859 0
3848 -3849 3859 0
-3850 -3851 -3861 0
3850 3851 -3861 0
-3850 3851 3861 0
3850 -3851 3861 0
-3852 -3854 -3863 0
3852 3854 -3863 0
-3852 3854 3863 0
3852 -3854 3863 0
-3845 -3856 -3865 0
3845 3856 -3865 0
3845 -3856 3865 0
-3845 3856 3865 0
-3857 -3859 -3867 0
3857 3859 -3867 0
-3857 3859 3867 0
3857 -3859 3867 0
-3861 -3863 -3869 0
3861 3863 -3869 0
-3861 3863 3869 0
3861 -3863 3869 0
-3865 -3867 -3869 0
3865 3867 -3869 0
-3865 3867 3869 0
3865 -3867 3869 0
-3853 -3855 -3874 0
3853 3855 -3874 0
-3853 3855 3874 0
3853 -3855 3874 0
-3858 -3860 -3876 0
3858 3860 -3876 0
-3858 3860 3876 0
3858 -3860 3876 0
-3862 -3864 -3878 0
3862 3864 -3878 0
-3862 3864 3878 0
3862 -3864 3878 0
-3866 -3868 -3880 0
3866 3868 -3880 0
-3866 3868 3880 0
3866 -3868 3880 0
-3870 -3871 -3882 0
3870 3871 -3882 0
-3870 3871 3882 0
3870 -3871 3882 0
-3873 -3874 -3884 0
3873 3874 -3884 0
-3873 3874 3884 0
3873 -3874 3884 0
-3875 -3876 -3886 0
3875 3876 -3886 0
-3875 3876 3886 0
3875 -3876 3886 0
-3878 -3880 -3888 0
3878 3880 -3888 0
-3878 3880 3888 0
3878 -3880 3888 0
-3869 -3882 -3890 0
3869 3882 -3890 0
3869 -3882 3890 0
-3869 3882 3890 0
-3872 -3884 -3892 0
3872 3884 -3892 0
-3872 3884 3892 0
3872 -3884 3892 0
-3886 -3888 -3894 0
3886 3888 -3894 0
-3886 3888 3894 0
3886 -3888 3894 0
-3890 -3892 -3894 0
3890 3892 -3894 0
-3890 3892 3894 0
3890 -3892 3894 0
-3877 -3879 -3898 0
3877 3879 -3898 0
-3877 3879 3898 0
3877 -3879 3898 0
-3881 -3883 -3907 0
3881 3883 -3907 0
-3881 3883 3907 0
3881 -3883 3907 0
-3885 -3887 -3899 0
3885 3887 -3899 0
-3885 3887 3899 0
3885 -3887 3899 0
-3889 -3891 -3901 0
3889 3891 -3901 0
-3889 3891 3901 0
3889 -3891 3901 0
-3893 -3895 -3903 0
3893 3895 -3903 0
-3893 3895 3903 0
3893 -3895 3903 0
-3894 -3896 -3905 0
3894 3896 -3905 0
3894 -3896 3905 0
-3894 3896 3905 0
-3897 -3898 -3910 0
3897 3898 -3910 0
-3897 3898 3910 0
3897 -3898 3910 0
-3899 -3901 -3908 0
3899 3901 -3908 0
-3899 3901 3908 0
3899 -3901 3908 0
-3903 -3905 -3909 0
3903 3905 -3909 0
-3903 3905 3909 0
3903 -3905 3909 0
-3907 -3908 -3911 0
3907 3908 -3911 0
-3907 3908 3911 0
3907 -3908 3911 0
-3909 -3910 -3911 0
3909 3910 -3911 0
-3909 3910 3911 0
3909 -3910 3911 0
-3900 -3902 -3916 0
3900 3902 -3916 0
-3900 3902 3916 0
3900 -3902 3916 0
-3904 -3906 -3917 0
3904 3906 -3917 0
-3904 3906 3917 0
3904 -3906 3917 0
-3912 -3913 -3921 0
3912 3913 -3921 0
-3912 3913 3921 0
3912 -3913 3921 0
-3914 -3915 -3922 0
3914 3915 -3922 0
-3914 3915 3922 0
3914 -3915 3922 0
-3916 -3917 -3924 0
3916 3917 -3924 0
-3916 3917 3924 0
3916 -3917 3924 0
-3918 -3919 -3926 0
3918 3919 -3926 0
-3918 3919 3926 0
3918 -3919 3926 0
-3920 -3921 -3928 0
3920 3921 -3928 0
-3920 3921 3928 0
3920 -3921 3928 0
-3911 -3922 -3930 0
3911 3922 -3930 0
-3911 3922 3930 0
3911 -3922 3930 0
-3924 -3926 -3932 0
3924 3926 -3932 0
-3924 3926 3932 0
3924 -3926 3932 0
-3928 -3930 -3932 0
3928 3930 -3932 0
-3928 3930 3932 0
3928 -3930 3932 0
-3923 -3925 -3938 0
3923 3925 -3938 0
-3923 3925 3938 0
3923 -3925 3938 0
-3927 -3929 -3939 0
3927 3929 -3939 0
-3927 3929 3939 0
3927 -3929 3939 0
-3931 -3933 -3941 0
3931 3933 -3941 0
-3931 3933 3941 0
3931 -3933 3941 0
-3932 -3934 -3943 0
3932 3934 -3943 0
3932 -3934 3943 0
-3932 3934 3943 0
-3937 -3938 -3944 0
3937 3938 -3944 0
-3937 3938 3944 0
3937 -3938 3944 0
-3939 -3941 -3945 0
3939 3941 -3945 0
-3939 3941 3945 0
3939 -3941 3945 0
-3935 -3943 -3947 0
3935 3943 -3947 0
3935 -3943 3947 0
-3935 3943 3947 0
-3936 -3944 -3949 0
3936 3944 -3949 0
-3936 3944 3949 0
3936 -3944 3949 0
-3945 -3947 -3949 0
3945 3947 -3949 0
-3945 3947 3949 0
3945 -3947 3949 0
-3940 -3942 -3953 0
3940 3942 -3953 0
-3940 3942 3953 0
3940 -3942 3953 0
-3946 -3948 -3956 0
3946 3948 -3956 0
-3946 3948 3956 0
3946 -3948 3956 0
-3950 -3951 -3958 0
3950 3951 -3958 0
-3950 3951 3958 0
3950 -3951 3958 0
-3953 -3954 -3960 0
3953 3954 -3960 0
-3953 3954 3960 0
3953 -3954 3960 0
-3955 -3956 -3962 0
3955 3956 -3962 0
-3955 3956 3962 0
3955 -3956 3962 0
-3949 -3958 -3964 0
3949 3958 -3964 0
3949 -3958 3964 0
-3949 3958 3964 0
-3952 -3960 -3966 0
3952 3960 -3966 0
-3952 3960 3966 0
3952 -3960 3966 0
-3962 -3964 -3966 0
3962 3964 -3966 0
-3962 3964 3966 0
3962 -3964 3966 0
-3957 -3959 -3974 0
3957 3959 -3974 0
-3957 3959 3974 0
3957 -3959 3974 0
-3961 -3963 -3975 0
3961 3963 -3975 0
-3961 3963 3975 0
3961 -3963 3975 0
-3965 -3967 -3970 0
3965 3967 -3970 0
-3965 3967 3970 0
3965 -3967 3970 0
-3966 -3968 -3972 0
3966 3968 -3972 0
3966 -3968 3972 0
-3966 3968 3972 0
-3970 -3972 -3976 0
3970 3972 -3976 0
-3970 3972 3976 0
3970 -3972 3976 0
-3969 -3974 -3977 0
3969 3974 -3977 0
-3969 3974 3977 0
3969 -3974 3977 0
-3975 -3976 -3977 0
3975 3976 -3977 0
-3975 3976 3977 0
3975 -3976 3977 0
-3971 -3973 -3985 0
3971 3973 -3985 0
-3971 3973 3985 0
3971 -3973 3985 0
-3978 -3979 -3983 0
3978 3979 -3983 0
-3978 3979 3983 0
3978 -3979 3983 0
-3980 -3981 -3984 0
3980 3981 -3984 0
-3980 3981 3984 0
3980 -3981 3984 0
-3982 -3983 -3986 0
3982 3983 -3986 0
-3982 3983 3986 0
3982 -3983 3986 0
-3977 -3984 -3988 0
3977 3984 -3988 0
-3977 3984 3988 0
3977 -3984 3988 0
-3985 -3986 -3988 0
3985 3986 -3988 0
-3985 3986 3988 0
3985 -3986 3988 0
-3987 -3989 -3994 0
3987 3989 -3994 0
-3987 3989 3994 0
3987 -3989 3994 0
-3988 -3990 -3995 0
3988 3990 -3995 0
3988 -3990 3995 0
-3988 3990 3995 0
-3993 -3994 -3996 0
3993 3994 -3996 0
-3993 3994 3996 0
3993 -3994 3996 0
-3991 -3995 -3997 0
3991 3995 -3997 0
3991 -3995 3997 0
-3991 3995 3997 0
-3992 -3996 -3997 0
3992 3996 -3997 0
-3992 3996 3997 0
3992 -3996 3997 0
-3998 -3999 -4002 0
3998 3999 -4002 0
-3998 3999 4002 0
3998 -3999 4002 0
-4000 -4001 -4004 0
4000 4001 -4004 0
-4000 4001 4004 0
4000 -4001 4004 0
-3997 -4002 -4006 0
3997 4002 -4006 0
3997 -4002 4006 0
-3997 4002 4006 0
-4003 -4004 -4006 0
4003 4004 -4006 0
-4003 4004 4006 0
4003 -4004 4006 0
-4005 -4007 -4009 0
4005 4007 -4009 0
-4005 4007 4009 0
4005 -4007 4009 0
-4006 -4008 -4011 0
4006 4008 -4011 0
4006 -4008 4011 0
-4006 4008 4011 0
-4009 -4011 -4013 0
4009 4011 -4013 0
-4009 4011 4013 0
4009 -4011 4013 0
-4010 -4012 -4014 0
4010 4012 -4014 0
-4010 4012 4014 0
4010 -4012 4014 0
-4013 -4014 -4015 0
4013 4014 -4015 0
-4013 4014 4015 0
4013 -4014 4015 0
4015 -4016 4017 0
-4015 4016 4017 0
