c Factorization SAT instance #26: N = 705239 = 821 x 859
c p = 821 (10 bits), q = 859 (10 bits)
c N = 705239 (20 bits)
c Generator: generate_instances.py  d=3, k=50, seed=None
p cnf 5915 20896
1 9 -94 0
-1 -9 0
-9 94 0
1 -2 10 0
-1 -10 0
2 -10 0
1 -3 11 0
-1 -11 0
3 -11 0
1 -4 12 0
-1 -12 0
4 -12 0
1 -5 13 0
-1 -13 0
5 -13 0
1 -6 14 0
-1 -14 0
6 -14 0
1 -7 15 0
-1 -15 0
7 -15 0
1 -8 16 0
-1 -16 0
8 -16 0
-1 17 94 0
-17 -94 0
1 -17 0
-2 18 94 0
-18 -94 0
2 -18 0
-3 19 94 0
-19 -94 0
3 -19 0
-4 20 94 0
-20 -94 0
4 -20 0
-5 21 94 0
-21 -94 0
5 -21 0
-6 22 94 0
-22 -94 0
6 -22 0
-7 23 94 0
-23 -94 0
7 -23 0
-8 24 94 0
-24 -94 0
8 -24 0
-1 -25 98 0
25 -98 0
1 -98 0
-25 26 -94 0
25 -26 0
-26 94 0
-2 -25 27 0
25 -27 0
2 -27 0
-3 -25 28 0
25 -28 0
3 -28 0
-4 -25 29 0
25 -29 0
4 -29 0
-5 -25 30 0
25 -30 0
5 -30 0
-6 -25 31 0
25 -31 0
6 -31 0
-7 -25 32 0
25 -32 0
7 -32 0
-8 -25 33 0
25 -33 0
8 -33 0
-1 -34 35 0
34 -35 0
1 -35 0
-34 36 -94 0
34 -36 0
-36 94 0
-2 -34 37 0
34 -37 0
2 -37 0
-3 -34 38 0
34 -38 0
3 -38 0
-4 -34 39 0
34 -39 0
4 -39 0
-5 -34 40 0
34 -40 0
5 -40 0
-6 -34 41 0
34 -41 0
6 -41 0
-7 -34 42 0
34 -42 0
7 -42 0
-8 -34 43 0
34 -43 0
8 -43 0
-1 -44 45 0
44 -45 0
1 -45 0
-44 46 -94 0
44 -46 0
-46 94 0
-2 -44 47 0
44 -47 0
2 -47 0
-3 -44 48 0
44 -48 0
3 -48 0
-4 -44 49 0
44 -49 0
4 -49 0
-5 -44 50 0
44 -50 0
5 -50 0
-6 -44 51 0
44 -51 0
6 -51 0
-7 -44 52 0
44 -52 0
7 -52 0
-8 -44 53 0
44 -53 0
8 -53 0
-1 -54 55 0
54 -55 0
1 -55 0
-54 56 -94 0
54 -56 0
-56 94 0
-2 -54 57 0
54 -57 0
2 -57 0
-3 -54 58 0
54 -58 0
3 -58 0
-4 -54 59 0
54 -59 0
4 -59 0
-5 -54 60 0
54 -60 0
5 -60 0
-6 -54 61 0
54 -61 0
6 -61 0
-7 -54 62 0
54 -62 0
7 -62 0
-8 -54 63 0
54 -63 0
8 -63 0
-1 -64 65 0
64 -65 0
1 -65 0
-64 66 -94 0
64 -66 0
-66 94 0
-2 -64 67 0
64 -67 0
2 -67 0
-3 -64 68 0
64 -68 0
3 -68 0
-4 -64 69 0
64 -69 0
4 -69 0
-5 -64 70 0
64 -70 0
5 -70 0
-6 -64 71 0
64 -71 0
6 -71 0
-7 -64 72 0
64 -72 0
7 -72 0
-8 -64 73 0
64 -73 0
8 -73 0
-1 -74 75 0
74 -75 0
1 -75 0
-74 76 -94 0
74 -76 0
-76 94 0
-2 -74 77 0
74 -77 0
2 -77 0
-3 -74 78 0
74 -78 0
3 -78 0
-4 -74 79 0
74 -79 0
4 -79 0
-5 -74 80 0
74 -80 0
5 -80 0
-6 -74 81 0
74 -81 0
6 -81 0
-7 -74 82 0
74 -82 0
7 -82 0
-8 -74 83 0
74 -83 0
8 -83 0
-1 -84 85 0
84 -85 0
1 -85 0
-84 86 -94 0
84 -86 0
-86 94 0
-2 -84 87 0
84 -87 0
2 -87 0
-3 -84 88 0
84 -88 0
3 -88 0
-4 -84 89 0
84 -89 0
4 -89 0
-5 -84 90 0
84 -90 0
5 -90 0
-6 -84 91 0
84 -91 0
6 -91 0
-7 -84 92 0
84 -92 0
7 -92 0
-8 -84 93 0
84 -93 0
8 -93 0
-2 -9 95 0
2 -95 0
9 -95 0
-17 -25 102 0
17 -102 0
25 -102 0
-3 -10 109 0
3 -109 0
10 -109 0
-34 -95 110 0
34 -110 0
95 -110 0
-96 -97 111 0
96 -111 0
97 -111 0
-98 -99 112 0
98 -112 0
99 -112 0
-100 -101 113 0
100 -113 0
101 -113 0
-4 -11 104 0
4 -104 0
11 -104 0
-18 -26 106 0
18 -106 0
26 -106 0
-35 -44 108 0
35 -108 0
44 -108 0
-103 -105 132 0
103 -132 0
105 -132 0
-107 -109 116 0
107 -116 0
109 -116 0
-110 -111 118 0
110 -118 0
111 -118 0
-112 -113 120 0
112 -120 0
113 -120 0
-114 -115 122 0
114 -122 0
115 -122 0
-117 -119 123 0
117 -123 0
119 -123 0
-5 -12 125 0
5 -125 0
12 -125 0
-19 -27 127 0
19 -127 0
27 -127 0
-36 -45 129 0
36 -129 0
45 -129 0
-54 -104 131 0
54 -131 0
104 -131 0
-106 -108 161 0
106 -161 0
108 -161 0
-116 -118 134 0
116 -134 0
118 -134 0
-120 -122 136 0
120 -136 0
122 -136 0
-121 -123 138 0
123 -138 0
121 -138 0
-124 -126 140 0
124 -140 0
126 -140 0
-128 -130 163 0
128 -163 0
130 -163 0
-133 -135 164 0
133 -164 0
135 -164 0
-137 -139 145 0
137 -145 0
139 -145 0
-141 -142 147 0
141 -147 0
142 -147 0
-132 -143 149 0
132 -149 0
143 -149 0
-144 -146 150 0
144 -150 0
146 -150 0
-6 -13 151 0
6 -151 0
13 -151 0
-20 -28 153 0
20 -153 0
28 -153 0
-37 -46 155 0
37 -155 0
46 -155 0
-55 -64 157 0
55 -157 0
64 -157 0
-125 -127 159 0
125 -159 0
127 -159 0
-129 -131 201 0
129 -201 0
131 -201 0
-134 -136 202 0
134 -202 0
136 -202 0
-138 -140 203 0
138 -203 0
140 -203 0
-145 -147 204 0
145 -204 0
147 -204 0
-149 -150 205 0
149 -205 0
150 -205 0
-152 -154 169 0
152 -169 0
154 -169 0
-156 -158 171 0
156 -171 0
158 -171 0
-160 -161 207 0
160 -207 0
161 -207 0
-162 -163 175 0
162 -175 0
163 -175 0
-164 -165 177 0
164 -177 0
165 -177 0
-166 -167 179 0
166 -179 0
167 -179 0
-168 -170 181 0
168 -181 0
170 -181 0
-172 -173 183 0
172 -183 0
173 -183 0
-174 -176 185 0
174 -185 0
176 -185 0
-178 -180 187 0
178 -187 0
180 -187 0
-182 -184 188 0
182 -188 0
184 -188 0
-7 -14 189 0
7 -189 0
14 -189 0
-21 -29 191 0
21 -191 0
29 -191 0
-38 -47 193 0
38 -193 0
47 -193 0
-56 -65 195 0
56 -195 0
65 -195 0
-74 -151 197 0
74 -197 0
151 -197 0
-153 -155 199 0
153 -199 0
155 -199 0
-157 -159 262 0
157 -262 0
159 -262 0
-169 -171 263 0
169 -263 0
171 -263 0
-175 -177 209 0
175 -209 0
177 -209 0
-179 -181 211 0
179 -211 0
181 -211 0
-183 -185 213 0
183 -213 0
185 -213 0
-187 -188 215 0
187 -215 0
188 -215 0
-190 -192 266 0
190 -266 0
192 -266 0
-194 -196 219 0
194 -219 0
196 -219 0
-198 -200 221 0
198 -221 0
200 -221 0
-201 -202 223 0
201 -223 0
202 -223 0
-203 -204 225 0
203 -225 0
204 -225 0
-205 -206 227 0
205 -227 0
206 -227 0
-207 -208 229 0
207 -229 0
208 -229 0
-210 -212 231 0
210 -231 0
212 -231 0
-214 -216 233 0
214 -233 0
216 -233 0
-217 -218 235 0
217 -235 0
218 -235 0
-220 -222 237 0
220 -237 0
222 -237 0
-224 -226 239 0
224 -239 0
226 -239 0
-228 -230 241 0
228 -241 0
230 -241 0
-232 -234 243 0
232 -243 0
234 -243 0
-236 -238 245 0
236 -245 0
238 -245 0
-240 -242 246 0
240 -246 0
242 -246 0
-8 -15 248 0
8 -248 0
15 -248 0
-22 -30 250 0
22 -250 0
30 -250 0
-39 -48 252 0
39 -252 0
48 -252 0
-57 -66 254 0
57 -254 0
66 -254 0
-75 -84 256 0
75 -256 0
84 -256 0
-189 -191 258 0
189 -258 0
191 -258 0
-193 -195 260 0
193 -260 0
195 -260 0
-197 -199 335 0
197 -335 0
199 -335 0
-209 -211 336 0
209 -336 0
211 -336 0
-213 -215 337 0
213 -337 0
215 -337 0
-219 -221 268 0
219 -268 0
221 -268 0
-223 -225 270 0
223 -270 0
225 -270 0
-227 -229 272 0
227 -272 0
229 -272 0
-231 -233 274 0
231 -274 0
233 -274 0
-235 -237 276 0
235 -276 0
237 -276 0
-239 -241 278 0
239 -278 0
241 -278 0
-243 -245 280 0
243 -280 0
245 -280 0
-244 -246 282 0
246 -282 0
244 -282 0
-247 -249 284 0
247 -284 0
249 -284 0
-251 -253 286 0
251 -286 0
253 -286 0
-255 -257 288 0
255 -288 0
257 -288 0
-259 -261 290 0
259 -290 0
261 -290 0
-264 -265 292 0
264 -292 0
265 -292 0
-266 -267 294 0
266 -294 0
267 -294 0
-269 -271 296 0
269 -296 0
271 -296 0
-273 -275 298 0
273 -298 0
275 -298 0
-277 -279 300 0
277 -300 0
279 -300 0
-281 -283 302 0
281 -302 0
283 -302 0
-285 -287 304 0
285 -304 0
287 -304 0
-262 -289 306 0
289 -306 0
262 -306 0
-263 -291 308 0
263 -308 0
291 -308 0
-293 -295 310 0
293 -310 0
295 -310 0
-297 -299 312 0
297 -312 0
299 -312 0
-301 -303 314 0
301 -314 0
303 -314 0
-305 -307 316 0
305 -316 0
307 -316 0
-309 -311 318 0
309 -318 0
311 -318 0
-313 -315 362 0
313 -362 0
315 -362 0
-16 -23 320 0
16 -320 0
23 -320 0
-31 -40 322 0
31 -322 0
40 -322 0
-49 -58 324 0
49 -324 0
58 -324 0
-67 -76 326 0
67 -326 0
76 -326 0
-85 -248 328 0
85 -328 0
248 -328 0
-250 -252 330 0
250 -330 0
252 -330 0
-254 -256 332 0
254 -332 0
256 -332 0
-258 -260 334 0
258 -334 0
260 -334 0
-268 -270 339 0
268 -339 0
270 -339 0
-272 -274 341 0
272 -341 0
274 -341 0
-276 -278 343 0
276 -343 0
278 -343 0
-280 -282 345 0
280 -345 0
282 -345 0
-284 -286 347 0
284 -347 0
286 -347 0
-288 -290 349 0
288 -349 0
290 -349 0
-292 -294 424 0
292 -424 0
294 -424 0
-296 -298 351 0
296 -351 0
298 -351 0
-300 -302 353 0
300 -353 0
302 -353 0
-304 -306 355 0
304 -355 0
306 -355 0
-308 -310 357 0
308 -357 0
310 -357 0
-312 -314 359 0
312 -359 0
314 -359 0
-316 -318 361 0
316 -361 0
318 -361 0
-319 -321 430 0
319 -430 0
321 -430 0
-323 -325 365 0
323 -365 0
325 -365 0
-327 -329 367 0
327 -367 0
329 -367 0
-331 -333 432 0
331 -432 0
333 -432 0
-336 -337 370 0
336 -370 0
337 -370 0
-338 -340 372 0
338 -372 0
340 -372 0
-342 -344 374 0
342 -374 0
344 -374 0
-346 -348 376 0
346 -376 0
348 -376 0
-350 -352 435 0
350 -435 0
352 -435 0
-354 -356 380 0
354 -380 0
356 -380 0
-358 -360 382 0
358 -382 0
360 -382 0
-362 -363 384 0
362 -384 0
363 -384 0
-364 -366 386 0
364 -386 0
366 -386 0
-335 -368 388 0
368 -388 0
335 -388 0
-369 -371 390 0
369 -390 0
371 -390 0
-373 -375 392 0
373 -392 0
375 -392 0
-377 -378 394 0
377 -394 0
378 -394 0
-379 -381 396 0
379 -396 0
381 -396 0
-383 -385 398 0
383 -398 0
385 -398 0
-387 -389 400 0
387 -400 0
389 -400 0
-391 -393 402 0
391 -402 0
393 -402 0
-395 -397 404 0
395 -404 0
397 -404 0
-399 -401 405 0
399 -405 0
401 -405 0
-24 -32 407 0
24 -407 0
32 -407 0
-41 -50 409 0
41 -409 0
50 -409 0
-59 -68 411 0
59 -411 0
68 -411 0
-77 -86 413 0
77 -413 0
86 -413 0
-320 -322 415 0
320 -415 0
322 -415 0
-324 -326 417 0
324 -417 0
326 -417 0
-328 -330 419 0
328 -419 0
330 -419 0
-332 -334 516 0
332 -516 0
334 -516 0
-339 -341 517 0
339 -517 0
341 -517 0
-343 -345 421 0
343 -421 0
345 -421 0
-347 -349 423 0
347 -423 0
349 -423 0
-351 -353 519 0
351 -519 0
353 -519 0
-355 -357 427 0
355 -427 0
357 -427 0
-359 -361 429 0
359 -429 0
361 -429 0
-365 -367 521 0
365 -521 0
367 -521 0
-370 -372 522 0
370 -522 0
372 -522 0
-374 -376 523 0
374 -523 0
376 -523 0
-380 -382 437 0
380 -437 0
382 -437 0
-384 -386 439 0
384 -439 0
386 -439 0
-388 -390 441 0
388 -441 0
390 -441 0
-392 -394 443 0
392 -443 0
394 -443 0
-396 -398 445 0
396 -445 0
398 -445 0
-400 -402 447 0
400 -447 0
402 -447 0
-404 -405 449 0
404 -449 0
405 -449 0
-403 -406 451 0
403 -451 0
406 -451 0
-408 -410 453 0
408 -453 0
410 -453 0
-412 -414 455 0
412 -455 0
414 -455 0
-416 -418 533 0
416 -533 0
418 -533 0
-420 -422 534 0
420 -534 0
422 -534 0
-424 -425 461 0
424 -461 0
425 -461 0
-426 -428 463 0
426 -463 0
428 -463 0
-430 -431 465 0
430 -465 0
431 -465 0
-432 -433 467 0
432 -467 0
433 -467 0
-434 -435 469 0
434 -469 0
435 -469 0
-436 -438 471 0
436 -471 0
438 -471 0
-440 -442 473 0
440 -473 0
442 -473 0
-444 -446 475 0
444 -475 0
446 -475 0
-448 -450 477 0
448 -477 0
450 -477 0
-452 -454 479 0
452 -479 0
454 -479 0
-456 -457 481 0
456 -481 0
457 -481 0
-458 -459 483 0
458 -483 0
459 -483 0
-460 -462 485 0
460 -485 0
462 -485 0
-464 -466 487 0
464 -487 0
466 -487 0
-468 -470 489 0
468 -489 0
470 -489 0
-472 -474 491 0
472 -491 0
474 -491 0
-476 -478 493 0
476 -493 0
478 -493 0
-480 -482 495 0
480 -495 0
482 -495 0
-484 -486 497 0
484 -497 0
486 -497 0
-488 -490 499 0
488 -499 0
490 -499 0
-492 -494 501 0
492 -501 0
494 -501 0
-496 -498 502 0
496 -502 0
498 -502 0
-33 -42 504 0
33 -504 0
42 -504 0
-51 -60 506 0
51 -506 0
60 -506 0
-69 -78 508 0
69 -508 0
78 -508 0
-87 -407 510 0
87 -510 0
407 -510 0
-409 -411 512 0
409 -512 0
411 -512 0
-413 -415 514 0
413 -514 0
415 -514 0
-417 -419 631 0
417 -631 0
419 -631 0
-421 -423 632 0
421 -632 0
423 -632 0
-427 -429 633 0
427 -633 0
429 -633 0
-437 -439 634 0
437 -634 0
439 -634 0
-441 -443 526 0
441 -526 0
443 -526 0
-445 -447 528 0
445 -528 0
447 -528 0
-449 -451 530 0
449 -530 0
451 -530 0
-453 -455 532 0
453 -532 0
455 -532 0
-461 -463 536 0
461 -536 0
463 -536 0
-465 -467 538 0
465 -538 0
467 -538 0
-469 -471 540 0
469 -540 0
471 -540 0
-473 -475 542 0
473 -542 0
475 -542 0
-477 -479 544 0
477 -544 0
479 -544 0
-481 -483 546 0
481 -546 0
483 -546 0
-485 -487 548 0
485 -548 0
487 -548 0
-489 -491 550 0
489 -550 0
491 -550 0
-493 -495 552 0
493 -552 0
495 -552 0
-497 -499 554 0
497 -554 0
499 -554 0
-501 -502 556 0
501 -556 0
502 -556 0
-500 -503 558 0
500 -558 0
503 -558 0
-505 -507 560 0
505 -560 0
507 -560 0
-509 -511 562 0
509 -562 0
511 -562 0
-513 -515 564 0
513 -564 0
515 -564 0
-516 -517 566 0
516 -566 0
517 -566 0
-518 -519 568 0
518 -568 0
519 -568 0
-520 -521 570 0
520 -570 0
521 -570 0
-522 -523 572 0
522 -572 0
523 -572 0
-524 -525 574 0
524 -574 0
525 -574 0
-527 -529 576 0
527 -576 0
529 -576 0
-531 -533 578 0
531 -578 0
533 -578 0
-534 -535 580 0
534 -580 0
535 -580 0
-537 -539 582 0
537 -582 0
539 -582 0
-541 -543 584 0
541 -584 0
543 -584 0
-545 -547 586 0
545 -586 0
547 -586 0
-549 -551 588 0
549 -588 0
551 -588 0
-553 -555 590 0
553 -590 0
555 -590 0
-557 -559 592 0
557 -592 0
559 -592 0
-561 -563 594 0
561 -594 0
563 -594 0
-565 -567 596 0
565 -596 0
567 -596 0
-569 -571 598 0
569 -598 0
571 -598 0
-573 -575 600 0
573 -600 0
575 -600 0
-577 -579 602 0
577 -602 0
579 -602 0
-581 -583 604 0
581 -604 0
583 -604 0
-585 -587 606 0
585 -606 0
587 -606 0
-589 -591 608 0
589 -608 0
591 -608 0
-593 -595 610 0
593 -610 0
595 -610 0
-597 -599 612 0
597 -612 0
599 -612 0
-601 -603 614 0
601 -614 0
603 -614 0
-605 -607 616 0
605 -616 0
607 -616 0
-609 -611 618 0
609 -618 0
611 -618 0
-613 -615 619 0
613 -619 0
615 -619 0
-43 -52 621 0
43 -621 0
52 -621 0
-61 -70 623 0
61 -623 0
70 -623 0
-79 -88 625 0
79 -625 0
88 -625 0
-504 -506 627 0
504 -627 0
506 -627 0
-508 -510 629 0
508 -629 0
510 -629 0
-512 -514 752 0
512 -752 0
514 -752 0
-526 -528 636 0
526 -636 0
528 -636 0
-530 -532 637 0
530 -637 0
532 -637 0
-536 -538 754 0
536 -754 0
538 -754 0
-540 -542 640 0
540 -640 0
542 -640 0
-544 -546 642 0
544 -642 0
546 -642 0
-548 -550 644 0
548 -644 0
550 -644 0
-552 -554 646 0
552 -646 0
554 -646 0
-556 -558 648 0
556 -648 0
558 -648 0
-560 -562 650 0
560 -650 0
562 -650 0
-564 -566 652 0
564 -652 0
566 -652 0
-568 -570 654 0
568 -654 0
570 -654 0
-572 -574 656 0
572 -656 0
574 -656 0
-576 -578 658 0
576 -658 0
578 -658 0
-580 -582 660 0
580 -660 0
582 -660 0
-584 -586 662 0
584 -662 0
586 -662 0
-588 -590 664 0
588 -664 0
590 -664 0
-592 -594 666 0
592 -666 0
594 -666 0
-596 -598 668 0
596 -668 0
598 -668 0
-600 -602 670 0
600 -670 0
602 -670 0
-604 -606 672 0
604 -672 0
606 -672 0
-608 -610 674 0
608 -674 0
610 -674 0
-612 -614 676 0
612 -676 0
614 -676 0
-616 -618 678 0
616 -678 0
618 -678 0
-617 -619 680 0
619 -680 0
617 -680 0
-620 -622 682 0
620 -682 0
622 -682 0
-624 -626 684 0
624 -684 0
626 -684 0
-628 -630 686 0
628 -686 0
630 -686 0
-631 -632 779 0
631 -779 0
632 -779 0
-634 -635 780 0
634 -780 0
635 -780 0
-638 -639 691 0
638 -691 0
639 -691 0
-641 -643 693 0
641 -693 0
643 -693 0
-645 -647 695 0
645 -695 0
647 -695 0
-649 -651 697 0
649 -697 0
651 -697 0
-653 -655 699 0
653 -699 0
655 -699 0
-657 -659 701 0
657 -701 0
659 -701 0
-661 -663 703 0
661 -703 0
663 -703 0
-665 -667 705 0
665 -705 0
667 -705 0
-669 -671 707 0
669 -707 0
671 -707 0
-673 -675 709 0
673 -709 0
675 -709 0
-677 -679 711 0
677 -711 0
679 -711 0
-681 -683 713 0
681 -713 0
683 -713 0
-685 -687 715 0
685 -715 0
687 -715 0
-633 -688 717 0
633 -717 0
688 -717 0
-689 -690 719 0
689 -719 0
690 -719 0
-692 -694 721 0
692 -721 0
694 -721 0
-696 -698 723 0
696 -723 0
698 -723 0
-700 -702 725 0
700 -725 0
702 -725 0
-704 -706 727 0
704 -727 0
706 -727 0
-708 -710 729 0
708 -729 0
710 -729 0
-712 -714 731 0
712 -731 0
714 -731 0
-716 -718 733 0
716 -733 0
718 -733 0
-720 -722 735 0
720 -735 0
722 -735 0
-724 -726 737 0
724 -737 0
726 -737 0
-728 -730 739 0
728 -739 0
730 -739 0
-732 -734 741 0
732 -741 0
734 -741 0
-736 -738 742 0
736 -742 0
738 -742 0
-53 -62 744 0
53 -744 0
62 -744 0
-71 -80 746 0
71 -746 0
80 -746 0
-89 -621 748 0
89 -748 0
621 -748 0
-623 -625 750 0
623 -750 0
625 -750 0
-627 -629 880 0
627 -880 0
629 -880 0
-636 -637 940 0
636 -940 0
637 -940 0
-640 -642 756 0
640 -756 0
642 -756 0
-644 -646 758 0
644 -758 0
646 -758 0
-648 -650 760 0
648 -760 0
650 -760 0
-652 -654 762 0
652 -762 0
654 -762 0
-656 -658 764 0
656 -764 0
658 -764 0
-660 -662 766 0
660 -766 0
662 -766 0
-664 -666 768 0
664 -768 0
666 -768 0
-668 -670 770 0
668 -770 0
670 -770 0
-672 -674 772 0
672 -772 0
674 -772 0
-676 -678 774 0
676 -774 0
678 -774 0
-680 -682 776 0
680 -776 0
682 -776 0
-684 -686 778 0
684 -778 0
686 -778 0
-691 -693 782 0
691 -782 0
693 -782 0
-695 -697 784 0
695 -784 0
697 -784 0
-699 -701 786 0
699 -786 0
701 -786 0
-703 -705 788 0
703 -788 0
705 -788 0
-707 -709 790 0
707 -790 0
709 -790 0
-711 -713 792 0
711 -792 0
713 -792 0
-715 -717 794 0
715 -794 0
717 -794 0
-719 -721 796 0
719 -796 0
721 -796 0
-723 -725 798 0
723 -798 0
725 -798 0
-727 -729 800 0
727 -800 0
729 -800 0
-731 -733 802 0
731 -802 0
733 -802 0
-735 -737 804 0
735 -804 0
737 -804 0
-739 -741 806 0
739 -806 0
741 -806 0
-740 -742 808 0
742 -808 0
740 -808 0
-743 -745 810 0
743 -810 0
745 -810 0
-747 -749 812 0
747 -812 0
749 -812 0
-751 -752 906 0
751 -906 0
752 -906 0
-753 -754 814 0
753 -814 0
754 -814 0
-755 -757 816 0
755 -816 0
757 -816 0
-759 -761 818 0
759 -818 0
761 -818 0
-763 -765 820 0
763 -820 0
765 -820 0
-767 -769 822 0
767 -822 0
769 -822 0
-771 -773 824 0
771 -824 0
773 -824 0
-775 -777 826 0
775 -826 0
777 -826 0
-779 -780 828 0
779 -828 0
780 -828 0
-781 -783 830 0
781 -830 0
783 -830 0
-785 -787 832 0
785 -832 0
787 -832 0
-789 -791 834 0
789 -834 0
791 -834 0
-793 -795 836 0
793 -836 0
795 -836 0
-797 -799 838 0
797 -838 0
799 -838 0
-801 -803 840 0
801 -840 0
803 -840 0
-805 -807 842 0
805 -842 0
807 -842 0
-809 -811 844 0
809 -844 0
811 -844 0
-813 -815 923 0
813 -923 0
815 -923 0
-817 -819 848 0
817 -848 0
819 -848 0
-821 -823 850 0
821 -850 0
823 -850 0
-825 -827 852 0
825 -852 0
827 -852 0
-829 -831 854 0
829 -854 0
831 -854 0
-833 -835 856 0
833 -856 0
835 -856 0
-837 -839 858 0
837 -858 0
839 -858 0
-841 -843 860 0
841 -860 0
843 -860 0
-845 -846 862 0
845 -862 0
846 -862 0
-847 -849 864 0
847 -864 0
849 -864 0
-851 -853 866 0
851 -866 0
853 -866 0
-855 -857 868 0
855 -868 0
857 -868 0
-859 -861 870 0
859 -870 0
861 -870 0
-863 -865 872 0
863 -872 0
865 -872 0
-867 -869 873 0
867 -873 0
869 -873 0
-63 -72 874 0
63 -874 0
72 -874 0
-81 -90 876 0
81 -876 0
90 -876 0
-744 -746 878 0
744 -878 0
746 -878 0
-748 -750 1010 0
748 -1010 0
750 -1010 0
-756 -758 882 0
756 -882 0
758 -882 0
-760 -762 884 0
760 -884 0
762 -884 0
-764 -766 886 0
764 -886 0
766 -886 0
-768 -770 888 0
768 -888 0
770 -888 0
-772 -774 890 0
772 -890 0
774 -890 0
-776 -778 892 0
776 -892 0
778 -892 0
-782 -784 1016 0
782 -1016 0
784 -1016 0
-786 -788 894 0
786 -894 0
788 -894 0
-790 -792 896 0
790 -896 0
792 -896 0
-794 -796 898 0
794 -898 0
796 -898 0
-798 -800 900 0
798 -900 0
800 -900 0
-802 -804 902 0
802 -902 0
804 -902 0
-806 -808 904 0
806 -904 0
808 -904 0
-810 -812 1022 0
810 -1022 0
812 -1022 0
-814 -816 908 0
814 -908 0
816 -908 0
-818 -820 910 0
818 -910 0
820 -910 0
-822 -824 912 0
822 -912 0
824 -912 0
-826 -828 914 0
826 -914 0
828 -914 0
-830 -832 916 0
830 -916 0
832 -916 0
-834 -836 918 0
834 -918 0
836 -918 0
-838 -840 920 0
838 -920 0
840 -920 0
-842 -844 922 0
842 -922 0
844 -922 0
-848 -850 1029 0
848 -1029 0
850 -1029 0
-852 -854 926 0
852 -926 0
854 -926 0
-856 -858 928 0
856 -928 0
858 -928 0
-860 -862 930 0
860 -930 0
862 -930 0
-864 -866 932 0
864 -932 0
866 -932 0
-868 -870 934 0
868 -934 0
870 -934 0
-872 -873 936 0
872 -936 0
873 -936 0
-875 -877 1035 0
875 -1035 0
877 -1035 0
-879 -880 1036 0
879 -1036 0
880 -1036 0
-881 -883 942 0
881 -942 0
883 -942 0
-885 -887 944 0
885 -944 0
887 -944 0
-889 -891 1038 0
889 -1038 0
891 -1038 0
-893 -895 948 0
893 -948 0
895 -948 0
-897 -899 950 0
897 -950 0
899 -950 0
-901 -903 952 0
901 -952 0
903 -952 0
-905 -906 954 0
905 -954 0
906 -954 0
-907 -909 956 0
907 -956 0
909 -956 0
-911 -913 958 0
911 -958 0
913 -958 0
-915 -917 960 0
915 -960 0
917 -960 0
-919 -921 962 0
919 -962 0
921 -962 0
-923 -924 964 0
923 -964 0
924 -964 0
-925 -927 966 0
925 -966 0
927 -966 0
-929 -931 968 0
929 -968 0
931 -968 0
-933 -935 970 0
933 -970 0
935 -970 0
-937 -938 972 0
937 -972 0
938 -972 0
-939 -940 974 0
939 -974 0
940 -974 0
-941 -943 976 0
941 -976 0
943 -976 0
-945 -946 978 0
945 -978 0
946 -978 0
-947 -949 980 0
947 -980 0
949 -980 0
-951 -953 982 0
951 -982 0
953 -982 0
-955 -957 984 0
955 -984 0
957 -984 0
-959 -961 986 0
959 -986 0
961 -986 0
-963 -965 988 0
963 -988 0
965 -988 0
-967 -969 990 0
967 -990 0
969 -990 0
-971 -973 992 0
971 -992 0
973 -992 0
-975 -977 994 0
975 -994 0
977 -994 0
-979 -981 996 0
979 -996 0
981 -996 0
-983 -985 998 0
983 -998 0
985 -998 0
-987 -989 1000 0
987 -1000 0
989 -1000 0
-991 -993 1002 0
991 -1002 0
993 -1002 0
-995 -997 1004 0
995 -1004 0
997 -1004 0
-999 -1001 1005 0
999 -1005 0
1001 -1005 0
-73 -82 1006 0
73 -1006 0
82 -1006 0
-91 -874 1008 0
91 -1008 0
874 -1008 0
-876 -878 1143 0
876 -1143 0
878 -1143 0
-882 -884 1144 0
882 -1144 0
884 -1144 0
-886 -888 1013 0
886 -1013 0
888 -1013 0
-890 -892 1015 0
890 -1015 0
892 -1015 0
-894 -896 1146 0
894 -1146 0
896 -1146 0
-898 -900 1019 0
898 -1019 0
900 -1019 0
-902 -904 1021 0
902 -1021 0
904 -1021 0
-908 -910 1148 0
908 -1148 0
910 -1148 0
-912 -914 1025 0
912 -1025 0
914 -1025 0
-916 -918 1027 0
916 -1027 0
918 -1027 0
-920 -922 1150 0
920 -1150 0
922 -1150 0
-926 -928 1031 0
926 -1031 0
928 -1031 0
-930 -932 1033 0
930 -1033 0
932 -1033 0
-934 -936 1152 0
934 -1152 0
936 -1152 0
-942 -944 1153 0
942 -1153 0
944 -1153 0
-948 -950 1154 0
948 -1154 0
950 -1154 0
-952 -954 1041 0
952 -1041 0
954 -1041 0
-956 -958 1043 0
956 -1043 0
958 -1043 0
-960 -962 1045 0
960 -1045 0
962 -1045 0
-964 -966 1047 0
964 -1047 0
966 -1047 0
-968 -970 1049 0
968 -1049 0
970 -1049 0
-972 -974 1051 0
972 -1051 0
974 -1051 0
-976 -978 1053 0
976 -1053 0
978 -1053 0
-980 -982 1055 0
980 -1055 0
982 -1055 0
-984 -986 1057 0
984 -1057 0
986 -1057 0
-988 -990 1059 0
988 -1059 0
990 -1059 0
-992 -994 1061 0
992 -1061 0
994 -1061 0
-996 -998 1063 0
996 -1063 0
998 -1063 0
-1000 -1002 1065 0
1000 -1065 0
1002 -1065 0
-1004 -1005 1067 0
1004 -1067 0
1005 -1067 0
-1007 -1009 1168 0
1007 -1168 0
1009 -1168 0
-1011 -1012 1169 0
1011 -1169 0
1012 -1169 0
-1014 -1016 1072 0
1014 -1072 0
1016 -1072 0
-1017 -1018 1074 0
1017 -1074 0
1018 -1074 0
-1020 -1022 1076 0
1020 -1076 0
1022 -1076 0
-1023 -1024 1078 0
1023 -1078 0
1024 -1078 0
-1026 -1028 1080 0
1026 -1080 0
1028 -1080 0
-1029 -1030 1082 0
1029 -1082 0
1030 -1082 0
-1032 -1034 1084 0
1032 -1084 0
1034 -1084 0
-1035 -1036 1086 0
1035 -1086 0
1036 -1086 0
-1037 -1038 1088 0
1037 -1088 0
1038 -1088 0
-1039 -1040 1090 0
1039 -1090 0
1040 -1090 0
-1042 -1044 1092 0
1042 -1092 0
1044 -1092 0
-1046 -1048 1094 0
1046 -1094 0
1048 -1094 0
-1050 -1052 1096 0
1050 -1096 0
1052 -1096 0
-1054 -1056 1098 0
1054 -1098 0
1056 -1098 0
-1058 -1060 1100 0
1058 -1100 0
1060 -1100 0
-1062 -1064 1102 0
1062 -1102 0
1064 -1102 0
-1066 -1068 1104 0
1066 -1104 0
1068 -1104 0
-1010 -1069 1106 0
1069 -1106 0
1010 -1106 0
-1070 -1071 1108 0
1070 -1108 0
1071 -1108 0
-1073 -1075 1110 0
1073 -1110 0
1075 -1110 0
-1077 -1079 1112 0
1077 -1112 0
1079 -1112 0
-1081 -1083 1114 0
1081 -1114 0
1083 -1114 0
-1085 -1087 1116 0
1085 -1116 0
1087 -1116 0
-1089 -1091 1118 0
1089 -1118 0
1091 -1118 0
-1093 -1095 1120 0
1093 -1120 0
1095 -1120 0
-1097 -1099 1122 0
1097 -1122 0
1099 -1122 0
-1101 -1103 1124 0
1101 -1124 0
1103 -1124 0
-1105 -1107 1126 0
1105 -1126 0
1107 -1126 0
-1109 -1111 1128 0
1109 -1128 0
1111 -1128 0
-1113 -1115 1130 0
1113 -1130 0
1115 -1130 0
-1117 -1119 1132 0
1117 -1132 0
1119 -1132 0
-1121 -1123 1134 0
1121 -1134 0
1123 -1134 0
-1125 -1127 1136 0
1125 -1136 0
1127 -1136 0
-1129 -1131 1138 0
1129 -1138 0
1131 -1138 0
-1133 -1135 1139 0
1133 -1139 0
1135 -1139 0
-83 -92 1141 0
83 -1141 0
92 -1141 0
-1006 -1008 1283 0
1006 -1283 0
1008 -1283 0
-1013 -1015 1284 0
1013 -1284 0
1015 -1284 0
-1019 -1021 1285 0
1019 -1285 0
1021 -1285 0
-1025 -1027 1286 0
1025 -1286 0
1027 -1286 0
-1031 -1033 1287 0
1031 -1287 0
1033 -1287 0
-1041 -1043 1354 0
1041 -1354 0
1043 -1354 0
-1045 -1047 1157 0
1045 -1157 0
1047 -1157 0
-1049 -1051 1159 0
1049 -1159 0
1051 -1159 0
-1053 -1055 1161 0
1053 -1161 0
1055 -1161 0
-1057 -1059 1163 0
1057 -1163 0
1059 -1163 0
-1061 -1063 1165 0
1061 -1165 0
1063 -1165 0
-1065 -1067 1167 0
1065 -1167 0
1067 -1167 0
-1072 -1074 1171 0
1072 -1171 0
1074 -1171 0
-1076 -1078 1173 0
1076 -1173 0
1078 -1173 0
-1080 -1082 1175 0
1080 -1175 0
1082 -1175 0
-1084 -1086 1177 0
1084 -1177 0
1086 -1177 0
-1088 -1090 1179 0
1088 -1179 0
1090 -1179 0
-1092 -1094 1181 0
1092 -1181 0
1094 -1181 0
-1096 -1098 1183 0
1096 -1183 0
1098 -1183 0
-1100 -1102 1185 0
1100 -1185 0
1102 -1185 0
-1104 -1106 1187 0
1104 -1187 0
1106 -1187 0
-1108 -1110 1189 0
1108 -1189 0
1110 -1189 0
-1112 -1114 1191 0
1112 -1191 0
1114 -1191 0
-1116 -1118 1193 0
1116 -1193 0
1118 -1193 0
-1120 -1122 1195 0
1120 -1195 0
1122 -1195 0
-1124 -1126 1197 0
1124 -1197 0
1126 -1197 0
-1128 -1130 1199 0
1128 -1199 0
1130 -1199 0
-1132 -1134 1201 0
1132 -1201 0
1134 -1201 0
-1136 -1138 1203 0
1136 -1203 0
1138 -1203 0
-1137 -1139 1205 0
1139 -1205 0
1137 -1205 0
-1140 -1142 1207 0
1140 -1207 0
1142 -1207 0
-1143 -1144 1209 0
1143 -1209 0
1144 -1209 0
-1145 -1146 1211 0
1145 -1211 0
1146 -1211 0
-1147 -1148 1213 0
1147 -1213 0
1148 -1213 0
-1149 -1150 1215 0
1149 -1215 0
1150 -1215 0
-1151 -1152 1217 0
1151 -1217 0
1152 -1217 0
-1153 -1154 1219 0
1153 -1219 0
1154 -1219 0
-1155 -1156 1221 0
1155 -1221 0
1156 -1221 0
-1158 -1160 1223 0
1158 -1223 0
1160 -1223 0
-1162 -1164 1225 0
1162 -1225 0
1164 -1225 0
-1166 -1168 1227 0
1166 -1227 0
1168 -1227 0
-1169 -1170 1229 0
1169 -1229 0
1170 -1229 0
-1172 -1174 1231 0
1172 -1231 0
1174 -1231 0
-1176 -1178 1233 0
1176 -1233 0
1178 -1233 0
-1180 -1182 1235 0
1180 -1235 0
1182 -1235 0
-1184 -1186 1237 0
1184 -1237 0
1186 -1237 0
-1188 -1190 1239 0
1188 -1239 0
1190 -1239 0
-1192 -1194 1241 0
1192 -1241 0
1194 -1241 0
-1196 -1198 1243 0
1196 -1243 0
1198 -1243 0
-1200 -1202 1245 0
1200 -1245 0
1202 -1245 0
-1204 -1206 1247 0
1204 -1247 0
1206 -1247 0
-1208 -1210 1249 0
1208 -1249 0
1210 -1249 0
-1212 -1214 1251 0
1212 -1251 0
1214 -1251 0
-1216 -1218 1253 0
1216 -1253 0
1218 -1253 0
-1220 -1222 1255 0
1220 -1255 0
1222 -1255 0
-1224 -1226 1257 0
1224 -1257 0
1226 -1257 0
-1228 -1230 1259 0
1228 -1259 0
1230 -1259 0
-1232 -1234 1261 0
1232 -1261 0
1234 -1261 0
-1236 -1238 1263 0
1236 -1263 0
1238 -1263 0
-1240 -1242 1265 0
1240 -1265 0
1242 -1265 0
-1244 -1246 1267 0
1244 -1267 0
1246 -1267 0
-1248 -1250 1269 0
1248 -1269 0
1250 -1269 0
-1252 -1254 1271 0
1252 -1271 0
1254 -1271 0
-1256 -1258 1273 0
1256 -1273 0
1258 -1273 0
-1260 -1262 1275 0
1260 -1275 0
1262 -1275 0
-1264 -1266 1277 0
1264 -1277 0
1266 -1277 0
-1268 -1270 1279 0
1268 -1279 0
1270 -1279 0
-1272 -1274 1281 0
1272 -1281 0
1274 -1281 0
-1276 -1278 1348 0
1276 -1348 0
1278 -1348 0
-93 -1141 1421 0
93 -1421 0
1141 -1421 0
-1157 -1159 1289 0
1157 -1289 0
1159 -1289 0
-1161 -1163 1291 0
1161 -1291 0
1163 -1291 0
-1165 -1167 1422 0
1165 -1422 0
1167 -1422 0
-1171 -1173 1293 0
1171 -1293 0
1173 -1293 0
-1175 -1177 1295 0
1175 -1295 0
1177 -1295 0
-1179 -1181 1297 0
1179 -1297 0
1181 -1297 0
-1183 -1185 1299 0
1183 -1299 0
1185 -1299 0
-1187 -1189 1301 0
1187 -1301 0
1189 -1301 0
-1191 -1193 1303 0
1191 -1303 0
1193 -1303 0
-1195 -1197 1305 0
1195 -1305 0
1197 -1305 0
-1199 -1201 1307 0
1199 -1307 0
1201 -1307 0
-1203 -1205 1309 0
1203 -1309 0
1205 -1309 0
-1207 -1209 1311 0
1207 -1311 0
1209 -1311 0
-1211 -1213 1313 0
1211 -1313 0
1213 -1313 0
-1215 -1217 1315 0
1215 -1315 0
1217 -1315 0
-1219 -1221 1317 0
1219 -1317 0
1221 -1317 0
-1223 -1225 1319 0
1223 -1319 0
1225 -1319 0
-1227 -1229 1321 0
1227 -1321 0
1229 -1321 0
-1231 -1233 1323 0
1231 -1323 0
1233 -1323 0
-1235 -1237 1325 0
1235 -1325 0
1237 -1325 0
-1239 -1241 1327 0
1239 -1327 0
1241 -1327 0
-1243 -1245 1329 0
1243 -1329 0
1245 -1329 0
-1247 -1249 1331 0
1247 -1331 0
1249 -1331 0
-1251 -1253 1333 0
1251 -1333 0
1253 -1333 0
-1255 -1257 1335 0
1255 -1335 0
1257 -1335 0
-1259 -1261 1337 0
1259 -1337 0
1261 -1337 0
-1263 -1265 1339 0
1263 -1339 0
1265 -1339 0
-1267 -1269 1341 0
1267 -1341 0
1269 -1341 0
-1271 -1273 1343 0
1271 -1343 0
1273 -1343 0
-1275 -1277 1345 0
1275 -1345 0
1277 -1345 0
-1279 -1281 1347 0
1279 -1347 0
1281 -1347 0
-1282 -1283 1451 0
1282 -1451 0
1283 -1451 0
-1284 -1285 1351 0
1284 -1351 0
1285 -1351 0
-1286 -1287 1353 0
1286 -1353 0
1287 -1353 0
-1288 -1290 1453 0
1288 -1453 0
1290 -1453 0
-1292 -1294 1454 0
1292 -1454 0
1294 -1454 0
-1296 -1298 1359 0
1296 -1359 0
1298 -1359 0
-1300 -1302 1361 0
1300 -1361 0
1302 -1361 0
-1304 -1306 1363 0
1304 -1363 0
1306 -1363 0
-1308 -1310 1365 0
1308 -1365 0
1310 -1365 0
-1312 -1314 1367 0
1312 -1367 0
1314 -1367 0
-1316 -1318 1369 0
1316 -1369 0
1318 -1369 0
-1320 -1322 1371 0
1320 -1371 0
1322 -1371 0
-1324 -1326 1373 0
1324 -1373 0
1326 -1373 0
-1328 -1330 1375 0
1328 -1375 0
1330 -1375 0
-1332 -1334 1377 0
1332 -1377 0
1334 -1377 0
-1336 -1338 1379 0
1336 -1379 0
1338 -1379 0
-1340 -1342 1381 0
1340 -1381 0
1342 -1381 0
-1344 -1346 1383 0
1344 -1383 0
1346 -1383 0
-1348 -1349 1385 0
1348 -1385 0
1349 -1385 0
-1350 -1352 1387 0
1350 -1387 0
1352 -1387 0
-1354 -1355 1389 0
1354 -1389 0
1355 -1389 0
-1356 -1357 1391 0
1356 -1391 0
1357 -1391 0
-1358 -1360 1393 0
1358 -1393 0
1360 -1393 0
-1362 -1364 1395 0
1362 -1395 0
1364 -1395 0
-1366 -1368 1397 0
1366 -1397 0
1368 -1397 0
-1370 -1372 1399 0
1370 -1399 0
1372 -1399 0
-1374 -1376 1401 0
1374 -1401 0
1376 -1401 0
-1378 -1380 1403 0
1378 -1403 0
1380 -1403 0
-1382 -1384 1405 0
1382 -1405 0
1384 -1405 0
-1386 -1388 1407 0
1386 -1407 0
1388 -1407 0
-1390 -1392 1409 0
1390 -1409 0
1392 -1409 0
-1394 -1396 1411 0
1394 -1411 0
1396 -1411 0
-1398 -1400 1413 0
1398 -1413 0
1400 -1413 0
-1402 -1404 1415 0
1402 -1415 0
1404 -1415 0
-1406 -1408 1417 0
1406 -1417 0
1408 -1417 0
-1410 -1412 1419 0
1410 -1419 0
1412 -1419 0
-1414 -1416 1420 0
1414 -1420 0
1416 -1420 0
-1289 -1291 1555 0
1289 -1555 0
1291 -1555 0
-1293 -1295 1424 0
1293 -1424 0
1295 -1424 0
-1297 -1299 1426 0
1297 -1426 0
1299 -1426 0
-1301 -1303 1428 0
1301 -1428 0
1303 -1428 0
-1305 -1307 1430 0
1305 -1430 0
1307 -1430 0
-1309 -1311 1432 0
1309 -1432 0
1311 -1432 0
-1313 -1315 1434 0
1313 -1434 0
1315 -1434 0
-1317 -1319 1436 0
1317 -1436 0
1319 -1436 0
-1321 -1323 1438 0
1321 -1438 0
1323 -1438 0
-1325 -1327 1440 0
1325 -1440 0
1327 -1440 0
-1329 -1331 1442 0
1329 -1442 0
1331 -1442 0
-1333 -1335 1444 0
1333 -1444 0
1335 -1444 0
-1337 -1339 1446 0
1337 -1446 0
1339 -1446 0
-1341 -1343 1448 0
1341 -1448 0
1343 -1448 0
-1345 -1347 1450 0
1345 -1450 0
1347 -1450 0
-1351 -1353 1569 0
1351 -1569 0
1353 -1569 0
-1359 -1361 1456 0
1359 -1456 0
1361 -1456 0
-1363 -1365 1458 0
1363 -1458 0
1365 -1458 0
-1367 -1369 1460 0
1367 -1460 0
1369 -1460 0
-1371 -1373 1462 0
1371 -1462 0
1373 -1462 0
-1375 -1377 1464 0
1375 -1464 0
1377 -1464 0
-1379 -1381 1466 0
1379 -1466 0
1381 -1466 0
-1383 -1385 1468 0
1383 -1468 0
1385 -1468 0
-1387 -1389 1470 0
1387 -1470 0
1389 -1470 0
-1391 -1393 1472 0
1391 -1472 0
1393 -1472 0
-1395 -1397 1474 0
1395 -1474 0
1397 -1474 0
-1399 -1401 1476 0
1399 -1476 0
1401 -1476 0
-1403 -1405 1478 0
1403 -1478 0
1405 -1478 0
-1407 -1409 1480 0
1407 -1480 0
1409 -1480 0
-1411 -1413 1482 0
1411 -1482 0
1413 -1482 0
-1415 -1417 1484 0
1415 -1484 0
1417 -1484 0
-1419 -1420 1486 0
1419 -1486 0
1420 -1486 0
-1418 -1421 1586 0
1418 -1586 0
1421 -1586 0
-1422 -1423 1587 0
1422 -1587 0
1423 -1587 0
-1425 -1427 1491 0
1425 -1491 0
1427 -1491 0
-1429 -1431 1493 0
1429 -1493 0
1431 -1493 0
-1433 -1435 1495 0
1433 -1495 0
1435 -1495 0
-1437 -1439 1497 0
1437 -1497 0
1439 -1497 0
-1441 -1443 1499 0
1441 -1499 0
1443 -1499 0
-1445 -1447 1501 0
1445 -1501 0
1447 -1501 0
-1449 -1451 1503 0
1449 -1503 0
1451 -1503 0
-1452 -1453 1505 0
1452 -1505 0
1453 -1505 0
-1454 -1455 1507 0
1454 -1507 0
1455 -1507 0
-1457 -1459 1509 0
1457 -1509 0
1459 -1509 0
-1461 -1463 1511 0
1461 -1511 0
1463 -1511 0
-1465 -1467 1513 0
1465 -1513 0
1467 -1513 0
-1469 -1471 1515 0
1469 -1515 0
1471 -1515 0
-1473 -1475 1517 0
1473 -1517 0
1475 -1517 0
-1477 -1479 1519 0
1477 -1519 0
1479 -1519 0
-1481 -1483 1521 0
1481 -1521 0
1483 -1521 0
-1485 -1487 1604 0
1485 -1604 0
1487 -1604 0
-1489 -1490 1524 0
1489 -1524 0
1490 -1524 0
-1492 -1494 1526 0
1492 -1526 0
1494 -1526 0
-1496 -1498 1528 0
1496 -1528 0
1498 -1528 0
-1500 -1502 1530 0
1500 -1530 0
1502 -1530 0
-1504 -1506 1532 0
1504 -1532 0
1506 -1532 0
-1508 -1510 1534 0
1508 -1534 0
1510 -1534 0
-1512 -1514 1536 0
1512 -1536 0
1514 -1536 0
-1516 -1518 1538 0
1516 -1538 0
1518 -1538 0
-1520 -1522 1540 0
1520 -1540 0
1522 -1540 0
-1488 -1523 1542 0
1488 -1542 0
1523 -1542 0
-1525 -1527 1544 0
1525 -1544 0
1527 -1544 0
-1529 -1531 1546 0
1529 -1546 0
1531 -1546 0
-1533 -1535 1548 0
1533 -1548 0
1535 -1548 0
-1537 -1539 1550 0
1537 -1550 0
1539 -1550 0
-1541 -1543 1552 0
1541 -1552 0
1543 -1552 0
-1545 -1547 1554 0
1545 -1554 0
1547 -1554 0
-1549 -1551 1619 0
1549 -1619 0
1551 -1619 0
-1424 -1426 1686 0
1424 -1686 0
1426 -1686 0
-1428 -1430 1558 0
1428 -1558 0
1430 -1558 0
-1432 -1434 1560 0
1432 -1560 0
1434 -1560 0
-1436 -1438 1562 0
1436 -1562 0
1438 -1562 0
-1440 -1442 1564 0
1440 -1564 0
1442 -1564 0
-1444 -1446 1566 0
1444 -1566 0
1446 -1566 0
-1448 -1450 1568 0
1448 -1568 0
1450 -1568 0
-1456 -1458 1571 0
1456 -1571 0
1458 -1571 0
-1460 -1462 1573 0
1460 -1573 0
1462 -1573 0
-1464 -1466 1575 0
1464 -1575 0
1466 -1575 0
-1468 -1470 1577 0
1468 -1577 0
1470 -1577 0
-1472 -1474 1579 0
1472 -1579 0
1474 -1579 0
-1476 -1478 1581 0
1476 -1581 0
1478 -1581 0
-1480 -1482 1583 0
1480 -1583 0
1482 -1583 0
-1484 -1486 1585 0
1484 -1585 0
1486 -1585 0
-1491 -1493 1589 0
1491 -1589 0
1493 -1589 0
-1495 -1497 1591 0
1495 -1591 0
1497 -1591 0
-1499 -1501 1593 0
1499 -1593 0
1501 -1593 0
-1503 -1505 1595 0
1503 -1595 0
1505 -1595 0
-1507 -1509 1597 0
1507 -1597 0
1509 -1597 0
-1511 -1513 1599 0
1511 -1599 0
1513 -1599 0
-1515 -1517 1601 0
1515 -1601 0
1517 -1601 0
-1519 -1521 1603 0
1519 -1603 0
1521 -1603 0
-1524 -1526 1704 0
1524 -1704 0
1526 -1704 0
-1528 -1530 1607 0
1528 -1607 0
1530 -1607 0
-1532 -1534 1609 0
1532 -1609 0
1534 -1609 0
-1536 -1538 1611 0
1536 -1611 0
1538 -1611 0
-1540 -1542 1613 0
1540 -1613 0
1542 -1613 0
-1544 -1546 1615 0
1544 -1615 0
1546 -1615 0
-1548 -1550 1617 0
1548 -1617 0
1550 -1617 0
-1552 -1554 1710 0
1552 -1710 0
1554 -1710 0
-1555 -1556 1711 0
1555 -1711 0
1556 -1711 0
-1557 -1559 1621 0
1557 -1621 0
1559 -1621 0
-1561 -1563 1623 0
1561 -1623 0
1563 -1623 0
-1565 -1567 1713 0
1565 -1713 0
1567 -1713 0
-1570 -1572 1626 0
1570 -1626 0
1572 -1626 0
-1574 -1576 1628 0
1574 -1628 0
1576 -1628 0
-1578 -1580 1630 0
1578 -1630 0
1580 -1630 0
-1582 -1584 1632 0
1582 -1632 0
1584 -1632 0
-1586 -1587 1634 0
1586 -1634 0
1587 -1634 0
-1588 -1590 1636 0
1588 -1636 0
1590 -1636 0
-1592 -1594 1638 0
1592 -1638 0
1594 -1638 0
-1596 -1598 1640 0
1596 -1640 0
1598 -1640 0
-1600 -1602 1642 0
1600 -1642 0
1602 -1642 0
-1604 -1605 1644 0
1604 -1644 0
1605 -1644 0
-1606 -1608 1646 0
1606 -1646 0
1608 -1646 0
-1610 -1612 1648 0
1610 -1648 0
1612 -1648 0
-1614 -1616 1650 0
1614 -1650 0
1616 -1650 0
-1618 -1619 1652 0
1618 -1652 0
1619 -1652 0
-1620 -1622 1727 0
1620 -1727 0
1622 -1727 0
-1569 -1624 1656 0
1624 -1656 0
1569 -1656 0
-1625 -1627 1658 0
1625 -1658 0
1627 -1658 0
-1629 -1631 1660 0
1629 -1660 0
1631 -1660 0
-1633 -1635 1662 0
1633 -1662 0
1635 -1662 0
-1637 -1639 1664 0
1637 -1664 0
1639 -1664 0
-1641 -1643 1666 0
1641 -1666 0
1643 -1666 0
-1645 -1647 1668 0
1645 -1668 0
1647 -1668 0
-1649 -1651 1670 0
1649 -1670 0
1651 -1670 0
-1653 -1654 1672 0
1653 -1672 0
1654 -1672 0
-1655 -1657 1674 0
1655 -1674 0
1657 -1674 0
-1659 -1661 1676 0
1659 -1676 0
1661 -1676 0
-1663 -1665 1678 0
1663 -1678 0
1665 -1678 0
-1667 -1669 1680 0
1667 -1680 0
1669 -1680 0
-1671 -1673 1682 0
1671 -1682 0
1673 -1682 0
-1675 -1677 1684 0
1675 -1684 0
1677 -1684 0
-1679 -1681 1685 0
1679 -1685 0
1681 -1685 0
-1558 -1560 1688 0
1558 -1688 0
1560 -1688 0
-1562 -1564 1690 0
1562 -1690 0
1564 -1690 0
-1566 -1568 1811 0
1566 -1811 0
1568 -1811 0
-1571 -1573 1692 0
1571 -1692 0
1573 -1692 0
-1575 -1577 1694 0
1575 -1694 0
1577 -1694 0
-1579 -1581 1696 0
1579 -1696 0
1581 -1696 0
-1583 -1585 1697 0
1583 -1697 0
1585 -1697 0
-1589 -1591 1814 0
1589 -1814 0
1591 -1814 0
-1593 -1595 1700 0
1593 -1700 0
1595 -1700 0
-1597 -1599 1702 0
1597 -1702 0
1599 -1702 0
-1601 -1603 1816 0
1601 -1816 0
1603 -1816 0
-1607 -1609 1706 0
1607 -1706 0
1609 -1706 0
-1611 -1613 1708 0
1611 -1708 0
1613 -1708 0
-1615 -1617 1818 0
1615 -1818 0
1617 -1818 0
-1621 -1623 1819 0
1621 -1819 0
1623 -1819 0
-1626 -1628 1820 0
1626 -1820 0
1628 -1820 0
-1630 -1632 1716 0
1630 -1716 0
1632 -1716 0
-1634 -1636 1718 0
1634 -1718 0
1636 -1718 0
-1638 -1640 1720 0
1638 -1720 0
1640 -1720 0
-1642 -1644 1722 0
1642 -1722 0
1644 -1722 0
-1646 -1648 1724 0
1646 -1724 0
1648 -1724 0
-1650 -1652 1726 0
1650 -1726 0
1652 -1726 0
-1656 -1658 1826 0
1656 -1826 0
1658 -1826 0
-1660 -1662 1730 0
1660 -1730 0
1662 -1730 0
-1664 -1666 1732 0
1664 -1732 0
1666 -1732 0
-1668 -1670 1734 0
1668 -1734 0
1670 -1734 0
-1672 -1674 1736 0
1672 -1736 0
1674 -1736 0
-1676 -1678 1738 0
1676 -1738 0
1678 -1738 0
-1680 -1682 1740 0
1680 -1740 0
1682 -1740 0
-1684 -1685 1832 0
1684 -1832 0
1685 -1832 0
-1686 -1687 1743 0
1686 -1743 0
1687 -1743 0
-1689 -1691 1745 0
1689 -1745 0
1691 -1745 0
-1693 -1695 1834 0
1693 -1834 0
1695 -1834 0
-1698 -1699 1835 0
1698 -1835 0
1699 -1835 0
-1701 -1703 1751 0
1701 -1751 0
1703 -1751 0
-1704 -1705 1753 0
1704 -1753 0
1705 -1753 0
-1707 -1709 1755 0
1707 -1755 0
1709 -1755 0
-1710 -1711 1757 0
1710 -1757 0
1711 -1757 0
-1712 -1713 1759 0
1712 -1759 0
1713 -1759 0
-1714 -1715 1761 0
1714 -1761 0
1715 -1761 0
-1717 -1719 1763 0
1717 -1763 0
1719 -1763 0
-1721 -1723 1765 0
1721 -1765 0
1723 -1765 0
-1725 -1727 1767 0
1725 -1767 0
1727 -1767 0
-1728 -1729 1769 0
1728 -1769 0
1729 -1769 0
-1731 -1733 1771 0
1731 -1771 0
1733 -1771 0
-1735 -1737 1773 0
1735 -1773 0
1737 -1773 0
-1739 -1741 1775 0
1739 -1775 0
1741 -1775 0
-1683 -1742 1777 0
1683 -1777 0
1742 -1777 0
-1744 -1746 1779 0
1744 -1779 0
1746 -1779 0
-1747 -1748 1781 0
1747 -1781 0
1748 -1781 0
-1749 -1750 1783 0
1749 -1783 0
1750 -1783 0
-1752 -1754 1785 0
1752 -1785 0
1754 -1785 0
-1756 -1758 1787 0
1756 -1787 0
1758 -1787 0
-1760 -1762 1789 0
1760 -1789 0
1762 -1789 0
-1764 -1766 1791 0
1764 -1791 0
1766 -1791 0
-1768 -1770 1793 0
1768 -1793 0
1770 -1793 0
-1772 -1774 1795 0
1772 -1795 0
1774 -1795 0
-1776 -1778 1797 0
1776 -1797 0
1778 -1797 0
-1780 -1782 1799 0
1780 -1799 0
1782 -1799 0
-1784 -1786 1801 0
1784 -1801 0
1786 -1801 0
-1788 -1790 1803 0
1788 -1803 0
1790 -1803 0
-1792 -1794 1805 0
1792 -1805 0
1794 -1805 0
-1796 -1798 1807 0
1796 -1807 0
1798 -1807 0
-1800 -1802 1809 0
1800 -1809 0
1802 -1809 0
-1804 -1806 1810 0
1804 -1810 0
1806 -1810 0
-1688 -1690 1938 0
1688 -1938 0
1690 -1938 0
-1692 -1694 1939 0
1692 -1939 0
1694 -1939 0
-1696 -1697 1940 0
1696 -1940 0
1697 -1940 0
-1700 -1702 1941 0
1700 -1941 0
1702 -1941 0
-1706 -1708 1942 0
1706 -1942 0
1708 -1942 0
-1716 -1718 1822 0
1716 -1822 0
1718 -1822 0
-1720 -1722 1824 0
1720 -1824 0
1722 -1824 0
-1724 -1726 1943 0
1724 -1943 0
1726 -1943 0
-1730 -1732 1828 0
1730 -1828 0
1732 -1828 0
-1734 -1736 1830 0
1734 -1830 0
1736 -1830 0
-1738 -1740 1945 0
1738 -1945 0
1740 -1945 0
-1743 -1745 1946 0
1743 -1946 0
1745 -1946 0
-1751 -1753 1947 0
1751 -1947 0
1753 -1947 0
-1755 -1757 1838 0
1755 -1838 0
1757 -1838 0
-1759 -1761 1840 0
1759 -1840 0
1761 -1840 0
-1763 -1765 1842 0
1763 -1842 0
1765 -1842 0
-1767 -1769 1844 0
1767 -1844 0
1769 -1844 0
-1771 -1773 1846 0
1771 -1846 0
1773 -1846 0
-1775 -1777 1848 0
1775 -1848 0
1777 -1848 0
-1779 -1781 1850 0
1779 -1850 0
1781 -1850 0
-1783 -1785 1852 0
1783 -1852 0
1785 -1852 0
-1787 -1789 1854 0
1787 -1854 0
1789 -1854 0
-1791 -1793 1856 0
1791 -1856 0
1793 -1856 0
-1795 -1797 1858 0
1795 -1858 0
1797 -1858 0
-1799 -1801 1860 0
1799 -1860 0
1801 -1860 0
-1803 -1805 1862 0
1803 -1862 0
1805 -1862 0
-1807 -1809 1864 0
1807 -1864 0
1809 -1864 0
-1808 -1810 1961 0
1810 -1961 0
1808 -1961 0
-1811 -1812 1868 0
1811 -1868 0
1812 -1868 0
-1813 -1814 1870 0
1813 -1870 0
1814 -1870 0
-1815 -1816 1872 0
1815 -1872 0
1816 -1872 0
-1817 -1818 1874 0
1817 -1874 0
1818 -1874 0
-1819 -1820 1876 0
1819 -1876 0
1820 -1876 0
-1821 -1823 1878 0
1821 -1878 0
1823 -1878 0
-1825 -1826 1880 0
1825 -1880 0
1826 -1880 0
-1827 -1829 1882 0
1827 -1882 0
1829 -1882 0
-1831 -1832 1884 0
1831 -1884 0
1832 -1884 0
-1833 -1834 1886 0
1833 -1886 0
1834 -1886 0
-1835 -1836 1888 0
1835 -1888 0
1836 -1888 0
-1837 -1839 1890 0
1837 -1890 0
1839 -1890 0
-1841 -1843 1892 0
1841 -1892 0
1843 -1892 0
-1845 -1847 1894 0
1845 -1894 0
1847 -1894 0
-1849 -1851 1896 0
1849 -1896 0
1851 -1896 0
-1853 -1855 1898 0
1853 -1898 0
1855 -1898 0
-1857 -1859 1900 0
1857 -1900 0
1859 -1900 0
-1861 -1863 1902 0
1861 -1902 0
1863 -1902 0
-1865 -1866 1904 0
1865 -1904 0
1866 -1904 0
-1867 -1869 1906 0
1867 -1906 0
1869 -1906 0
-1871 -1873 1908 0
1871 -1908 0
1873 -1908 0
-1875 -1877 1910 0
1875 -1910 0
1877 -1910 0
-1879 -1881 1912 0
1879 -1912 0
1881 -1912 0
-1883 -1885 1914 0
1883 -1914 0
1885 -1914 0
-1887 -1889 1916 0
1887 -1916 0
1889 -1916 0
-1891 -1893 1918 0
1891 -1918 0
1893 -1918 0
-1895 -1897 1920 0
1895 -1920 0
1897 -1920 0
-1899 -1901 1922 0
1899 -1922 0
1901 -1922 0
-1903 -1905 1924 0
1903 -1924 0
1905 -1924 0
-1907 -1909 1926 0
1907 -1926 0
1909 -1926 0
-1911 -1913 1928 0
1911 -1928 0
1913 -1928 0
-1915 -1917 1930 0
1915 -1930 0
1917 -1930 0
-1919 -1921 1932 0
1919 -1932 0
1921 -1932 0
-1923 -1925 1934 0
1923 -1934 0
1925 -1934 0
-1927 -1929 1936 0
1927 -1936 0
1929 -1936 0
-1931 -1933 1937 0
1931 -1937 0
1933 -1937 0
-1822 -1824 2069 0
1822 -2069 0
1824 -2069 0
-1828 -1830 2070 0
1828 -2070 0
1830 -2070 0
-1838 -1840 1949 0
1838 -1949 0
1840 -1949 0
-1842 -1844 1951 0
1842 -1951 0
1844 -1951 0
-1846 -1848 1953 0
1846 -1953 0
1848 -1953 0
-1850 -1852 1955 0
1850 -1955 0
1852 -1955 0
-1854 -1856 1957 0
1854 -1957 0
1856 -1957 0
-1858 -1860 1959 0
1858 -1959 0
1860 -1959 0
-1862 -1864 2076 0
1862 -2076 0
1864 -2076 0
-1868 -1870 1963 0
1868 -1963 0
1870 -1963 0
-1872 -1874 1965 0
1872 -1965 0
1874 -1965 0
-1876 -1878 1967 0
1876 -1967 0
1878 -1967 0
-1880 -1882 1969 0
1880 -1969 0
1882 -1969 0
-1884 -1886 1971 0
1884 -1971 0
1886 -1971 0
-1888 -1890 1973 0
1888 -1973 0
1890 -1973 0
-1892 -1894 1975 0
1892 -1975 0
1894 -1975 0
-1896 -1898 1977 0
1896 -1977 0
1898 -1977 0
-1900 -1902 1979 0
1900 -1979 0
1902 -1979 0
-1904 -1906 1981 0
1904 -1981 0
1906 -1981 0
-1908 -1910 1983 0
1908 -1983 0
1910 -1983 0
-1912 -1914 1985 0
1912 -1985 0
1914 -1985 0
-1916 -1918 1987 0
1916 -1987 0
1918 -1987 0
-1920 -1922 1989 0
1920 -1989 0
1922 -1989 0
-1924 -1926 1991 0
1924 -1991 0
1926 -1991 0
-1928 -1930 1993 0
1928 -1993 0
1930 -1993 0
-1932 -1934 1995 0
1932 -1995 0
1934 -1995 0
-1936 -1937 1997 0
1936 -1997 0
1937 -1997 0
-1935 -1938 1999 0
1935 -1999 0
1938 -1999 0
-1939 -1940 2001 0
1939 -2001 0
1940 -2001 0
-1941 -1942 2097 0
1941 -2097 0
1942 -2097 0
-1943 -1944 2005 0
1943 -2005 0
1944 -2005 0
-1945 -1946 2007 0
1945 -2007 0
1946 -2007 0
-1947 -1948 2009 0
1947 -2009 0
1948 -2009 0
-1950 -1952 2011 0
1950 -2011 0
1952 -2011 0
-1954 -1956 2013 0
1954 -2013 0
1956 -2013 0
-1958 -1960 2015 0
1958 -2015 0
1960 -2015 0
-1961 -1962 2017 0
1961 -2017 0
1962 -2017 0
-1964 -1966 2019 0
1964 -2019 0
1966 -2019 0
-1968 -1970 2021 0
1968 -2021 0
1970 -2021 0
-1972 -1974 2023 0
1972 -2023 0
1974 -2023 0
-1976 -1978 2025 0
1976 -2025 0
1978 -2025 0
-1980 -1982 2027 0
1980 -2027 0
1982 -2027 0
-1984 -1986 2029 0
1984 -2029 0
1986 -2029 0
-1988 -1990 2031 0
1988 -2031 0
1990 -2031 0
-1992 -1994 2033 0
1992 -2033 0
1994 -2033 0
-1996 -1998 2035 0
1996 -2035 0
1998 -2035 0
-2000 -2002 2037 0
2000 -2037 0
2002 -2037 0
-2003 -2004 2039 0
2003 -2039 0
2004 -2039 0
-2006 -2008 2041 0
2006 -2041 0
2008 -2041 0
-2010 -2012 2043 0
2010 -2043 0
2012 -2043 0
-2014 -2016 2045 0
2014 -2045 0
2016 -2045 0
-2018 -2020 2047 0
2018 -2047 0
2020 -2047 0
-2022 -2024 2049 0
2022 -2049 0
2024 -2049 0
-2026 -2028 2051 0
2026 -2051 0
2028 -2051 0
-2030 -2032 2053 0
2030 -2053 0
2032 -2053 0
-2034 -2036 2055 0
2034 -2055 0
2036 -2055 0
-2038 -2040 2057 0
2038 -2057 0
2040 -2057 0
-2042 -2044 2059 0
2042 -2059 0
2044 -2059 0
-2046 -2048 2061 0
2046 -2061 0
2048 -2061 0
-2050 -2052 2063 0
2050 -2063 0
2052 -2063 0
-2054 -2056 2065 0
2054 -2065 0
2056 -2065 0
-2058 -2060 2067 0
2058 -2067 0
2060 -2067 0
-2062 -2064 2068 0
2062 -2068 0
2064 -2068 0
-1949 -1951 2072 0
1949 -2072 0
1951 -2072 0
-1953 -1955 2074 0
1953 -2074 0
1955 -2074 0
-1957 -1959 2193 0
1957 -2193 0
1959 -2193 0
-1963 -1965 2078 0
1963 -2078 0
1965 -2078 0
-1967 -1969 2080 0
1967 -2080 0
1969 -2080 0
-1971 -1973 2082 0
1971 -2082 0
1973 -2082 0
-1975 -1977 2084 0
1975 -2084 0
1977 -2084 0
-1979 -1981 2086 0
1979 -2086 0
1981 -2086 0
-1983 -1985 2088 0
1983 -2088 0
1985 -2088 0
-1987 -1989 2090 0
1987 -2090 0
1989 -2090 0
-1991 -1993 2092 0
1991 -2092 0
1993 -2092 0
-1995 -1997 2094 0
1995 -2094 0
1997 -2094 0
-1999 -2001 2096 0
1999 -2096 0
2001 -2096 0
-2005 -2007 2203 0
2005 -2203 0
2007 -2203 0
-2009 -2011 2100 0
2009 -2100 0
2011 -2100 0
-2013 -2015 2102 0
2013 -2102 0
2015 -2102 0
-2017 -2019 2104 0
2017 -2104 0
2019 -2104 0
-2021 -2023 2106 0
2021 -2106 0
2023 -2106 0
-2025 -2027 2108 0
2025 -2108 0
2027 -2108 0
-2029 -2031 2110 0
2029 -2110 0
2031 -2110 0
-2033 -2035 2112 0
2033 -2112 0
2035 -2112 0
-2037 -2039 2114 0
2037 -2114 0
2039 -2114 0
-2041 -2043 2116 0
2041 -2116 0
2043 -2116 0
-2045 -2047 2118 0
2045 -2118 0
2047 -2118 0
-2049 -2051 2120 0
2049 -2120 0
2051 -2120 0
-2053 -2055 2122 0
2053 -2122 0
2055 -2122 0
-2057 -2059 2124 0
2057 -2124 0
2059 -2124 0
-2061 -2063 2126 0
2061 -2126 0
2063 -2126 0
-2065 -2067 2128 0
2065 -2128 0
2067 -2128 0
-2066 -2068 2130 0
2068 -2130 0
2066 -2130 0
-2071 -2073 2260 0
2071 -2260 0
2073 -2260 0
-2075 -2076 2133 0
2075 -2133 0
2076 -2133 0
-2077 -2079 2135 0
2077 -2135 0
2079 -2135 0
-2081 -2083 2137 0
2081 -2137 0
2083 -2137 0
-2085 -2087 2139 0
2085 -2139 0
2087 -2139 0
-2089 -2091 2141 0
2089 -2141 0
2091 -2141 0
-2093 -2095 2143 0
2093 -2143 0
2095 -2143 0
-2097 -2098 2145 0
2097 -2145 0
2098 -2145 0
-2099 -2101 2147 0
2099 -2147 0
2101 -2147 0
-2103 -2105 2149 0
2103 -2149 0
2105 -2149 0
-2107 -2109 2151 0
2107 -2151 0
2109 -2151 0
-2111 -2113 2153 0
2111 -2153 0
2113 -2153 0
-2115 -2117 2155 0
2115 -2155 0
2117 -2155 0
-2119 -2121 2157 0
2119 -2157 0
2121 -2157 0
-2123 -2125 2159 0
2123 -2159 0
2125 -2159 0
-2127 -2129 2231 0
2127 -2231 0
2129 -2231 0
-2070 -2131 2162 0
2070 -2162 0
2131 -2162 0
-2132 -2134 2164 0
2132 -2164 0
2134 -2164 0
-2136 -2138 2166 0
2136 -2166 0
2138 -2166 0
-2140 -2142 2168 0
2140 -2168 0
2142 -2168 0
-2144 -2146 2170 0
2144 -2170 0
2146 -2170 0
-2148 -2150 2172 0
2148 -2172 0
2150 -2172 0
-2152 -2154 2174 0
2152 -2174 0
2154 -2174 0
-2156 -2158 2176 0
2156 -2176 0
2158 -2176 0
-2069 -2160 2178 0
2160 -2178 0
2069 -2178 0
-2161 -2163 2180 0
2161 -2180 0
2163 -2180 0
-2165 -2167 2182 0
2165 -2182 0
2167 -2182 0
-2169 -2171 2184 0
2169 -2184 0
2171 -2184 0
-2173 -2175 2186 0
2173 -2186 0
2175 -2186 0
-2177 -2179 2188 0
2177 -2188 0
2179 -2188 0
-2181 -2183 2190 0
2181 -2190 0
2183 -2190 0
-2185 -2187 2191 0
2185 -2191 0
2187 -2191 0
-2072 -2074 2360 0
2072 -2360 0
2074 -2360 0
-2078 -2080 2307 0
2078 -2307 0
2080 -2307 0
-2082 -2084 2196 0
2082 -2196 0
2084 -2196 0
-2086 -2088 2198 0
2086 -2198 0
2088 -2198 0
-2090 -2092 2200 0
2090 -2200 0
2092 -2200 0
-2094 -2096 2202 0
2094 -2202 0
2096 -2202 0
-2100 -2102 2310 0
2100 -2310 0
2102 -2310 0
-2104 -2106 2206 0
2104 -2206 0
2106 -2206 0
-2108 -2110 2208 0
2108 -2208 0
2110 -2208 0
-2112 -2114 2210 0
2112 -2210 0
2114 -2210 0
-2116 -2118 2212 0
2116 -2212 0
2118 -2212 0
-2120 -2122 2214 0
2120 -2214 0
2122 -2214 0
-2124 -2126 2216 0
2124 -2216 0
2126 -2216 0
-2128 -2130 2316 0
2128 -2316 0
2130 -2316 0
-2133 -2135 2317 0
2133 -2317 0
2135 -2317 0
-2137 -2139 2220 0
2137 -2220 0
2139 -2220 0
-2141 -2143 2222 0
2141 -2222 0
2143 -2222 0
-2145 -2147 2224 0
2145 -2224 0
2147 -2224 0
-2149 -2151 2226 0
2149 -2226 0
2151 -2226 0
-2153 -2155 2228 0
2153 -2228 0
2155 -2228 0
-2157 -2159 2230 0
2157 -2230 0
2159 -2230 0
-2162 -2164 2323 0
2162 -2323 0
2164 -2323 0
-2166 -2168 2234 0
2166 -2234 0
2168 -2234 0
-2170 -2172 2236 0
2170 -2236 0
2172 -2236 0
-2174 -2176 2238 0
2174 -2238 0
2176 -2238 0
-2178 -2180 2240 0
2178 -2240 0
2180 -2240 0
-2182 -2184 2242 0
2182 -2242 0
2184 -2242 0
-2186 -2188 2244 0
2186 -2244 0
2188 -2244 0
-2190 -2191 2329 0
2190 -2329 0
2191 -2329 0
-2192 -2193 2330 0
2192 -2330 0
2193 -2330 0
-2194 -2195 2248 0
2194 -2248 0
2195 -2248 0
-2197 -2199 2250 0
2197 -2250 0
2199 -2250 0
-2201 -2203 2252 0
2201 -2252 0
2203 -2252 0
-2204 -2205 2254 0
2204 -2254 0
2205 -2254 0
-2207 -2209 2256 0
2207 -2256 0
2209 -2256 0
-2211 -2213 2258 0
2211 -2258 0
2213 -2258 0
-2215 -2217 2336 0
2215 -2336 0
2217 -2336 0
-2218 -2219 2262 0
2218 -2262 0
2219 -2262 0
-2221 -2223 2264 0
2221 -2264 0
2223 -2264 0
-2225 -2227 2266 0
2225 -2266 0
2227 -2266 0
-2229 -2231 2268 0
2229 -2268 0
2231 -2268 0
-2232 -2233 2270 0
2232 -2270 0
2233 -2270 0
-2235 -2237 2272 0
2235 -2272 0
2237 -2272 0
-2239 -2241 2274 0
2239 -2274 0
2241 -2274 0
-2243 -2245 2276 0
2243 -2276 0
2245 -2276 0
-2246 -2247 2345 0
2246 -2345 0
2247 -2345 0
-2249 -2251 2279 0
2249 -2279 0
2251 -2279 0
-2253 -2255 2281 0
2253 -2281 0
2255 -2281 0
-2257 -2259 2283 0
2257 -2283 0
2259 -2283 0
-2260 -2261 2285 0
2260 -2285 0
2261 -2285 0
-2263 -2265 2287 0
2263 -2287 0
2265 -2287 0
-2267 -2269 2289 0
2267 -2289 0
2269 -2289 0
-2271 -2273 2291 0
2271 -2291 0
2273 -2291 0
-2189 -2275 2293 0
2275 -2293 0
2189 -2293 0
-2277 -2278 2295 0
2277 -2295 0
2278 -2295 0
-2280 -2282 2297 0
2280 -2297 0
2282 -2297 0
-2284 -2286 2299 0
2284 -2299 0
2286 -2299 0
-2288 -2290 2301 0
2288 -2301 0
2290 -2301 0
-2292 -2294 2303 0
2292 -2303 0
2294 -2303 0
-2296 -2298 2305 0
2296 -2305 0
2298 -2305 0
-2300 -2302 2306 0
2300 -2306 0
2302 -2306 0
-2196 -2198 2428 0
2196 -2428 0
2198 -2428 0
-2200 -2202 2429 0
2200 -2429 0
2202 -2429 0
-2206 -2208 2312 0
2206 -2312 0
2208 -2312 0
-2210 -2212 2314 0
2210 -2314 0
2212 -2314 0
-2214 -2216 2431 0
2214 -2431 0
2216 -2431 0
-2220 -2222 2432 0
2220 -2432 0
2222 -2432 0
-2224 -2226 2320 0
2224 -2320 0
2226 -2320 0
-2228 -2230 2322 0
2228 -2322 0
2230 -2322 0
-2234 -2236 2434 0
2234 -2434 0
2236 -2434 0
-2238 -2240 2326 0
2238 -2326 0
2240 -2326 0
-2242 -2244 2328 0
2242 -2328 0
2244 -2328 0
-2248 -2250 2332 0
2248 -2332 0
2250 -2332 0
-2252 -2254 2334 0
2252 -2334 0
2254 -2334 0
-2256 -2258 2436 0
2256 -2436 0
2258 -2436 0
-2262 -2264 2338 0
2262 -2338 0
2264 -2338 0
-2266 -2268 2340 0
2266 -2340 0
2268 -2340 0
-2270 -2272 2342 0
2270 -2342 0
2272 -2342 0
-2274 -2276 2344 0
2274 -2344 0
2276 -2344 0
-2279 -2281 2441 0
2279 -2441 0
2281 -2441 0
-2283 -2285 2348 0
2283 -2348 0
2285 -2348 0
-2287 -2289 2350 0
2287 -2350 0
2289 -2350 0
-2291 -2293 2352 0
2291 -2352 0
2293 -2352 0
-2295 -2297 2354 0
2295 -2354 0
2297 -2354 0
-2299 -2301 2356 0
2299 -2356 0
2301 -2356 0
-2303 -2305 2358 0
2303 -2358 0
2305 -2358 0
-2304 -2306 2447 0
2306 -2447 0
2304 -2447 0
-2307 -2308 2362 0
2307 -2362 0
2308 -2362 0
-2309 -2310 2364 0
2309 -2364 0
2310 -2364 0
-2311 -2313 2366 0
2311 -2366 0
2313 -2366 0
-2315 -2316 2368 0
2315 -2368 0
2316 -2368 0
-2317 -2318 2370 0
2317 -2370 0
2318 -2370 0
-2319 -2321 2372 0
2319 -2372 0
2321 -2372 0
-2323 -2324 2374 0
2323 -2374 0
2324 -2374 0
-2325 -2327 2376 0
2325 -2376 0
2327 -2376 0
-2329 -2330 2378 0
2329 -2378 0
2330 -2378 0
-2331 -2333 2380 0
2331 -2380 0
2333 -2380 0
-2335 -2336 2382 0
2335 -2382 0
2336 -2382 0
-2337 -2339 2384 0
2337 -2384 0
2339 -2384 0
-2341 -2343 2386 0
2341 -2386 0
2343 -2386 0
-2345 -2346 2388 0
2345 -2388 0
2346 -2388 0
-2347 -2349 2390 0
2347 -2390 0
2349 -2390 0
-2351 -2353 2392 0
2351 -2392 0
2353 -2392 0
-2355 -2357 2394 0
2355 -2394 0
2357 -2394 0
-2359 -2360 2396 0
2359 -2396 0
2360 -2396 0
-2361 -2363 2398 0
2361 -2398 0
2363 -2398 0
-2365 -2367 2400 0
2365 -2400 0
2367 -2400 0
-2369 -2371 2402 0
2369 -2402 0
2371 -2402 0
-2373 -2375 2404 0
2373 -2404 0
2375 -2404 0
-2377 -2379 2406 0
2377 -2406 0
2379 -2406 0
-2381 -2383 2408 0
2381 -2408 0
2383 -2408 0
-2385 -2387 2410 0
2385 -2410 0
2387 -2410 0
-2389 -2391 2412 0
2389 -2412 0
2391 -2412 0
-2393 -2395 2414 0
2393 -2414 0
2395 -2414 0
-2397 -2399 2416 0
2397 -2416 0
2399 -2416 0
-2401 -2403 2418 0
2401 -2418 0
2403 -2418 0
-2405 -2407 2420 0
2405 -2420 0
2407 -2420 0
-2409 -2411 2422 0
2409 -2422 0
2411 -2422 0
-2413 -2415 2424 0
2413 -2424 0
2415 -2424 0
-2417 -2419 2426 0
2417 -2426 0
2419 -2426 0
-2421 -2423 2427 0
2421 -2427 0
2423 -2427 0
-2312 -2314 2600 0
2312 -2600 0
2314 -2600 0
-2320 -2322 2545 0
2320 -2545 0
2322 -2545 0
-2326 -2328 2546 0
2326 -2546 0
2328 -2546 0
-2332 -2334 2547 0
2332 -2547 0
2334 -2547 0
-2338 -2340 2438 0
2338 -2438 0
2340 -2438 0
-2342 -2344 2440 0
2342 -2440 0
2344 -2440 0
-2348 -2350 2549 0
2348 -2549 0
2350 -2549 0
-2352 -2354 2444 0
2352 -2444 0
2354 -2444 0
-2356 -2358 2446 0
2356 -2446 0
2358 -2446 0
-2362 -2364 2551 0
2362 -2551 0
2364 -2551 0
-2366 -2368 2450 0
2366 -2450 0
2368 -2450 0
-2370 -2372 2452 0
2370 -2452 0
2372 -2452 0
-2374 -2376 2454 0
2374 -2454 0
2376 -2454 0
-2378 -2380 2456 0
2378 -2456 0
2380 -2456 0
-2382 -2384 2458 0
2382 -2458 0
2384 -2458 0
-2386 -2388 2460 0
2386 -2460 0
2388 -2460 0
-2390 -2392 2462 0
2390 -2462 0
2392 -2462 0
-2394 -2396 2464 0
2394 -2464 0
2396 -2464 0
-2398 -2400 2466 0
2398 -2466 0
2400 -2466 0
-2402 -2404 2468 0
2402 -2468 0
2404 -2468 0
-2406 -2408 2470 0
2406 -2470 0
2408 -2470 0
-2410 -2412 2472 0
2410 -2472 0
2412 -2472 0
-2414 -2416 2474 0
2414 -2474 0
2416 -2474 0
-2418 -2420 2476 0
2418 -2476 0
2420 -2476 0
-2422 -2424 2478 0
2422 -2478 0
2424 -2478 0
-2426 -2427 2480 0
2426 -2480 0
2427 -2480 0
-2428 -2429 2568 0
2428 -2568 0
2429 -2568 0
-2430 -2431 2483 0
2430 -2483 0
2431 -2483 0
-2432 -2433 2485 0
2432 -2485 0
2433 -2485 0
-2434 -2435 2570 0
2434 -2570 0
2435 -2570 0
-2436 -2437 2489 0
2436 -2489 0
2437 -2489 0
-2439 -2441 2491 0
2439 -2491 0
2441 -2491 0
-2442 -2443 2493 0
2442 -2493 0
2443 -2493 0
-2445 -2447 2495 0
2445 -2495 0
2447 -2495 0
-2448 -2449 2497 0
2448 -2497 0
2449 -2497 0
-2451 -2453 2499 0
2451 -2499 0
2453 -2499 0
-2455 -2457 2501 0
2455 -2501 0
2457 -2501 0
-2459 -2461 2503 0
2459 -2503 0
2461 -2503 0
-2463 -2465 2505 0
2463 -2505 0
2465 -2505 0
-2467 -2469 2507 0
2467 -2507 0
2469 -2507 0
-2471 -2473 2509 0
2471 -2509 0
2473 -2509 0
-2475 -2477 2511 0
2475 -2511 0
2477 -2511 0
-2425 -2479 2513 0
2479 -2513 0
2425 -2513 0
-2481 -2482 2515 0
2481 -2515 0
2482 -2515 0
-2484 -2486 2517 0
2484 -2517 0
2486 -2517 0
-2487 -2488 2519 0
2487 -2519 0
2488 -2519 0
-2490 -2492 2521 0
2490 -2521 0
2492 -2521 0
-2494 -2496 2523 0
2494 -2523 0
2496 -2523 0
-2498 -2500 2525 0
2498 -2525 0
2500 -2525 0
-2502 -2504 2527 0
2502 -2527 0
2504 -2527 0
-2506 -2508 2529 0
2506 -2529 0
2508 -2529 0
-2510 -2512 2531 0
2510 -2531 0
2512 -2531 0
-2514 -2516 2533 0
2514 -2533 0
2516 -2533 0
-2518 -2520 2535 0
2518 -2535 0
2520 -2535 0
-2522 -2524 2537 0
2522 -2537 0
2524 -2537 0
-2526 -2528 2539 0
2526 -2539 0
2528 -2539 0
-2530 -2532 2541 0
2530 -2541 0
2532 -2541 0
-2534 -2536 2543 0
2534 -2543 0
2536 -2543 0
-2538 -2540 2544 0
2538 -2544 0
2540 -2544 0
-2438 -2440 2664 0
2438 -2664 0
2440 -2664 0
-2444 -2446 2665 0
2444 -2665 0
2446 -2665 0
-2450 -2452 2553 0
2450 -2553 0
2452 -2553 0
-2454 -2456 2555 0
2454 -2555 0
2456 -2555 0
-2458 -2460 2557 0
2458 -2557 0
2460 -2557 0
-2462 -2464 2559 0
2462 -2559 0
2464 -2559 0
-2466 -2468 2561 0
2466 -2561 0
2468 -2561 0
-2470 -2472 2563 0
2470 -2563 0
2472 -2563 0
-2474 -2476 2565 0
2474 -2565 0
2476 -2565 0
-2478 -2480 2567 0
2478 -2567 0
2480 -2567 0
-2483 -2485 2672 0
2483 -2672 0
2485 -2672 0
-2489 -2491 2673 0
2489 -2673 0
2491 -2673 0
-2493 -2495 2573 0
2493 -2573 0
2495 -2573 0
-2497 -2499 2575 0
2497 -2575 0
2499 -2575 0
-2501 -2503 2577 0
2501 -2577 0
2503 -2577 0
-2505 -2507 2579 0
2505 -2579 0
2507 -2579 0
-2509 -2511 2581 0
2509 -2581 0
2511 -2581 0
-2513 -2515 2583 0
2513 -2583 0
2515 -2583 0
-2517 -2519 2585 0
2517 -2585 0
2519 -2585 0
-2521 -2523 2587 0
2521 -2587 0
2523 -2587 0
-2525 -2527 2589 0
2525 -2589 0
2527 -2589 0
-2529 -2531 2591 0
2529 -2591 0
2531 -2591 0
-2533 -2535 2593 0
2533 -2593 0
2535 -2593 0
-2537 -2539 2595 0
2537 -2595 0
2539 -2595 0
-2541 -2543 2597 0
2541 -2597 0
2543 -2597 0
-2542 -2544 2599 0
2544 -2599 0
2542 -2599 0
-2546 -2547 2602 0
2546 -2602 0
2547 -2602 0
-2548 -2549 2604 0
2548 -2604 0
2549 -2604 0
-2550 -2551 2606 0
2550 -2606 0
2551 -2606 0
-2552 -2554 2608 0
2552 -2608 0
2554 -2608 0
-2556 -2558 2610 0
2556 -2610 0
2558 -2610 0
-2560 -2562 2612 0
2560 -2612 0
2562 -2612 0
-2564 -2566 2614 0
2564 -2614 0
2566 -2614 0
-2568 -2569 2616 0
2568 -2616 0
2569 -2616 0
-2570 -2571 2618 0
2570 -2618 0
2571 -2618 0
-2572 -2574 2620 0
2572 -2620 0
2574 -2620 0
-2576 -2578 2622 0
2576 -2622 0
2578 -2622 0
-2580 -2582 2624 0
2580 -2624 0
2582 -2624 0
-2584 -2586 2626 0
2584 -2626 0
2586 -2626 0
-2588 -2590 2628 0
2588 -2628 0
2590 -2628 0
-2592 -2594 2630 0
2592 -2630 0
2594 -2630 0
-2596 -2598 2632 0
2596 -2632 0
2598 -2632 0
-2545 -2600 2634 0
2600 -2634 0
2545 -2634 0
-2601 -2603 2636 0
2601 -2636 0
2603 -2636 0
-2605 -2607 2638 0
2605 -2638 0
2607 -2638 0
-2609 -2611 2640 0
2609 -2640 0
2611 -2640 0
-2613 -2615 2642 0
2613 -2642 0
2615 -2642 0
-2617 -2619 2644 0
2617 -2644 0
2619 -2644 0
-2621 -2623 2646 0
2621 -2646 0
2623 -2646 0
-2625 -2627 2648 0
2625 -2648 0
2627 -2648 0
-2629 -2631 2650 0
2629 -2650 0
2631 -2650 0
-2633 -2635 2652 0
2633 -2652 0
2635 -2652 0
-2637 -2639 2654 0
2637 -2654 0
2639 -2654 0
-2641 -2643 2656 0
2641 -2656 0
2643 -2656 0
-2645 -2647 2658 0
2645 -2658 0
2647 -2658 0
-2649 -2651 2660 0
2649 -2660 0
2651 -2660 0
-2653 -2655 2662 0
2653 -2662 0
2655 -2662 0
-2657 -2659 2663 0
2657 -2663 0
2659 -2663 0
-2553 -2555 2773 0
2553 -2773 0
2555 -2773 0
-2557 -2559 2668 0
2557 -2668 0
2559 -2668 0
-2561 -2563 2670 0
2561 -2670 0
2563 -2670 0
-2565 -2567 2775 0
2565 -2775 0
2567 -2775 0
-2573 -2575 2776 0
2573 -2776 0
2575 -2776 0
-2577 -2579 2676 0
2577 -2676 0
2579 -2676 0
-2581 -2583 2678 0
2581 -2678 0
2583 -2678 0
-2585 -2587 2680 0
2585 -2680 0
2587 -2680 0
-2589 -2591 2682 0
2589 -2682 0
2591 -2682 0
-2593 -2595 2684 0
2593 -2684 0
2595 -2684 0
-2597 -2599 2685 0
2597 -2685 0
2599 -2685 0
-2602 -2604 2782 0
2602 -2782 0
2604 -2782 0
-2606 -2608 2688 0
2606 -2688 0
2608 -2688 0
-2610 -2612 2690 0
2610 -2690 0
2612 -2690 0
-2614 -2616 2692 0
2614 -2692 0
2616 -2692 0
-2618 -2620 2694 0
2618 -2694 0
2620 -2694 0
-2622 -2624 2696 0
2622 -2696 0
2624 -2696 0
-2626 -2628 2698 0
2626 -2698 0
2628 -2698 0
-2630 -2632 2700 0
2630 -2700 0
2632 -2700 0
-2634 -2636 2702 0
2634 -2702 0
2636 -2702 0
-2638 -2640 2704 0
2638 -2704 0
2640 -2704 0
-2642 -2644 2706 0
2642 -2706 0
2644 -2706 0
-2646 -2648 2708 0
2646 -2708 0
2648 -2708 0
-2650 -2652 2710 0
2650 -2710 0
2652 -2710 0
-2654 -2656 2712 0
2654 -2712 0
2656 -2712 0
-2658 -2660 2714 0
2658 -2714 0
2660 -2714 0
-2662 -2663 2796 0
2662 -2796 0
2663 -2796 0
-2664 -2665 2797 0
2664 -2797 0
2665 -2797 0
-2666 -2667 2718 0
2666 -2718 0
2667 -2718 0
-2669 -2671 2720 0
2669 -2720 0
2671 -2720 0
-2672 -2673 2722 0
2672 -2722 0
2673 -2722 0
-2674 -2675 2724 0
2674 -2724 0
2675 -2724 0
-2677 -2679 2726 0
2677 -2726 0
2679 -2726 0
-2681 -2683 2728 0
2681 -2728 0
2683 -2728 0
-2686 -2687 2803 0
2686 -2803 0
2687 -2803 0
-2689 -2691 2732 0
2689 -2732 0
2691 -2732 0
-2693 -2695 2734 0
2693 -2734 0
2695 -2734 0
-2697 -2699 2736 0
2697 -2736 0
2699 -2736 0
-2701 -2703 2738 0
2701 -2738 0
2703 -2738 0
-2705 -2707 2740 0
2705 -2740 0
2707 -2740 0
-2709 -2711 2742 0
2709 -2742 0
2711 -2742 0
-2713 -2715 2809 0
2713 -2809 0
2715 -2809 0
-2716 -2717 2745 0
2716 -2745 0
2717 -2745 0
-2719 -2721 2747 0
2719 -2747 0
2721 -2747 0
-2723 -2725 2749 0
2723 -2749 0
2725 -2749 0
-2727 -2729 2751 0
2727 -2751 0
2729 -2751 0
-2730 -2731 2753 0
2730 -2753 0
2731 -2753 0
-2733 -2735 2755 0
2733 -2755 0
2735 -2755 0
-2737 -2739 2757 0
2737 -2757 0
2739 -2757 0
-2741 -2743 2759 0
2741 -2759 0
2743 -2759 0
-2661 -2744 2761 0
2661 -2761 0
2744 -2761 0
-2746 -2748 2763 0
2746 -2763 0
2748 -2763 0
-2750 -2752 2765 0
2750 -2765 0
2752 -2765 0
-2754 -2756 2767 0
2754 -2767 0
2756 -2767 0
-2758 -2760 2769 0
2758 -2769 0
2760 -2769 0
-2762 -2764 2771 0
2762 -2771 0
2764 -2771 0
-2766 -2768 2772 0
2766 -2772 0
2768 -2772 0
-2668 -2670 2884 0
2668 -2884 0
2670 -2884 0
-2676 -2678 2778 0
2676 -2778 0
2678 -2778 0
-2680 -2682 2780 0
2680 -2780 0
2682 -2780 0
-2684 -2685 2886 0
2684 -2886 0
2685 -2886 0
-2688 -2690 2784 0
2688 -2784 0
2690 -2784 0
-2692 -2694 2786 0
2692 -2786 0
2694 -2786 0
-2696 -2698 2788 0
2696 -2788 0
2698 -2788 0
-2700 -2702 2790 0
2700 -2790 0
2702 -2790 0
-2704 -2706 2792 0
2704 -2792 0
2706 -2792 0
-2708 -2710 2794 0
2708 -2794 0
2710 -2794 0
-2712 -2714 2892 0
2712 -2892 0
2714 -2892 0
-2718 -2720 2893 0
2718 -2893 0
2720 -2893 0
-2722 -2724 2800 0
2722 -2800 0
2724 -2800 0
-2726 -2728 2802 0
2726 -2802 0
2728 -2802 0
-2732 -2734 2895 0
2732 -2895 0
2734 -2895 0
-2736 -2738 2806 0
2736 -2806 0
2738 -2806 0
-2740 -2742 2808 0
2740 -2808 0
2742 -2808 0
-2745 -2747 2897 0
2745 -2897 0
2747 -2897 0
-2749 -2751 2812 0
2749 -2812 0
2751 -2812 0
-2753 -2755 2814 0
2753 -2814 0
2755 -2814 0
-2757 -2759 2816 0
2757 -2816 0
2759 -2816 0
-2761 -2763 2818 0
2761 -2818 0
2763 -2818 0
-2765 -2767 2820 0
2765 -2820 0
2767 -2820 0
-2769 -2771 2822 0
2769 -2822 0
2771 -2822 0
-2770 -2772 2903 0
2772 -2903 0
2770 -2903 0
-2773 -2774 2824 0
2773 -2824 0
2774 -2824 0
-2775 -2776 2826 0
2775 -2826 0
2776 -2826 0
-2777 -2779 2828 0
2777 -2828 0
2779 -2828 0
-2781 -2782 2830 0
2781 -2830 0
2782 -2830 0
-2783 -2785 2832 0
2783 -2832 0
2785 -2832 0
-2787 -2789 2834 0
2787 -2834 0
2789 -2834 0
-2791 -2793 2836 0
2791 -2836 0
2793 -2836 0
-2795 -2796 2838 0
2795 -2838 0
2796 -2838 0
-2797 -2798 2840 0
2797 -2840 0
2798 -2840 0
-2799 -2801 2842 0
2799 -2842 0
2801 -2842 0
-2803 -2804 2844 0
2803 -2844 0
2804 -2844 0
-2805 -2807 2846 0
2805 -2846 0
2807 -2846 0
-2809 -2810 2848 0
2809 -2848 0
2810 -2848 0
-2811 -2813 2850 0
2811 -2850 0
2813 -2850 0
-2815 -2817 2852 0
2815 -2852 0
2817 -2852 0
-2819 -2821 2854 0
2819 -2854 0
2821 -2854 0
-2823 -2825 2920 0
2823 -2920 0
2825 -2920 0
-2827 -2829 2858 0
2827 -2858 0
2829 -2858 0
-2831 -2833 2860 0
2831 -2860 0
2833 -2860 0
-2835 -2837 2862 0
2835 -2862 0
2837 -2862 0
-2839 -2841 2864 0
2839 -2864 0
2841 -2864 0
-2843 -2845 2866 0
2843 -2866 0
2845 -2866 0
-2847 -2849 2868 0
2847 -2868 0
2849 -2868 0
-2851 -2853 2870 0
2851 -2870 0
2853 -2870 0
-2855 -2856 2872 0
2855 -2872 0
2856 -2872 0
-2857 -2859 2874 0
2857 -2874 0
2859 -2874 0
-2861 -2863 2876 0
2861 -2876 0
2863 -2876 0
-2865 -2867 2878 0
2865 -2878 0
2867 -2878 0
-2869 -2871 2880 0
2869 -2880 0
2871 -2880 0
-2873 -2875 2882 0
2873 -2882 0
2875 -2882 0
-2877 -2879 2883 0
2877 -2883 0
2879 -2883 0
-2778 -2780 2995 0
2778 -2995 0
2780 -2995 0
-2784 -2786 2996 0
2784 -2996 0
2786 -2996 0
-2788 -2790 2889 0
2788 -2889 0
2790 -2889 0
-2792 -2794 2891 0
2792 -2891 0
2794 -2891 0
-2800 -2802 2998 0
2800 -2998 0
2802 -2998 0
-2806 -2808 2999 0
2806 -2999 0
2808 -2999 0
-2812 -2814 2899 0
2812 -2899 0
2814 -2899 0
-2816 -2818 2901 0
2816 -2901 0
2818 -2901 0
-2820 -2822 3001 0
2820 -3001 0
2822 -3001 0
-2824 -2826 2905 0
2824 -2905 0
2826 -2905 0
-2828 -2830 2907 0
2828 -2907 0
2830 -2907 0
-2832 -2834 2909 0
2832 -2909 0
2834 -2909 0
-2836 -2838 2911 0
2836 -2911 0
2838 -2911 0
-2840 -2842 2913 0
2840 -2913 0
2842 -2913 0
-2844 -2846 2915 0
2844 -2915 0
2846 -2915 0
-2848 -2850 2917 0
2848 -2917 0
2850 -2917 0
-2852 -2854 2919 0
2852 -2919 0
2854 -2919 0
-2858 -2860 3008 0
2858 -3008 0
2860 -3008 0
-2862 -2864 2923 0
2862 -2923 0
2864 -2923 0
-2866 -2868 2925 0
2866 -2925 0
2868 -2925 0
-2870 -2872 2927 0
2870 -2927 0
2872 -2927 0
-2874 -2876 2929 0
2874 -2929 0
2876 -2929 0
-2878 -2880 2931 0
2878 -2931 0
2880 -2931 0
-2882 -2883 2933 0
2882 -2933 0
2883 -2933 0
-2885 -2886 2935 0
2885 -2935 0
2886 -2935 0
-2887 -2888 2937 0
2887 -2937 0
2888 -2937 0
-2890 -2892 2939 0
2890 -2939 0
2892 -2939 0
-2893 -2894 2941 0
2893 -2941 0
2894 -2941 0
-2895 -2896 2943 0
2895 -2943 0
2896 -2943 0
-2897 -2898 2945 0
2897 -2945 0
2898 -2945 0
-2900 -2902 2947 0
2900 -2947 0
2902 -2947 0
-2903 -2904 2949 0
2903 -2949 0
2904 -2949 0
-2906 -2908 2951 0
2906 -2951 0
2908 -2951 0
-2910 -2912 2953 0
2910 -2953 0
2912 -2953 0
-2914 -2916 2955 0
2914 -2955 0
2916 -2955 0
-2918 -2920 2957 0
2918 -2957 0
2920 -2957 0
-2921 -2922 2959 0
2921 -2959 0
2922 -2959 0
-2924 -2926 2961 0
2924 -2961 0
2926 -2961 0
-2928 -2930 2963 0
2928 -2963 0
2930 -2963 0
-2881 -2932 2965 0
2932 -2965 0
2881 -2965 0
-2884 -2934 2967 0
2884 -2967 0
2934 -2967 0
-2936 -2938 2969 0
2936 -2969 0
2938 -2969 0
-2940 -2942 2971 0
2940 -2971 0
2942 -2971 0
-2944 -2946 2973 0
2944 -2973 0
2946 -2973 0
-2948 -2950 2975 0
2948 -2975 0
2950 -2975 0
-2952 -2954 2977 0
2952 -2977 0
2954 -2977 0
-2956 -2958 2979 0
2956 -2979 0
2958 -2979 0
-2960 -2962 2981 0
2960 -2981 0
2962 -2981 0
-2964 -2966 2983 0
2964 -2983 0
2966 -2983 0
-2968 -2970 2985 0
2968 -2985 0
2970 -2985 0
-2972 -2974 2987 0
2972 -2987 0
2974 -2987 0
-2976 -2978 2989 0
2976 -2989 0
2978 -2989 0
-2980 -2982 2991 0
2980 -2991 0
2982 -2991 0
-2984 -2986 2993 0
2984 -2993 0
2986 -2993 0
-2988 -2990 2994 0
2988 -2994 0
2990 -2994 0
-2889 -2891 3100 0
2889 -3100 0
2891 -3100 0
-2899 -2901 3101 0
2899 -3101 0
2901 -3101 0
-2905 -2907 3102 0
2905 -3102 0
2907 -3102 0
-2909 -2911 3004 0
2909 -3004 0
2911 -3004 0
-2913 -2915 3006 0
2913 -3006 0
2915 -3006 0
-2917 -2919 3104 0
2917 -3104 0
2919 -3104 0
-2923 -2925 3010 0
2923 -3010 0
2925 -3010 0
-2927 -2929 3012 0
2927 -3012 0
2929 -3012 0
-2931 -2933 3106 0
2931 -3106 0
2933 -3106 0
-2935 -2937 3014 0
2935 -3014 0
2937 -3014 0
-2939 -2941 3016 0
2939 -3016 0
2941 -3016 0
-2943 -2945 3018 0
2943 -3018 0
2945 -3018 0
-2947 -2949 3020 0
2947 -3020 0
2949 -3020 0
-2951 -2953 3022 0
2951 -3022 0
2953 -3022 0
-2955 -2957 3024 0
2955 -3024 0
2957 -3024 0
-2959 -2961 3026 0
2959 -3026 0
2961 -3026 0
-2963 -2965 3028 0
2963 -3028 0
2965 -3028 0
-2967 -2969 3030 0
2967 -3030 0
2969 -3030 0
-2971 -2973 3032 0
2971 -3032 0
2973 -3032 0
-2975 -2977 3034 0
2975 -3034 0
2977 -3034 0
-2979 -2981 3036 0
2979 -3036 0
2981 -3036 0
-2983 -2985 3038 0
2983 -3038 0
2985 -3038 0
-2987 -2989 3040 0
2987 -3040 0
2989 -3040 0
-2991 -2993 3042 0
2991 -3042 0
2993 -3042 0
-2992 -2994 3044 0
2994 -3044 0
2992 -3044 0
-2996 -2997 3121 0
2996 -3121 0
2997 -3121 0
-2999 -3000 3122 0
2999 -3122 0
3000 -3122 0
-3001 -3002 3048 0
3001 -3048 0
3002 -3048 0
-3003 -3005 3050 0
3003 -3050 0
3005 -3050 0
-3007 -3008 3052 0
3007 -3052 0
3008 -3052 0
-3009 -3011 3054 0
3009 -3054 0
3011 -3054 0
-3013 -3015 3125 0
3013 -3125 0
3015 -3125 0
-3017 -3019 3058 0
3017 -3058 0
3019 -3058 0
-3021 -3023 3060 0
3021 -3060 0
3023 -3060 0
-3025 -3027 3062 0
3025 -3062 0
3027 -3062 0
-3029 -3031 3064 0
3029 -3064 0
3031 -3064 0
-3033 -3035 3066 0
3033 -3066 0
3035 -3066 0
-3037 -3039 3068 0
3037 -3068 0
3039 -3068 0
-3041 -3043 3070 0
3041 -3070 0
3043 -3070 0
-2995 -3045 3072 0
2995 -3072 0
3045 -3072 0
-2998 -3046 3074 0
2998 -3074 0
3046 -3074 0
-3047 -3049 3076 0
3047 -3076 0
3049 -3076 0
-3051 -3053 3078 0
3051 -3078 0
3053 -3078 0
-3055 -3056 3080 0
3055 -3080 0
3056 -3080 0
-3057 -3059 3082 0
3057 -3082 0
3059 -3082 0
-3061 -3063 3084 0
3061 -3084 0
3063 -3084 0
-3065 -3067 3086 0
3065 -3086 0
3067 -3086 0
-3069 -3071 3088 0
3069 -3088 0
3071 -3088 0
-3073 -3075 3090 0
3073 -3090 0
3075 -3090 0
-3077 -3079 3092 0
3077 -3092 0
3079 -3092 0
-3081 -3083 3094 0
3081 -3094 0
3083 -3094 0
-3085 -3087 3096 0
3085 -3096 0
3087 -3096 0
-3089 -3091 3098 0
3089 -3098 0
3091 -3098 0
-3093 -3095 3099 0
3093 -3099 0
3095 -3099 0
-3004 -3006 3205 0
3004 -3205 0
3006 -3205 0
-3010 -3012 3206 0
3010 -3206 0
3012 -3206 0
-3014 -3016 3207 0
3014 -3207 0
3016 -3207 0
-3018 -3020 3109 0
3018 -3109 0
3020 -3109 0
-3022 -3024 3111 0
3022 -3111 0
3024 -3111 0
-3026 -3028 3113 0
3026 -3113 0
3028 -3113 0
-3030 -3032 3115 0
3030 -3115 0
3032 -3115 0
-3034 -3036 3117 0
3034 -3117 0
3036 -3117 0
-3038 -3040 3119 0
3038 -3119 0
3040 -3119 0
-3042 -3044 3213 0
3042 -3213 0
3044 -3213 0
-3048 -3050 3214 0
3048 -3214 0
3050 -3214 0
-3052 -3054 3215 0
3052 -3215 0
3054 -3215 0
-3058 -3060 3127 0
3058 -3127 0
3060 -3127 0
-3062 -3064 3129 0
3062 -3129 0
3064 -3129 0
-3066 -3068 3131 0
3066 -3131 0
3068 -3131 0
-3070 -3072 3133 0
3070 -3133 0
3072 -3133 0
-3074 -3076 3135 0
3074 -3135 0
3076 -3135 0
-3078 -3080 3137 0
3078 -3137 0
3080 -3137 0
-3082 -3084 3139 0
3082 -3139 0
3084 -3139 0
-3086 -3088 3141 0
3086 -3141 0
3088 -3141 0
-3090 -3092 3143 0
3090 -3143 0
3092 -3143 0
-3094 -3096 3145 0
3094 -3145 0
3096 -3145 0
-3098 -3099 3225 0
3098 -3225 0
3099 -3225 0
-3101 -3102 3226 0
3101 -3226 0
3102 -3226 0
-3103 -3104 3149 0
3103 -3149 0
3104 -3149 0
-3105 -3106 3151 0
3105 -3151 0
3106 -3151 0
-3107 -3108 3153 0
3107 -3153 0
3108 -3153 0
-3110 -3112 3155 0
3110 -3155 0
3112 -3155 0
-3114 -3116 3157 0
3114 -3157 0
3116 -3157 0
-3118 -3120 3159 0
3118 -3159 0
3120 -3159 0
-3121 -3122 3161 0
3121 -3161 0
3122 -3161 0
-3123 -3124 3163 0
3123 -3163 0
3124 -3163 0
-3125 -3126 3165 0
3125 -3165 0
3126 -3165 0
-3128 -3130 3167 0
3128 -3167 0
3130 -3167 0
-3132 -3134 3169 0
3132 -3169 0
3134 -3169 0
-3136 -3138 3171 0
3136 -3171 0
3138 -3171 0
-3140 -3142 3173 0
3140 -3173 0
3142 -3173 0
-3144 -3146 3175 0
3144 -3175 0
3146 -3175 0
-3097 -3100 3177 0
3097 -3177 0
3100 -3177 0
-3147 -3148 3179 0
3147 -3179 0
3148 -3179 0
-3150 -3152 3181 0
3150 -3181 0
3152 -3181 0
-3154 -3156 3183 0
3154 -3183 0
3156 -3183 0
-3158 -3160 3185 0
3158 -3185 0
3160 -3185 0
-3162 -3164 3187 0
3162 -3187 0
3164 -3187 0
-3166 -3168 3189 0
3166 -3189 0
3168 -3189 0
-3170 -3172 3191 0
3170 -3191 0
3172 -3191 0
-3174 -3176 3193 0
3174 -3193 0
3176 -3193 0
-3178 -3180 3195 0
3178 -3195 0
3180 -3195 0
-3182 -3184 3197 0
3182 -3197 0
3184 -3197 0
-3186 -3188 3199 0
3186 -3199 0
3188 -3199 0
-3190 -3192 3201 0
3190 -3201 0
3192 -3201 0
-3194 -3196 3203 0
3194 -3203 0
3196 -3203 0
-3198 -3200 3204 0
3198 -3204 0
3200 -3204 0
-3109 -3111 3312 0
3109 -3312 0
3111 -3312 0
-3113 -3115 3210 0
3113 -3210 0
3115 -3210 0
-3117 -3119 3212 0
3117 -3212 0
3119 -3212 0
-3127 -3129 3313 0
3127 -3313 0
3129 -3313 0
-3131 -3133 3218 0
3131 -3218 0
3133 -3218 0
-3135 -3137 3220 0
3135 -3220 0
3137 -3220 0
-3139 -3141 3222 0
3139 -3222 0
3141 -3222 0
-3143 -3145 3224 0
3143 -3224 0
3145 -3224 0
-3149 -3151 3228 0
3149 -3228 0
3151 -3228 0
-3153 -3155 3230 0
3153 -3230 0
3155 -3230 0
-3157 -3159 3232 0
3157 -3232 0
3159 -3232 0
-3161 -3163 3234 0
3161 -3234 0
3163 -3234 0
-3165 -3167 3236 0
3165 -3236 0
3167 -3236 0
-3169 -3171 3238 0
3169 -3238 0
3171 -3238 0
-3173 -3175 3240 0
3173 -3240 0
3175 -3240 0
-3177 -3179 3242 0
3177 -3242 0
3179 -3242 0
-3181 -3183 3244 0
3181 -3244 0
3183 -3244 0
-3185 -3187 3246 0
3185 -3246 0
3187 -3246 0
-3189 -3191 3248 0
3189 -3248 0
3191 -3248 0
-3193 -3195 3250 0
3193 -3250 0
3195 -3250 0
-3197 -3199 3252 0
3197 -3252 0
3199 -3252 0
-3201 -3203 3254 0
3201 -3254 0
3203 -3254 0
-3202 -3204 3330 0
3204 -3330 0
3202 -3330 0
-3205 -3206 3256 0
3205 -3256 0
3206 -3256 0
-3207 -3208 3258 0
3207 -3258 0
3208 -3258 0
-3209 -3211 3260 0
3209 -3260 0
3211 -3260 0
-3213 -3214 3262 0
3213 -3262 0
3214 -3262 0
-3215 -3216 3264 0
3215 -3264 0
3216 -3264 0
-3217 -3219 3266 0
3217 -3266 0
3219 -3266 0
-3221 -3223 3268 0
3221 -3268 0
3223 -3268 0
-3225 -3226 3270 0
3225 -3270 0
3226 -3270 0
-3227 -3229 3272 0
3227 -3272 0
3229 -3272 0
-3231 -3233 3274 0
3231 -3274 0
3233 -3274 0
-3235 -3237 3276 0
3235 -3276 0
3237 -3276 0
-3239 -3241 3278 0
3239 -3278 0
3241 -3278 0
-3243 -3245 3280 0
3243 -3280 0
3245 -3280 0
-3247 -3249 3282 0
3247 -3282 0
3249 -3282 0
-3251 -3253 3344 0
3251 -3344 0
3253 -3344 0
-3255 -3257 3286 0
3255 -3286 0
3257 -3286 0
-3259 -3261 3288 0
3259 -3288 0
3261 -3288 0
-3263 -3265 3290 0
3263 -3290 0
3265 -3290 0
-3267 -3269 3292 0
3267 -3292 0
3269 -3292 0
-3271 -3273 3294 0
3271 -3294 0
3273 -3294 0
-3275 -3277 3296 0
3275 -3296 0
3277 -3296 0
-3279 -3281 3298 0
3279 -3298 0
3281 -3298 0
-3283 -3284 3300 0
3283 -3300 0
3284 -3300 0
-3285 -3287 3302 0
3285 -3302 0
3287 -3302 0
-3289 -3291 3304 0
3289 -3304 0
3291 -3304 0
-3293 -3295 3306 0
3293 -3306 0
3295 -3306 0
-3297 -3299 3308 0
3297 -3308 0
3299 -3308 0
-3301 -3303 3310 0
3301 -3310 0
3303 -3310 0
-3305 -3307 3311 0
3305 -3311 0
3307 -3311 0
-3210 -3212 3411 0
3210 -3411 0
3212 -3411 0
-3218 -3220 3315 0
3218 -3315 0
3220 -3315 0
-3222 -3224 3316 0
3222 -3316 0
3224 -3316 0
-3228 -3230 3412 0
3228 -3412 0
3230 -3412 0
-3232 -3234 3319 0
3232 -3319 0
3234 -3319 0
-3236 -3238 3321 0
3236 -3321 0
3238 -3321 0
-3240 -3242 3323 0
3240 -3323 0
3242 -3323 0
-3244 -3246 3325 0
3244 -3325 0
3246 -3325 0
-3248 -3250 3327 0
3248 -3327 0
3250 -3327 0
-3252 -3254 3329 0
3252 -3329 0
3254 -3329 0
-3256 -3258 3418 0
3256 -3418 0
3258 -3418 0
-3260 -3262 3333 0
3260 -3333 0
3262 -3333 0
-3264 -3266 3335 0
3264 -3335 0
3266 -3335 0
-3268 -3270 3337 0
3268 -3337 0
3270 -3337 0
-3272 -3274 3339 0
3272 -3339 0
3274 -3339 0
-3276 -3278 3341 0
3276 -3341 0
3278 -3341 0
-3280 -3282 3343 0
3280 -3343 0
3282 -3343 0
-3286 -3288 3424 0
3286 -3424 0
3288 -3424 0
-3290 -3292 3347 0
3290 -3347 0
3292 -3347 0
-3294 -3296 3349 0
3294 -3349 0
3296 -3349 0
-3298 -3300 3351 0
3298 -3351 0
3300 -3351 0
-3302 -3304 3353 0
3302 -3353 0
3304 -3353 0
-3306 -3308 3355 0
3306 -3355 0
3308 -3355 0
-3310 -3311 3357 0
3310 -3357 0
3311 -3357 0
-3313 -3314 3469 0
3313 -3469 0
3314 -3469 0
-3317 -3318 3430 0
3317 -3430 0
3318 -3430 0
-3320 -3322 3363 0
3320 -3363 0
3322 -3363 0
-3324 -3326 3365 0
3324 -3365 0
3326 -3365 0
-3328 -3330 3367 0
3328 -3367 0
3330 -3367 0
-3331 -3332 3369 0
3331 -3369 0
3332 -3369 0
-3334 -3336 3371 0
3334 -3371 0
3336 -3371 0
-3338 -3340 3373 0
3338 -3373 0
3340 -3373 0
-3342 -3344 3375 0
3342 -3375 0
3344 -3375 0
-3345 -3346 3377 0
3345 -3377 0
3346 -3377 0
-3348 -3350 3379 0
3348 -3379 0
3350 -3379 0
-3352 -3354 3381 0
3352 -3381 0
3354 -3381 0
-3309 -3356 3383 0
3356 -3383 0
3309 -3383 0
-3312 -3358 3385 0
3312 -3385 0
3358 -3385 0
-3359 -3360 3387 0
3359 -3387 0
3360 -3387 0
-3361 -3362 3389 0
3361 -3389 0
3362 -3389 0
-3364 -3366 3391 0
3364 -3391 0
3366 -3391 0
-3368 -3370 3393 0
3368 -3393 0
3370 -3393 0
-3372 -3374 3395 0
3372 -3395 0
3374 -3395 0
-3376 -3378 3397 0
3376 -3397 0
3378 -3397 0
-3380 -3382 3399 0
3380 -3399 0
3382 -3399 0
-3384 -3386 3401 0
3384 -3401 0
3386 -3401 0
-3388 -3390 3403 0
3388 -3403 0
3390 -3403 0
-3392 -3394 3405 0
3392 -3405 0
3394 -3405 0
-3396 -3398 3407 0
3396 -3407 0
3398 -3407 0
-3400 -3402 3409 0
3400 -3409 0
3402 -3409 0
-3404 -3406 3410 0
3404 -3410 0
3406 -3410 0
-3315 -3316 3510 0
3315 -3510 0
3316 -3510 0
-3319 -3321 3511 0
3319 -3511 0
3321 -3511 0
-3323 -3325 3415 0
3323 -3415 0
3325 -3415 0
-3327 -3329 3417 0
3327 -3417 0
3329 -3417 0
-3333 -3335 3513 0
3333 -3513 0
3335 -3513 0
-3337 -3339 3421 0
3337 -3421 0
3339 -3421 0
-3341 -3343 3423 0
3341 -3423 0
3343 -3423 0
-3347 -3349 3515 0
3347 -3515 0
3349 -3515 0
-3351 -3353 3427 0
3351 -3427 0
3353 -3427 0
-3355 -3357 3429 0
3355 -3429 0
3357 -3429 0
-3363 -3365 3516 0
3363 -3516 0
3365 -3516 0
-3367 -3369 3433 0
3367 -3433 0
3369 -3433 0
-3371 -3373 3435 0
3371 -3435 0
3373 -3435 0
-3375 -3377 3437 0
3375 -3437 0
3377 -3437 0
-3379 -3381 3439 0
3379 -3439 0
3381 -3439 0
-3383 -3385 3441 0
3383 -3441 0
3385 -3441 0
-3387 -3389 3443 0
3387 -3443 0
3389 -3443 0
-3391 -3393 3445 0
3391 -3445 0
3393 -3445 0
-3395 -3397 3447 0
3395 -3447 0
3397 -3447 0
-3399 -3401 3449 0
3399 -3449 0
3401 -3449 0
-3403 -3405 3451 0
3403 -3451 0
3405 -3451 0
-3407 -3409 3453 0
3407 -3453 0
3409 -3453 0
-3408 -3410 3455 0
3410 -3455 0
3408 -3455 0
-3412 -3413 3458 0
3412 -3458 0
3413 -3458 0
-3414 -3416 3460 0
3414 -3460 0
3416 -3460 0
-3418 -3419 3462 0
3418 -3462 0
3419 -3462 0
-3420 -3422 3464 0
3420 -3464 0
3422 -3464 0
-3424 -3425 3466 0
3424 -3466 0
3425 -3466 0
-3426 -3428 3468 0
3426 -3468 0
3428 -3468 0
-3430 -3431 3533 0
3430 -3533 0
3431 -3533 0
-3432 -3434 3472 0
3432 -3472 0
3434 -3472 0
-3436 -3438 3474 0
3436 -3474 0
3438 -3474 0
-3440 -3442 3476 0
3440 -3476 0
3442 -3476 0
-3444 -3446 3478 0
3444 -3478 0
3446 -3478 0
-3448 -3450 3480 0
3448 -3480 0
3450 -3480 0
-3452 -3454 3482 0
3452 -3482 0
3454 -3482 0
-3411 -3456 3484 0
3411 -3484 0
3456 -3484 0
-3457 -3459 3486 0
3457 -3486 0
3459 -3486 0
-3461 -3463 3488 0
3461 -3488 0
3463 -3488 0
-3465 -3467 3490 0
3465 -3490 0
3467 -3490 0
-3469 -3470 3492 0
3469 -3492 0
3470 -3492 0
-3471 -3473 3494 0
3471 -3494 0
3473 -3494 0
-3475 -3477 3496 0
3475 -3496 0
3477 -3496 0
-3479 -3481 3498 0
3479 -3498 0
3481 -3498 0
-3483 -3485 3500 0
3483 -3500 0
3485 -3500 0
-3487 -3489 3502 0
3487 -3502 0
3489 -3502 0
-3491 -3493 3504 0
3491 -3504 0
3493 -3504 0
-3495 -3497 3506 0
3495 -3506 0
3497 -3506 0
-3499 -3501 3508 0
3499 -3508 0
3501 -3508 0
-3503 -3505 3509 0
3503 -3509 0
3505 -3509 0
-3415 -3417 3605 0
3415 -3605 0
3417 -3605 0
-3421 -3423 3606 0
3421 -3606 0
3423 -3606 0
-3427 -3429 3607 0
3427 -3607 0
3429 -3607 0
-3433 -3435 3518 0
3433 -3518 0
3435 -3518 0
-3437 -3439 3520 0
3437 -3520 0
3439 -3520 0
-3441 -3443 3522 0
3441 -3522 0
3443 -3522 0
-3445 -3447 3524 0
3445 -3524 0
3447 -3524 0
-3449 -3451 3526 0
3449 -3526 0
3451 -3526 0
-3453 -3455 3527 0
3453 -3527 0
3455 -3527 0
-3458 -3460 3612 0
3458 -3612 0
3460 -3612 0
-3462 -3464 3530 0
3462 -3530 0
3464 -3530 0
-3466 -3468 3532 0
3466 -3532 0
3468 -3532 0
-3472 -3474 3614 0
3472 -3614 0
3474 -3614 0
-3476 -3478 3536 0
3476 -3536 0
3478 -3536 0
-3480 -3482 3538 0
3480 -3538 0
3482 -3538 0
-3484 -3486 3540 0
3484 -3540 0
3486 -3540 0
-3488 -3490 3542 0
3488 -3542 0
3490 -3542 0
-3492 -3494 3544 0
3492 -3544 0
3494 -3544 0
-3496 -3498 3546 0
3496 -3546 0
3498 -3546 0
-3500 -3502 3548 0
3500 -3548 0
3502 -3548 0
-3504 -3506 3550 0
3504 -3550 0
3506 -3550 0
-3508 -3509 3621 0
3508 -3621 0
3509 -3621 0
-3510 -3511 3553 0
3510 -3553 0
3511 -3553 0
-3512 -3513 3555 0
3512 -3555 0
3513 -3555 0
-3514 -3515 3623 0
3514 -3623 0
3515 -3623 0
-3516 -3517 3559 0
3516 -3559 0
3517 -3559 0
-3519 -3521 3561 0
3519 -3561 0
3521 -3561 0
-3523 -3525 3625 0
3523 -3625 0
3525 -3625 0
-3528 -3529 3565 0
3528 -3565 0
3529 -3565 0
-3531 -3533 3567 0
3531 -3567 0
3533 -3567 0
-3534 -3535 3569 0
3534 -3569 0
3535 -3569 0
-3537 -3539 3571 0
3537 -3571 0
3539 -3571 0
-3541 -3543 3573 0
3541 -3573 0
3543 -3573 0
-3545 -3547 3575 0
3545 -3575 0
3547 -3575 0
-3549 -3551 3577 0
3549 -3577 0
3551 -3577 0
-3507 -3552 3579 0
3507 -3579 0
3552 -3579 0
-3554 -3556 3581 0
3554 -3581 0
3556 -3581 0
-3557 -3558 3583 0
3557 -3583 0
3558 -3583 0
-3560 -3562 3585 0
3560 -3585 0
3562 -3585 0
-3563 -3564 3587 0
3563 -3587 0
3564 -3587 0
-3566 -3568 3589 0
3566 -3589 0
3568 -3589 0
-3570 -3572 3591 0
3570 -3591 0
3572 -3591 0
-3574 -3576 3593 0
3574 -3593 0
3576 -3593 0
-3578 -3580 3595 0
3578 -3595 0
3580 -3595 0
-3582 -3584 3597 0
3582 -3597 0
3584 -3597 0
-3586 -3588 3599 0
3586 -3599 0
3588 -3599 0
-3590 -3592 3601 0
3590 -3601 0
3592 -3601 0
-3594 -3596 3603 0
3594 -3603 0
3596 -3603 0
-3598 -3600 3604 0
3598 -3604 0
3600 -3604 0
-3518 -3520 3700 0
3518 -3700 0
3520 -3700 0
-3522 -3524 3609 0
3522 -3609 0
3524 -3609 0
-3526 -3527 3611 0
3526 -3611 0
3527 -3611 0
-3530 -3532 3702 0
3530 -3702 0
3532 -3702 0
-3536 -3538 3703 0
3536 -3703 0
3538 -3703 0
-3540 -3542 3617 0
3540 -3617 0
3542 -3617 0
-3544 -3546 3619 0
3544 -3619 0
3546 -3619 0
-3548 -3550 3705 0
3548 -3705 0
3550 -3705 0
-3553 -3555 3706 0
3553 -3706 0
3555 -3706 0
-3559 -3561 3707 0
3559 -3707 0
3561 -3707 0
-3565 -3567 3627 0
3565 -3627 0
3567 -3627 0
-3569 -3571 3629 0
3569 -3629 0
3571 -3629 0
-3573 -3575 3631 0
3573 -3631 0
3575 -3631 0
-3577 -3579 3633 0
3577 -3633 0
3579 -3633 0
-3581 -3583 3635 0
3581 -3635 0
3583 -3635 0
-3585 -3587 3637 0
3585 -3637 0
3587 -3637 0
-3589 -3591 3639 0
3589 -3639 0
3591 -3639 0
-3593 -3595 3641 0
3593 -3641 0
3595 -3641 0
-3597 -3599 3643 0
3597 -3643 0
3599 -3643 0
-3601 -3603 3645 0
3601 -3645 0
3603 -3645 0
-3602 -3604 3717 0
3604 -3717 0
3602 -3717 0
-3606 -3607 3718 0
3606 -3718 0
3607 -3718 0
-3608 -3610 3650 0
3608 -3650 0
3610 -3650 0
-3612 -3613 3652 0
3612 -3652 0
3613 -3652 0
-3614 -3615 3654 0
3614 -3654 0
3615 -3654 0
-3616 -3618 3656 0
3616 -3656 0
3618 -3656 0
-3620 -3621 3658 0
3620 -3658 0
3621 -3658 0
-3622 -3623 3660 0
3622 -3660 0
3623 -3660 0
-3624 -3625 3662 0
3624 -3662 0
3625 -3662 0
-3626 -3628 3664 0
3626 -3664 0
3628 -3664 0
-3630 -3632 3666 0
3630 -3666 0
3632 -3666 0
-3634 -3636 3668 0
3634 -3668 0
3636 -3668 0
-3638 -3640 3670 0
3638 -3670 0
3640 -3670 0
-3642 -3644 3672 0
3642 -3672 0
3644 -3672 0
-3605 -3646 3674 0
3646 -3674 0
3605 -3674 0
-3647 -3648 3676 0
3647 -3676 0
3648 -3676 0
-3649 -3651 3678 0
3649 -3678 0
3651 -3678 0
-3653 -3655 3680 0
3653 -3680 0
3655 -3680 0
-3657 -3659 3682 0
3657 -3682 0
3659 -3682 0
-3661 -3663 3684 0
3661 -3684 0
3663 -3684 0
-3665 -3667 3686 0
3665 -3686 0
3667 -3686 0
-3669 -3671 3688 0
3669 -3688 0
3671 -3688 0
-3673 -3675 3690 0
3673 -3690 0
3675 -3690 0
-3677 -3679 3692 0
3677 -3692 0
3679 -3692 0
-3681 -3683 3694 0
3681 -3694 0
3683 -3694 0
-3685 -3687 3696 0
3685 -3696 0
3687 -3696 0
-3689 -3691 3698 0
3689 -3698 0
3691 -3698 0
-3693 -3695 3699 0
3693 -3699 0
3695 -3699 0
-3609 -3611 3838 0
3609 -3838 0
3611 -3838 0
-3617 -3619 3797 0
3617 -3797 0
3619 -3797 0
-3627 -3629 3709 0
3627 -3709 0
3629 -3709 0
-3631 -3633 3711 0
3631 -3711 0
3633 -3711 0
-3635 -3637 3713 0
3635 -3713 0
3637 -3713 0
-3639 -3641 3715 0
3639 -3715 0
3641 -3715 0
-3643 -3645 3799 0
3643 -3799 0
3645 -3799 0
-3650 -3652 3800 0
3650 -3800 0
3652 -3800 0
-3654 -3656 3721 0
3654 -3721 0
3656 -3721 0
-3658 -3660 3723 0
3658 -3723 0
3660 -3723 0
-3662 -3664 3725 0
3662 -3725 0
3664 -3725 0
-3666 -3668 3727 0
3666 -3727 0
3668 -3727 0
-3670 -3672 3729 0
3670 -3729 0
3672 -3729 0
-3674 -3676 3731 0
3674 -3731 0
3676 -3731 0
-3678 -3680 3733 0
3678 -3733 0
3680 -3733 0
-3682 -3684 3735 0
3682 -3735 0
3684 -3735 0
-3686 -3688 3737 0
3686 -3737 0
3688 -3737 0
-3690 -3692 3739 0
3690 -3739 0
3692 -3739 0
-3694 -3696 3741 0
3694 -3741 0
3696 -3741 0
-3698 -3699 3743 0
3698 -3743 0
3699 -3743 0
-3701 -3702 3745 0
3701 -3745 0
3702 -3745 0
-3703 -3704 3747 0
3703 -3747 0
3704 -3747 0
-3705 -3706 3749 0
3705 -3749 0
3706 -3749 0
-3707 -3708 3751 0
3707 -3751 0
3708 -3751 0
-3710 -3712 3753 0
3710 -3753 0
3712 -3753 0
-3714 -3716 3755 0
3714 -3755 0
3716 -3755 0
-3717 -3718 3757 0
3717 -3757 0
3718 -3757 0
-3719 -3720 3759 0
3719 -3759 0
3720 -3759 0
-3722 -3724 3761 0
3722 -3761 0
3724 -3761 0
-3726 -3728 3763 0
3726 -3763 0
3728 -3763 0
-3730 -3732 3765 0
3730 -3765 0
3732 -3765 0
-3734 -3736 3767 0
3734 -3767 0
3736 -3767 0
-3738 -3740 3769 0
3738 -3769 0
3740 -3769 0
-3697 -3742 3771 0
3742 -3771 0
3697 -3771 0
-3700 -3744 3773 0
3700 -3773 0
3744 -3773 0
-3746 -3748 3775 0
3746 -3775 0
3748 -3775 0
-3750 -3752 3777 0
3750 -3777 0
3752 -3777 0
-3754 -3756 3779 0
3754 -3779 0
3756 -3779 0
-3758 -3760 3781 0
3758 -3781 0
3760 -3781 0
-3762 -3764 3783 0
3762 -3783 0
3764 -3783 0
-3766 -3768 3785 0
3766 -3785 0
3768 -3785 0
-3770 -3772 3787 0
3770 -3787 0
3772 -3787 0
-3774 -3776 3789 0
3774 -3789 0
3776 -3789 0
-3778 -3780 3791 0
3778 -3791 0
3780 -3791 0
-3782 -3784 3793 0
3782 -3793 0
3784 -3793 0
-3786 -3788 3795 0
3786 -3795 0
3788 -3795 0
-3790 -3792 3796 0
3790 -3796 0
3792 -3796 0
-3709 -3711 3925 0
3709 -3925 0
3711 -3925 0
-3713 -3715 3886 0
3713 -3886 0
3715 -3886 0
-3721 -3723 3887 0
3721 -3887 0
3723 -3887 0
-3725 -3727 3803 0
3725 -3803 0
3727 -3803 0
-3729 -3731 3805 0
3729 -3805 0
3731 -3805 0
-3733 -3735 3807 0
3733 -3807 0
3735 -3807 0
-3737 -3739 3809 0
3737 -3809 0
3739 -3809 0
-3741 -3743 3890 0
3741 -3890 0
3743 -3890 0
-3745 -3747 3811 0
3745 -3811 0
3747 -3811 0
-3749 -3751 3813 0
3749 -3813 0
3751 -3813 0
-3753 -3755 3815 0
3753 -3815 0
3755 -3815 0
-3757 -3759 3817 0
3757 -3817 0
3759 -3817 0
-3761 -3763 3819 0
3761 -3819 0
3763 -3819 0
-3765 -3767 3821 0
3765 -3821 0
3767 -3821 0
-3769 -3771 3823 0
3769 -3823 0
3771 -3823 0
-3773 -3775 3825 0
3773 -3825 0
3775 -3825 0
-3777 -3779 3827 0
3777 -3827 0
3779 -3827 0
-3781 -3783 3829 0
3781 -3829 0
3783 -3829 0
-3785 -3787 3831 0
3785 -3831 0
3787 -3831 0
-3789 -3791 3833 0
3789 -3833 0
3791 -3833 0
-3793 -3795 3835 0
3793 -3835 0
3795 -3835 0
-3794 -3796 3837 0
3796 -3837 0
3794 -3837 0
-3798 -3799 3904 0
3798 -3904 0
3799 -3904 0
-3800 -3801 3842 0
3800 -3842 0
3801 -3842 0
-3802 -3804 3844 0
3802 -3844 0
3804 -3844 0
-3806 -3808 3906 0
3806 -3906 0
3808 -3906 0
-3810 -3812 3848 0
3810 -3848 0
3812 -3848 0
-3814 -3816 3850 0
3814 -3850 0
3816 -3850 0
-3818 -3820 3852 0
3818 -3852 0
3820 -3852 0
-3822 -3824 3854 0
3822 -3854 0
3824 -3854 0
-3826 -3828 3856 0
3826 -3856 0
3828 -3856 0
-3830 -3832 3858 0
3830 -3858 0
3832 -3858 0
-3834 -3836 3860 0
3834 -3860 0
3836 -3860 0
-3797 -3838 3862 0
3838 -3862 0
3797 -3862 0
-3839 -3840 3864 0
3839 -3864 0
3840 -3864 0
-3841 -3843 3866 0
3841 -3866 0
3843 -3866 0
-3845 -3846 3868 0
3845 -3868 0
3846 -3868 0
-3847 -3849 3870 0
3847 -3870 0
3849 -3870 0
-3851 -3853 3872 0
3851 -3872 0
3853 -3872 0
-3855 -3857 3874 0
3855 -3874 0
3857 -3874 0
-3859 -3861 3876 0
3859 -3876 0
3861 -3876 0
-3863 -3865 3878 0
3863 -3878 0
3865 -3878 0
-3867 -3869 3880 0
3867 -3880 0
3869 -3880 0
-3871 -3873 3882 0
3871 -3882 0
3873 -3882 0
-3875 -3877 3884 0
3875 -3884 0
3877 -3884 0
-3879 -3881 3885 0
3879 -3885 0
3881 -3885 0
-3803 -3805 3973 0
3803 -3973 0
3805 -3973 0
-3807 -3809 3974 0
3807 -3974 0
3809 -3974 0
-3811 -3813 3892 0
3811 -3892 0
3813 -3892 0
-3815 -3817 3894 0
3815 -3894 0
3817 -3894 0
-3819 -3821 3896 0
3819 -3896 0
3821 -3896 0
-3823 -3825 3898 0
3823 -3898 0
3825 -3898 0
-3827 -3829 3900 0
3827 -3900 0
3829 -3900 0
-3831 -3833 3902 0
3831 -3902 0
3833 -3902 0
-3835 -3837 3980 0
3835 -3980 0
3837 -3980 0
-3842 -3844 3981 0
3842 -3981 0
3844 -3981 0
-3848 -3850 3982 0
3848 -3982 0
3850 -3982 0
-3852 -3854 3909 0
3852 -3909 0
3854 -3909 0
-3856 -3858 3911 0
3856 -3911 0
3858 -3911 0
-3860 -3862 3913 0
3860 -3913 0
3862 -3913 0
-3864 -3866 3915 0
3864 -3915 0
3866 -3915 0
-3868 -3870 3917 0
3868 -3917 0
3870 -3917 0
-3872 -3874 3919 0
3872 -3919 0
3874 -3919 0
-3876 -3878 3921 0
3876 -3921 0
3878 -3921 0
-3880 -3882 3923 0
3880 -3923 0
3882 -3923 0
-3884 -3885 3991 0
3884 -3991 0
3885 -3991 0
-3886 -3887 3992 0
3886 -3992 0
3887 -3992 0
-3888 -3889 3928 0
3888 -3928 0
3889 -3928 0
-3890 -3891 3930 0
3890 -3930 0
3891 -3930 0
-3893 -3895 3932 0
3893 -3932 0
3895 -3932 0
-3897 -3899 3934 0
3897 -3934 0
3899 -3934 0
-3901 -3903 3997 0
3901 -3997 0
3903 -3997 0
-3905 -3906 3937 0
3905 -3937 0
3906 -3937 0
-3907 -3908 3939 0
3907 -3939 0
3908 -3939 0
-3910 -3912 3941 0
3910 -3941 0
3912 -3941 0
-3914 -3916 3943 0
3914 -3943 0
3916 -3943 0
-3918 -3920 3945 0
3918 -3945 0
3920 -3945 0
-3922 -3924 3947 0
3922 -3947 0
3924 -3947 0
-3883 -3925 3949 0
3883 -3949 0
3925 -3949 0
-3926 -3927 3951 0
3926 -3951 0
3927 -3951 0
-3929 -3931 3953 0
3929 -3953 0
3931 -3953 0
-3933 -3935 3955 0
3933 -3955 0
3935 -3955 0
-3904 -3936 3957 0
3904 -3957 0
3936 -3957 0
-3938 -3940 3959 0
3938 -3959 0
3940 -3959 0
-3942 -3944 3961 0
3942 -3961 0
3944 -3961 0
-3946 -3948 3963 0
3946 -3963 0
3948 -3963 0
-3950 -3952 3965 0
3950 -3965 0
3952 -3965 0
-3954 -3956 3967 0
3954 -3967 0
3956 -3967 0
-3958 -3960 3969 0
3958 -3969 0
3960 -3969 0
-3962 -3964 3971 0
3962 -3971 0
3964 -3971 0
-3966 -3968 3972 0
3966 -3972 0
3968 -3972 0
-3892 -3894 3976 0
3892 -3976 0
3894 -3976 0
-3896 -3898 3978 0
3896 -3978 0
3898 -3978 0
-3900 -3902 4064 0
3900 -4064 0
3902 -4064 0
-3909 -3911 3984 0
3909 -3984 0
3911 -3984 0
-3913 -3915 3986 0
3913 -3986 0
3915 -3986 0
-3917 -3919 3988 0
3917 -3988 0
3919 -3988 0
-3921 -3923 3990 0
3921 -3990 0
3923 -3990 0
-3928 -3930 3994 0
3928 -3994 0
3930 -3994 0
-3932 -3934 3996 0
3932 -3996 0
3934 -3996 0
-3937 -3939 4067 0
3937 -4067 0
3939 -4067 0
-3941 -3943 4000 0
3941 -4000 0
3943 -4000 0
-3945 -3947 4002 0
3945 -4002 0
3947 -4002 0
-3949 -3951 4004 0
3949 -4004 0
3951 -4004 0
-3953 -3955 4006 0
3953 -4006 0
3955 -4006 0
-3957 -3959 4008 0
3957 -4008 0
3959 -4008 0
-3961 -3963 4010 0
3961 -4010 0
3963 -4010 0
-3965 -3967 4012 0
3965 -4012 0
3967 -4012 0
-3969 -3971 4014 0
3969 -4014 0
3971 -4014 0
-3970 -3972 4076 0
3972 -4076 0
3970 -4076 0
-3973 -3974 4016 0
3973 -4016 0
3974 -4016 0
-3975 -3977 4018 0
3975 -4018 0
3977 -4018 0
-3979 -3980 4020 0
3979 -4020 0
3980 -4020 0
-3981 -3982 4022 0
3981 -4022 0
3982 -4022 0
-3983 -3985 4024 0
3983 -4024 0
3985 -4024 0
-3987 -3989 4026 0
3987 -4026 0
3989 -4026 0
-3991 -3992 4028 0
3991 -4028 0
3992 -4028 0
-3993 -3995 4030 0
3993 -4030 0
3995 -4030 0
-3997 -3998 4032 0
3997 -4032 0
3998 -4032 0
-3999 -4001 4034 0
3999 -4034 0
4001 -4034 0
-4003 -4005 4036 0
4003 -4036 0
4005 -4036 0
-4007 -4009 4038 0
4007 -4038 0
4009 -4038 0
-4011 -4013 4087 0
4011 -4087 0
4013 -4087 0
-4015 -4017 4042 0
4015 -4042 0
4017 -4042 0
-4019 -4021 4044 0
4019 -4044 0
4021 -4044 0
-4023 -4025 4046 0
4023 -4046 0
4025 -4046 0
-4027 -4029 4048 0
4027 -4048 0
4029 -4048 0
-4031 -4033 4050 0
4031 -4050 0
4033 -4050 0
-4035 -4037 4052 0
4035 -4052 0
4037 -4052 0
-4039 -4040 4054 0
4039 -4054 0
4040 -4054 0
-4041 -4043 4056 0
4041 -4056 0
4043 -4056 0
-4045 -4047 4058 0
4045 -4058 0
4047 -4058 0
-4049 -4051 4060 0
4049 -4060 0
4051 -4060 0
-4053 -4055 4062 0
4053 -4062 0
4055 -4062 0
-4057 -4059 4063 0
4057 -4063 0
4059 -4063 0
-3976 -3978 4145 0
3976 -4145 0
3978 -4145 0
-3984 -3986 4146 0
3984 -4146 0
3986 -4146 0
-3988 -3990 4147 0
3988 -4147 0
3990 -4147 0
-3994 -3996 4148 0
3994 -4148 0
3996 -4148 0
-4000 -4002 4069 0
4000 -4069 0
4002 -4069 0
-4004 -4006 4071 0
4004 -4071 0
4006 -4071 0
-4008 -4010 4073 0
4008 -4073 0
4010 -4073 0
-4012 -4014 4075 0
4012 -4075 0
4014 -4075 0
-4016 -4018 4151 0
4016 -4151 0
4018 -4151 0
-4020 -4022 4079 0
4020 -4079 0
4022 -4079 0
-4024 -4026 4081 0
4024 -4081 0
4026 -4081 0
-4028 -4030 4083 0
4028 -4083 0
4030 -4083 0
-4032 -4034 4085 0
4032 -4085 0
4034 -4085 0
-4036 -4038 4156 0
4036 -4156 0
4038 -4156 0
-4042 -4044 4089 0
4042 -4089 0
4044 -4089 0
-4046 -4048 4091 0
4046 -4091 0
4048 -4091 0
-4050 -4052 4093 0
4050 -4093 0
4052 -4093 0
-4054 -4056 4095 0
4054 -4095 0
4056 -4095 0
-4058 -4060 4097 0
4058 -4097 0
4060 -4097 0
-4062 -4063 4099 0
4062 -4099 0
4063 -4099 0
-4065 -4066 4194 0
4065 -4194 0
4066 -4194 0
-4067 -4068 4162 0
4067 -4162 0
4068 -4162 0
-4070 -4072 4105 0
4070 -4105 0
4072 -4105 0
-4074 -4076 4107 0
4074 -4107 0
4076 -4107 0
-4077 -4078 4109 0
4077 -4109 0
4078 -4109 0
-4080 -4082 4111 0
4080 -4111 0
4082 -4111 0
-4084 -4086 4113 0
4084 -4113 0
4086 -4113 0
-4087 -4088 4115 0
4087 -4115 0
4088 -4115 0
-4090 -4092 4117 0
4090 -4117 0
4092 -4117 0
-4094 -4096 4119 0
4094 -4119 0
4096 -4119 0
-4061 -4098 4121 0
4098 -4121 0
4061 -4121 0
-4064 -4100 4123 0
4100 -4123 0
4064 -4123 0
-4101 -4102 4125 0
4101 -4125 0
4102 -4125 0
-4103 -4104 4127 0
4103 -4127 0
4104 -4127 0
-4106 -4108 4129 0
4106 -4129 0
4108 -4129 0
-4110 -4112 4131 0
4110 -4131 0
4112 -4131 0
-4114 -4116 4133 0
4114 -4133 0
4116 -4133 0
-4118 -4120 4135 0
4118 -4135 0
4120 -4135 0
-4122 -4124 4137 0
4122 -4137 0
4124 -4137 0
-4126 -4128 4139 0
4126 -4139 0
4128 -4139 0
-4130 -4132 4141 0
4130 -4141 0
4132 -4141 0
-4134 -4136 4143 0
4134 -4143 0
4136 -4143 0
-4138 -4140 4144 0
4138 -4144 0
4140 -4144 0
-4069 -4071 4230 0
4069 -4230 0
4071 -4230 0
-4073 -4075 4231 0
4073 -4231 0
4075 -4231 0
-4079 -4081 4153 0
4079 -4153 0
4081 -4153 0
-4083 -4085 4155 0
4083 -4155 0
4085 -4155 0
-4089 -4091 4233 0
4089 -4233 0
4091 -4233 0
-4093 -4095 4159 0
4093 -4159 0
4095 -4159 0
-4097 -4099 4161 0
4097 -4161 0
4099 -4161 0
-4105 -4107 4235 0
4105 -4235 0
4107 -4235 0
-4109 -4111 4165 0
4109 -4165 0
4111 -4165 0
-4113 -4115 4167 0
4113 -4167 0
4115 -4167 0
-4117 -4119 4169 0
4117 -4169 0
4119 -4169 0
-4121 -4123 4171 0
4121 -4171 0
4123 -4171 0
-4125 -4127 4173 0
4125 -4173 0
4127 -4173 0
-4129 -4131 4175 0
4129 -4175 0
4131 -4175 0
-4133 -4135 4177 0
4133 -4177 0
4135 -4177 0
-4137 -4139 4179 0
4137 -4179 0
4139 -4179 0
-4141 -4143 4181 0
4141 -4181 0
4143 -4181 0
-4142 -4144 4183 0
4144 -4183 0
4142 -4183 0
-4146 -4147 4245 0
4146 -4245 0
4147 -4245 0
-4148 -4149 4186 0
4148 -4186 0
4149 -4186 0
-4150 -4151 4188 0
4150 -4188 0
4151 -4188 0
-4152 -4154 4190 0
4152 -4190 0
4154 -4190 0
-4156 -4157 4192 0
4156 -4192 0
4157 -4192 0
-4158 -4160 4248 0
4158 -4248 0
4160 -4248 0
-4162 -4163 4196 0
4162 -4196 0
4163 -4196 0
-4164 -4166 4198 0
4164 -4198 0
4166 -4198 0
-4168 -4170 4200 0
4168 -4200 0
4170 -4200 0
-4172 -4174 4202 0
4172 -4202 0
4174 -4202 0
-4176 -4178 4204 0
4176 -4204 0
4178 -4204 0
-4180 -4182 4206 0
4180 -4206 0
4182 -4206 0
-4145 -4184 4208 0
4145 -4208 0
4184 -4208 0
-4185 -4187 4210 0
4185 -4210 0
4187 -4210 0
-4189 -4191 4212 0
4189 -4212 0
4191 -4212 0
-4193 -4194 4214 0
4193 -4214 0
4194 -4214 0
-4195 -4197 4216 0
4195 -4216 0
4197 -4216 0
-4199 -4201 4218 0
4199 -4218 0
4201 -4218 0
-4203 -4205 4220 0
4203 -4220 0
4205 -4220 0
-4207 -4209 4222 0
4207 -4222 0
4209 -4222 0
-4211 -4213 4224 0
4211 -4224 0
4213 -4224 0
-4215 -4217 4226 0
4215 -4226 0
4217 -4226 0
-4219 -4221 4228 0
4219 -4228 0
4221 -4228 0
-4223 -4225 4229 0
4223 -4229 0
4225 -4229 0
-4153 -4155 4309 0
4153 -4309 0
4155 -4309 0
-4159 -4161 4310 0
4159 -4310 0
4161 -4310 0
-4165 -4167 4311 0
4165 -4311 0
4167 -4311 0
-4169 -4171 4238 0
4169 -4238 0
4171 -4238 0
-4173 -4175 4240 0
4173 -4240 0
4175 -4240 0
-4177 -4179 4242 0
4177 -4242 0
4179 -4242 0
-4181 -4183 4244 0
4181 -4244 0
4183 -4244 0
-4186 -4188 4314 0
4186 -4314 0
4188 -4314 0
-4190 -4192 4315 0
4190 -4315 0
4192 -4315 0
-4196 -4198 4250 0
4196 -4250 0
4198 -4250 0
-4200 -4202 4252 0
4200 -4252 0
4202 -4252 0
-4204 -4206 4254 0
4204 -4254 0
4206 -4254 0
-4208 -4210 4256 0
4208 -4256 0
4210 -4256 0
-4212 -4214 4258 0
4212 -4258 0
4214 -4258 0
-4216 -4218 4260 0
4216 -4260 0
4218 -4260 0
-4220 -4222 4262 0
4220 -4262 0
4222 -4262 0
-4224 -4226 4264 0
4224 -4264 0
4226 -4264 0
-4228 -4229 4322 0
4228 -4322 0
4229 -4322 0
-4231 -4232 4323 0
4231 -4323 0
4232 -4323 0
-4233 -4234 4324 0
4233 -4324 0
4234 -4324 0
-4236 -4237 4269 0
4236 -4269 0
4237 -4269 0
-4239 -4241 4271 0
4239 -4271 0
4241 -4271 0
-4243 -4245 4273 0
4243 -4273 0
4245 -4273 0
-4246 -4247 4275 0
4246 -4275 0
4247 -4275 0
-4248 -4249 4277 0
4248 -4277 0
4249 -4277 0
-4251 -4253 4279 0
4251 -4279 0
4253 -4279 0
-4255 -4257 4281 0
4255 -4281 0
4257 -4281 0
-4259 -4261 4283 0
4259 -4283 0
4261 -4283 0
-4263 -4265 4285 0
4263 -4285 0
4265 -4285 0
-4227 -4230 4287 0
4227 -4287 0
4230 -4287 0
-4266 -4267 4289 0
4266 -4289 0
4267 -4289 0
-4235 -4268 4291 0
4235 -4291 0
4268 -4291 0
-4270 -4272 4293 0
4270 -4293 0
4272 -4293 0
-4274 -4276 4295 0
4274 -4295 0
4276 -4295 0
-4278 -4280 4297 0
4278 -4297 0
4280 -4297 0
-4282 -4284 4299 0
4282 -4299 0
4284 -4299 0
-4286 -4288 4301 0
4286 -4301 0
4288 -4301 0
-4290 -4292 4303 0
4290 -4303 0
4292 -4303 0
-4294 -4296 4305 0
4294 -4305 0
4296 -4305 0
-4298 -4300 4307 0
4298 -4307 0
4300 -4307 0
-4302 -4304 4308 0
4302 -4308 0
4304 -4308 0
-4238 -4240 4425 0
4238 -4425 0
4240 -4425 0
-4242 -4244 4390 0
4242 -4390 0
4244 -4390 0
-4250 -4252 4391 0
4250 -4391 0
4252 -4391 0
-4254 -4256 4318 0
4254 -4318 0
4256 -4318 0
-4258 -4260 4320 0
4258 -4320 0
4260 -4320 0
-4262 -4264 4393 0
4262 -4393 0
4264 -4393 0
-4269 -4271 4326 0
4269 -4326 0
4271 -4326 0
-4273 -4275 4328 0
4273 -4328 0
4275 -4328 0
-4277 -4279 4330 0
4277 -4330 0
4279 -4330 0
-4281 -4283 4332 0
4281 -4332 0
4283 -4332 0
-4285 -4287 4334 0
4285 -4334 0
4287 -4334 0
-4289 -4291 4336 0
4289 -4336 0
4291 -4336 0
-4293 -4295 4338 0
4293 -4338 0
4295 -4338 0
-4297 -4299 4340 0
4297 -4340 0
4299 -4340 0
-4301 -4303 4342 0
4301 -4342 0
4303 -4342 0
-4305 -4307 4344 0
4305 -4344 0
4307 -4344 0
-4306 -4308 4402 0
4308 -4402 0
4306 -4402 0
-4309 -4310 4346 0
4309 -4346 0
4310 -4346 0
-4311 -4312 4348 0
4311 -4348 0
4312 -4348 0
-4313 -4314 4350 0
4313 -4350 0
4314 -4350 0
-4315 -4316 4352 0
4315 -4352 0
4316 -4352 0
-4317 -4319 4354 0
4317 -4354 0
4319 -4354 0
-4321 -4322 4356 0
4321 -4356 0
4322 -4356 0
-4323 -4324 4358 0
4323 -4358 0
4324 -4358 0
-4325 -4327 4360 0
4325 -4360 0
4327 -4360 0
-4329 -4331 4362 0
4329 -4362 0
4331 -4362 0
-4333 -4335 4364 0
4333 -4364 0
4335 -4364 0
-4337 -4339 4366 0
4337 -4366 0
4339 -4366 0
-4341 -4343 4368 0
4341 -4368 0
4343 -4368 0
-4345 -4347 4415 0
4345 -4415 0
4347 -4415 0
-4349 -4351 4372 0
4349 -4372 0
4351 -4372 0
-4353 -4355 4374 0
4353 -4374 0
4355 -4374 0
-4357 -4359 4376 0
4357 -4376 0
4359 -4376 0
-4361 -4363 4378 0
4361 -4378 0
4363 -4378 0
-4365 -4367 4380 0
4365 -4380 0
4367 -4380 0
-4369 -4370 4382 0
4369 -4382 0
4370 -4382 0
-4371 -4373 4384 0
4371 -4384 0
4373 -4384 0
-4375 -4377 4386 0
4375 -4386 0
4377 -4386 0
-4379 -4381 4388 0
4379 -4388 0
4381 -4388 0
-4383 -4385 4389 0
4383 -4389 0
4385 -4389 0
-4318 -4320 4469 0
4318 -4469 0
4320 -4469 0
-4326 -4328 4394 0
4326 -4394 0
4328 -4394 0
-4330 -4332 4396 0
4330 -4396 0
4332 -4396 0
-4334 -4336 4398 0
4334 -4398 0
4336 -4398 0
-4338 -4340 4400 0
4338 -4400 0
4340 -4400 0
-4342 -4344 4474 0
4342 -4474 0
4344 -4474 0
-4346 -4348 4404 0
4346 -4404 0
4348 -4404 0
-4350 -4352 4406 0
4350 -4406 0
4352 -4406 0
-4354 -4356 4408 0
4354 -4408 0
4356 -4408 0
-4358 -4360 4410 0
4358 -4410 0
4360 -4410 0
-4362 -4364 4412 0
4362 -4412 0
4364 -4412 0
-4366 -4368 4414 0
4366 -4414 0
4368 -4414 0
-4372 -4374 4480 0
4372 -4480 0
4374 -4480 0
-4376 -4378 4418 0
4376 -4418 0
4378 -4418 0
-4380 -4382 4420 0
4380 -4420 0
4382 -4420 0
-4384 -4386 4422 0
4384 -4422 0
4386 -4422 0
-4388 -4389 4424 0
4388 -4424 0
4389 -4424 0
-4390 -4391 4427 0
4390 -4427 0
4391 -4427 0
-4392 -4393 4429 0
4392 -4429 0
4393 -4429 0
-4395 -4397 4483 0
4395 -4483 0
4397 -4483 0
-4399 -4401 4433 0
4399 -4433 0
4401 -4433 0
-4402 -4403 4435 0
4402 -4435 0
4403 -4435 0
-4405 -4407 4437 0
4405 -4437 0
4407 -4437 0
-4409 -4411 4439 0
4409 -4439 0
4411 -4439 0
-4413 -4415 4441 0
4413 -4441 0
4415 -4441 0
-4416 -4417 4443 0
4416 -4443 0
4417 -4443 0
-4419 -4421 4445 0
4419 -4445 0
4421 -4445 0
-4387 -4423 4447 0
4423 -4447 0
4387 -4447 0
-4425 -4426 4449 0
4425 -4449 0
4426 -4449 0
-4428 -4430 4451 0
4428 -4451 0
4430 -4451 0
-4431 -4432 4453 0
4431 -4453 0
4432 -4453 0
-4434 -4436 4455 0
4434 -4455 0
4436 -4455 0
-4438 -4440 4457 0
4438 -4457 0
4440 -4457 0
-4442 -4444 4459 0
4442 -4459 0
4444 -4459 0
-4446 -4448 4461 0
4446 -4461 0
4448 -4461 0
-4450 -4452 4463 0
4450 -4463 0
4452 -4463 0
-4454 -4456 4465 0
4454 -4465 0
4456 -4465 0
-4458 -4460 4467 0
4458 -4467 0
4460 -4467 0
-4462 -4464 4468 0
4462 -4468 0
4464 -4468 0
-4394 -4396 4471 0
4394 -4471 0
4396 -4471 0
-4398 -4400 4473 0
4398 -4473 0
4400 -4473 0
-4404 -4406 4542 0
4404 -4542 0
4406 -4542 0
-4408 -4410 4477 0
4408 -4477 0
4410 -4477 0
-4412 -4414 4479 0
4412 -4479 0
4414 -4479 0
-4418 -4420 4544 0
4418 -4544 0
4420 -4544 0
-4422 -4424 4545 0
4422 -4545 0
4424 -4545 0
-4427 -4429 4546 0
4427 -4546 0
4429 -4546 0
-4433 -4435 4485 0
4433 -4485 0
4435 -4485 0
-4437 -4439 4487 0
4437 -4487 0
4439 -4487 0
-4441 -4443 4489 0
4441 -4489 0
4443 -4489 0
-4445 -4447 4491 0
4445 -4491 0
4447 -4491 0
-4449 -4451 4493 0
4449 -4493 0
4451 -4493 0
-4453 -4455 4495 0
4453 -4495 0
4455 -4495 0
-4457 -4459 4497 0
4457 -4497 0
4459 -4497 0
-4461 -4463 4499 0
4461 -4499 0
4463 -4499 0
-4465 -4467 4501 0
4465 -4501 0
4467 -4501 0
-4466 -4468 4503 0
4468 -4503 0
4466 -4503 0
-4470 -4472 4505 0
4470 -4505 0
4472 -4505 0
-4474 -4475 4507 0
4474 -4507 0
4475 -4507 0
-4476 -4478 4509 0
4476 -4509 0
4478 -4509 0
-4480 -4481 4511 0
4480 -4511 0
4481 -4511 0
-4482 -4483 4559 0
4482 -4559 0
4483 -4559 0
-4484 -4486 4515 0
4484 -4515 0
4486 -4515 0
-4488 -4490 4517 0
4488 -4517 0
4490 -4517 0
-4492 -4494 4519 0
4492 -4519 0
4494 -4519 0
-4496 -4498 4521 0
4496 -4521 0
4498 -4521 0
-4500 -4502 4562 0
4500 -4562 0
4502 -4562 0
-4504 -4506 4524 0
4504 -4524 0
4506 -4524 0
-4508 -4510 4526 0
4508 -4526 0
4510 -4526 0
-4512 -4513 4528 0
4512 -4528 0
4513 -4528 0
-4514 -4516 4530 0
4514 -4530 0
4516 -4530 0
-4518 -4520 4532 0
4518 -4532 0
4520 -4532 0
-4469 -4522 4534 0
4522 -4534 0
4469 -4534 0
-4523 -4525 4536 0
4523 -4536 0
4525 -4536 0
-4527 -4529 4538 0
4527 -4538 0
4529 -4538 0
-4531 -4533 4540 0
4531 -4540 0
4533 -4540 0
-4535 -4537 4541 0
4535 -4541 0
4537 -4541 0
-4471 -4473 4647 0
4471 -4647 0
4473 -4647 0
-4477 -4479 4613 0
4477 -4613 0
4479 -4613 0
-4485 -4487 4548 0
4485 -4548 0
4487 -4548 0
-4489 -4491 4550 0
4489 -4550 0
4491 -4550 0
-4493 -4495 4552 0
4493 -4552 0
4495 -4552 0
-4497 -4499 4554 0
4497 -4554 0
4499 -4554 0
-4501 -4503 4618 0
4501 -4618 0
4503 -4618 0
-4505 -4507 4556 0
4505 -4556 0
4507 -4556 0
-4509 -4511 4558 0
4509 -4558 0
4511 -4558 0
-4515 -4517 4620 0
4515 -4620 0
4517 -4620 0
-4519 -4521 4621 0
4519 -4621 0
4521 -4621 0
-4524 -4526 4564 0
4524 -4564 0
4526 -4564 0
-4528 -4530 4566 0
4528 -4566 0
4530 -4566 0
-4532 -4534 4568 0
4532 -4568 0
4534 -4568 0
-4536 -4538 4570 0
4536 -4570 0
4538 -4570 0
-4540 -4541 4626 0
4540 -4626 0
4541 -4626 0
-4542 -4543 4627 0
4542 -4627 0
4543 -4627 0
-4544 -4545 4575 0
4544 -4575 0
4545 -4575 0
-4546 -4547 4577 0
4546 -4577 0
4547 -4577 0
-4549 -4551 4579 0
4549 -4579 0
4551 -4579 0
-4553 -4555 4581 0
4553 -4581 0
4555 -4581 0
-4557 -4559 4632 0
4557 -4632 0
4559 -4632 0
-4560 -4561 4585 0
4560 -4585 0
4561 -4585 0
-4562 -4563 4587 0
4562 -4587 0
4563 -4587 0
-4565 -4567 4589 0
4565 -4589 0
4567 -4589 0
-4569 -4571 4591 0
4569 -4591 0
4571 -4591 0
-4539 -4572 4593 0
4539 -4593 0
4572 -4593 0
-4573 -4574 4595 0
4573 -4595 0
4574 -4595 0
-4576 -4578 4597 0
4576 -4597 0
4578 -4597 0
-4580 -4582 4599 0
4580 -4599 0
4582 -4599 0
-4583 -4584 4601 0
4583 -4601 0
4584 -4601 0
-4586 -4588 4603 0
4586 -4603 0
4588 -4603 0
-4590 -4592 4605 0
4590 -4605 0
4592 -4605 0
-4594 -4596 4607 0
4594 -4607 0
4596 -4607 0
-4598 -4600 4609 0
4598 -4609 0
4600 -4609 0
-4602 -4604 4611 0
4602 -4611 0
4604 -4611 0
-4606 -4608 4612 0
4606 -4612 0
4608 -4612 0
-4548 -4550 4615 0
4548 -4615 0
4550 -4615 0
-4552 -4554 4617 0
4552 -4617 0
4554 -4617 0
-4556 -4558 4688 0
4556 -4688 0
4558 -4688 0
-4564 -4566 4623 0
4564 -4623 0
4566 -4623 0
-4568 -4570 4625 0
4568 -4625 0
4570 -4625 0
-4575 -4577 4629 0
4575 -4629 0
4577 -4629 0
-4579 -4581 4631 0
4579 -4631 0
4581 -4631 0
-4585 -4587 4690 0
4585 -4690 0
4587 -4690 0
-4589 -4591 4635 0
4589 -4635 0
4591 -4635 0
-4593 -4595 4637 0
4593 -4637 0
4595 -4637 0
-4597 -4599 4639 0
4597 -4639 0
4599 -4639 0
-4601 -4603 4641 0
4601 -4641 0
4603 -4641 0
-4605 -4607 4643 0
4605 -4643 0
4607 -4643 0
-4609 -4611 4645 0
4609 -4645 0
4611 -4645 0
-4610 -4612 4696 0
4612 -4696 0
4610 -4696 0
-4614 -4616 4697 0
4614 -4697 0
4616 -4697 0
-4618 -4619 4650 0
4618 -4650 0
4619 -4650 0
-4620 -4621 4652 0
4620 -4652 0
4621 -4652 0
-4622 -4624 4654 0
4622 -4654 0
4624 -4654 0
-4626 -4627 4656 0
4626 -4656 0
4627 -4656 0
-4628 -4630 4658 0
4628 -4658 0
4630 -4658 0
-4632 -4633 4660 0
4632 -4660 0
4633 -4660 0
-4634 -4636 4662 0
4634 -4662 0
4636 -4662 0
-4638 -4640 4664 0
4638 -4664 0
4640 -4664 0
-4642 -4644 4666 0
4642 -4666 0
4644 -4666 0
-4646 -4647 4668 0
4646 -4668 0
4647 -4668 0
-4613 -4648 4670 0
4613 -4670 0
4648 -4670 0
-4649 -4651 4672 0
4649 -4672 0
4651 -4672 0
-4653 -4655 4674 0
4653 -4674 0
4655 -4674 0
-4657 -4659 4676 0
4657 -4676 0
4659 -4676 0
-4661 -4663 4678 0
4661 -4678 0
4663 -4678 0
-4665 -4667 4680 0
4665 -4680 0
4667 -4680 0
-4669 -4671 4682 0
4669 -4682 0
4671 -4682 0
-4673 -4675 4684 0
4673 -4684 0
4675 -4684 0
-4677 -4679 4686 0
4677 -4686 0
4679 -4686 0
-4681 -4683 4687 0
4681 -4687 0
4683 -4687 0
-4615 -4617 4757 0
4615 -4757 0
4617 -4757 0
-4623 -4625 4758 0
4623 -4758 0
4625 -4758 0
-4629 -4631 4759 0
4629 -4759 0
4631 -4759 0
-4635 -4637 4760 0
4635 -4760 0
4637 -4760 0
-4639 -4641 4693 0
4639 -4693 0
4641 -4693 0
-4643 -4645 4695 0
4643 -4695 0
4645 -4695 0
-4650 -4652 4699 0
4650 -4699 0
4652 -4699 0
-4654 -4656 4701 0
4654 -4701 0
4656 -4701 0
-4658 -4660 4703 0
4658 -4703 0
4660 -4703 0
-4662 -4664 4705 0
4662 -4705 0
4664 -4705 0
-4666 -4668 4707 0
4666 -4707 0
4668 -4707 0
-4670 -4672 4709 0
4670 -4709 0
4672 -4709 0
-4674 -4676 4711 0
4674 -4711 0
4676 -4711 0
-4678 -4680 4713 0
4678 -4713 0
4680 -4713 0
-4682 -4684 4715 0
4682 -4715 0
4684 -4715 0
-4686 -4687 4717 0
4686 -4717 0
4687 -4717 0
-4689 -4690 4721 0
4689 -4721 0
4690 -4721 0
-4691 -4692 4723 0
4691 -4723 0
4692 -4723 0
-4694 -4696 4725 0
4694 -4725 0
4696 -4725 0
-4697 -4698 4727 0
4697 -4727 0
4698 -4727 0
-4700 -4702 4729 0
4700 -4729 0
4702 -4729 0
-4704 -4706 4731 0
4704 -4731 0
4706 -4731 0
-4708 -4710 4733 0
4708 -4733 0
4710 -4733 0
-4712 -4714 4735 0
4712 -4735 0
4714 -4735 0
-4685 -4716 4737 0
4716 -4737 0
4685 -4737 0
-4688 -4718 4739 0
4718 -4739 0
4688 -4739 0
-4719 -4720 4741 0
4719 -4741 0
4720 -4741 0
-4722 -4724 4743 0
4722 -4743 0
4724 -4743 0
-4726 -4728 4745 0
4726 -4745 0
4728 -4745 0
-4730 -4732 4747 0
4730 -4747 0
4732 -4747 0
-4734 -4736 4749 0
4734 -4749 0
4736 -4749 0
-4738 -4740 4751 0
4738 -4751 0
4740 -4751 0
-4742 -4744 4753 0
4742 -4753 0
4744 -4753 0
-4746 -4748 4755 0
4746 -4755 0
4748 -4755 0
-4750 -4752 4756 0
4750 -4756 0
4752 -4756 0
-4693 -4695 4850 0
4693 -4850 0
4695 -4850 0
-4699 -4701 4822 0
4699 -4822 0
4701 -4822 0
-4703 -4705 4763 0
4703 -4763 0
4705 -4763 0
-4707 -4709 4765 0
4707 -4765 0
4709 -4765 0
-4711 -4713 4767 0
4711 -4767 0
4713 -4767 0
-4715 -4717 4769 0
4715 -4769 0
4717 -4769 0
-4721 -4723 4771 0
4721 -4771 0
4723 -4771 0
-4725 -4727 4773 0
4725 -4773 0
4727 -4773 0
-4729 -4731 4775 0
4729 -4775 0
4731 -4775 0
-4733 -4735 4777 0
4733 -4777 0
4735 -4777 0
-4737 -4739 4779 0
4737 -4779 0
4739 -4779 0
-4741 -4743 4781 0
4741 -4781 0
4743 -4781 0
-4745 -4747 4783 0
4745 -4783 0
4747 -4783 0
-4749 -4751 4785 0
4749 -4785 0
4751 -4785 0
-4753 -4755 4787 0
4753 -4787 0
4755 -4787 0
-4754 -4756 4789 0
4756 -4789 0
4754 -4789 0
-4758 -4759 4835 0
4758 -4835 0
4759 -4835 0
-4760 -4761 4836 0
4760 -4836 0
4761 -4836 0
-4762 -4764 4794 0
4762 -4794 0
4764 -4794 0
-4766 -4768 4796 0
4766 -4796 0
4768 -4796 0
-4770 -4772 4838 0
4770 -4838 0
4772 -4838 0
-4774 -4776 4798 0
4774 -4798 0
4776 -4798 0
-4778 -4780 4800 0
4778 -4800 0
4780 -4800 0
-4782 -4784 4802 0
4782 -4802 0
4784 -4802 0
-4786 -4788 4804 0
4786 -4804 0
4788 -4804 0
-4757 -4790 4806 0
4757 -4806 0
4790 -4806 0
-4791 -4792 4808 0
4791 -4808 0
4792 -4808 0
-4793 -4795 4844 0
4793 -4844 0
4795 -4844 0
-4797 -4799 4812 0
4797 -4812 0
4799 -4812 0
-4801 -4803 4814 0
4801 -4814 0
4803 -4814 0
-4805 -4807 4816 0
4805 -4816 0
4807 -4816 0
-4809 -4810 4818 0
4809 -4818 0
4810 -4818 0
-4811 -4813 4820 0
4811 -4820 0
4813 -4820 0
-4815 -4817 4821 0
4815 -4821 0
4817 -4821 0
-4763 -4765 4824 0
4763 -4824 0
4765 -4824 0
-4767 -4769 4825 0
4767 -4825 0
4769 -4825 0
-4771 -4773 4888 0
4771 -4888 0
4773 -4888 0
-4775 -4777 4828 0
4775 -4828 0
4777 -4828 0
-4779 -4781 4830 0
4779 -4830 0
4781 -4830 0
-4783 -4785 4832 0
4783 -4832 0
4785 -4832 0
-4787 -4789 4834 0
4787 -4834 0
4789 -4834 0
-4794 -4796 4893 0
4794 -4893 0
4796 -4893 0
-4798 -4800 4840 0
4798 -4840 0
4800 -4840 0
-4802 -4804 4842 0
4802 -4842 0
4804 -4842 0
-4806 -4808 4895 0
4806 -4895 0
4808 -4895 0
-4812 -4814 4846 0
4812 -4846 0
4814 -4846 0
-4816 -4818 4848 0
4816 -4848 0
4818 -4848 0
-4820 -4821 4897 0
4820 -4897 0
4821 -4897 0
-4822 -4823 4898 0
4822 -4898 0
4823 -4898 0
-4826 -4827 4899 0
4826 -4899 0
4827 -4899 0
-4829 -4831 4855 0
4829 -4855 0
4831 -4855 0
-4833 -4835 4857 0
4833 -4857 0
4835 -4857 0
-4836 -4837 4859 0
4836 -4859 0
4837 -4859 0
-4838 -4839 4861 0
4838 -4861 0
4839 -4861 0
-4841 -4843 4863 0
4841 -4863 0
4843 -4863 0
-4844 -4845 4865 0
4844 -4865 0
4845 -4865 0
-4847 -4849 4867 0
4847 -4867 0
4849 -4867 0
-4819 -4850 4869 0
4819 -4869 0
4850 -4869 0
-4851 -4852 4871 0
4851 -4871 0
4852 -4871 0
-4853 -4854 4873 0
4853 -4873 0
4854 -4873 0
-4856 -4858 4875 0
4856 -4875 0
4858 -4875 0
-4860 -4862 4877 0
4860 -4877 0
4862 -4877 0
-4864 -4866 4879 0
4864 -4879 0
4866 -4879 0
-4868 -4870 4881 0
4868 -4881 0
4870 -4881 0
-4872 -4874 4883 0
4872 -4883 0
4874 -4883 0
-4876 -4878 4885 0
4876 -4885 0
4878 -4885 0
-4880 -4882 4886 0
4880 -4886 0
4882 -4886 0
-4824 -4825 4950 0
4824 -4950 0
4825 -4950 0
-4828 -4830 4890 0
4828 -4890 0
4830 -4890 0
-4832 -4834 4892 0
4832 -4892 0
4834 -4892 0
-4840 -4842 4977 0
4840 -4977 0
4842 -4977 0
-4846 -4848 4952 0
4846 -4952 0
4848 -4952 0
-4855 -4857 4901 0
4855 -4901 0
4857 -4901 0
-4859 -4861 4903 0
4859 -4903 0
4861 -4903 0
-4863 -4865 4905 0
4863 -4905 0
4865 -4905 0
-4867 -4869 4907 0
4867 -4907 0
4869 -4907 0
-4871 -4873 4909 0
4871 -4909 0
4873 -4909 0
-4875 -4877 4911 0
4875 -4911 0
4877 -4911 0
-4879 -4881 4913 0
4879 -4913 0
4881 -4913 0
-4883 -4885 4915 0
4883 -4915 0
4885 -4915 0
-4884 -4886 4959 0
4886 -4959 0
4884 -4959 0
-4887 -4888 4917 0
4887 -4917 0
4888 -4917 0
-4889 -4891 4919 0
4889 -4919 0
4891 -4919 0
-4894 -4895 4961 0
4894 -4961 0
4895 -4961 0
-4896 -4897 4922 0
4896 -4922 0
4897 -4922 0
-4898 -4899 4924 0
4898 -4924 0
4899 -4924 0
-4900 -4902 4926 0
4900 -4926 0
4902 -4926 0
-4904 -4906 4928 0
4904 -4928 0
4906 -4928 0
-4908 -4910 4930 0
4908 -4930 0
4910 -4930 0
-4912 -4914 4932 0
4912 -4932 0
4914 -4932 0
-4916 -4918 4967 0
4916 -4967 0
4918 -4967 0
-4893 -4920 4936 0
4893 -4936 0
4920 -4936 0
-4921 -4923 4938 0
4921 -4938 0
4923 -4938 0
-4925 -4927 4940 0
4925 -4940 0
4927 -4940 0
-4929 -4931 4942 0
4929 -4942 0
4931 -4942 0
-4933 -4934 4944 0
4933 -4944 0
4934 -4944 0
-4935 -4937 4946 0
4935 -4946 0
4937 -4946 0
-4939 -4941 4948 0
4939 -4948 0
4941 -4948 0
-4943 -4945 4949 0
4943 -4949 0
4945 -4949 0
-4890 -4892 5011 0
4890 -5011 0
4892 -5011 0
-4901 -4903 5012 0
4901 -5012 0
4903 -5012 0
-4905 -4907 4955 0
4905 -4955 0
4907 -4955 0
-4909 -4911 4957 0
4909 -4957 0
4911 -4957 0
-4913 -4915 5014 0
4913 -5014 0
4915 -5014 0
-4917 -4919 5015 0
4917 -5015 0
4919 -5015 0
-4922 -4924 4963 0
4922 -4963 0
4924 -4963 0
-4926 -4928 4965 0
4926 -4965 0
4928 -4965 0
-4930 -4932 5017 0
4930 -5017 0
4932 -5017 0
-4936 -4938 4969 0
4936 -4969 0
4938 -4969 0
-4940 -4942 4971 0
4940 -4971 0
4942 -4971 0
-4944 -4946 4973 0
4944 -4973 0
4946 -4973 0
-4948 -4949 4975 0
4948 -4975 0
4949 -4975 0
-4950 -4951 5020 0
4950 -5020 0
4951 -5020 0
-4953 -4954 4979 0
4953 -4979 0
4954 -4979 0
-4956 -4958 4981 0
4956 -4981 0
4958 -4981 0
-4959 -4960 4983 0
4959 -4983 0
4960 -4983 0
-4961 -4962 4985 0
4961 -4985 0
4962 -4985 0
-4964 -4966 4987 0
4964 -4987 0
4966 -4987 0
-4967 -4968 4989 0
4967 -4989 0
4968 -4989 0
-4970 -4972 4991 0
4970 -4991 0
4972 -4991 0
-4947 -4974 4993 0
4974 -4993 0
4947 -4993 0
-4976 -4977 4995 0
4976 -4995 0
4977 -4995 0
-4952 -4978 4997 0
4952 -4997 0
4978 -4997 0
-4980 -4982 4999 0
4980 -4999 0
4982 -4999 0
-4984 -4986 5001 0
4984 -5001 0
4986 -5001 0
-4988 -4990 5003 0
4988 -5003 0
4990 -5003 0
-4992 -4994 5005 0
4992 -5005 0
4994 -5005 0
-4996 -4998 5007 0
4996 -5007 0
4998 -5007 0
-5000 -5002 5009 0
5000 -5009 0
5002 -5009 0
-5004 -5006 5010 0
5004 -5010 0
5006 -5010 0
-4955 -4957 5070 0
4955 -5070 0
4957 -5070 0
-4963 -4965 5071 0
4963 -5071 0
4965 -5071 0
-4969 -4971 5072 0
4969 -5072 0
4971 -5072 0
-4973 -4975 5073 0
4973 -5073 0
4975 -5073 0
-4979 -4981 5074 0
4979 -5074 0
4981 -5074 0
-4983 -4985 5022 0
4983 -5022 0
4985 -5022 0
-4987 -4989 5024 0
4987 -5024 0
4989 -5024 0
-4991 -4993 5026 0
4991 -5026 0
4993 -5026 0
-4995 -4997 5028 0
4995 -5028 0
4997 -5028 0
-4999 -5001 5030 0
4999 -5030 0
5001 -5030 0
-5003 -5005 5032 0
5003 -5032 0
5005 -5032 0
-5007 -5009 5034 0
5007 -5034 0
5009 -5034 0
-5008 -5010 5036 0
5010 -5036 0
5008 -5036 0
-5013 -5014 5038 0
5013 -5038 0
5014 -5038 0
-5015 -5016 5040 0
5015 -5040 0
5016 -5040 0
-5017 -5018 5042 0
5017 -5042 0
5018 -5042 0
-5019 -5020 5044 0
5019 -5044 0
5020 -5044 0
-5021 -5023 5084 0
5021 -5084 0
5023 -5084 0
-5025 -5027 5048 0
5025 -5048 0
5027 -5048 0
-5029 -5031 5050 0
5029 -5050 0
5031 -5050 0
-5033 -5035 5052 0
5033 -5052 0
5035 -5052 0
-5011 -5012 5054 0
5011 -5054 0
5012 -5054 0
-5037 -5039 5056 0
5037 -5056 0
5039 -5056 0
-5041 -5043 5058 0
5041 -5058 0
5043 -5058 0
-5045 -5046 5060 0
5045 -5060 0
5046 -5060 0
-5047 -5049 5062 0
5047 -5062 0
5049 -5062 0
-5051 -5053 5064 0
5051 -5064 0
5053 -5064 0
-5055 -5057 5066 0
5055 -5066 0
5057 -5066 0
-5059 -5061 5068 0
5059 -5068 0
5061 -5068 0
-5063 -5065 5069 0
5063 -5069 0
5065 -5069 0
-5022 -5024 5127 0
5022 -5127 0
5024 -5127 0
-5026 -5028 5077 0
5026 -5077 0
5028 -5077 0
-5030 -5032 5079 0
5030 -5079 0
5032 -5079 0
-5034 -5036 5129 0
5034 -5129 0
5036 -5129 0
-5038 -5040 5081 0
5038 -5081 0
5040 -5081 0
-5042 -5044 5083 0
5042 -5083 0
5044 -5083 0
-5048 -5050 5131 0
5048 -5131 0
5050 -5131 0
-5052 -5054 5087 0
5052 -5087 0
5054 -5087 0
-5056 -5058 5089 0
5056 -5089 0
5058 -5089 0
-5060 -5062 5091 0
5060 -5091 0
5062 -5091 0
-5064 -5066 5093 0
5064 -5093 0
5066 -5093 0
-5068 -5069 5136 0
5068 -5136 0
5069 -5136 0
-5071 -5072 5137 0
5071 -5137 0
5072 -5137 0
-5073 -5074 5097 0
5073 -5097 0
5074 -5097 0
-5075 -5076 5099 0
5075 -5099 0
5076 -5099 0
-5078 -5080 5139 0
5078 -5139 0
5080 -5139 0
-5082 -5084 5103 0
5082 -5103 0
5084 -5103 0
-5085 -5086 5105 0
5085 -5105 0
5086 -5105 0
-5088 -5090 5107 0
5088 -5107 0
5090 -5107 0
-5092 -5094 5109 0
5092 -5109 0
5094 -5109 0
-5067 -5070 5111 0
5067 -5111 0
5070 -5111 0
-5095 -5096 5113 0
5095 -5113 0
5096 -5113 0
-5098 -5100 5115 0
5098 -5115 0
5100 -5115 0
-5101 -5102 5117 0
5101 -5117 0
5102 -5117 0
-5104 -5106 5119 0
5104 -5119 0
5106 -5119 0
-5108 -5110 5121 0
5108 -5121 0
5110 -5121 0
-5112 -5114 5123 0
5112 -5123 0
5114 -5123 0
-5116 -5118 5125 0
5116 -5125 0
5118 -5125 0
-5120 -5122 5126 0
5120 -5126 0
5122 -5126 0
-5077 -5079 5182 0
5077 -5182 0
5079 -5182 0
-5081 -5083 5183 0
5081 -5183 0
5083 -5183 0
-5087 -5089 5133 0
5087 -5133 0
5089 -5133 0
-5091 -5093 5135 0
5091 -5135 0
5093 -5135 0
-5097 -5099 5207 0
5097 -5207 0
5099 -5207 0
-5103 -5105 5141 0
5103 -5141 0
5105 -5141 0
-5107 -5109 5143 0
5107 -5143 0
5109 -5143 0
-5111 -5113 5145 0
5111 -5145 0
5113 -5145 0
-5115 -5117 5147 0
5115 -5147 0
5117 -5147 0
-5119 -5121 5149 0
5119 -5149 0
5121 -5149 0
-5123 -5125 5151 0
5123 -5151 0
5125 -5151 0
-5124 -5126 5190 0
5126 -5190 0
5124 -5190 0
-5128 -5129 5191 0
5128 -5191 0
5129 -5191 0
-5130 -5131 5154 0
5130 -5154 0
5131 -5154 0
-5132 -5134 5156 0
5132 -5156 0
5134 -5156 0
-5136 -5137 5158 0
5136 -5158 0
5137 -5158 0
-5138 -5139 5160 0
5138 -5160 0
5139 -5160 0
-5140 -5142 5162 0
5140 -5162 0
5142 -5162 0
-5144 -5146 5164 0
5144 -5164 0
5146 -5164 0
-5148 -5150 5197 0
5148 -5197 0
5150 -5197 0
-5127 -5152 5168 0
5127 -5168 0
5152 -5168 0
-5153 -5155 5170 0
5153 -5170 0
5155 -5170 0
-5157 -5159 5172 0
5157 -5172 0
5159 -5172 0
-5161 -5163 5174 0
5161 -5174 0
5163 -5174 0
-5165 -5166 5176 0
5165 -5176 0
5166 -5176 0
-5167 -5169 5178 0
5167 -5178 0
5169 -5178 0
-5171 -5173 5180 0
5171 -5180 0
5173 -5180 0
-5175 -5177 5181 0
5175 -5181 0
5177 -5181 0
-5133 -5135 5237 0
5133 -5237 0
5135 -5237 0
-5141 -5143 5238 0
5141 -5238 0
5143 -5238 0
-5145 -5147 5187 0
5145 -5187 0
5147 -5187 0
-5149 -5151 5189 0
5149 -5189 0
5151 -5189 0
-5154 -5156 5193 0
5154 -5193 0
5156 -5193 0
-5158 -5160 5195 0
5158 -5195 0
5160 -5195 0
-5162 -5164 5240 0
5162 -5240 0
5164 -5240 0
-5168 -5170 5199 0
5168 -5199 0
5170 -5199 0
-5172 -5174 5201 0
5172 -5201 0
5174 -5201 0
-5176 -5178 5203 0
5176 -5203 0
5178 -5203 0
-5180 -5181 5205 0
5180 -5205 0
5181 -5205 0
-5183 -5184 5245 0
5183 -5245 0
5184 -5245 0
-5185 -5186 5209 0
5185 -5209 0
5186 -5209 0
-5188 -5190 5211 0
5188 -5211 0
5190 -5211 0
-5191 -5192 5213 0
5191 -5213 0
5192 -5213 0
-5194 -5196 5215 0
5194 -5215 0
5196 -5215 0
-5197 -5198 5217 0
5197 -5217 0
5198 -5217 0
-5200 -5202 5219 0
5200 -5219 0
5202 -5219 0
-5179 -5204 5221 0
5204 -5221 0
5179 -5221 0
-5182 -5206 5223 0
5182 -5223 0
5206 -5223 0
-5207 -5208 5225 0
5207 -5225 0
5208 -5225 0
-5210 -5212 5227 0
5210 -5227 0
5212 -5227 0
-5214 -5216 5229 0
5214 -5229 0
5216 -5229 0
-5218 -5220 5231 0
5218 -5231 0
5220 -5231 0
-5222 -5224 5233 0
5222 -5233 0
5224 -5233 0
-5226 -5228 5235 0
5226 -5235 0
5228 -5235 0
-5230 -5232 5236 0
5230 -5236 0
5232 -5236 0
-5187 -5189 5286 0
5187 -5286 0
5189 -5286 0
-5193 -5195 5287 0
5193 -5287 0
5195 -5287 0
-5199 -5201 5242 0
5199 -5242 0
5201 -5242 0
-5203 -5205 5244 0
5203 -5244 0
5205 -5244 0
-5209 -5211 5247 0
5209 -5247 0
5211 -5247 0
-5213 -5215 5249 0
5213 -5249 0
5215 -5249 0
-5217 -5219 5251 0
5217 -5251 0
5219 -5251 0
-5221 -5223 5253 0
5221 -5253 0
5223 -5253 0
-5225 -5227 5255 0
5225 -5255 0
5227 -5255 0
-5229 -5231 5257 0
5229 -5257 0
5231 -5257 0
-5233 -5235 5259 0
5233 -5259 0
5235 -5259 0
-5234 -5236 5261 0
5236 -5261 0
5234 -5261 0
-5237 -5238 5296 0
5237 -5296 0
5238 -5296 0
-5239 -5240 5297 0
5239 -5297 0
5240 -5297 0
-5241 -5243 5298 0
5241 -5298 0
5243 -5298 0
-5246 -5248 5266 0
5246 -5266 0
5248 -5266 0
-5250 -5252 5268 0
5250 -5268 0
5252 -5268 0
-5254 -5256 5270 0
5254 -5270 0
5256 -5270 0
-5258 -5260 5272 0
5258 -5272 0
5260 -5272 0
-5262 -5263 5301 0
5262 -5301 0
5263 -5301 0
-5245 -5264 5276 0
5264 -5276 0
5245 -5276 0
-5265 -5267 5278 0
5265 -5278 0
5267 -5278 0
-5269 -5271 5280 0
5269 -5280 0
5271 -5280 0
-5273 -5274 5282 0
5273 -5282 0
5274 -5282 0
-5275 -5277 5284 0
5275 -5284 0
5277 -5284 0
-5279 -5281 5285 0
5279 -5285 0
5281 -5285 0
-5242 -5244 5335 0
5242 -5335 0
5244 -5335 0
-5247 -5249 5289 0
5247 -5289 0
5249 -5289 0
-5251 -5253 5291 0
5251 -5291 0
5253 -5291 0
-5255 -5257 5293 0
5255 -5293 0
5257 -5293 0
-5259 -5261 5295 0
5259 -5295 0
5261 -5295 0
-5266 -5268 5337 0
5266 -5337 0
5268 -5337 0
-5270 -5272 5338 0
5270 -5338 0
5272 -5338 0
-5276 -5278 5303 0
5276 -5303 0
5278 -5303 0
-5280 -5282 5305 0
5280 -5305 0
5282 -5305 0
-5284 -5285 5340 0
5284 -5340 0
5285 -5340 0
-5287 -5288 5341 0
5287 -5341 0
5288 -5341 0
-5290 -5292 5342 0
5290 -5342 0
5292 -5342 0
-5294 -5296 5311 0
5294 -5311 0
5296 -5311 0
-5297 -5298 5313 0
5297 -5313 0
5298 -5313 0
-5299 -5300 5315 0
5299 -5315 0
5300 -5315 0
-5301 -5302 5317 0
5301 -5317 0
5302 -5317 0
-5304 -5306 5319 0
5304 -5319 0
5306 -5319 0
-5283 -5286 5321 0
5283 -5321 0
5286 -5321 0
-5307 -5308 5323 0
5307 -5323 0
5308 -5323 0
-5309 -5310 5325 0
5309 -5325 0
5310 -5325 0
-5312 -5314 5327 0
5312 -5327 0
5314 -5327 0
-5316 -5318 5329 0
5316 -5329 0
5318 -5329 0
-5320 -5322 5331 0
5320 -5331 0
5322 -5331 0
-5324 -5326 5333 0
5324 -5333 0
5326 -5333 0
-5328 -5330 5334 0
5328 -5334 0
5330 -5334 0
-5289 -5291 5382 0
5289 -5382 0
5291 -5382 0
-5293 -5295 5383 0
5293 -5383 0
5295 -5383 0
-5303 -5305 5384 0
5303 -5384 0
5305 -5384 0
-5311 -5313 5344 0
5311 -5344 0
5313 -5344 0
-5315 -5317 5346 0
5315 -5346 0
5317 -5346 0
-5319 -5321 5348 0
5319 -5348 0
5321 -5348 0
-5323 -5325 5350 0
5323 -5350 0
5325 -5350 0
-5327 -5329 5352 0
5327 -5352 0
5329 -5352 0
-5331 -5333 5354 0
5331 -5354 0
5333 -5354 0
-5332 -5334 5389 0
5334 -5389 0
5332 -5389 0
-5335 -5336 5390 0
5335 -5390 0
5336 -5390 0
-5337 -5338 5358 0
5337 -5358 0
5338 -5358 0
-5339 -5340 5360 0
5339 -5360 0
5340 -5360 0
-5341 -5342 5362 0
5341 -5362 0
5342 -5362 0
-5343 -5345 5364 0
5343 -5364 0
5345 -5364 0
-5347 -5349 5366 0
5347 -5366 0
5349 -5366 0
-5351 -5353 5368 0
5351 -5368 0
5353 -5368 0
-5355 -5356 5396 0
5355 -5396 0
5356 -5396 0
-5357 -5359 5372 0
5357 -5372 0
5359 -5372 0
-5361 -5363 5374 0
5361 -5374 0
5363 -5374 0
-5365 -5367 5376 0
5365 -5376 0
5367 -5376 0
-5369 -5370 5378 0
5369 -5378 0
5370 -5378 0
-5371 -5373 5380 0
5371 -5380 0
5373 -5380 0
-5375 -5377 5381 0
5375 -5381 0
5377 -5381 0
-5344 -5346 5385 0
5344 -5385 0
5346 -5385 0
-5348 -5350 5387 0
5348 -5387 0
5350 -5387 0
-5352 -5354 5429 0
5352 -5429 0
5354 -5429 0
-5358 -5360 5430 0
5358 -5430 0
5360 -5430 0
-5362 -5364 5393 0
5362 -5393 0
5364 -5393 0
-5366 -5368 5395 0
5366 -5395 0
5368 -5395 0
-5372 -5374 5432 0
5372 -5432 0
5374 -5432 0
-5376 -5378 5399 0
5376 -5399 0
5378 -5399 0
-5380 -5381 5401 0
5380 -5401 0
5381 -5401 0
-5382 -5383 5434 0
5382 -5434 0
5383 -5434 0
-5386 -5388 5405 0
5386 -5405 0
5388 -5405 0
-5389 -5390 5407 0
5389 -5407 0
5390 -5407 0
-5391 -5392 5409 0
5391 -5409 0
5392 -5409 0
-5394 -5396 5411 0
5394 -5411 0
5396 -5411 0
-5397 -5398 5413 0
5397 -5413 0
5398 -5413 0
-5379 -5400 5415 0
5400 -5415 0
5379 -5415 0
-5384 -5402 5417 0
5402 -5417 0
5384 -5417 0
-5403 -5404 5419 0
5403 -5419 0
5404 -5419 0
-5406 -5408 5421 0
5406 -5421 0
5408 -5421 0
-5410 -5412 5423 0
5410 -5423 0
5412 -5423 0
-5414 -5416 5425 0
5414 -5425 0
5416 -5425 0
-5418 -5420 5427 0
5418 -5427 0
5420 -5427 0
-5422 -5424 5428 0
5422 -5428 0
5424 -5428 0
-5385 -5387 5470 0
5385 -5470 0
5387 -5470 0
-5393 -5395 5471 0
5393 -5471 0
5395 -5471 0
-5399 -5401 5472 0
5399 -5472 0
5401 -5472 0
-5405 -5407 5473 0
5405 -5473 0
5407 -5473 0
-5409 -5411 5436 0
5409 -5436 0
5411 -5436 0
-5413 -5415 5438 0
5413 -5438 0
5415 -5438 0
-5417 -5419 5440 0
5417 -5440 0
5419 -5440 0
-5421 -5423 5442 0
5421 -5442 0
5423 -5442 0
-5425 -5427 5444 0
5425 -5444 0
5427 -5444 0
-5426 -5428 5446 0
5428 -5446 0
5426 -5446 0
-5429 -5430 5449 0
5429 -5449 0
5430 -5449 0
-5431 -5432 5451 0
5431 -5451 0
5432 -5451 0
-5433 -5434 5479 0
5433 -5479 0
5434 -5479 0
-5435 -5437 5455 0
5435 -5455 0
5437 -5455 0
-5439 -5441 5457 0
5439 -5457 0
5441 -5457 0
-5443 -5445 5481 0
5443 -5481 0
5445 -5481 0
-5448 -5450 5460 0
5448 -5460 0
5450 -5460 0
-5452 -5453 5462 0
5452 -5462 0
5453 -5462 0
-5454 -5456 5464 0
5454 -5464 0
5456 -5464 0
-5447 -5458 5466 0
5458 -5466 0
5447 -5466 0
-5459 -5461 5468 0
5459 -5468 0
5461 -5468 0
-5463 -5465 5469 0
5463 -5469 0
5465 -5469 0
-5436 -5438 5475 0
5436 -5475 0
5438 -5475 0
-5440 -5442 5477 0
5440 -5477 0
5442 -5477 0
-5444 -5446 5511 0
5444 -5511 0
5446 -5511 0
-5449 -5451 5512 0
5449 -5512 0
5451 -5512 0
-5455 -5457 5513 0
5455 -5513 0
5457 -5513 0
-5460 -5462 5483 0
5460 -5483 0
5462 -5483 0
-5464 -5466 5485 0
5464 -5485 0
5466 -5485 0
-5468 -5469 5515 0
5468 -5515 0
5469 -5515 0
-5471 -5472 5516 0
5471 -5516 0
5472 -5516 0
-5473 -5474 5489 0
5473 -5489 0
5474 -5489 0
-5476 -5478 5491 0
5476 -5491 0
5478 -5491 0
-5479 -5480 5518 0
5479 -5518 0
5480 -5518 0
-5481 -5482 5495 0
5481 -5495 0
5482 -5495 0
-5484 -5486 5497 0
5484 -5497 0
5486 -5497 0
-5467 -5470 5499 0
5467 -5499 0
5470 -5499 0
-5487 -5488 5501 0
5487 -5501 0
5488 -5501 0
-5490 -5492 5503 0
5490 -5503 0
5492 -5503 0
-5493 -5494 5505 0
5493 -5505 0
5494 -5505 0
-5496 -5498 5507 0
5496 -5507 0
5498 -5507 0
-5500 -5502 5509 0
5500 -5509 0
5502 -5509 0
-5504 -5506 5510 0
5504 -5510 0
5506 -5510 0
-5475 -5477 5550 0
5475 -5550 0
5477 -5550 0
-5483 -5485 5551 0
5483 -5551 0
5485 -5551 0
-5489 -5491 5552 0
5489 -5552 0
5491 -5552 0
-5495 -5497 5520 0
5495 -5520 0
5497 -5520 0
-5499 -5501 5522 0
5499 -5522 0
5501 -5522 0
-5503 -5505 5524 0
5503 -5524 0
5505 -5524 0
-5507 -5509 5526 0
5507 -5526 0
5509 -5526 0
-5508 -5510 5557 0
5510 -5557 0
5508 -5557 0
-5511 -5512 5558 0
5511 -5558 0
5512 -5558 0
-5513 -5514 5530 0
5513 -5530 0
5514 -5530 0
-5515 -5516 5532 0
5515 -5532 0
5516 -5532 0
-5517 -5518 5534 0
5517 -5534 0
5518 -5534 0
-5519 -5521 5536 0
5519 -5536 0
5521 -5536 0
-5523 -5525 5563 0
5523 -5563 0
5525 -5563 0
-5527 -5528 5540 0
5527 -5540 0
5528 -5540 0
-5529 -5531 5542 0
5529 -5542 0
5531 -5542 0
-5533 -5535 5544 0
5533 -5544 0
5535 -5544 0
-5537 -5538 5546 0
5537 -5546 0
5538 -5546 0
-5539 -5541 5548 0
5539 -5548 0
5541 -5548 0
-5543 -5545 5549 0
5543 -5549 0
5545 -5549 0
-5520 -5522 5554 0
5520 -5554 0
5522 -5554 0
-5524 -5526 5556 0
5524 -5556 0
5526 -5556 0
-5530 -5532 5560 0
5530 -5560 0
5532 -5560 0
-5534 -5536 5562 0
5534 -5562 0
5536 -5562 0
-5540 -5542 5591 0
5540 -5591 0
5542 -5591 0
-5544 -5546 5566 0
5544 -5566 0
5546 -5566 0
-5548 -5549 5568 0
5548 -5568 0
5549 -5568 0
-5552 -5553 5593 0
5552 -5593 0
5553 -5593 0
-5555 -5557 5571 0
5555 -5571 0
5557 -5571 0
-5558 -5559 5573 0
5558 -5573 0
5559 -5573 0
-5561 -5563 5575 0
5561 -5575 0
5563 -5575 0
-5564 -5565 5577 0
5564 -5577 0
5565 -5577 0
-5547 -5567 5579 0
5567 -5579 0
5547 -5579 0
-5550 -5551 5581 0
5550 -5581 0
5551 -5581 0
-5569 -5570 5583 0
5569 -5583 0
5570 -5583 0
-5572 -5574 5585 0
5572 -5585 0
5574 -5585 0
-5576 -5578 5587 0
5576 -5587 0
5578 -5587 0
-5580 -5582 5589 0
5580 -5589 0
5582 -5589 0
-5584 -5586 5590 0
5584 -5590 0
5586 -5590 0
-5554 -5556 5622 0
5554 -5622 0
5556 -5622 0
-5560 -5562 5623 0
5560 -5623 0
5562 -5623 0
-5566 -5568 5635 0
5566 -5635 0
5568 -5635 0
-5571 -5573 5595 0
5571 -5595 0
5573 -5595 0
-5575 -5577 5597 0
5575 -5597 0
5577 -5597 0
-5579 -5581 5599 0
5579 -5599 0
5581 -5599 0
-5583 -5585 5601 0
5583 -5601 0
5585 -5601 0
-5587 -5589 5603 0
5587 -5603 0
5589 -5603 0
-5588 -5590 5605 0
5590 -5605 0
5588 -5605 0
-5591 -5592 5628 0
5591 -5628 0
5592 -5628 0
-5594 -5596 5629 0
5594 -5629 0
5596 -5629 0
-5598 -5600 5611 0
5598 -5611 0
5600 -5611 0
-5602 -5604 5613 0
5602 -5613 0
5604 -5613 0
-5607 -5608 5631 0
5607 -5631 0
5608 -5631 0
-5593 -5609 5616 0
5593 -5616 0
5609 -5616 0
-5610 -5612 5618 0
5610 -5618 0
5612 -5618 0
-5606 -5614 5620 0
5606 -5620 0
5614 -5620 0
-5615 -5617 5621 0
5615 -5621 0
5617 -5621 0
-5595 -5597 5655 0
5595 -5655 0
5597 -5655 0
-5599 -5601 5626 0
5599 -5626 0
5601 -5626 0
-5603 -5605 5627 0
5603 -5627 0
5605 -5627 0
-5611 -5613 5670 0
5611 -5670 0
5613 -5670 0
-5616 -5618 5657 0
5616 -5657 0
5618 -5657 0
-5620 -5621 5658 0
5620 -5658 0
5621 -5658 0
-5622 -5623 5659 0
5622 -5659 0
5623 -5659 0
-5624 -5625 5660 0
5624 -5660 0
5625 -5660 0
-5628 -5629 5639 0
5628 -5639 0
5629 -5639 0
-5630 -5631 5641 0
5630 -5641 0
5631 -5641 0
-5632 -5633 5643 0
5632 -5643 0
5633 -5643 0
-5619 -5634 5645 0
5619 -5645 0
5634 -5645 0
-5635 -5636 5647 0
5635 -5647 0
5636 -5647 0
-5637 -5638 5649 0
5637 -5649 0
5638 -5649 0
-5640 -5642 5651 0
5640 -5651 0
5642 -5651 0
-5644 -5646 5653 0
5644 -5653 0
5646 -5653 0
-5648 -5650 5654 0
5648 -5654 0
5650 -5654 0
-5626 -5627 5708 0
5626 -5708 0
5627 -5708 0
-5639 -5641 5662 0
5639 -5662 0
5641 -5662 0
-5643 -5645 5664 0
5643 -5664 0
5645 -5664 0
-5647 -5649 5666 0
5647 -5666 0
5649 -5666 0
-5651 -5653 5668 0
5651 -5668 0
5653 -5668 0
-5652 -5654 5690 0
5654 -5690 0
5652 -5690 0
-5655 -5656 5691 0
5655 -5691 0
5656 -5691 0
-5657 -5658 5672 0
5657 -5672 0
5658 -5672 0
-5659 -5660 5674 0
5659 -5674 0
5660 -5674 0
-5661 -5663 5676 0
5661 -5676 0
5663 -5676 0
-5665 -5667 5678 0
5665 -5678 0
5667 -5678 0
-5669 -5670 5694 0
5669 -5694 0
5670 -5694 0
-5671 -5673 5682 0
5671 -5682 0
5673 -5682 0
-5675 -5677 5684 0
5675 -5684 0
5677 -5684 0
-5679 -5680 5686 0
5679 -5686 0
5680 -5686 0
-5681 -5683 5687 0
5681 -5687 0
5683 -5687 0
-5662 -5664 5715 0
5662 -5715 0
5664 -5715 0
-5666 -5668 5716 0
5666 -5716 0
5668 -5716 0
-5672 -5674 5717 0
5672 -5717 0
5674 -5717 0
-5676 -5678 5718 0
5676 -5718 0
5678 -5718 0
-5682 -5684 5696 0
5682 -5696 0
5684 -5696 0
-5686 -5687 5698 0
5686 -5698 0
5687 -5698 0
-5688 -5689 5719 0
5688 -5719 0
5689 -5719 0
-5690 -5691 5701 0
5690 -5701 0
5691 -5701 0
-5692 -5693 5703 0
5692 -5703 0
5693 -5703 0
-5694 -5695 5705 0
5694 -5705 0
5695 -5705 0
-5685 -5697 5707 0
5697 -5707 0
5685 -5707 0
-5699 -5700 5722 0
5699 -5722 0
5700 -5722 0
-5702 -5704 5711 0
5702 -5711 0
5704 -5711 0
-5706 -5708 5713 0
5706 -5713 0
5708 -5713 0
-5709 -5710 5714 0
5709 -5714 0
5710 -5714 0
-5696 -5698 5742 0
5696 -5742 0
5698 -5742 0
-5701 -5703 5743 0
5701 -5743 0
5703 -5743 0
-5705 -5707 5744 0
5705 -5744 0
5707 -5744 0
-5711 -5713 5724 0
5711 -5724 0
5713 -5724 0
-5712 -5714 5726 0
5714 -5726 0
5712 -5726 0
-5715 -5716 5746 0
5715 -5746 0
5716 -5746 0
-5717 -5718 5747 0
5717 -5747 0
5718 -5747 0
-5719 -5720 5730 0
5719 -5730 0
5720 -5730 0
-5721 -5722 5732 0
5721 -5732 0
5722 -5732 0
-5723 -5725 5749 0
5723 -5749 0
5725 -5749 0
-5727 -5728 5736 0
5727 -5736 0
5728 -5736 0
-5729 -5731 5738 0
5729 -5738 0
5731 -5738 0
-5733 -5734 5740 0
5733 -5740 0
5734 -5740 0
-5735 -5737 5741 0
5735 -5741 0
5737 -5741 0
-5724 -5726 5767 0
5724 -5767 0
5726 -5767 0
-5730 -5732 5768 0
5730 -5768 0
5732 -5768 0
-5736 -5738 5769 0
5736 -5769 0
5738 -5769 0
-5740 -5741 5770 0
5740 -5770 0
5741 -5770 0
-5742 -5743 5771 0
5742 -5771 0
5743 -5771 0
-5744 -5745 5754 0
5744 -5754 0
5745 -5754 0
-5746 -5747 5756 0
5746 -5756 0
5747 -5756 0
-5748 -5749 5758 0
5748 -5758 0
5749 -5758 0
-5750 -5751 5760 0
5750 -5760 0
5751 -5760 0
-5752 -5753 5776 0
5752 -5776 0
5753 -5776 0
-5755 -5757 5763 0
5755 -5763 0
5757 -5763 0
-5739 -5759 5765 0
5759 -5765 0
5739 -5765 0
-5761 -5762 5766 0
5761 -5766 0
5762 -5766 0
-5754 -5756 5773 0
5754 -5773 0
5756 -5773 0
-5758 -5760 5775 0
5758 -5775 0
5760 -5775 0
-5763 -5765 5792 0
5763 -5792 0
5765 -5792 0
-5764 -5766 5793 0
5766 -5793 0
5764 -5793 0
-5768 -5769 5794 0
5768 -5794 0
5769 -5794 0
-5770 -5771 5780 0
5770 -5780 0
5771 -5780 0
-5772 -5774 5782 0
5772 -5782 0
5774 -5782 0
-5776 -5777 5796 0
5776 -5796 0
5777 -5796 0
-5767 -5778 5786 0
5767 -5786 0
5778 -5786 0
-5779 -5781 5788 0
5779 -5788 0
5781 -5788 0
-5783 -5784 5790 0
5783 -5790 0
5784 -5790 0
-5785 -5787 5791 0
5785 -5791 0
5787 -5791 0
-5773 -5775 5827 0
5773 -5827 0
5775 -5827 0
-5780 -5782 5813 0
5780 -5813 0
5782 -5813 0
-5786 -5788 5798 0
5786 -5798 0
5788 -5798 0
-5790 -5791 5800 0
5790 -5800 0
5791 -5800 0
-5792 -5793 5815 0
5792 -5815 0
5793 -5815 0
-5794 -5795 5804 0
5794 -5804 0
5795 -5804 0
-5796 -5797 5806 0
5796 -5806 0
5797 -5806 0
-5789 -5799 5817 0
5799 -5817 0
5789 -5817 0
-5802 -5803 5809 0
5802 -5809 0
5803 -5809 0
-5805 -5807 5811 0
5805 -5811 0
5807 -5811 0
-5801 -5808 5812 0
5801 -5812 0
5808 -5812 0
-5798 -5800 5832 0
5798 -5832 0
5800 -5832 0
-5804 -5806 5837 0
5804 -5837 0
5806 -5837 0
-5809 -5811 5819 0
5809 -5819 0
5811 -5819 0
-5810 -5812 5821 0
5812 -5821 0
5810 -5821 0
-5813 -5814 5833 0
5813 -5833 0
5814 -5833 0
-5816 -5817 5824 0
5816 -5824 0
5817 -5824 0
-5818 -5820 5826 0
5818 -5826 0
5820 -5826 0
-5815 -5822 5835 0
5822 -5835 0
5815 -5835 0
-5823 -5825 5830 0
5823 -5830 0
5825 -5830 0
-5827 -5828 5831 0
5827 -5831 0
5828 -5831 0
-5819 -5821 5856 0
5819 -5856 0
5821 -5856 0
-5824 -5826 5849 0
5824 -5849 0
5826 -5849 0
-5830 -5831 5850 0
5830 -5850 0
5831 -5850 0
-5833 -5834 5851 0
5833 -5851 0
5834 -5851 0
-5835 -5836 5841 0
5835 -5841 0
5836 -5841 0
-5829 -5832 5843 0
5829 -5843 0
5832 -5843 0
-5837 -5838 5845 0
5837 -5845 0
5838 -5845 0
-5839 -5840 5847 0
5839 -5847 0
5840 -5847 0
-5842 -5844 5848 0
5842 -5848 0
5844 -5848 0
-5841 -5843 5853 0
5841 -5853 0
5843 -5853 0
-5845 -5847 5855 0
5845 -5855 0
5847 -5855 0
-5846 -5848 5864 0
5848 -5864 0
5846 -5864 0
-5849 -5850 5865 0
5849 -5865 0
5850 -5865 0
-5852 -5854 5866 0
5852 -5866 0
5854 -5866 0
-5856 -5857 5867 0
5856 -5867 0
5857 -5867 0
-5851 -5858 5862 0
5851 -5862 0
5858 -5862 0
-5859 -5860 5863 0
5859 -5863 0
5860 -5863 0
-5853 -5855 5884 0
5853 -5884 0
5855 -5884 0
-5862 -5863 5881 0
5862 -5881 0
5863 -5881 0
-5864 -5865 5877 0
5864 -5877 0
5865 -5877 0
-5866 -5867 5872 0
5866 -5872 0
5867 -5872 0
-5861 -5868 5874 0
5868 -5874 0
5861 -5874 0
-5870 -5871 5879 0
5870 -5879 0
5871 -5879 0
-5869 -5873 5876 0
5873 -5876 0
5869 -5876 0
-5872 -5874 5888 0
5872 -5888 0
5874 -5888 0
-5875 -5876 5889 0
5876 -5889 0
5875 -5889 0
-5877 -5878 5890 0
5877 -5890 0
5878 -5890 0
-5879 -5880 5891 0
5879 -5891 0
5880 -5891 0
-5881 -5882 5886 0
5881 -5886 0
5882 -5886 0
-5883 -5884 5887 0
5883 -5887 0
5884 -5887 0
-5886 -5887 5897 0
5886 -5897 0
5887 -5897 0
-5888 -5889 5898 0
5888 -5898 0
5889 -5898 0
-5891 -5892 5899 0
5891 -5899 0
5892 -5899 0
-5890 -5893 5900 0
5893 -5900 0
5890 -5900 0
-5885 -5894 5896 0
5894 -5896 0
5885 -5896 0
-5895 -5896 5909 0
5896 -5909 0
5895 -5909 0
-5897 -5898 5904 0
5897 -5904 0
5898 -5904 0
-5899 -5900 5905 0
5899 -5905 0
5900 -5905 0
-5901 -5902 5906 0
5901 -5906 0
5902 -5906 0
-5904 -5905 5915 0
5904 -5915 0
5905 -5915 0
-5903 -5906 5911 0
5906 -5911 0
5903 -5911 0
-5907 -5908 5910 0
5907 -5910 0
5908 -5910 0
-5909 -5910 5913 0
-5911 -5912 5914 0
5911 -5914 0
5912 -5914 0
-5914 -5915 0
-5913 0
-2 -9 -96 0
2 9 -96 0
-2 9 96 0
2 -9 96 0
-17 -25 -96 0
17 25 -96 0
-17 25 96 0
17 -25 96 0
-3 -10 -97 0
3 10 -97 0
-3 10 97 0
3 -10 97 0
-34 -95 -99 0
34 95 -99 0
-34 95 99 0
34 -95 99 0
-96 -97 -100 0
96 97 -100 0
-96 97 100 0
96 -97 100 0
-98 -99 -101 0
98 99 -101 0
-98 99 101 0
98 -99 101 0
-100 -101 102 0
100 101 102 0
-100 101 -102 0
100 -101 -102 0
-4 -11 -103 0
4 11 -103 0
-4 11 103 0
4 -11 103 0
-18 -26 -105 0
18 26 -105 0
-18 26 105 0
18 -26 105 0
-35 -44 -107 0
35 44 -107 0
-35 44 107 0
35 -44 107 0
-103 -105 -114 0
103 105 -114 0
-103 105 114 0
103 -105 114 0
-107 -109 -115 0
107 109 -115 0
-107 109 115 0
107 -109 115 0
-110 -111 -117 0
110 111 -117 0
-110 111 117 0
110 -111 117 0
-112 -113 -119 0
112 113 -119 0
-112 113 119 0
112 -113 119 0
-114 -115 -121 0
114 115 -121 0
-114 115 121 0
114 -115 121 0
-117 -119 -121 0
117 119 -121 0
-117 119 121 0
117 -119 121 0
-5 -12 -124 0
5 12 -124 0
-5 12 124 0
5 -12 124 0
-19 -27 -126 0
19 27 -126 0
-19 27 126 0
19 -27 126 0
-36 -45 -128 0
36 45 -128 0
-36 45 128 0
36 -45 128 0
-54 -104 -130 0
54 104 -130 0
-54 104 130 0
54 -104 130 0
-106 -108 -142 0
106 108 -142 0
-106 108 142 0
106 -108 142 0
-116 -118 -133 0
116 118 -133 0
-116 118 133 0
116 -118 133 0
-120 -122 -135 0
120 122 -135 0
-120 122 135 0
120 -122 135 0
-121 -123 -137 0
121 123 -137 0
121 -123 137 0
-121 123 137 0
-124 -126 -139 0
124 126 -139 0
-124 126 139 0
124 -126 139 0
-128 -130 -141 0
128 130 -141 0
-128 130 141 0
128 -130 141 0
-133 -135 -143 0
133 135 -143 0
-133 135 143 0
133 -135 143 0
-137 -139 -144 0
137 139 -144 0
-137 139 144 0
137 -139 144 0
-141 -142 -146 0
141 142 -146 0
-141 142 146 0
141 -142 146 0
-132 -143 -148 0
132 143 -148 0
-132 143 148 0
132 -143 148 0
-144 -146 148 0
144 146 148 0
-144 146 -148 0
144 -146 -148 0
-6 -13 -167 0
6 13 -167 0
-6 13 167 0
6 -13 167 0
-20 -28 -152 0
20 28 -152 0
-20 28 152 0
20 -28 152 0
-37 -46 -154 0
37 46 -154 0
-37 46 154 0
37 -46 154 0
-55 -64 -156 0
55 64 -156 0
-55 64 156 0
55 -64 156 0
-125 -127 -158 0
125 127 -158 0
-125 127 158 0
125 -127 158 0
-129 -131 -160 0
129 131 -160 0
-129 131 160 0
129 -131 160 0
-134 -136 -173 0
134 136 -173 0
-134 136 173 0
134 -136 173 0
-138 -140 -162 0
138 140 -162 0
-138 140 162 0
138 -140 162 0
-145 -147 -165 0
145 147 -165 0
-145 147 165 0
145 -147 165 0
-149 -150 -166 0
149 150 -166 0
-149 150 166 0
149 -150 166 0
-152 -154 -168 0
152 154 -168 0
-152 154 168 0
152 -154 168 0
-156 -158 -170 0
156 158 -170 0
-156 158 170 0
156 -158 170 0
-160 -161 -172 0
160 161 -172 0
-160 161 172 0
160 -161 172 0
-162 -163 -174 0
162 163 -174 0
-162 163 174 0
162 -163 174 0
-164 -165 -176 0
164 165 -176 0
-164 165 176 0
164 -165 176 0
-166 -167 -178 0
166 167 -178 0
-166 167 178 0
166 -167 178 0
-168 -170 -180 0
168 170 -180 0
-168 170 180 0
168 -170 180 0
-172 -173 -182 0
172 173 -182 0
-172 173 182 0
172 -173 182 0
-174 -176 -184 0
174 176 -184 0
-174 176 184 0
174 -176 184 0
-178 -180 -186 0
178 180 -186 0
-178 180 186 0
178 -180 186 0
-182 -184 186 0
182 184 186 0
-182 184 -186 0
182 -184 -186 0
-7 -14 -216 0
7 14 -216 0
-7 14 216 0
7 -14 216 0
-21 -29 -190 0
21 29 -190 0
-21 29 190 0
21 -29 190 0
-38 -47 -192 0
38 47 -192 0
-38 47 192 0
38 -47 192 0
-56 -65 -194 0
56 65 -194 0
-56 65 194 0
56 -65 194 0
-74 -151 -196 0
74 151 -196 0
-74 151 196 0
74 -151 196 0
-153 -155 -198 0
153 155 -198 0
-153 155 198 0
153 -155 198 0
-157 -159 -200 0
157 159 -200 0
-157 159 200 0
157 -159 200 0
-169 -171 -206 0
169 171 -206 0
-169 171 206 0
169 -171 206 0
-175 -177 -208 0
175 177 -208 0
-175 177 208 0
175 -177 208 0
-179 -181 -210 0
179 181 -210 0
-179 181 210 0
179 -181 210 0
-183 -185 -212 0
183 185 -212 0
-183 185 212 0
183 -185 212 0
-187 -188 -214 0
187 188 -214 0
-187 188 214 0
187 -188 214 0
-190 -192 -217 0
190 192 -217 0
-190 192 217 0
190 -192 217 0
-194 -196 -218 0
194 196 -218 0
-194 196 218 0
194 -196 218 0
-198 -200 -220 0
198 200 -220 0
-198 200 220 0
198 -200 220 0
-201 -202 -222 0
201 202 -222 0
-201 202 222 0
201 -202 222 0
-203 -204 -224 0
203 204 -224 0
-203 204 224 0
203 -204 224 0
-205 -206 -226 0
205 206 -226 0
-205 206 226 0
205 -206 226 0
-207 -208 -228 0
207 208 -228 0
-207 208 228 0
207 -208 228 0
-210 -212 -230 0
210 212 -230 0
-210 212 230 0
210 -212 230 0
-214 -216 -232 0
214 216 -232 0
-214 216 232 0
214 -216 232 0
-217 -218 -234 0
217 218 -234 0
-217 218 234 0
217 -218 234 0
-220 -222 -236 0
220 222 -236 0
-220 222 236 0
220 -222 236 0
-224 -226 -238 0
224 226 -238 0
-224 226 238 0
224 -226 238 0
-228 -230 -240 0
228 230 -240 0
-228 230 240 0
228 -230 240 0
-232 -234 -242 0
232 234 -242 0
-232 234 242 0
232 -234 242 0
-236 -238 -244 0
236 238 -244 0
-236 238 244 0
236 -238 244 0
-240 -242 -244 0
240 242 -244 0
-240 242 244 0
240 -242 244 0
-8 -15 -247 0
8 15 -247 0
-8 15 247 0
8 -15 247 0
-22 -30 -249 0
22 30 -249 0
-22 30 249 0
22 -30 249 0
-39 -48 -251 0
39 48 -251 0
-39 48 251 0
39 -48 251 0
-57 -66 -253 0
57 66 -253 0
-57 66 253 0
57 -66 253 0
-75 -84 -255 0
75 84 -255 0
-75 84 255 0
75 -84 255 0
-189 -191 -257 0
189 191 -257 0
-189 191 257 0
189 -191 257 0
-193 -195 -259 0
193 195 -259 0
-193 195 259 0
193 -195 259 0
-197 -199 -261 0
197 199 -261 0
-197 199 261 0
197 -199 261 0
-209 -211 -264 0
209 211 -264 0
-209 211 264 0
209 -211 264 0
-213 -215 -265 0
213 215 -265 0
-213 215 265 0
213 -215 265 0
-219 -221 -267 0
219 221 -267 0
-219 221 267 0
219 -221 267 0
-223 -225 -269 0
223 225 -269 0
-223 225 269 0
223 -225 269 0
-227 -229 -271 0
227 229 -271 0
-227 229 271 0
227 -229 271 0
-231 -233 -273 0
231 233 -273 0
-231 233 273 0
231 -233 273 0
-235 -237 -275 0
235 237 -275 0
-235 237 275 0
235 -237 275 0
-239 -241 -277 0
239 241 -277 0
-239 241 277 0
239 -241 277 0
-243 -245 -279 0
243 245 -279 0
-243 245 279 0
243 -245 279 0
-244 -246 -281 0
244 246 -281 0
244 -246 281 0
-244 246 281 0
-247 -249 -283 0
247 249 -283 0
-247 249 283 0
247 -249 283 0
-251 -253 -285 0
251 253 -285 0
-251 253 285 0
251 -253 285 0
-255 -257 -287 0
255 257 -287 0
-255 257 287 0
255 -257 287 0
-259 -261 -289 0
259 261 -289 0
-259 261 289 0
259 -261 289 0
-264 -265 -291 0
264 265 -291 0
-264 265 291 0
264 -265 291 0
-266 -267 -293 0
266 267 -293 0
-266 267 293 0
266 -267 293 0
-269 -271 -295 0
269 271 -295 0
-269 271 295 0
269 -271 295 0
-273 -275 -297 0
273 275 -297 0
-273 275 297 0
273 -275 297 0
-277 -279 -299 0
277 279 -299 0
-277 279 299 0
277 -279 299 0
-281 -283 -301 0
281 283 -301 0
-281 283 301 0
281 -283 301 0
-285 -287 -303 0
285 287 -303 0
-285 287 303 0
285 -287 303 0
-262 -289 -305 0
262 289 -305 0
262 -289 305 0
-262 289 305 0
-263 -291 -307 0
263 291 -307 0
-263 291 307 0
263 -291 307 0
-293 -295 -309 0
293 295 -309 0
-293 295 309 0
293 -295 309 0
-297 -299 -311 0
297 299 -311 0
-297 299 311 0
297 -299 311 0
-301 -303 -313 0
301 303 -313 0
-301 303 313 0
301 -303 313 0
-305 -307 -315 0
305 307 -315 0
-305 307 315 0
305 -307 315 0
-309 -311 -317 0
309 311 -317 0
-309 311 317 0
309 -311 317 0
-313 -315 317 0
313 315 317 0
-313 315 -317 0
313 -315 -317 0
-16 -23 -319 0
16 23 -319 0
-16 23 319 0
16 -23 319 0
-31 -40 -321 0
31 40 -321 0
-31 40 321 0
31 -40 321 0
-49 -58 -323 0
49 58 -323 0
-49 58 323 0
49 -58 323 0
-67 -76 -325 0
67 76 -325 0
-67 76 325 0
67 -76 325 0
-85 -248 -327 0
85 248 -327 0
-85 248 327 0
85 -248 327 0
-250 -252 -329 0
250 252 -329 0
-250 252 329 0
250 -252 329 0
-254 -256 -331 0
254 256 -331 0
-254 256 331 0
254 -256 331 0
-258 -260 -333 0
258 260 -333 0
-258 260 333 0
258 -260 333 0
-268 -270 -338 0
268 270 -338 0
-268 270 338 0
268 -270 338 0
-272 -274 -340 0
272 274 -340 0
-272 274 340 0
272 -274 340 0
-276 -278 -342 0
276 278 -342 0
-276 278 342 0
276 -278 342 0
-280 -282 -344 0
280 282 -344 0
-280 282 344 0
280 -282 344 0
-284 -286 -346 0
284 286 -346 0
-284 286 346 0
284 -286 346 0
-288 -290 -348 0
288 290 -348 0
-288 290 348 0
288 -290 348 0
-292 -294 -377 0
292 294 -377 0
-292 294 377 0
292 -294 377 0
-296 -298 -350 0
296 298 -350 0
-296 298 350 0
296 -298 350 0
-300 -302 -352 0
300 302 -352 0
-300 302 352 0
300 -302 352 0
-304 -306 -354 0
304 306 -354 0
-304 306 354 0
304 -306 354 0
-308 -310 -356 0
308 310 -356 0
-308 310 356 0
308 -310 356 0
-312 -314 -358 0
312 314 -358 0
-312 314 358 0
312 -314 358 0
-316 -318 -360 0
316 318 -360 0
-316 318 360 0
316 -318 360 0
-319 -321 -363 0
319 321 -363 0
-319 321 363 0
319 -321 363 0
-323 -325 -364 0
323 325 -364 0
-323 325 364 0
323 -325 364 0
-327 -329 -366 0
327 329 -366 0
-327 329 366 0
327 -329 366 0
-331 -333 -368 0
331 333 -368 0
-331 333 368 0
331 -333 368 0
-336 -337 -369 0
336 337 -369 0
-336 337 369 0
336 -337 369 0
-338 -340 -371 0
338 340 -371 0
-338 340 371 0
338 -340 371 0
-342 -344 -373 0
342 344 -373 0
-342 344 373 0
342 -344 373 0
-346 -348 -375 0
346 348 -375 0
-346 348 375 0
346 -348 375 0
-350 -352 -378 0
350 352 -378 0
-350 352 378 0
350 -352 378 0
-354 -356 -379 0
354 356 -379 0
-354 356 379 0
354 -356 379 0
-358 -360 -381 0
358 360 -381 0
-358 360 381 0
358 -360 381 0
-362 -363 -383 0
362 363 -383 0
-362 363 383 0
362 -363 383 0
-364 -366 -385 0
364 366 -385 0
-364 366 385 0
364 -366 385 0
-335 -368 -387 0
335 368 -387 0
335 -368 387 0
-335 368 387 0
-369 -371 -389 0
369 371 -389 0
-369 371 389 0
369 -371 389 0
-373 -375 -391 0
373 375 -391 0
-373 375 391 0
373 -375 391 0
-377 -378 -393 0
377 378 -393 0
-377 378 393 0
377 -378 393 0
-379 -381 -395 0
379 381 -395 0
-379 381 395 0
379 -381 395 0
-383 -385 -397 0
383 385 -397 0
-383 385 397 0
383 -385 397 0
-387 -389 -399 0
387 389 -399 0
-387 389 399 0
387 -389 399 0
-391 -393 -401 0
391 393 -401 0
-391 393 401 0
391 -393 401 0
-395 -397 -403 0
395 397 -403 0
-395 397 403 0
395 -397 403 0
-399 -401 -403 0
399 401 -403 0
-399 401 403 0
399 -401 403 0
-24 -32 -406 0
24 32 -406 0
-24 32 406 0
24 -32 406 0
-41 -50 -408 0
41 50 -408 0
-41 50 408 0
41 -50 408 0
-59 -68 -410 0
59 68 -410 0
-59 68 410 0
59 -68 410 0
-77 -86 -412 0
77 86 -412 0
-77 86 412 0
77 -86 412 0
-320 -322 -414 0
320 322 -414 0
-320 322 414 0
320 -322 414 0
-324 -326 -416 0
324 326 -416 0
-324 326 416 0
324 -326 416 0
-328 -330 -418 0
328 330 -418 0
-328 330 418 0
328 -330 418 0
-332 -334 -457 0
332 334 -457 0
-332 334 457 0
332 -334 457 0
-339 -341 -458 0
339 341 -458 0
-339 341 458 0
339 -341 458 0
-343 -345 -420 0
343 345 -420 0
-343 345 420 0
343 -345 420 0
-347 -349 -422 0
347 349 -422 0
-347 349 422 0
347 -349 422 0
-351 -353 -425 0
351 353 -425 0
-351 353 425 0
351 -353 425 0
-355 -357 -426 0
355 357 -426 0
-355 357 426 0
355 -357 426 0
-359 -361 -428 0
359 361 -428 0
-359 361 428 0
359 -361 428 0
-365 -367 -431 0
365 367 -431 0
-365 367 431 0
365 -367 431 0
-370 -372 -433 0
370 372 -433 0
-370 372 433 0
370 -372 433 0
-374 -376 -434 0
374 376 -434 0
-374 376 434 0
374 -376 434 0
-380 -382 -436 0
380 382 -436 0
-380 382 436 0
380 -382 436 0
-384 -386 -438 0
384 386 -438 0
-384 386 438 0
384 -386 438 0
-388 -390 -440 0
388 390 -440 0
-388 390 440 0
388 -390 440 0
-392 -394 -442 0
392 394 -442 0
-392 394 442 0
392 -394 442 0
-396 -398 -444 0
396 398 -444 0
-396 398 444 0
396 -398 444 0
-400 -402 -446 0
400 402 -446 0
-400 402 446 0
400 -402 446 0
-404 -405 -448 0
404 405 -448 0
-404 405 448 0
404 -405 448 0
-403 -406 -450 0
403 406 -450 0
-403 406 450 0
403 -406 450 0
-408 -410 -452 0
408 410 -452 0
-408 410 452 0
408 -410 452 0
-412 -414 -454 0
412 414 -454 0
-412 414 454 0
412 -414 454 0
-416 -418 -456 0
416 418 -456 0
-416 418 456 0
416 -418 456 0
-420 -422 -459 0
420 422 -459 0
-420 422 459 0
420 -422 459 0
-424 -425 -460 0
424 425 -460 0
-424 425 460 0
424 -425 460 0
-426 -428 -462 0
426 428 -462 0
-426 428 462 0
426 -428 462 0
-430 -431 -464 0
430 431 -464 0
-430 431 464 0
430 -431 464 0
-432 -433 -466 0
432 433 -466 0
-432 433 466 0
432 -433 466 0
-434 -435 -468 0
434 435 -468 0
-434 435 468 0
434 -435 468 0
-436 -438 -470 0
436 438 -470 0
-436 438 470 0
436 -438 470 0
-440 -442 -472 0
440 442 -472 0
-440 442 472 0
440 -442 472 0
-444 -446 -474 0
444 446 -474 0
-444 446 474 0
444 -446 474 0
-448 -450 -476 0
448 450 -476 0
-448 450 476 0
448 -450 476 0
-452 -454 -478 0
452 454 -478 0
-452 454 478 0
452 -454 478 0
-456 -457 -480 0
456 457 -480 0
-456 457 480 0
456 -457 480 0
-458 -459 -482 0
458 459 -482 0
-458 459 482 0
458 -459 482 0
-460 -462 -484 0
460 462 -484 0
-460 462 484 0
460 -462 484 0
-464 -466 -486 0
464 466 -486 0
-464 466 486 0
464 -466 486 0
-468 -470 -488 0
468 470 -488 0
-468 470 488 0
468 -470 488 0
-472 -474 -490 0
472 474 -490 0
-472 474 490 0
472 -474 490 0
-476 -478 -492 0
476 478 -492 0
-476 478 492 0
476 -478 492 0
-480 -482 -494 0
480 482 -494 0
-480 482 494 0
480 -482 494 0
-484 -486 -496 0
484 486 -496 0
-484 486 496 0
484 -486 496 0
-488 -490 -498 0
488 490 -498 0
-488 490 498 0
488 -490 498 0
-492 -494 -500 0
492 494 -500 0
-492 494 500 0
492 -494 500 0
-496 -498 -500 0
496 498 -500 0
-496 498 500 0
496 -498 500 0
-33 -42 -503 0
33 42 -503 0
-33 42 503 0
33 -42 503 0
-51 -60 -505 0
51 60 -505 0
-51 60 505 0
51 -60 505 0
-69 -78 -507 0
69 78 -507 0
-69 78 507 0
69 -78 507 0
-87 -407 -509 0
87 407 -509 0
-87 407 509 0
87 -407 509 0
-409 -411 -511 0
409 411 -511 0
-409 411 511 0
409 -411 511 0
-413 -415 -513 0
413 415 -513 0
-413 415 513 0
413 -415 513 0
-417 -419 -515 0
417 419 -515 0
-417 419 515 0
417 -419 515 0
-421 -423 -518 0
421 423 -518 0
-421 423 518 0
421 -423 518 0
-427 -429 -520 0
427 429 -520 0
-427 429 520 0
427 -429 520 0
-437 -439 -524 0
437 439 -524 0
-437 439 524 0
437 -439 524 0
-441 -443 -525 0
441 443 -525 0
-441 443 525 0
441 -443 525 0
-445 -447 -527 0
445 447 -527 0
-445 447 527 0
445 -447 527 0
-449 -451 -529 0
449 451 -529 0
-449 451 529 0
449 -451 529 0
-453 -455 -531 0
453 455 -531 0
-453 455 531 0
453 -455 531 0
-461 -463 -535 0
461 463 -535 0
-461 463 535 0
461 -463 535 0
-465 -467 -537 0
465 467 -537 0
-465 467 537 0
465 -467 537 0
-469 -471 -539 0
469 471 -539 0
-469 471 539 0
469 -471 539 0
-473 -475 -541 0
473 475 -541 0
-473 475 541 0
473 -475 541 0
-477 -479 -543 0
477 479 -543 0
-477 479 543 0
477 -479 543 0
-481 -483 -545 0
481 483 -545 0
-481 483 545 0
481 -483 545 0
-485 -487 -547 0
485 487 -547 0
-485 487 547 0
485 -487 547 0
-489 -491 -549 0
489 491 -549 0
-489 491 549 0
489 -491 549 0
-493 -495 -551 0
493 495 -551 0
-493 495 551 0
493 -495 551 0
-497 -499 -553 0
497 499 -553 0
-497 499 553 0
497 -499 553 0
-501 -502 -555 0
501 502 -555 0
-501 502 555 0
501 -502 555 0
-500 -503 -557 0
500 503 -557 0
-500 503 557 0
500 -503 557 0
-505 -507 -559 0
505 507 -559 0
-505 507 559 0
505 -507 559 0
-509 -511 -561 0
509 511 -561 0
-509 511 561 0
509 -511 561 0
-513 -515 -563 0
513 515 -563 0
-513 515 563 0
513 -515 563 0
-516 -517 -565 0
516 517 -565 0
-516 517 565 0
516 -517 565 0
-518 -519 -567 0
518 519 -567 0
-518 519 567 0
518 -519 567 0
-520 -521 -569 0
520 521 -569 0
-520 521 569 0
520 -521 569 0
-522 -523 -571 0
522 523 -571 0
-522 523 571 0
522 -523 571 0
-524 -525 -573 0
524 525 -573 0
-524 525 573 0
524 -525 573 0
-527 -529 -575 0
527 529 -575 0
-527 529 575 0
527 -529 575 0
-531 -533 -577 0
531 533 -577 0
-531 533 577 0
531 -533 577 0
-534 -535 -579 0
534 535 -579 0
-534 535 579 0
534 -535 579 0
-537 -539 -581 0
537 539 -581 0
-537 539 581 0
537 -539 581 0
-541 -543 -583 0
541 543 -583 0
-541 543 583 0
541 -543 583 0
-545 -547 -585 0
545 547 -585 0
-545 547 585 0
545 -547 585 0
-549 -551 -587 0
549 551 -587 0
-549 551 587 0
549 -551 587 0
-553 -555 -589 0
553 555 -589 0
-553 555 589 0
553 -555 589 0
-557 -559 -591 0
557 559 -591 0
-557 559 591 0
557 -559 591 0
-561 -563 -593 0
561 563 -593 0
-561 563 593 0
561 -563 593 0
-565 -567 -595 0
565 567 -595 0
-565 567 595 0
565 -567 595 0
-569 -571 -597 0
569 571 -597 0
-569 571 597 0
569 -571 597 0
-573 -575 -599 0
573 575 -599 0
-573 575 599 0
573 -575 599 0
-577 -579 -601 0
577 579 -601 0
-577 579 601 0
577 -579 601 0
-581 -583 -603 0
581 583 -603 0
-581 583 603 0
581 -583 603 0
-585 -587 -605 0
585 587 -605 0
-585 587 605 0
585 -587 605 0
-589 -591 -607 0
589 591 -607 0
-589 591 607 0
589 -591 607 0
-593 -595 -609 0
593 595 -609 0
-593 595 609 0
593 -595 609 0
-597 -599 -611 0
597 599 -611 0
-597 599 611 0
597 -599 611 0
-601 -603 -613 0
601 603 -613 0
-601 603 613 0
601 -603 613 0
-605 -607 -615 0
605 607 -615 0
-605 607 615 0
605 -607 615 0
-609 -611 -617 0
609 611 -617 0
-609 611 617 0
609 -611 617 0
-613 -615 -617 0
613 615 -617 0
-613 615 617 0
613 -615 617 0
-43 -52 -620 0
43 52 -620 0
-43 52 620 0
43 -52 620 0
-61 -70 -622 0
61 70 -622 0
-61 70 622 0
61 -70 622 0
-79 -88 -624 0
79 88 -624 0
-79 88 624 0
79 -88 624 0
-504 -506 -626 0
504 506 -626 0
-504 506 626 0
504 -506 626 0
-508 -510 -628 0
508 510 -628 0
-508 510 628 0
508 -510 628 0
-512 -514 -630 0
512 514 -630 0
-512 514 630 0
512 -514 630 0
-526 -528 -635 0
526 528 -635 0
-526 528 635 0
526 -528 635 0
-530 -532 -689 0
530 532 -689 0
-530 532 689 0
530 -532 689 0
-536 -538 -638 0
536 538 -638 0
-536 538 638 0
536 -538 638 0
-540 -542 -639 0
540 542 -639 0
-540 542 639 0
540 -542 639 0
-544 -546 -641 0
544 546 -641 0
-544 546 641 0
544 -546 641 0
-548 -550 -643 0
548 550 -643 0
-548 550 643 0
548 -550 643 0
-552 -554 -645 0
552 554 -645 0
-552 554 645 0
552 -554 645 0
-556 -558 -647 0
556 558 -647 0
-556 558 647 0
556 -558 647 0
-560 -562 -649 0
560 562 -649 0
-560 562 649 0
560 -562 649 0
-564 -566 -651 0
564 566 -651 0
-564 566 651 0
564 -566 651 0
-568 -570 -653 0
568 570 -653 0
-568 570 653 0
568 -570 653 0
-572 -574 -655 0
572 574 -655 0
-572 574 655 0
572 -574 655 0
-576 -578 -657 0
576 578 -657 0
-576 578 657 0
576 -578 657 0
-580 -582 -659 0
580 582 -659 0
-580 582 659 0
580 -582 659 0
-584 -586 -661 0
584 586 -661 0
-584 586 661 0
584 -586 661 0
-588 -590 -663 0
588 590 -663 0
-588 590 663 0
588 -590 663 0
-592 -594 -665 0
592 594 -665 0
-592 594 665 0
592 -594 665 0
-596 -598 -667 0
596 598 -667 0
-596 598 667 0
596 -598 667 0
-600 -602 -669 0
600 602 -669 0
-600 602 669 0
600 -602 669 0
-604 -606 -671 0
604 606 -671 0
-604 606 671 0
604 -606 671 0
-608 -610 -673 0
608 610 -673 0
-608 610 673 0
608 -610 673 0
-612 -614 -675 0
612 614 -675 0
-612 614 675 0
612 -614 675 0
-616 -618 -677 0
616 618 -677 0
-616 618 677 0
616 -618 677 0
-617 -619 -679 0
617 619 -679 0
617 -619 679 0
-617 619 679 0
-620 -622 -681 0
620 622 -681 0
-620 622 681 0
620 -622 681 0
-624 -626 -683 0
624 626 -683 0
-624 626 683 0
624 -626 683 0
-628 -630 -685 0
628 630 -685 0
-628 630 685 0
628 -630 685 0
-631 -632 -687 0
631 632 -687 0
-631 632 687 0
631 -632 687 0
-634 -635 -688 0
634 635 -688 0
-634 635 688 0
634 -635 688 0
-638 -639 -690 0
638 639 -690 0
-638 639 690 0
638 -639 690 0
-641 -643 -692 0
641 643 -692 0
-641 643 692 0
641 -643 692 0
-645 -647 -694 0
645 647 -694 0
-645 647 694 0
645 -647 694 0
-649 -651 -696 0
649 651 -696 0
-649 651 696 0
649 -651 696 0
-653 -655 -698 0
653 655 -698 0
-653 655 698 0
653 -655 698 0
-657 -659 -700 0
657 659 -700 0
-657 659 700 0
657 -659 700 0
-661 -663 -702 0
661 663 -702 0
-661 663 702 0
661 -663 702 0
-665 -667 -704 0
665 667 -704 0
-665 667 704 0
665 -667 704 0
-669 -671 -706 0
669 671 -706 0
-669 671 706 0
669 -671 706 0
-673 -675 -708 0
673 675 -708 0
-673 675 708 0
673 -675 708 0
-677 -679 -710 0
677 679 -710 0
-677 679 710 0
677 -679 710 0
-681 -683 -712 0
681 683 -712 0
-681 683 712 0
681 -683 712 0
-685 -687 -714 0
685 687 -714 0
-685 687 714 0
685 -687 714 0
-633 -688 -716 0
633 688 -716 0
-633 688 716 0
633 -688 716 0
-689 -690 -718 0
689 690 -718 0
-689 690 718 0
689 -690 718 0
-692 -694 -720 0
692 694 -720 0
-692 694 720 0
692 -694 720 0
-696 -698 -722 0
696 698 -722 0
-696 698 722 0
696 -698 722 0
-700 -702 -724 0
700 702 -724 0
-700 702 724 0
700 -702 724 0
-704 -706 -726 0
704 706 -726 0
-704 706 726 0
704 -706 726 0
-708 -710 -728 0
708 710 -728 0
-708 710 728 0
708 -710 728 0
-712 -714 -730 0
712 714 -730 0
-712 714 730 0
712 -714 730 0
-716 -718 -732 0
716 718 -732 0
-716 718 732 0
716 -718 732 0
-720 -722 -734 0
720 722 -734 0
-720 722 734 0
720 -722 734 0
-724 -726 -736 0
724 726 -736 0
-724 726 736 0
724 -726 736 0
-728 -730 -738 0
728 730 -738 0
-728 730 738 0
728 -730 738 0
-732 -734 -740 0
732 734 -740 0
-732 734 740 0
732 -734 740 0
-736 -738 -740 0
736 738 -740 0
-736 738 740 0
736 -738 740 0
-53 -62 -743 0
53 62 -743 0
-53 62 743 0
53 -62 743 0
-71 -80 -745 0
71 80 -745 0
-71 80 745 0
71 -80 745 0
-89 -621 -747 0
89 621 -747 0
-89 621 747 0
89 -621 747 0
-623 -625 -749 0
623 625 -749 0
-623 625 749 0
623 -625 749 0
-627 -629 -751 0
627 629 -751 0
-627 629 751 0
627 -629 751 0
-636 -637 -753 0
636 637 -753 0
-636 637 753 0
636 -637 753 0
-640 -642 -755 0
640 642 -755 0
-640 642 755 0
640 -642 755 0
-644 -646 -757 0
644 646 -757 0
-644 646 757 0
644 -646 757 0
-648 -650 -759 0
648 650 -759 0
-648 650 759 0
648 -650 759 0
-652 -654 -761 0
652 654 -761 0
-652 654 761 0
652 -654 761 0
-656 -658 -763 0
656 658 -763 0
-656 658 763 0
656 -658 763 0
-660 -662 -765 0
660 662 -765 0
-660 662 765 0
660 -662 765 0
-664 -666 -767 0
664 666 -767 0
-664 666 767 0
664 -666 767 0
-668 -670 -769 0
668 670 -769 0
-668 670 769 0
668 -670 769 0
-672 -674 -771 0
672 674 -771 0
-672 674 771 0
672 -674 771 0
-676 -678 -773 0
676 678 -773 0
-676 678 773 0
676 -678 773 0
-680 -682 -775 0
680 682 -775 0
-680 682 775 0
680 -682 775 0
-684 -686 -777 0
684 686 -777 0
-684 686 777 0
684 -686 777 0
-691 -693 -781 0
691 693 -781 0
-691 693 781 0
691 -693 781 0
-695 -697 -783 0
695 697 -783 0
-695 697 783 0
695 -697 783 0
-699 -701 -785 0
699 701 -785 0
-699 701 785 0
699 -701 785 0
-703 -705 -787 0
703 705 -787 0
-703 705 787 0
703 -705 787 0
-707 -709 -789 0
707 709 -789 0
-707 709 789 0
707 -709 789 0
-711 -713 -791 0
711 713 -791 0
-711 713 791 0
711 -713 791 0
-715 -717 -793 0
715 717 -793 0
-715 717 793 0
715 -717 793 0
-719 -721 -795 0
719 721 -795 0
-719 721 795 0
719 -721 795 0
-723 -725 -797 0
723 725 -797 0
-723 725 797 0
723 -725 797 0
-727 -729 -799 0
727 729 -799 0
-727 729 799 0
727 -729 799 0
-731 -733 -801 0
731 733 -801 0
-731 733 801 0
731 -733 801 0
-735 -737 -803 0
735 737 -803 0
-735 737 803 0
735 -737 803 0
-739 -741 -805 0
739 741 -805 0
-739 741 805 0
739 -741 805 0
-740 -742 -807 0
740 742 -807 0
740 -742 807 0
-740 742 807 0
-743 -745 -809 0
743 745 -809 0
-743 745 809 0
743 -745 809 0
-747 -749 -811 0
747 749 -811 0
-747 749 811 0
747 -749 811 0
-751 -752 -845 0
751 752 -845 0
-751 752 845 0
751 -752 845 0
-753 -754 -813 0
753 754 -813 0
-753 754 813 0
753 -754 813 0
-755 -757 -815 0
755 757 -815 0
-755 757 815 0
755 -757 815 0
-759 -761 -817 0
759 761 -817 0
-759 761 817 0
759 -761 817 0
-763 -765 -819 0
763 765 -819 0
-763 765 819 0
763 -765 819 0
-767 -769 -821 0
767 769 -821 0
-767 769 821 0
767 -769 821 0
-771 -773 -823 0
771 773 -823 0
-771 773 823 0
771 -773 823 0
-775 -777 -825 0
775 777 -825 0
-775 777 825 0
775 -777 825 0
-779 -780 -827 0
779 780 -827 0
-779 780 827 0
779 -780 827 0
-781 -783 -829 0
781 783 -829 0
-781 783 829 0
781 -783 829 0
-785 -787 -831 0
785 787 -831 0
-785 787 831 0
785 -787 831 0
-789 -791 -833 0
789 791 -833 0
-789 791 833 0
789 -791 833 0
-793 -795 -835 0
793 795 -835 0
-793 795 835 0
793 -795 835 0
-797 -799 -837 0
797 799 -837 0
-797 799 837 0
797 -799 837 0
-801 -803 -839 0
801 803 -839 0
-801 803 839 0
801 -803 839 0
-805 -807 -841 0
805 807 -841 0
-805 807 841 0
805 -807 841 0
-809 -811 -843 0
809 811 -843 0
-809 811 843 0
809 -811 843 0
-813 -815 -846 0
813 815 -846 0
-813 815 846 0
813 -815 846 0
-817 -819 -847 0
817 819 -847 0
-817 819 847 0
817 -819 847 0
-821 -823 -849 0
821 823 -849 0
-821 823 849 0
821 -823 849 0
-825 -827 -851 0
825 827 -851 0
-825 827 851 0
825 -827 851 0
-829 -831 -853 0
829 831 -853 0
-829 831 853 0
829 -831 853 0
-833 -835 -855 0
833 835 -855 0
-833 835 855 0
833 -835 855 0
-837 -839 -857 0
837 839 -857 0
-837 839 857 0
837 -839 857 0
-841 -843 -859 0
841 843 -859 0
-841 843 859 0
841 -843 859 0
-845 -846 -861 0
845 846 -861 0
-845 846 861 0
845 -846 861 0
-847 -849 -863 0
847 849 -863 0
-847 849 863 0
847 -849 863 0
-851 -853 -865 0
851 853 -865 0
-851 853 865 0
851 -853 865 0
-855 -857 -867 0
855 857 -867 0
-855 857 867 0
855 -857 867 0
-859 -861 -869 0
859 861 -869 0
-859 861 869 0
859 -861 869 0
-863 -865 -871 0
863 865 -871 0
-863 865 871 0
863 -865 871 0
-867 -869 871 0
867 869 871 0
-867 869 -871 0
867 -869 -871 0
-63 -72 -937 0
63 72 -937 0
-63 72 937 0
63 -72 937 0
-81 -90 -875 0
81 90 -875 0
-81 90 875 0
81 -90 875 0
-744 -746 -877 0
744 746 -877 0
-744 746 877 0
744 -746 877 0
-748 -750 -879 0
748 750 -879 0
-748 750 879 0
748 -750 879 0
-756 -758 -881 0
756 758 -881 0
-756 758 881 0
756 -758 881 0
-760 -762 -883 0
760 762 -883 0
-760 762 883 0
760 -762 883 0
-764 -766 -885 0
764 766 -885 0
-764 766 885 0
764 -766 885 0
-768 -770 -887 0
768 770 -887 0
-768 770 887 0
768 -770 887 0
-772 -774 -889 0
772 774 -889 0
-772 774 889 0
772 -774 889 0
-776 -778 -891 0
776 778 -891 0
-776 778 891 0
776 -778 891 0
-782 -784 -946 0
782 784 -946 0
-782 784 946 0
782 -784 946 0
-786 -788 -893 0
786 788 -893 0
-786 788 893 0
786 -788 893 0
-790 -792 -895 0
790 792 -895 0
-790 792 895 0
790 -792 895 0
-794 -796 -897 0
794 796 -897 0
-794 796 897 0
794 -796 897 0
-798 -800 -899 0
798 800 -899 0
-798 800 899 0
798 -800 899 0
-802 -804 -901 0
802 804 -901 0
-802 804 901 0
802 -804 901 0
-806 -808 -903 0
806 808 -903 0
-806 808 903 0
806 -808 903 0
-810 -812 -905 0
810 812 -905 0
-810 812 905 0
810 -812 905 0
-814 -816 -907 0
814 816 -907 0
-814 816 907 0
814 -816 907 0
-818 -820 -909 0
818 820 -909 0
-818 820 909 0
818 -820 909 0
-822 -824 -911 0
822 824 -911 0
-822 824 911 0
822 -824 911 0
-826 -828 -913 0
826 828 -913 0
-826 828 913 0
826 -828 913 0
-830 -832 -915 0
830 832 -915 0
-830 832 915 0
830 -832 915 0
-834 -836 -917 0
834 836 -917 0
-834 836 917 0
834 -836 917 0
-838 -840 -919 0
838 840 -919 0
-838 840 919 0
838 -840 919 0
-842 -844 -921 0
842 844 -921 0
-842 844 921 0
842 -844 921 0
-848 -850 -924 0
848 850 -924 0
-848 850 924 0
848 -850 924 0
-852 -854 -925 0
852 854 -925 0
-852 854 925 0
852 -854 925 0
-856 -858 -927 0
856 858 -927 0
-856 858 927 0
856 -858 927 0
-860 -862 -929 0
860 862 -929 0
-860 862 929 0
860 -862 929 0
-864 -866 -931 0
864 866 -931 0
-864 866 931 0
864 -866 931 0
-868 -870 -933 0
868 870 -933 0
-868 870 933 0
868 -870 933 0
-872 -873 -935 0
872 873 -935 0
-872 873 935 0
872 -873 935 0
-875 -877 -938 0
875 877 -938 0
-875 877 938 0
875 -877 938 0
-879 -880 -939 0
879 880 -939 0
-879 880 939 0
879 -880 939 0
-881 -883 -941 0
881 883 -941 0
-881 883 941 0
881 -883 941 0
-885 -887 -943 0
885 887 -943 0
-885 887 943 0
885 -887 943 0
-889 -891 -945 0
889 891 -945 0
-889 891 945 0
889 -891 945 0
-893 -895 -947 0
893 895 -947 0
-893 895 947 0
893 -895 947 0
-897 -899 -949 0
897 899 -949 0
-897 899 949 0
897 -899 949 0
-901 -903 -951 0
901 903 -951 0
-901 903 951 0
901 -903 951 0
-905 -906 -953 0
905 906 -953 0
-905 906 953 0
905 -906 953 0
-907 -909 -955 0
907 909 -955 0
-907 909 955 0
907 -909 955 0
-911 -913 -957 0
911 913 -957 0
-911 913 957 0
911 -913 957 0
-915 -917 -959 0
915 917 -959 0
-915 917 959 0
915 -917 959 0
-919 -921 -961 0
919 921 -961 0
-919 921 961 0
919 -921 961 0
-923 -924 -963 0
923 924 -963 0
-923 924 963 0
923 -924 963 0
-925 -927 -965 0
925 927 -965 0
-925 927 965 0
925 -927 965 0
-929 -931 -967 0
929 931 -967 0
-929 931 967 0
929 -931 967 0
-933 -935 -969 0
933 935 -969 0
-933 935 969 0
933 -935 969 0
-937 -938 -971 0
937 938 -971 0
-937 938 971 0
937 -938 971 0
-939 -940 -973 0
939 940 -973 0
-939 940 973 0
939 -940 973 0
-941 -943 -975 0
941 943 -975 0
-941 943 975 0
941 -943 975 0
-945 -946 -977 0
945 946 -977 0
-945 946 977 0
945 -946 977 0
-947 -949 -979 0
947 949 -979 0
-947 949 979 0
947 -949 979 0
-951 -953 -981 0
951 953 -981 0
-951 953 981 0
951 -953 981 0
-955 -957 -983 0
955 957 -983 0
-955 957 983 0
955 -957 983 0
-959 -961 -985 0
959 961 -985 0
-959 961 985 0
959 -961 985 0
-963 -965 -987 0
963 965 -987 0
-963 965 987 0
963 -965 987 0
-967 -969 -989 0
967 969 -989 0
-967 969 989 0
967 -969 989 0
-971 -973 -991 0
971 973 -991 0
-971 973 991 0
971 -973 991 0
-975 -977 -993 0
975 977 -993 0
-975 977 993 0
975 -977 993 0
-979 -981 -995 0
979 981 -995 0
-979 981 995 0
979 -981 995 0
-983 -985 -997 0
983 985 -997 0
-983 985 997 0
983 -985 997 0
-987 -989 -999 0
987 989 -999 0
-987 989 999 0
987 -989 999 0
-991 -993 -1001 0
991 993 -1001 0
-991 993 1001 0
991 -993 1001 0
-995 -997 -1003 0
995 997 -1003 0
-995 997 1003 0
995 -997 1003 0
-999 -1001 1003 0
999 1001 1003 0
-999 1001 -1003 0
999 -1001 -1003 0
-73 -82 -1068 0
73 82 -1068 0
-73 82 1068 0
73 -82 1068 0
-91 -874 -1007 0
91 874 -1007 0
-91 874 1007 0
91 -874 1007 0
-876 -878 -1009 0
876 878 -1009 0
-876 878 1009 0
876 -878 1009 0
-882 -884 -1011 0
882 884 -1011 0
-882 884 1011 0
882 -884 1011 0
-886 -888 -1012 0
886 888 -1012 0
-886 888 1012 0
886 -888 1012 0
-890 -892 -1014 0
890 892 -1014 0
-890 892 1014 0
890 -892 1014 0
-894 -896 -1017 0
894 896 -1017 0
-894 896 1017 0
894 -896 1017 0
-898 -900 -1018 0
898 900 -1018 0
-898 900 1018 0
898 -900 1018 0
-902 -904 -1020 0
902 904 -1020 0
-902 904 1020 0
902 -904 1020 0
-908 -910 -1023 0
908 910 -1023 0
-908 910 1023 0
908 -910 1023 0
-912 -914 -1024 0
912 914 -1024 0
-912 914 1024 0
912 -914 1024 0
-916 -918 -1026 0
916 918 -1026 0
-916 918 1026 0
916 -918 1026 0
-920 -922 -1028 0
920 922 -1028 0
-920 922 1028 0
920 -922 1028 0
-926 -928 -1030 0
926 928 -1030 0
-926 928 1030 0
926 -928 1030 0
-930 -932 -1032 0
930 932 -1032 0
-930 932 1032 0
930 -932 1032 0
-934 -936 -1034 0
934 936 -1034 0
-934 936 1034 0
934 -936 1034 0
-942 -944 -1037 0
942 944 -1037 0
-942 944 1037 0
942 -944 1037 0
-948 -950 -1039 0
948 950 -1039 0
-948 950 1039 0
948 -950 1039 0
-952 -954 -1040 0
952 954 -1040 0
-952 954 1040 0
952 -954 1040 0
-956 -958 -1042 0
956 958 -1042 0
-956 958 1042 0
956 -958 1042 0
-960 -962 -1044 0
960 962 -1044 0
-960 962 1044 0
960 -962 1044 0
-964 -966 -1046 0
964 966 -1046 0
-964 966 1046 0
964 -966 1046 0
-968 -970 -1048 0
968 970 -1048 0
-968 970 1048 0
968 -970 1048 0
-972 -974 -1050 0
972 974 -1050 0
-972 974 1050 0
972 -974 1050 0
-976 -978 -1052 0
976 978 -1052 0
-976 978 1052 0
976 -978 1052 0
-980 -982 -1054 0
980 982 -1054 0
-980 982 1054 0
980 -982 1054 0
-984 -986 -1056 0
984 986 -1056 0
-984 986 1056 0
984 -986 1056 0
-988 -990 -1058 0
988 990 -1058 0
-988 990 1058 0
988 -990 1058 0
-992 -994 -1060 0
992 994 -1060 0
-992 994 1060 0
992 -994 1060 0
-996 -998 -1062 0
996 998 -1062 0
-996 998 1062 0
996 -998 1062 0
-1000 -1002 -1064 0
1000 1002 -1064 0
-1000 1002 1064 0
1000 -1002 1064 0
-1004 -1005 -1066 0
1004 1005 -1066 0
-1004 1005 1066 0
1004 -1005 1066 0
-1007 -1009 -1069 0
1007 1009 -1069 0
-1007 1009 1069 0
1007 -1009 1069 0
-1011 -1012 -1070 0
1011 1012 -1070 0
-1011 1012 1070 0
1011 -1012 1070 0
-1014 -1016 -1071 0
1014 1016 -1071 0
-1014 1016 1071 0
1014 -1016 1071 0
-1017 -1018 -1073 0
1017 1018 -1073 0
-1017 1018 1073 0
1017 -1018 1073 0
-1020 -1022 -1075 0
1020 1022 -1075 0
-1020 1022 1075 0
1020 -1022 1075 0
-1023 -1024 -1077 0
1023 1024 -1077 0
-1023 1024 1077 0
1023 -1024 1077 0
-1026 -1028 -1079 0
1026 1028 -1079 0
-1026 1028 1079 0
1026 -1028 1079 0
-1029 -1030 -1081 0
1029 1030 -1081 0
-1029 1030 1081 0
1029 -1030 1081 0
-1032 -1034 -1083 0
1032 1034 -1083 0
-1032 1034 1083 0
1032 -1034 1083 0
-1035 -1036 -1085 0
1035 1036 -1085 0
-1035 1036 1085 0
1035 -1036 1085 0
-1037 -1038 -1087 0
1037 1038 -1087 0
-1037 1038 1087 0
1037 -1038 1087 0
-1039 -1040 -1089 0
1039 1040 -1089 0
-1039 1040 1089 0
1039 -1040 1089 0
-1042 -1044 -1091 0
1042 1044 -1091 0
-1042 1044 1091 0
1042 -1044 1091 0
-1046 -1048 -1093 0
1046 1048 -1093 0
-1046 1048 1093 0
1046 -1048 1093 0
-1050 -1052 -1095 0
1050 1052 -1095 0
-1050 1052 1095 0
1050 -1052 1095 0
-1054 -1056 -1097 0
1054 1056 -1097 0
-1054 1056 1097 0
1054 -1056 1097 0
-1058 -1060 -1099 0
1058 1060 -1099 0
-1058 1060 1099 0
1058 -1060 1099 0
-1062 -1064 -1101 0
1062 1064 -1101 0
-1062 1064 1101 0
1062 -1064 1101 0
-1066 -1068 -1103 0
1066 1068 -1103 0
-1066 1068 1103 0
1066 -1068 1103 0
-1010 -1069 -1105 0
1010 1069 -1105 0
1010 -1069 1105 0
-1010 1069 1105 0
-1070 -1071 -1107 0
1070 1071 -1107 0
-1070 1071 1107 0
1070 -1071 1107 0
-1073 -1075 -1109 0
1073 1075 -1109 0
-1073 1075 1109 0
1073 -1075 1109 0
-1077 -1079 -1111 0
1077 1079 -1111 0
-1077 1079 1111 0
1077 -1079 1111 0
-1081 -1083 -1113 0
1081 1083 -1113 0
-1081 1083 1113 0
1081 -1083 1113 0
-1085 -1087 -1115 0
1085 1087 -1115 0
-1085 1087 1115 0
1085 -1087 1115 0
-1089 -1091 -1117 0
1089 1091 -1117 0
-1089 1091 1117 0
1089 -1091 1117 0
-1093 -1095 -1119 0
1093 1095 -1119 0
-1093 1095 1119 0
1093 -1095 1119 0
-1097 -1099 -1121 0
1097 1099 -1121 0
-1097 1099 1121 0
1097 -1099 1121 0
-1101 -1103 -1123 0
1101 1103 -1123 0
-1101 1103 1123 0
1101 -1103 1123 0
-1105 -1107 -1125 0
1105 1107 -1125 0
-1105 1107 1125 0
1105 -1107 1125 0
-1109 -1111 -1127 0
1109 1111 -1127 0
-1109 1111 1127 0
1109 -1111 1127 0
-1113 -1115 -1129 0
1113 1115 -1129 0
-1113 1115 1129 0
1113 -1115 1129 0
-1117 -1119 -1131 0
1117 1119 -1131 0
-1117 1119 1131 0
1117 -1119 1131 0
-1121 -1123 -1133 0
1121 1123 -1133 0
-1121 1123 1133 0
1121 -1123 1133 0
-1125 -1127 -1135 0
1125 1127 -1135 0
-1125 1127 1135 0
1125 -1127 1135 0
-1129 -1131 -1137 0
1129 1131 -1137 0
-1129 1131 1137 0
1129 -1131 1137 0
-1133 -1135 -1137 0
1133 1135 -1137 0
-1133 1135 1137 0
1133 -1135 1137 0
-83 -92 -1140 0
83 92 -1140 0
-83 92 1140 0
83 -92 1140 0
-1006 -1008 -1142 0
1006 1008 -1142 0
-1006 1008 1142 0
1006 -1008 1142 0
-1013 -1015 -1145 0
1013 1015 -1145 0
-1013 1015 1145 0
1013 -1015 1145 0
-1019 -1021 -1147 0
1019 1021 -1147 0
-1019 1021 1147 0
1019 -1021 1147 0
-1025 -1027 -1149 0
1025 1027 -1149 0
-1025 1027 1149 0
1025 -1027 1149 0
-1031 -1033 -1151 0
1031 1033 -1151 0
-1031 1033 1151 0
1031 -1033 1151 0
-1041 -1043 -1155 0
1041 1043 -1155 0
-1041 1043 1155 0
1041 -1043 1155 0
-1045 -1047 -1156 0
1045 1047 -1156 0
-1045 1047 1156 0
1045 -1047 1156 0
-1049 -1051 -1158 0
1049 1051 -1158 0
-1049 1051 1158 0
1049 -1051 1158 0
-1053 -1055 -1160 0
1053 1055 -1160 0
-1053 1055 1160 0
1053 -1055 1160 0
-1057 -1059 -1162 0
1057 1059 -1162 0
-1057 1059 1162 0
1057 -1059 1162 0
-1061 -1063 -1164 0
1061 1063 -1164 0
-1061 1063 1164 0
1061 -1063 1164 0
-1065 -1067 -1166 0
1065 1067 -1166 0
-1065 1067 1166 0
1065 -1067 1166 0
-1072 -1074 -1170 0
1072 1074 -1170 0
-1072 1074 1170 0
1072 -1074 1170 0
-1076 -1078 -1172 0
1076 1078 -1172 0
-1076 1078 1172 0
1076 -1078 1172 0
-1080 -1082 -1174 0
1080 1082 -1174 0
-1080 1082 1174 0
1080 -1082 1174 0
-1084 -1086 -1176 0
1084 1086 -1176 0
-1084 1086 1176 0
1084 -1086 1176 0
-1088 -1090 -1178 0
1088 1090 -1178 0
-1088 1090 1178 0
1088 -1090 1178 0
-1092 -1094 -1180 0
1092 1094 -1180 0
-1092 1094 1180 0
1092 -1094 1180 0
-1096 -1098 -1182 0
1096 1098 -1182 0
-1096 1098 1182 0
1096 -1098 1182 0
-1100 -1102 -1184 0
1100 1102 -1184 0
-1100 1102 1184 0
1100 -1102 1184 0
-1104 -1106 -1186 0
1104 1106 -1186 0
-1104 1106 1186 0
1104 -1106 1186 0
-1108 -1110 -1188 0
1108 1110 -1188 0
-1108 1110 1188 0
1108 -1110 1188 0
-1112 -1114 -1190 0
1112 1114 -1190 0
-1112 1114 1190 0
1112 -1114 1190 0
-1116 -1118 -1192 0
1116 1118 -1192 0
-1116 1118 1192 0
1116 -1118 1192 0
-1120 -1122 -1194 0
1120 1122 -1194 0
-1120 1122 1194 0
1120 -1122 1194 0
-1124 -1126 -1196 0
1124 1126 -1196 0
-1124 1126 1196 0
1124 -1126 1196 0
-1128 -1130 -1198 0
1128 1130 -1198 0
-1128 1130 1198 0
1128 -1130 1198 0
-1132 -1134 -1200 0
1132 1134 -1200 0
-1132 1134 1200 0
1132 -1134 1200 0
-1136 -1138 -1202 0
1136 1138 -1202 0
-1136 1138 1202 0
1136 -1138 1202 0
-1137 -1139 -1204 0
1137 1139 -1204 0
1137 -1139 1204 0
-1137 1139 1204 0
-1140 -1142 -1206 0
1140 1142 -1206 0
-1140 1142 1206 0
1140 -1142 1206 0
-1143 -1144 -1208 0
1143 1144 -1208 0
-1143 1144 1208 0
1143 -1144 1208 0
-1145 -1146 -1210 0
1145 1146 -1210 0
-1145 1146 1210 0
1145 -1146 1210 0
-1147 -1148 -1212 0
1147 1148 -1212 0
-1147 1148 1212 0
1147 -1148 1212 0
-1149 -1150 -1214 0
1149 1150 -1214 0
-1149 1150 1214 0
1149 -1150 1214 0
-1151 -1152 -1216 0
1151 1152 -1216 0
-1151 1152 1216 0
1151 -1152 1216 0
-1153 -1154 -1218 0
1153 1154 -1218 0
-1153 1154 1218 0
1153 -1154 1218 0
-1155 -1156 -1220 0
1155 1156 -1220 0
-1155 1156 1220 0
1155 -1156 1220 0
-1158 -1160 -1222 0
1158 1160 -1222 0
-1158 1160 1222 0
1158 -1160 1222 0
-1162 -1164 -1224 0
1162 1164 -1224 0
-1162 1164 1224 0
1162 -1164 1224 0
-1166 -1168 -1226 0
1166 1168 -1226 0
-1166 1168 1226 0
1166 -1168 1226 0
-1169 -1170 -1228 0
1169 1170 -1228 0
-1169 1170 1228 0
1169 -1170 1228 0
-1172 -1174 -1230 0
1172 1174 -1230 0
-1172 1174 1230 0
1172 -1174 1230 0
-1176 -1178 -1232 0
1176 1178 -1232 0
-1176 1178 1232 0
1176 -1178 1232 0
-1180 -1182 -1234 0
1180 1182 -1234 0
-1180 1182 1234 0
1180 -1182 1234 0
-1184 -1186 -1236 0
1184 1186 -1236 0
-1184 1186 1236 0
1184 -1186 1236 0
-1188 -1190 -1238 0
1188 1190 -1238 0
-1188 1190 1238 0
1188 -1190 1238 0
-1192 -1194 -1240 0
1192 1194 -1240 0
-1192 1194 1240 0
1192 -1194 1240 0
-1196 -1198 -1242 0
1196 1198 -1242 0
-1196 1198 1242 0
1196 -1198 1242 0
-1200 -1202 -1244 0
1200 1202 -1244 0
-1200 1202 1244 0
1200 -1202 1244 0
-1204 -1206 -1246 0
1204 1206 -1246 0
-1204 1206 1246 0
1204 -1206 1246 0
-1208 -1210 -1248 0
1208 1210 -1248 0
-1208 1210 1248 0
1208 -1210 1248 0
-1212 -1214 -1250 0
1212 1214 -1250 0
-1212 1214 1250 0
1212 -1214 1250 0
-1216 -1218 -1252 0
1216 1218 -1252 0
-1216 1218 1252 0
1216 -1218 1252 0
-1220 -1222 -1254 0
1220 1222 -1254 0
-1220 1222 1254 0
1220 -1222 1254 0
-1224 -1226 -1256 0
1224 1226 -1256 0
-1224 1226 1256 0
1224 -1226 1256 0
-1228 -1230 -1258 0
1228 1230 -1258 0
-1228 1230 1258 0
1228 -1230 1258 0
-1232 -1234 -1260 0
1232 1234 -1260 0
-1232 1234 1260 0
1232 -1234 1260 0
-1236 -1238 -1262 0
1236 1238 -1262 0
-1236 1238 1262 0
1236 -1238 1262 0
-1240 -1242 -1264 0
1240 1242 -1264 0
-1240 1242 1264 0
1240 -1242 1264 0
-1244 -1246 -1266 0
1244 1246 -1266 0
-1244 1246 1266 0
1244 -1246 1266 0
-1248 -1250 -1268 0
1248 1250 -1268 0
-1248 1250 1268 0
1248 -1250 1268 0
-1252 -1254 -1270 0
1252 1254 -1270 0
-1252 1254 1270 0
1252 -1254 1270 0
-1256 -1258 -1272 0
1256 1258 -1272 0
-1256 1258 1272 0
1256 -1258 1272 0
-1260 -1262 -1274 0
1260 1262 -1274 0
-1260 1262 1274 0
1260 -1262 1274 0
-1264 -1266 -1276 0
1264 1266 -1276 0
-1264 1266 1276 0
1264 -1266 1276 0
-1268 -1270 -1278 0
1268 1270 -1278 0
-1268 1270 1278 0
1268 -1270 1278 0
-1272 -1274 -1280 0
1272 1274 -1280 0
-1272 1274 1280 0
1272 -1274 1280 0
-1276 -1278 1280 0
1276 1278 1280 0
-1276 1278 -1280 0
1276 -1278 -1280 0
-93 -1141 -1282 0
93 1141 -1282 0
-93 1141 1282 0
93 -1141 1282 0
-1157 -1159 -1288 0
1157 1159 -1288 0
-1157 1159 1288 0
1157 -1159 1288 0
-1161 -1163 -1290 0
1161 1163 -1290 0
-1161 1163 1290 0
1161 -1163 1290 0
-1165 -1167 -1356 0
1165 1167 -1356 0
-1165 1167 1356 0
1165 -1167 1356 0
-1171 -1173 -1292 0
1171 1173 -1292 0
-1171 1173 1292 0
1171 -1173 1292 0
-1175 -1177 -1294 0
1175 1177 -1294 0
-1175 1177 1294 0
1175 -1177 1294 0
-1179 -1181 -1296 0
1179 1181 -1296 0
-1179 1181 1296 0
1179 -1181 1296 0
-1183 -1185 -1298 0
1183 1185 -1298 0
-1183 1185 1298 0
1183 -1185 1298 0
-1187 -1189 -1300 0
1187 1189 -1300 0
-1187 1189 1300 0
1187 -1189 1300 0
-1191 -1193 -1302 0
1191 1193 -1302 0
-1191 1193 1302 0
1191 -1193 1302 0
-1195 -1197 -1304 0
1195 1197 -1304 0
-1195 1197 1304 0
1195 -1197 1304 0
-1199 -1201 -1306 0
1199 1201 -1306 0
-1199 1201 1306 0
1199 -1201 1306 0
-1203 -1205 -1308 0
1203 1205 -1308 0
-1203 1205 1308 0
1203 -1205 1308 0
-1207 -1209 -1310 0
1207 1209 -1310 0
-1207 1209 1310 0
1207 -1209 1310 0
-1211 -1213 -1312 0
1211 1213 -1312 0
-1211 1213 1312 0
1211 -1213 1312 0
-1215 -1217 -1314 0
1215 1217 -1314 0
-1215 1217 1314 0
1215 -1217 1314 0
-1219 -1221 -1316 0
1219 1221 -1316 0
-1219 1221 1316 0
1219 -1221 1316 0
-1223 -1225 -1318 0
1223 1225 -1318 0
-1223 1225 1318 0
1223 -1225 1318 0
-1227 -1229 -1320 0
1227 1229 -1320 0
-1227 1229 1320 0
1227 -1229 1320 0
-1231 -1233 -1322 0
1231 1233 -1322 0
-1231 1233 1322 0
1231 -1233 1322 0
-1235 -1237 -1324 0
1235 1237 -1324 0
-1235 1237 1324 0
1235 -1237 1324 0
-1239 -1241 -1326 0
1239 1241 -1326 0
-1239 1241 1326 0
1239 -1241 1326 0
-1243 -1245 -1328 0
1243 1245 -1328 0
-1243 1245 1328 0
1243 -1245 1328 0
-1247 -1249 -1330 0
1247 1249 -1330 0
-1247 1249 1330 0
1247 -1249 1330 0
-1251 -1253 -1332 0
1251 1253 -1332 0
-1251 1253 1332 0
1251 -1253 1332 0
-1255 -1257 -1334 0
1255 1257 -1334 0
-1255 1257 1334 0
1255 -1257 1334 0
-1259 -1261 -1336 0
1259 1261 -1336 0
-1259 1261 1336 0
1259 -1261 1336 0
-1263 -1265 -1338 0
1263 1265 -1338 0
-1263 1265 1338 0
1263 -1265 1338 0
-1267 -1269 -1340 0
1267 1269 -1340 0
-1267 1269 1340 0
1267 -1269 1340 0
-1271 -1273 -1342 0
1271 1273 -1342 0
-1271 1273 1342 0
1271 -1273 1342 0
-1275 -1277 -1344 0
1275 1277 -1344 0
-1275 1277 1344 0
1275 -1277 1344 0
-1279 -1281 -1346 0
1279 1281 -1346 0
-1279 1281 1346 0
1279 -1281 1346 0
-1282 -1283 -1349 0
1282 1283 -1349 0
-1282 1283 1349 0
1282 -1283 1349 0
-1284 -1285 -1350 0
1284 1285 -1350 0
-1284 1285 1350 0
1284 -1285 1350 0
-1286 -1287 -1352 0
1286 1287 -1352 0
-1286 1287 1352 0
1286 -1287 1352 0
-1288 -1290 -1355 0
1288 1290 -1355 0
-1288 1290 1355 0
1288 -1290 1355 0
-1292 -1294 -1357 0
1292 1294 -1357 0
-1292 1294 1357 0
1292 -1294 1357 0
-1296 -1298 -1358 0
1296 1298 -1358 0
-1296 1298 1358 0
1296 -1298 1358 0
-1300 -1302 -1360 0
1300 1302 -1360 0
-1300 1302 1360 0
1300 -1302 1360 0
-1304 -1306 -1362 0
1304 1306 -1362 0
-1304 1306 1362 0
1304 -1306 1362 0
-1308 -1310 -1364 0
1308 1310 -1364 0
-1308 1310 1364 0
1308 -1310 1364 0
-1312 -1314 -1366 0
1312 1314 -1366 0
-1312 1314 1366 0
1312 -1314 1366 0
-1316 -1318 -1368 0
1316 1318 -1368 0
-1316 1318 1368 0
1316 -1318 1368 0
-1320 -1322 -1370 0
1320 1322 -1370 0
-1320 1322 1370 0
1320 -1322 1370 0
-1324 -1326 -1372 0
1324 1326 -1372 0
-1324 1326 1372 0
1324 -1326 1372 0
-1328 -1330 -1374 0
1328 1330 -1374 0
-1328 1330 1374 0
1328 -1330 1374 0
-1332 -1334 -1376 0
1332 1334 -1376 0
-1332 1334 1376 0
1332 -1334 1376 0
-1336 -1338 -1378 0
1336 1338 -1378 0
-1336 1338 1378 0
1336 -1338 1378 0
-1340 -1342 -1380 0
1340 1342 -1380 0
-1340 1342 1380 0
1340 -1342 1380 0
-1344 -1346 -1382 0
1344 1346 -1382 0
-1344 1346 1382 0
1344 -1346 1382 0
-1348 -1349 -1384 0
1348 1349 -1384 0
-1348 1349 1384 0
1348 -1349 1384 0
-1350 -1352 -1386 0
1350 1352 -1386 0
-1350 1352 1386 0
1350 -1352 1386 0
-1354 -1355 -1388 0
1354 1355 -1388 0
-1354 1355 1388 0
1354 -1355 1388 0
-1356 -1357 -1390 0
1356 1357 -1390 0
-1356 1357 1390 0
1356 -1357 1390 0
-1358 -1360 -1392 0
1358 1360 -1392 0
-1358 1360 1392 0
1358 -1360 1392 0
-1362 -1364 -1394 0
1362 1364 -1394 0
-1362 1364 1394 0
1362 -1364 1394 0
-1366 -1368 -1396 0
1366 1368 -1396 0
-1366 1368 1396 0
1366 -1368 1396 0
-1370 -1372 -1398 0
1370 1372 -1398 0
-1370 1372 1398 0
1370 -1372 1398 0
-1374 -1376 -1400 0
1374 1376 -1400 0
-1374 1376 1400 0
1374 -1376 1400 0
-1378 -1380 -1402 0
1378 1380 -1402 0
-1378 1380 1402 0
1378 -1380 1402 0
-1382 -1384 -1404 0
1382 1384 -1404 0
-1382 1384 1404 0
1382 -1384 1404 0
-1386 -1388 -1406 0
1386 1388 -1406 0
-1386 1388 1406 0
1386 -1388 1406 0
-1390 -1392 -1408 0
1390 1392 -1408 0
-1390 1392 1408 0
1390 -1392 1408 0
-1394 -1396 -1410 0
1394 1396 -1410 0
-1394 1396 1410 0
1394 -1396 1410 0
-1398 -1400 -1412 0
1398 1400 -1412 0
-1398 1400 1412 0
1398 -1400 1412 0
-1402 -1404 -1414 0
1402 1404 -1414 0
-1402 1404 1414 0
1402 -1404 1414 0
-1406 -1408 -1416 0
1406 1408 -1416 0
-1406 1408 1416 0
1406 -1408 1416 0
-1410 -1412 -1418 0
1410 1412 -1418 0
-1410 1412 1418 0
1410 -1412 1418 0
-1414 -1416 -1418 0
1414 1416 -1418 0
-1414 1416 1418 0
1414 -1416 1418 0
-1289 -1291 -1488 0
1289 1291 -1488 0
-1289 1291 1488 0
1289 -1291 1488 0
-1293 -1295 -1423 0
1293 1295 -1423 0
-1293 1295 1423 0
1293 -1295 1423 0
-1297 -1299 -1425 0
1297 1299 -1425 0
-1297 1299 1425 0
1297 -1299 1425 0
-1301 -1303 -1427 0
1301 1303 -1427 0
-1301 1303 1427 0
1301 -1303 1427 0
-1305 -1307 -1429 0
1305 1307 -1429 0
-1305 1307 1429 0
1305 -1307 1429 0
-1309 -1311 -1431 0
1309 1311 -1431 0
-1309 1311 1431 0
1309 -1311 1431 0
-1313 -1315 -1433 0
1313 1315 -1433 0
-1313 1315 1433 0
1313 -1315 1433 0
-1317 -1319 -1435 0
1317 1319 -1435 0
-1317 1319 1435 0
1317 -1319 1435 0
-1321 -1323 -1437 0
1321 1323 -1437 0
-1321 1323 1437 0
1321 -1323 1437 0
-1325 -1327 -1439 0
1325 1327 -1439 0
-1325 1327 1439 0
1325 -1327 1439 0
-1329 -1331 -1441 0
1329 1331 -1441 0
-1329 1331 1441 0
1329 -1331 1441 0
-1333 -1335 -1443 0
1333 1335 -1443 0
-1333 1335 1443 0
1333 -1335 1443 0
-1337 -1339 -1445 0
1337 1339 -1445 0
-1337 1339 1445 0
1337 -1339 1445 0
-1341 -1343 -1447 0
1341 1343 -1447 0
-1341 1343 1447 0
1341 -1343 1447 0
-1345 -1347 -1449 0
1345 1347 -1449 0
-1345 1347 1449 0
1345 -1347 1449 0
-1351 -1353 -1452 0
1351 1353 -1452 0
-1351 1353 1452 0
1351 -1353 1452 0
-1359 -1361 -1455 0
1359 1361 -1455 0
-1359 1361 1455 0
1359 -1361 1455 0
-1363 -1365 -1457 0
1363 1365 -1457 0
-1363 1365 1457 0
1363 -1365 1457 0
-1367 -1369 -1459 0
1367 1369 -1459 0
-1367 1369 1459 0
1367 -1369 1459 0
-1371 -1373 -1461 0
1371 1373 -1461 0
-1371 1373 1461 0
1371 -1373 1461 0
-1375 -1377 -1463 0
1375 1377 -1463 0
-1375 1377 1463 0
1375 -1377 1463 0
-1379 -1381 -1465 0
1379 1381 -1465 0
-1379 1381 1465 0
1379 -1381 1465 0
-1383 -1385 -1467 0
1383 1385 -1467 0
-1383 1385 1467 0
1383 -1385 1467 0
-1387 -1389 -1469 0
1387 1389 -1469 0
-1387 1389 1469 0
1387 -1389 1469 0
-1391 -1393 -1471 0
1391 1393 -1471 0
-1391 1393 1471 0
1391 -1393 1471 0
-1395 -1397 -1473 0
1395 1397 -1473 0
-1395 1397 1473 0
1395 -1397 1473 0
-1399 -1401 -1475 0
1399 1401 -1475 0
-1399 1401 1475 0
1399 -1401 1475 0
-1403 -1405 -1477 0
1403 1405 -1477 0
-1403 1405 1477 0
1403 -1405 1477 0
-1407 -1409 -1479 0
1407 1409 -1479 0
-1407 1409 1479 0
1407 -1409 1479 0
-1411 -1413 -1481 0
1411 1413 -1481 0
-1411 1413 1481 0
1411 -1413 1481 0
-1415 -1417 -1483 0
1415 1417 -1483 0
-1415 1417 1483 0
1415 -1417 1483 0
-1419 -1420 -1485 0
1419 1420 -1485 0
-1419 1420 1485 0
1419 -1420 1485 0
-1418 -1421 -1487 0
1418 1421 -1487 0
-1418 1421 1487 0
1418 -1421 1487 0
-1422 -1423 -1489 0
1422 1423 -1489 0
-1422 1423 1489 0
1422 -1423 1489 0
-1425 -1427 -1490 0
1425 1427 -1490 0
-1425 1427 1490 0
1425 -1427 1490 0
-1429 -1431 -1492 0
1429 1431 -1492 0
-1429 1431 1492 0
1429 -1431 1492 0
-1433 -1435 -1494 0
1433 1435 -1494 0
-1433 1435 1494 0
1433 -1435 1494 0
-1437 -1439 -1496 0
1437 1439 -1496 0
-1437 1439 1496 0
1437 -1439 1496 0
-1441 -1443 -1498 0
1441 1443 -1498 0
-1441 1443 1498 0
1441 -1443 1498 0
-1445 -1447 -1500 0
1445 1447 -1500 0
-1445 1447 1500 0
1445 -1447 1500 0
-1449 -1451 -1502 0
1449 1451 -1502 0
-1449 1451 1502 0
1449 -1451 1502 0
-1452 -1453 -1504 0
1452 1453 -1504 0
-1452 1453 1504 0
1452 -1453 1504 0
-1454 -1455 -1506 0
1454 1455 -1506 0
-1454 1455 1506 0
1454 -1455 1506 0
-1457 -1459 -1508 0
1457 1459 -1508 0
-1457 1459 1508 0
1457 -1459 1508 0
-1461 -1463 -1510 0
1461 1463 -1510 0
-1461 1463 1510 0
1461 -1463 1510 0
-1465 -1467 -1512 0
1465 1467 -1512 0
-1465 1467 1512 0
1465 -1467 1512 0
-1469 -1471 -1514 0
1469 1471 -1514 0
-1469 1471 1514 0
1469 -1471 1514 0
-1473 -1475 -1516 0
1473 1475 -1516 0
-1473 1475 1516 0
1473 -1475 1516 0
-1477 -1479 -1518 0
1477 1479 -1518 0
-1477 1479 1518 0
1477 -1479 1518 0
-1481 -1483 -1520 0
1481 1483 -1520 0
-1481 1483 1520 0
1481 -1483 1520 0
-1485 -1487 -1522 0
1485 1487 -1522 0
-1485 1487 1522 0
1485 -1487 1522 0
-1489 -1490 -1523 0
1489 1490 -1523 0
-1489 1490 1523 0
1489 -1490 1523 0
-1492 -1494 -1525 0
1492 1494 -1525 0
-1492 1494 1525 0
1492 -1494 1525 0
-1496 -1498 -1527 0
1496 1498 -1527 0
-1496 1498 1527 0
1496 -1498 1527 0
-1500 -1502 -1529 0
1500 1502 -1529 0
-1500 1502 1529 0
1500 -1502 1529 0
-1504 -1506 -1531 0
1504 1506 -1531 0
-1504 1506 1531 0
1504 -1506 1531 0
-1508 -1510 -1533 0
1508 1510 -1533 0
-1508 1510 1533 0
1508 -1510 1533 0
-1512 -1514 -1535 0
1512 1514 -1535 0
-1512 1514 1535 0
1512 -1514 1535 0
-1516 -1518 -1537 0
1516 1518 -1537 0
-1516 1518 1537 0
1516 -1518 1537 0
-1520 -1522 -1539 0
1520 1522 -1539 0
-1520 1522 1539 0
1520 -1522 1539 0
-1488 -1523 -1541 0
1488 1523 -1541 0
-1488 1523 1541 0
1488 -1523 1541 0
-1525 -1527 -1543 0
1525 1527 -1543 0
-1525 1527 1543 0
1525 -1527 1543 0
-1529 -1531 -1545 0
1529 1531 -1545 0
-1529 1531 1545 0
1529 -1531 1545 0
-1533 -1535 -1547 0
1533 1535 -1547 0
-1533 1535 1547 0
1533 -1535 1547 0
-1537 -1539 -1549 0
1537 1539 -1549 0
-1537 1539 1549 0
1537 -1539 1549 0
-1541 -1543 -1551 0
1541 1543 -1551 0
-1541 1543 1551 0
1541 -1543 1551 0
-1545 -1547 -1553 0
1545 1547 -1553 0
-1545 1547 1553 0
1545 -1547 1553 0
-1549 -1551 1553 0
1549 1551 1553 0
-1549 1551 -1553 0
1549 -1551 -1553 0
-1424 -1426 -1556 0
1424 1426 -1556 0
-1424 1426 1556 0
1424 -1426 1556 0
-1428 -1430 -1557 0
1428 1430 -1557 0
-1428 1430 1557 0
1428 -1430 1557 0
-1432 -1434 -1559 0
1432 1434 -1559 0
-1432 1434 1559 0
1432 -1434 1559 0
-1436 -1438 -1561 0
1436 1438 -1561 0
-1436 1438 1561 0
1436 -1438 1561 0
-1440 -1442 -1563 0
1440 1442 -1563 0
-1440 1442 1563 0
1440 -1442 1563 0
-1444 -1446 -1565 0
1444 1446 -1565 0
-1444 1446 1565 0
1444 -1446 1565 0
-1448 -1450 -1567 0
1448 1450 -1567 0
-1448 1450 1567 0
1448 -1450 1567 0
-1456 -1458 -1570 0
1456 1458 -1570 0
-1456 1458 1570 0
1456 -1458 1570 0
-1460 -1462 -1572 0
1460 1462 -1572 0
-1460 1462 1572 0
1460 -1462 1572 0
-1464 -1466 -1574 0
1464 1466 -1574 0
-1464 1466 1574 0
1464 -1466 1574 0
-1468 -1470 -1576 0
1468 1470 -1576 0
-1468 1470 1576 0
1468 -1470 1576 0
-1472 -1474 -1578 0
1472 1474 -1578 0
-1472 1474 1578 0
1472 -1474 1578 0
-1476 -1478 -1580 0
1476 1478 -1580 0
-1476 1478 1580 0
1476 -1478 1580 0
-1480 -1482 -1582 0
1480 1482 -1582 0
-1480 1482 1582 0
1480 -1482 1582 0
-1484 -1486 -1584 0
1484 1486 -1584 0
-1484 1486 1584 0
1484 -1486 1584 0
-1491 -1493 -1588 0
1491 1493 -1588 0
-1491 1493 1588 0
1491 -1493 1588 0
-1495 -1497 -1590 0
1495 1497 -1590 0
-1495 1497 1590 0
1495 -1497 1590 0
-1499 -1501 -1592 0
1499 1501 -1592 0
-1499 1501 1592 0
1499 -1501 1592 0
-1503 -1505 -1594 0
1503 1505 -1594 0
-1503 1505 1594 0
1503 -1505 1594 0
-1507 -1509 -1596 0
1507 1509 -1596 0
-1507 1509 1596 0
1507 -1509 1596 0
-1511 -1513 -1598 0
1511 1513 -1598 0
-1511 1513 1598 0
1511 -1513 1598 0
-1515 -1517 -1600 0
1515 1517 -1600 0
-1515 1517 1600 0
1515 -1517 1600 0
-1519 -1521 -1602 0
1519 1521 -1602 0
-1519 1521 1602 0
1519 -1521 1602 0
-1524 -1526 -1605 0
1524 1526 -1605 0
-1524 1526 1605 0
1524 -1526 1605 0
-1528 -1530 -1606 0
1528 1530 -1606 0
-1528 1530 1606 0
1528 -1530 1606 0
-1532 -1534 -1608 0
1532 1534 -1608 0
-1532 1534 1608 0
1532 -1534 1608 0
-1536 -1538 -1610 0
1536 1538 -1610 0
-1536 1538 1610 0
1536 -1538 1610 0
-1540 -1542 -1612 0
1540 1542 -1612 0
-1540 1542 1612 0
1540 -1542 1612 0
-1544 -1546 -1614 0
1544 1546 -1614 0
-1544 1546 1614 0
1544 -1546 1614 0
-1548 -1550 -1616 0
1548 1550 -1616 0
-1548 1550 1616 0
1548 -1550 1616 0
-1552 -1554 -1618 0
1552 1554 -1618 0
-1552 1554 1618 0
1552 -1554 1618 0
-1555 -1556 -1653 0
1555 1556 -1653 0
-1555 1556 1653 0
1555 -1556 1653 0
-1557 -1559 -1620 0
1557 1559 -1620 0
-1557 1559 1620 0
1557 -1559 1620 0
-1561 -1563 -1622 0
1561 1563 -1622 0
-1561 1563 1622 0
1561 -1563 1622 0
-1565 -1567 -1624 0
1565 1567 -1624 0
-1565 1567 1624 0
1565 -1567 1624 0
-1570 -1572 -1625 0
1570 1572 -1625 0
-1570 1572 1625 0
1570 -1572 1625 0
-1574 -1576 -1627 0
1574 1576 -1627 0
-1574 1576 1627 0
1574 -1576 1627 0
-1578 -1580 -1629 0
1578 1580 -1629 0
-1578 1580 1629 0
1578 -1580 1629 0
-1582 -1584 -1631 0
1582 1584 -1631 0
-1582 1584 1631 0
1582 -1584 1631 0
-1586 -1587 -1633 0
1586 1587 -1633 0
-1586 1587 1633 0
1586 -1587 1633 0
-1588 -1590 -1635 0
1588 1590 -1635 0
-1588 1590 1635 0
1588 -1590 1635 0
-1592 -1594 -1637 0
1592 1594 -1637 0
-1592 1594 1637 0
1592 -1594 1637 0
-1596 -1598 -1639 0
1596 1598 -1639 0
-1596 1598 1639 0
1596 -1598 1639 0
-1600 -1602 -1641 0
1600 1602 -1641 0
-1600 1602 1641 0
1600 -1602 1641 0
-1604 -1605 -1643 0
1604 1605 -1643 0
-1604 1605 1643 0
1604 -1605 1643 0
-1606 -1608 -1645 0
1606 1608 -1645 0
-1606 1608 1645 0
1606 -1608 1645 0
-1610 -1612 -1647 0
1610 1612 -1647 0
-1610 1612 1647 0
1610 -1612 1647 0
-1614 -1616 -1649 0
1614 1616 -1649 0
-1614 1616 1649 0
1614 -1616 1649 0
-1618 -1619 -1651 0
1618 1619 -1651 0
-1618 1619 1651 0
1618 -1619 1651 0
-1620 -1622 -1654 0
1620 1622 -1654 0
-1620 1622 1654 0
1620 -1622 1654 0
-1569 -1624 -1655 0
1569 1624 -1655 0
1569 -1624 1655 0
-1569 1624 1655 0
-1625 -1627 -1657 0
1625 1627 -1657 0
-1625 1627 1657 0
1625 -1627 1657 0
-1629 -1631 -1659 0
1629 1631 -1659 0
-1629 1631 1659 0
1629 -1631 1659 0
-1633 -1635 -1661 0
1633 1635 -1661 0
-1633 1635 1661 0
1633 -1635 1661 0
-1637 -1639 -1663 0
1637 1639 -1663 0
-1637 1639 1663 0
1637 -1639 1663 0
-1641 -1643 -1665 0
1641 1643 -1665 0
-1641 1643 1665 0
1641 -1643 1665 0
-1645 -1647 -1667 0
1645 1647 -1667 0
-1645 1647 1667 0
1645 -1647 1667 0
-1649 -1651 -1669 0
1649 1651 -1669 0
-1649 1651 1669 0
1649 -1651 1669 0
-1653 -1654 -1671 0
1653 1654 -1671 0
-1653 1654 1671 0
1653 -1654 1671 0
-1655 -1657 -1673 0
1655 1657 -1673 0
-1655 1657 1673 0
1655 -1657 1673 0
-1659 -1661 -1675 0
1659 1661 -1675 0
-1659 1661 1675 0
1659 -1661 1675 0
-1663 -1665 -1677 0
1663 1665 -1677 0
-1663 1665 1677 0
1663 -1665 1677 0
-1667 -1669 -1679 0
1667 1669 -1679 0
-1667 1669 1679 0
1667 -1669 1679 0
-1671 -1673 -1681 0
1671 1673 -1681 0
-1671 1673 1681 0
1671 -1673 1681 0
-1675 -1677 -1683 0
1675 1677 -1683 0
-1675 1677 1683 0
1675 -1677 1683 0
-1679 -1681 -1683 0
1679 1681 -1683 0
-1679 1681 1683 0
1679 -1681 1683 0
-1558 -1560 -1687 0
1558 1560 -1687 0
-1558 1560 1687 0
1558 -1560 1687 0
-1562 -1564 -1689 0
1562 1564 -1689 0
-1562 1564 1689 0
1562 -1564 1689 0
-1566 -1568 -1691 0
1566 1568 -1691 0
-1566 1568 1691 0
1566 -1568 1691 0
-1571 -1573 -1746 0
1571 1573 -1746 0
-1571 1573 1746 0
1571 -1573 1746 0
-1575 -1577 -1693 0
1575 1577 -1693 0
-1575 1577 1693 0
1575 -1577 1693 0
-1579 -1581 -1695 0
1579 1581 -1695 0
-1579 1581 1695 0
1579 -1581 1695 0
-1583 -1585 -1748 0
1583 1585 -1748 0
-1583 1585 1748 0
1583 -1585 1748 0
-1589 -1591 -1698 0
1589 1591 -1698 0
-1589 1591 1698 0
1589 -1591 1698 0
-1593 -1595 -1699 0
1593 1595 -1699 0
-1593 1595 1699 0
1593 -1595 1699 0
-1597 -1599 -1701 0
1597 1599 -1701 0
-1597 1599 1701 0
1597 -1599 1701 0
-1601 -1603 -1703 0
1601 1603 -1703 0
-1601 1603 1703 0
1601 -1603 1703 0
-1607 -1609 -1705 0
1607 1609 -1705 0
-1607 1609 1705 0
1607 -1609 1705 0
-1611 -1613 -1707 0
1611 1613 -1707 0
-1611 1613 1707 0
1611 -1613 1707 0
-1615 -1617 -1709 0
1615 1617 -1709 0
-1615 1617 1709 0
1615 -1617 1709 0
-1621 -1623 -1712 0
1621 1623 -1712 0
-1621 1623 1712 0
1621 -1623 1712 0
-1626 -1628 -1714 0
1626 1628 -1714 0
-1626 1628 1714 0
1626 -1628 1714 0
-1630 -1632 -1715 0
1630 1632 -1715 0
-1630 1632 1715 0
1630 -1632 1715 0
-1634 -1636 -1717 0
1634 1636 -1717 0
-1634 1636 1717 0
1634 -1636 1717 0
-1638 -1640 -1719 0
1638 1640 -1719 0
-1638 1640 1719 0
1638 -1640 1719 0
-1642 -1644 -1721 0
1642 1644 -1721 0
-1642 1644 1721 0
1642 -1644 1721 0
-1646 -1648 -1723 0
1646 1648 -1723 0
-1646 1648 1723 0
1646 -1648 1723 0
-1650 -1652 -1725 0
1650 1652 -1725 0
-1650 1652 1725 0
1650 -1652 1725 0
-1656 -1658 -1728 0
1656 1658 -1728 0
-1656 1658 1728 0
1656 -1658 1728 0
-1660 -1662 -1729 0
1660 1662 -1729 0
-1660 1662 1729 0
1660 -1662 1729 0
-1664 -1666 -1731 0
1664 1666 -1731 0
-1664 1666 1731 0
1664 -1666 1731 0
-1668 -1670 -1733 0
1668 1670 -1733 0
-1668 1670 1733 0
1668 -1670 1733 0
-1672 -1674 -1735 0
1672 1674 -1735 0
-1672 1674 1735 0
1672 -1674 1735 0
-1676 -1678 -1737 0
1676 1678 -1737 0
-1676 1678 1737 0
1676 -1678 1737 0
-1680 -1682 -1739 0
1680 1682 -1739 0
-1680 1682 1739 0
1680 -1682 1739 0
-1684 -1685 -1741 0
1684 1685 -1741 0
-1684 1685 1741 0
1684 -1685 1741 0
-1686 -1687 -1742 0
1686 1687 -1742 0
-1686 1687 1742 0
1686 -1687 1742 0
-1689 -1691 -1744 0
1689 1691 -1744 0
-1689 1691 1744 0
1689 -1691 1744 0
-1693 -1695 -1747 0
1693 1695 -1747 0
-1693 1695 1747 0
1693 -1695 1747 0
-1698 -1699 -1749 0
1698 1699 -1749 0
-1698 1699 1749 0
1698 -1699 1749 0
-1701 -1703 -1750 0
1701 1703 -1750 0
-1701 1703 1750 0
1701 -1703 1750 0
-1704 -1705 -1752 0
1704 1705 -1752 0
-1704 1705 1752 0
1704 -1705 1752 0
-1707 -1709 -1754 0
1707 1709 -1754 0
-1707 1709 1754 0
1707 -1709 1754 0
-1710 -1711 -1756 0
1710 1711 -1756 0
-1710 1711 1756 0
1710 -1711 1756 0
-1712 -1713 -1758 0
1712 1713 -1758 0
-1712 1713 1758 0
1712 -1713 1758 0
-1714 -1715 -1760 0
1714 1715 -1760 0
-1714 1715 1760 0
1714 -1715 1760 0
-1717 -1719 -1762 0
1717 1719 -1762 0
-1717 1719 1762 0
1717 -1719 1762 0
-1721 -1723 -1764 0
1721 1723 -1764 0
-1721 1723 1764 0
1721 -1723 1764 0
-1725 -1727 -1766 0
1725 1727 -1766 0
-1725 1727 1766 0
1725 -1727 1766 0
-1728 -1729 -1768 0
1728 1729 -1768 0
-1728 1729 1768 0
1728 -1729 1768 0
-1731 -1733 -1770 0
1731 1733 -1770 0
-1731 1733 1770 0
1731 -1733 1770 0
-1735 -1737 -1772 0
1735 1737 -1772 0
-1735 1737 1772 0
1735 -1737 1772 0
-1739 -1741 -1774 0
1739 1741 -1774 0
-1739 1741 1774 0
1739 -1741 1774 0
-1683 -1742 -1776 0
1683 1742 -1776 0
-1683 1742 1776 0
1683 -1742 1776 0
-1744 -1746 -1778 0
1744 1746 -1778 0
-1744 1746 1778 0
1744 -1746 1778 0
-1747 -1748 -1780 0
1747 1748 -1780 0
-1747 1748 1780 0
1747 -1748 1780 0
-1749 -1750 -1782 0
1749 1750 -1782 0
-1749 1750 1782 0
1749 -1750 1782 0
-1752 -1754 -1784 0
1752 1754 -1784 0
-1752 1754 1784 0
1752 -1754 1784 0
-1756 -1758 -1786 0
1756 1758 -1786 0
-1756 1758 1786 0
1756 -1758 1786 0
-1760 -1762 -1788 0
1760 1762 -1788 0
-1760 1762 1788 0
1760 -1762 1788 0
-1764 -1766 -1790 0
1764 1766 -1790 0
-1764 1766 1790 0
1764 -1766 1790 0
-1768 -1770 -1792 0
1768 1770 -1792 0
-1768 1770 1792 0
1768 -1770 1792 0
-1772 -1774 -1794 0
1772 1774 -1794 0
-1772 1774 1794 0
1772 -1774 1794 0
-1776 -1778 -1796 0
1776 1778 -1796 0
-1776 1778 1796 0
1776 -1778 1796 0
-1780 -1782 -1798 0
1780 1782 -1798 0
-1780 1782 1798 0
1780 -1782 1798 0
-1784 -1786 -1800 0
1784 1786 -1800 0
-1784 1786 1800 0
1784 -1786 1800 0
-1788 -1790 -1802 0
1788 1790 -1802 0
-1788 1790 1802 0
1788 -1790 1802 0
-1792 -1794 -1804 0
1792 1794 -1804 0
-1792 1794 1804 0
1792 -1794 1804 0
-1796 -1798 -1806 0
1796 1798 -1806 0
-1796 1798 1806 0
1796 -1798 1806 0
-1800 -1802 -1808 0
1800 1802 -1808 0
-1800 1802 1808 0
1800 -1802 1808 0
-1804 -1806 -1808 0
1804 1806 -1808 0
-1804 1806 1808 0
1804 -1806 1808 0
-1688 -1690 -1866 0
1688 1690 -1866 0
-1688 1690 1866 0
1688 -1690 1866 0
-1692 -1694 -1812 0
1692 1694 -1812 0
-1692 1694 1812 0
1692 -1694 1812 0
-1696 -1697 -1813 0
1696 1697 -1813 0
-1696 1697 1813 0
1696 -1697 1813 0
-1700 -1702 -1815 0
1700 1702 -1815 0
-1700 1702 1815 0
1700 -1702 1815 0
-1706 -1708 -1817 0
1706 1708 -1817 0
-1706 1708 1817 0
1706 -1708 1817 0
-1716 -1718 -1821 0
1716 1718 -1821 0
-1716 1718 1821 0
1716 -1718 1821 0
-1720 -1722 -1823 0
1720 1722 -1823 0
-1720 1722 1823 0
1720 -1722 1823 0
-1724 -1726 -1825 0
1724 1726 -1825 0
-1724 1726 1825 0
1724 -1726 1825 0
-1730 -1732 -1827 0
1730 1732 -1827 0
-1730 1732 1827 0
1730 -1732 1827 0
-1734 -1736 -1829 0
1734 1736 -1829 0
-1734 1736 1829 0
1734 -1736 1829 0
-1738 -1740 -1831 0
1738 1740 -1831 0
-1738 1740 1831 0
1738 -1740 1831 0
-1743 -1745 -1833 0
1743 1745 -1833 0
-1743 1745 1833 0
1743 -1745 1833 0
-1751 -1753 -1836 0
1751 1753 -1836 0
-1751 1753 1836 0
1751 -1753 1836 0
-1755 -1757 -1837 0
1755 1757 -1837 0
-1755 1757 1837 0
1755 -1757 1837 0
-1759 -1761 -1839 0
1759 1761 -1839 0
-1759 1761 1839 0
1759 -1761 1839 0
-1763 -1765 -1841 0
1763 1765 -1841 0
-1763 1765 1841 0
1763 -1765 1841 0
-1767 -1769 -1843 0
1767 1769 -1843 0
-1767 1769 1843 0
1767 -1769 1843 0
-1771 -1773 -1845 0
1771 1773 -1845 0
-1771 1773 1845 0
1771 -1773 1845 0
-1775 -1777 -1847 0
1775 1777 -1847 0
-1775 1777 1847 0
1775 -1777 1847 0
-1779 -1781 -1849 0
1779 1781 -1849 0
-1779 1781 1849 0
1779 -1781 1849 0
-1783 -1785 -1851 0
1783 1785 -1851 0
-1783 1785 1851 0
1783 -1785 1851 0
-1787 -1789 -1853 0
1787 1789 -1853 0
-1787 1789 1853 0
1787 -1789 1853 0
-1791 -1793 -1855 0
1791 1793 -1855 0
-1791 1793 1855 0
1791 -1793 1855 0
-1795 -1797 -1857 0
1795 1797 -1857 0
-1795 1797 1857 0
1795 -1797 1857 0
-1799 -1801 -1859 0
1799 1801 -1859 0
-1799 1801 1859 0
1799 -1801 1859 0
-1803 -1805 -1861 0
1803 1805 -1861 0
-1803 1805 1861 0
1803 -1805 1861 0
-1807 -1809 -1863 0
1807 1809 -1863 0
-1807 1809 1863 0
1807 -1809 1863 0
-1808 -1810 -1865 0
1808 1810 -1865 0
1808 -1810 1865 0
-1808 1810 1865 0
-1811 -1812 -1867 0
1811 1812 -1867 0
-1811 1812 1867 0
1811 -1812 1867 0
-1813 -1814 -1869 0
1813 1814 -1869 0
-1813 1814 1869 0
1813 -1814 1869 0
-1815 -1816 -1871 0
1815 1816 -1871 0
-1815 1816 1871 0
1815 -1816 1871 0
-1817 -1818 -1873 0
1817 1818 -1873 0
-1817 1818 1873 0
1817 -1818 1873 0
-1819 -1820 -1875 0
1819 1820 -1875 0
-1819 1820 1875 0
1819 -1820 1875 0
-1821 -1823 -1877 0
1821 1823 -1877 0
-1821 1823 1877 0
1821 -1823 1877 0
-1825 -1826 -1879 0
1825 1826 -1879 0
-1825 1826 1879 0
1825 -1826 1879 0
-1827 -1829 -1881 0
1827 1829 -1881 0
-1827 1829 1881 0
1827 -1829 1881 0
-1831 -1832 -1883 0
1831 1832 -1883 0
-1831 1832 1883 0
1831 -1832 1883 0
-1833 -1834 -1885 0
1833 1834 -1885 0
-1833 1834 1885 0
1833 -1834 1885 0
-1835 -1836 -1887 0
1835 1836 -1887 0
-1835 1836 1887 0
1835 -1836 1887 0
-1837 -1839 -1889 0
1837 1839 -1889 0
-1837 1839 1889 0
1837 -1839 1889 0
-1841 -1843 -1891 0
1841 1843 -1891 0
-1841 1843 1891 0
1841 -1843 1891 0
-1845 -1847 -1893 0
1845 1847 -1893 0
-1845 1847 1893 0
1845 -1847 1893 0
-1849 -1851 -1895 0
1849 1851 -1895 0
-1849 1851 1895 0
1849 -1851 1895 0
-1853 -1855 -1897 0
1853 1855 -1897 0
-1853 1855 1897 0
1853 -1855 1897 0
-1857 -1859 -1899 0
1857 1859 -1899 0
-1857 1859 1899 0
1857 -1859 1899 0
-1861 -1863 -1901 0
1861 1863 -1901 0
-1861 1863 1901 0
1861 -1863 1901 0
-1865 -1866 -1903 0
1865 1866 -1903 0
-1865 1866 1903 0
1865 -1866 1903 0
-1867 -1869 -1905 0
1867 1869 -1905 0
-1867 1869 1905 0
1867 -1869 1905 0
-1871 -1873 -1907 0
1871 1873 -1907 0
-1871 1873 1907 0
1871 -1873 1907 0
-1875 -1877 -1909 0
1875 1877 -1909 0
-1875 1877 1909 0
1875 -1877 1909 0
-1879 -1881 -1911 0
1879 1881 -1911 0
-1879 1881 1911 0
1879 -1881 1911 0
-1883 -1885 -1913 0
1883 1885 -1913 0
-1883 1885 1913 0
1883 -1885 1913 0
-1887 -1889 -1915 0
1887 1889 -1915 0
-1887 1889 1915 0
1887 -1889 1915 0
-1891 -1893 -1917 0
1891 1893 -1917 0
-1891 1893 1917 0
1891 -1893 1917 0
-1895 -1897 -1919 0
1895 1897 -1919 0
-1895 1897 1919 0
1895 -1897 1919 0
-1899 -1901 -1921 0
1899 1901 -1921 0
-1899 1901 1921 0
1899 -1901 1921 0
-1903 -1905 -1923 0
1903 1905 -1923 0
-1903 1905 1923 0
1903 -1905 1923 0
-1907 -1909 -1925 0
1907 1909 -1925 0
-1907 1909 1925 0
1907 -1909 1925 0
-1911 -1913 -1927 0
1911 1913 -1927 0
-1911 1913 1927 0
1911 -1913 1927 0
-1915 -1917 -1929 0
1915 1917 -1929 0
-1915 1917 1929 0
1915 -1917 1929 0
-1919 -1921 -1931 0
1919 1921 -1931 0
-1919 1921 1931 0
1919 -1921 1931 0
-1923 -1925 -1933 0
1923 1925 -1933 0
-1923 1925 1933 0
1923 -1925 1933 0
-1927 -1929 -1935 0
1927 1929 -1935 0
-1927 1929 1935 0
1927 -1929 1935 0
-1931 -1933 -1935 0
1931 1933 -1935 0
-1931 1933 1935 0
1931 -1933 1935 0
-1822 -1824 -2003 0
1822 1824 -2003 0
-1822 1824 2003 0
1822 -1824 2003 0
-1828 -1830 -1944 0
1828 1830 -1944 0
-1828 1830 1944 0
1828 -1830 1944 0
-1838 -1840 -1948 0
1838 1840 -1948 0
-1838 1840 1948 0
1838 -1840 1948 0
-1842 -1844 -1950 0
1842 1844 -1950 0
-1842 1844 1950 0
1842 -1844 1950 0
-1846 -1848 -1952 0
1846 1848 -1952 0
-1846 1848 1952 0
1846 -1848 1952 0
-1850 -1852 -1954 0
1850 1852 -1954 0
-1850 1852 1954 0
1850 -1852 1954 0
-1854 -1856 -1956 0
1854 1856 -1956 0
-1854 1856 1956 0
1854 -1856 1956 0
-1858 -1860 -1958 0
1858 1860 -1958 0
-1858 1860 1958 0
1858 -1860 1958 0
-1862 -1864 -1960 0
1862 1864 -1960 0
-1862 1864 1960 0
1862 -1864 1960 0
-1868 -1870 -1962 0
1868 1870 -1962 0
-1868 1870 1962 0
1868 -1870 1962 0
-1872 -1874 -1964 0
1872 1874 -1964 0
-1872 1874 1964 0
1872 -1874 1964 0
-1876 -1878 -1966 0
1876 1878 -1966 0
-1876 1878 1966 0
1876 -1878 1966 0
-1880 -1882 -1968 0
1880 1882 -1968 0
-1880 1882 1968 0
1880 -1882 1968 0
-1884 -1886 -1970 0
1884 1886 -1970 0
-1884 1886 1970 0
1884 -1886 1970 0
-1888 -1890 -1972 0
1888 1890 -1972 0
-1888 1890 1972 0
1888 -1890 1972 0
-1892 -1894 -1974 0
1892 1894 -1974 0
-1892 1894 1974 0
1892 -1894 1974 0
-1896 -1898 -1976 0
1896 1898 -1976 0
-1896 1898 1976 0
1896 -1898 1976 0
-1900 -1902 -1978 0
1900 1902 -1978 0
-1900 1902 1978 0
1900 -1902 1978 0
-1904 -1906 -1980 0
1904 1906 -1980 0
-1904 1906 1980 0
1904 -1906 1980 0
-1908 -1910 -1982 0
1908 1910 -1982 0
-1908 1910 1982 0
1908 -1910 1982 0
-1912 -1914 -1984 0
1912 1914 -1984 0
-1912 1914 1984 0
1912 -1914 1984 0
-1916 -1918 -1986 0
1916 1918 -1986 0
-1916 1918 1986 0
1916 -1918 1986 0
-1920 -1922 -1988 0
1920 1922 -1988 0
-1920 1922 1988 0
1920 -1922 1988 0
-1924 -1926 -1990 0
1924 1926 -1990 0
-1924 1926 1990 0
1924 -1926 1990 0
-1928 -1930 -1992 0
1928 1930 -1992 0
-1928 1930 1992 0
1928 -1930 1992 0
-1932 -1934 -1994 0
1932 1934 -1994 0
-1932 1934 1994 0
1932 -1934 1994 0
-1936 -1937 -1996 0
1936 1937 -1996 0
-1936 1937 1996 0
1936 -1937 1996 0
-1935 -1938 -1998 0
1935 1938 -1998 0
-1935 1938 1998 0
1935 -1938 1998 0
-1939 -1940 -2000 0
1939 1940 -2000 0
-1939 1940 2000 0
1939 -1940 2000 0
-1941 -1942 -2002 0
1941 1942 -2002 0
-1941 1942 2002 0
1941 -1942 2002 0
-1943 -1944 -2004 0
1943 1944 -2004 0
-1943 1944 2004 0
1943 -1944 2004 0
-1945 -1946 -2006 0
1945 1946 -2006 0
-1945 1946 2006 0
1945 -1946 2006 0
-1947 -1948 -2008 0
1947 1948 -2008 0
-1947 1948 2008 0
1947 -1948 2008 0
-1950 -1952 -2010 0
1950 1952 -2010 0
-1950 1952 2010 0
1950 -1952 2010 0
-1954 -1956 -2012 0
1954 1956 -2012 0
-1954 1956 2012 0
1954 -1956 2012 0
-1958 -1960 -2014 0
1958 1960 -2014 0
-1958 1960 2014 0
1958 -1960 2014 0
-1961 -1962 -2016 0
1961 1962 -2016 0
-1961 1962 2016 0
1961 -1962 2016 0
-1964 -1966 -2018 0
1964 1966 -2018 0
-1964 1966 2018 0
1964 -1966 2018 0
-1968 -1970 -2020 0
1968 1970 -2020 0
-1968 1970 2020 0
1968 -1970 2020 0
-1972 -1974 -2022 0
1972 1974 -2022 0
-1972 1974 2022 0
1972 -1974 2022 0
-1976 -1978 -2024 0
1976 1978 -2024 0
-1976 1978 2024 0
1976 -1978 2024 0
-1980 -1982 -2026 0
1980 1982 -2026 0
-1980 1982 2026 0
1980 -1982 2026 0
-1984 -1986 -2028 0
1984 1986 -2028 0
-1984 1986 2028 0
1984 -1986 2028 0
-1988 -1990 -2030 0
1988 1990 -2030 0
-1988 1990 2030 0
1988 -1990 2030 0
-1992 -1994 -2032 0
1992 1994 -2032 0
-1992 1994 2032 0
1992 -1994 2032 0
-1996 -1998 -2034 0
1996 1998 -2034 0
-1996 1998 2034 0
1996 -1998 2034 0
-2000 -2002 -2036 0
2000 2002 -2036 0
-2000 2002 2036 0
2000 -2002 2036 0
-2003 -2004 -2038 0
2003 2004 -2038 0
-2003 2004 2038 0
2003 -2004 2038 0
-2006 -2008 -2040 0
2006 2008 -2040 0
-2006 2008 2040 0
2006 -2008 2040 0
-2010 -2012 -2042 0
2010 2012 -2042 0
-2010 2012 2042 0
2010 -2012 2042 0
-2014 -2016 -2044 0
2014 2016 -2044 0
-2014 2016 2044 0
2014 -2016 2044 0
-2018 -2020 -2046 0
2018 2020 -2046 0
-2018 2020 2046 0
2018 -2020 2046 0
-2022 -2024 -2048 0
2022 2024 -2048 0
-2022 2024 2048 0
2022 -2024 2048 0
-2026 -2028 -2050 0
2026 2028 -2050 0
-2026 2028 2050 0
2026 -2028 2050 0
-2030 -2032 -2052 0
2030 2032 -2052 0
-2030 2032 2052 0
2030 -2032 2052 0
-2034 -2036 -2054 0
2034 2036 -2054 0
-2034 2036 2054 0
2034 -2036 2054 0
-2038 -2040 -2056 0
2038 2040 -2056 0
-2038 2040 2056 0
2038 -2040 2056 0
-2042 -2044 -2058 0
2042 2044 -2058 0
-2042 2044 2058 0
2042 -2044 2058 0
-2046 -2048 -2060 0
2046 2048 -2060 0
-2046 2048 2060 0
2046 -2048 2060 0
-2050 -2052 -2062 0
2050 2052 -2062 0
-2050 2052 2062 0
2050 -2052 2062 0
-2054 -2056 -2064 0
2054 2056 -2064 0
-2054 2056 2064 0
2054 -2056 2064 0
-2058 -2060 -2066 0
2058 2060 -2066 0
-2058 2060 2066 0
2058 -2060 2066 0
-2062 -2064 -2066 0
2062 2064 -2066 0
-2062 2064 2066 0
2062 -2064 2066 0
-1949 -1951 -2071 0
1949 1951 -2071 0
-1949 1951 2071 0
1949 -1951 2071 0
-1953 -1955 -2073 0
1953 1955 -2073 0
-1953 1955 2073 0
1953 -1955 2073 0
-1957 -1959 -2075 0
1957 1959 -2075 0
-1957 1959 2075 0
1957 -1959 2075 0
-1963 -1965 -2077 0
1963 1965 -2077 0
-1963 1965 2077 0
1963 -1965 2077 0
-1967 -1969 -2079 0
1967 1969 -2079 0
-1967 1969 2079 0
1967 -1969 2079 0
-1971 -1973 -2081 0
1971 1973 -2081 0
-1971 1973 2081 0
1971 -1973 2081 0
-1975 -1977 -2083 0
1975 1977 -2083 0
-1975 1977 2083 0
1975 -1977 2083 0
-1979 -1981 -2085 0
1979 1981 -2085 0
-1979 1981 2085 0
1979 -1981 2085 0
-1983 -1985 -2087 0
1983 1985 -2087 0
-1983 1985 2087 0
1983 -1985 2087 0
-1987 -1989 -2089 0
1987 1989 -2089 0
-1987 1989 2089 0
1987 -1989 2089 0
-1991 -1993 -2091 0
1991 1993 -2091 0
-1991 1993 2091 0
1991 -1993 2091 0
-1995 -1997 -2093 0
1995 1997 -2093 0
-1995 1997 2093 0
1995 -1997 2093 0
-1999 -2001 -2095 0
1999 2001 -2095 0
-1999 2001 2095 0
1999 -2001 2095 0
-2005 -2007 -2098 0
2005 2007 -2098 0
-2005 2007 2098 0
2005 -2007 2098 0
-2009 -2011 -2099 0
2009 2011 -2099 0
-2009 2011 2099 0
2009 -2011 2099 0
-2013 -2015 -2101 0
2013 2015 -2101 0
-2013 2015 2101 0
2013 -2015 2101 0
-2017 -2019 -2103 0
2017 2019 -2103 0
-2017 2019 2103 0
2017 -2019 2103 0
-2021 -2023 -2105 0
2021 2023 -2105 0
-2021 2023 2105 0
2021 -2023 2105 0
-2025 -2027 -2107 0
2025 2027 -2107 0
-2025 2027 2107 0
2025 -2027 2107 0
-2029 -2031 -2109 0
2029 2031 -2109 0
-2029 2031 2109 0
2029 -2031 2109 0
-2033 -2035 -2111 0
2033 2035 -2111 0
-2033 2035 2111 0
2033 -2035 2111 0
-2037 -2039 -2113 0
2037 2039 -2113 0
-2037 2039 2113 0
2037 -2039 2113 0
-2041 -2043 -2115 0
2041 2043 -2115 0
-2041 2043 2115 0
2041 -2043 2115 0
-2045 -2047 -2117 0
2045 2047 -2117 0
-2045 2047 2117 0
2045 -2047 2117 0
-2049 -2051 -2119 0
2049 2051 -2119 0
-2049 2051 2119 0
2049 -2051 2119 0
-2053 -2055 -2121 0
2053 2055 -2121 0
-2053 2055 2121 0
2053 -2055 2121 0
-2057 -2059 -2123 0
2057 2059 -2123 0
-2057 2059 2123 0
2057 -2059 2123 0
-2061 -2063 -2125 0
2061 2063 -2125 0
-2061 2063 2125 0
2061 -2063 2125 0
-2065 -2067 -2127 0
2065 2067 -2127 0
-2065 2067 2127 0
2065 -2067 2127 0
-2066 -2068 -2129 0
2066 2068 -2129 0
2066 -2068 2129 0
-2066 2068 2129 0
-2071 -2073 -2131 0
2071 2073 -2131 0
-2071 2073 2131 0
2071 -2073 2131 0
-2075 -2076 -2132 0
2075 2076 -2132 0
-2075 2076 2132 0
2075 -2076 2132 0
-2077 -2079 -2134 0
2077 2079 -2134 0
-2077 2079 2134 0
2077 -2079 2134 0
-2081 -2083 -2136 0
2081 2083 -2136 0
-2081 2083 2136 0
2081 -2083 2136 0
-2085 -2087 -2138 0
2085 2087 -2138 0
-2085 2087 2138 0
2085 -2087 2138 0
-2089 -2091 -2140 0
2089 2091 -2140 0
-2089 2091 2140 0
2089 -2091 2140 0
-2093 -2095 -2142 0
2093 2095 -2142 0
-2093 2095 2142 0
2093 -2095 2142 0
-2097 -2098 -2144 0
2097 2098 -2144 0
-2097 2098 2144 0
2097 -2098 2144 0
-2099 -2101 -2146 0
2099 2101 -2146 0
-2099 2101 2146 0
2099 -2101 2146 0
-2103 -2105 -2148 0
2103 2105 -2148 0
-2103 2105 2148 0
2103 -2105 2148 0
-2107 -2109 -2150 0
2107 2109 -2150 0
-2107 2109 2150 0
2107 -2109 2150 0
-2111 -2113 -2152 0
2111 2113 -2152 0
-2111 2113 2152 0
2111 -2113 2152 0
-2115 -2117 -2154 0
2115 2117 -2154 0
-2115 2117 2154 0
2115 -2117 2154 0
-2119 -2121 -2156 0
2119 2121 -2156 0
-2119 2121 2156 0
2119 -2121 2156 0
-2123 -2125 -2158 0
2123 2125 -2158 0
-2123 2125 2158 0
2123 -2125 2158 0
-2127 -2129 -2160 0
2127 2129 -2160 0
-2127 2129 2160 0
2127 -2129 2160 0
-2070 -2131 -2161 0
2070 2131 -2161 0
-2070 2131 2161 0
2070 -2131 2161 0
-2132 -2134 -2163 0
2132 2134 -2163 0
-2132 2134 2163 0
2132 -2134 2163 0
-2136 -2138 -2165 0
2136 2138 -2165 0
-2136 2138 2165 0
2136 -2138 2165 0
-2140 -2142 -2167 0
2140 2142 -2167 0
-2140 2142 2167 0
2140 -2142 2167 0
-2144 -2146 -2169 0
2144 2146 -2169 0
-2144 2146 2169 0
2144 -2146 2169 0
-2148 -2150 -2171 0
2148 2150 -2171 0
-2148 2150 2171 0
2148 -2150 2171 0
-2152 -2154 -2173 0
2152 2154 -2173 0
-2152 2154 2173 0
2152 -2154 2173 0
-2156 -2158 -2175 0
2156 2158 -2175 0
-2156 2158 2175 0
2156 -2158 2175 0
-2069 -2160 -2177 0
2069 2160 -2177 0
2069 -2160 2177 0
-2069 2160 2177 0
-2161 -2163 -2179 0
2161 2163 -2179 0
-2161 2163 2179 0
2161 -2163 2179 0
-2165 -2167 -2181 0
2165 2167 -2181 0
-2165 2167 2181 0
2165 -2167 2181 0
-2169 -2171 -2183 0
2169 2171 -2183 0
-2169 2171 2183 0
2169 -2171 2183 0
-2173 -2175 -2185 0
2173 2175 -2185 0
-2173 2175 2185 0
2173 -2175 2185 0
-2177 -2179 -2187 0
2177 2179 -2187 0
-2177 2179 2187 0
2177 -2179 2187 0
-2181 -2183 -2189 0
2181 2183 -2189 0
-2181 2183 2189 0
2181 -2183 2189 0
-2185 -2187 -2189 0
2185 2187 -2189 0
-2185 2187 2189 0
2185 -2187 2189 0
-2072 -2074 -2192 0
2072 2074 -2192 0
-2072 2074 2192 0
2072 -2074 2192 0
-2078 -2080 -2194 0
2078 2080 -2194 0
-2078 2080 2194 0
2078 -2080 2194 0
-2082 -2084 -2195 0
2082 2084 -2195 0
-2082 2084 2195 0
2082 -2084 2195 0
-2086 -2088 -2197 0
2086 2088 -2197 0
-2086 2088 2197 0
2086 -2088 2197 0
-2090 -2092 -2199 0
2090 2092 -2199 0
-2090 2092 2199 0
2090 -2092 2199 0
-2094 -2096 -2201 0
2094 2096 -2201 0
-2094 2096 2201 0
2094 -2096 2201 0
-2100 -2102 -2204 0
2100 2102 -2204 0
-2100 2102 2204 0
2100 -2102 2204 0
-2104 -2106 -2205 0
2104 2106 -2205 0
-2104 2106 2205 0
2104 -2106 2205 0
-2108 -2110 -2207 0
2108 2110 -2207 0
-2108 2110 2207 0
2108 -2110 2207 0
-2112 -2114 -2209 0
2112 2114 -2209 0
-2112 2114 2209 0
2112 -2114 2209 0
-2116 -2118 -2211 0
2116 2118 -2211 0
-2116 2118 2211 0
2116 -2118 2211 0
-2120 -2122 -2213 0
2120 2122 -2213 0
-2120 2122 2213 0
2120 -2122 2213 0
-2124 -2126 -2215 0
2124 2126 -2215 0
-2124 2126 2215 0
2124 -2126 2215 0
-2128 -2130 -2217 0
2128 2130 -2217 0
-2128 2130 2217 0
2128 -2130 2217 0
-2133 -2135 -2218 0
2133 2135 -2218 0
-2133 2135 2218 0
2133 -2135 2218 0
-2137 -2139 -2219 0
2137 2139 -2219 0
-2137 2139 2219 0
2137 -2139 2219 0
-2141 -2143 -2221 0
2141 2143 -2221 0
-2141 2143 2221 0
2141 -2143 2221 0
-2145 -2147 -2223 0
2145 2147 -2223 0
-2145 2147 2223 0
2145 -2147 2223 0
-2149 -2151 -2225 0
2149 2151 -2225 0
-2149 2151 2225 0
2149 -2151 2225 0
-2153 -2155 -2227 0
2153 2155 -2227 0
-2153 2155 2227 0
2153 -2155 2227 0
-2157 -2159 -2229 0
2157 2159 -2229 0
-2157 2159 2229 0
2157 -2159 2229 0
-2162 -2164 -2232 0
2162 2164 -2232 0
-2162 2164 2232 0
2162 -2164 2232 0
-2166 -2168 -2233 0
2166 2168 -2233 0
-2166 2168 2233 0
2166 -2168 2233 0
-2170 -2172 -2235 0
2170 2172 -2235 0
-2170 2172 2235 0
2170 -2172 2235 0
-2174 -2176 -2237 0
2174 2176 -2237 0
-2174 2176 2237 0
2174 -2176 2237 0
-2178 -2180 -2239 0
2178 2180 -2239 0
-2178 2180 2239 0
2178 -2180 2239 0
-2182 -2184 -2241 0
2182 2184 -2241 0
-2182 2184 2241 0
2182 -2184 2241 0
-2186 -2188 -2243 0
2186 2188 -2243 0
-2186 2188 2243 0
2186 -2188 2243 0
-2190 -2191 -2245 0
2190 2191 -2245 0
-2190 2191 2245 0
2190 -2191 2245 0
-2192 -2193 -2246 0
2192 2193 -2246 0
-2192 2193 2246 0
2192 -2193 2246 0
-2194 -2195 -2247 0
2194 2195 -2247 0
-2194 2195 2247 0
2194 -2195 2247 0
-2197 -2199 -2249 0
2197 2199 -2249 0
-2197 2199 2249 0
2197 -2199 2249 0
-2201 -2203 -2251 0
2201 2203 -2251 0
-2201 2203 2251 0
2201 -2203 2251 0
-2204 -2205 -2253 0
2204 2205 -2253 0
-2204 2205 2253 0
2204 -2205 2253 0
-2207 -2209 -2255 0
2207 2209 -2255 0
-2207 2209 2255 0
2207 -2209 2255 0
-2211 -2213 -2257 0
2211 2213 -2257 0
-2211 2213 2257 0
2211 -2213 2257 0
-2215 -2217 -2259 0
2215 2217 -2259 0
-2215 2217 2259 0
2215 -2217 2259 0
-2218 -2219 -2261 0
2218 2219 -2261 0
-2218 2219 2261 0
2218 -2219 2261 0
-2221 -2223 -2263 0
2221 2223 -2263 0
-2221 2223 2263 0
2221 -2223 2263 0
-2225 -2227 -2265 0
2225 2227 -2265 0
-2225 2227 2265 0
2225 -2227 2265 0
-2229 -2231 -2267 0
2229 2231 -2267 0
-2229 2231 2267 0
2229 -2231 2267 0
-2232 -2233 -2269 0
2232 2233 -2269 0
-2232 2233 2269 0
2232 -2233 2269 0
-2235 -2237 -2271 0
2235 2237 -2271 0
-2235 2237 2271 0
2235 -2237 2271 0
-2239 -2241 -2273 0
2239 2241 -2273 0
-2239 2241 2273 0
2239 -2241 2273 0
-2243 -2245 -2275 0
2243 2245 -2275 0
-2243 2245 2275 0
2243 -2245 2275 0
-2246 -2247 -2277 0
2246 2247 -2277 0
-2246 2247 2277 0
2246 -2247 2277 0
-2249 -2251 -2278 0
2249 2251 -2278 0
-2249 2251 2278 0
2249 -2251 2278 0
-2253 -2255 -2280 0
2253 2255 -2280 0
-2253 2255 2280 0
2253 -2255 2280 0
-2257 -2259 -2282 0
2257 2259 -2282 0
-2257 2259 2282 0
2257 -2259 2282 0
-2260 -2261 -2284 0
2260 2261 -2284 0
-2260 2261 2284 0
2260 -2261 2284 0
-2263 -2265 -2286 0
2263 2265 -2286 0
-2263 2265 2286 0
2263 -2265 2286 0
-2267 -2269 -2288 0
2267 2269 -2288 0
-2267 2269 2288 0
2267 -2269 2288 0
-2271 -2273 -2290 0
2271 2273 -2290 0
-2271 2273 2290 0
2271 -2273 2290 0
-2189 -2275 -2292 0
2189 2275 -2292 0
2189 -2275 2292 0
-2189 2275 2292 0
-2277 -2278 -2294 0
2277 2278 -2294 0
-2277 2278 2294 0
2277 -2278 2294 0
-2280 -2282 -2296 0
2280 2282 -2296 0
-2280 2282 2296 0
2280 -2282 2296 0
-2284 -2286 -2298 0
2284 2286 -2298 0
-2284 2286 2298 0
2284 -2286 2298 0
-2288 -2290 -2300 0
2288 2290 -2300 0
-2288 2290 2300 0
2288 -2290 2300 0
-2292 -2294 -2302 0
2292 2294 -2302 0
-2292 2294 2302 0
2292 -2294 2302 0
-2296 -2298 -2304 0
2296 2298 -2304 0
-2296 2298 2304 0
2296 -2298 2304 0
-2300 -2302 -2304 0
2300 2302 -2304 0
-2300 2302 2304 0
2300 -2302 2304 0
-2196 -2198 -2308 0
2196 2198 -2308 0
-2196 2198 2308 0
2196 -2198 2308 0
-2200 -2202 -2309 0
2200 2202 -2309 0
-2200 2202 2309 0
2200 -2202 2309 0
-2206 -2208 -2311 0
2206 2208 -2311 0
-2206 2208 2311 0
2206 -2208 2311 0
-2210 -2212 -2313 0
2210 2212 -2313 0
-2210 2212 2313 0
2210 -2212 2313 0
-2214 -2216 -2315 0
2214 2216 -2315 0
-2214 2216 2315 0
2214 -2216 2315 0
-2220 -2222 -2318 0
2220 2222 -2318 0
-2220 2222 2318 0
2220 -2222 2318 0
-2224 -2226 -2319 0
2224 2226 -2319 0
-2224 2226 2319 0
2224 -2226 2319 0
-2228 -2230 -2321 0
2228 2230 -2321 0
-2228 2230 2321 0
2228 -2230 2321 0
-2234 -2236 -2324 0
2234 2236 -2324 0
-2234 2236 2324 0
2234 -2236 2324 0
-2238 -2240 -2325 0
2238 2240 -2325 0
-2238 2240 2325 0
2238 -2240 2325 0
-2242 -2244 -2327 0
2242 2244 -2327 0
-2242 2244 2327 0
2242 -2244 2327 0
-2248 -2250 -2331 0
2248 2250 -2331 0
-2248 2250 2331 0
2248 -2250 2331 0
-2252 -2254 -2333 0
2252 2254 -2333 0
-2252 2254 2333 0
2252 -2254 2333 0
-2256 -2258 -2335 0
2256 2258 -2335 0
-2256 2258 2335 0
2256 -2258 2335 0
-2262 -2264 -2337 0
2262 2264 -2337 0
-2262 2264 2337 0
2262 -2264 2337 0
-2266 -2268 -2339 0
2266 2268 -2339 0
-2266 2268 2339 0
2266 -2268 2339 0
-2270 -2272 -2341 0
2270 2272 -2341 0
-2270 2272 2341 0
2270 -2272 2341 0
-2274 -2276 -2343 0
2274 2276 -2343 0
-2274 2276 2343 0
2274 -2276 2343 0
-2279 -2281 -2346 0
2279 2281 -2346 0
-2279 2281 2346 0
2279 -2281 2346 0
-2283 -2285 -2347 0
2283 2285 -2347 0
-2283 2285 2347 0
2283 -2285 2347 0
-2287 -2289 -2349 0
2287 2289 -2349 0
-2287 2289 2349 0
2287 -2289 2349 0
-2291 -2293 -2351 0
2291 2293 -2351 0
-2291 2293 2351 0
2291 -2293 2351 0
-2295 -2297 -2353 0
2295 2297 -2353 0
-2295 2297 2353 0
2295 -2297 2353 0
-2299 -2301 -2355 0
2299 2301 -2355 0
-2299 2301 2355 0
2299 -2301 2355 0
-2303 -2305 -2357 0
2303 2305 -2357 0
-2303 2305 2357 0
2303 -2305 2357 0
-2304 -2306 -2359 0
2304 2306 -2359 0
2304 -2306 2359 0
-2304 2306 2359 0
-2307 -2308 -2361 0
2307 2308 -2361 0
-2307 2308 2361 0
2307 -2308 2361 0
-2309 -2310 -2363 0
2309 2310 -2363 0
-2309 2310 2363 0
2309 -2310 2363 0
-2311 -2313 -2365 0
2311 2313 -2365 0
-2311 2313 2365 0
2311 -2313 2365 0
-2315 -2316 -2367 0
2315 2316 -2367 0
-2315 2316 2367 0
2315 -2316 2367 0
-2317 -2318 -2369 0
2317 2318 -2369 0
-2317 2318 2369 0
2317 -2318 2369 0
-2319 -2321 -2371 0
2319 2321 -2371 0
-2319 2321 2371 0
2319 -2321 2371 0
-2323 -2324 -2373 0
2323 2324 -2373 0
-2323 2324 2373 0
2323 -2324 2373 0
-2325 -2327 -2375 0
2325 2327 -2375 0
-2325 2327 2375 0
2325 -2327 2375 0
-2329 -2330 -2377 0
2329 2330 -2377 0
-2329 2330 2377 0
2329 -2330 2377 0
-2331 -2333 -2379 0
2331 2333 -2379 0
-2331 2333 2379 0
2331 -2333 2379 0
-2335 -2336 -2381 0
2335 2336 -2381 0
-2335 2336 2381 0
2335 -2336 2381 0
-2337 -2339 -2383 0
2337 2339 -2383 0
-2337 2339 2383 0
2337 -2339 2383 0
-2341 -2343 -2385 0
2341 2343 -2385 0
-2341 2343 2385 0
2341 -2343 2385 0
-2345 -2346 -2387 0
2345 2346 -2387 0
-2345 2346 2387 0
2345 -2346 2387 0
-2347 -2349 -2389 0
2347 2349 -2389 0
-2347 2349 2389 0
2347 -2349 2389 0
-2351 -2353 -2391 0
2351 2353 -2391 0
-2351 2353 2391 0
2351 -2353 2391 0
-2355 -2357 -2393 0
2355 2357 -2393 0
-2355 2357 2393 0
2355 -2357 2393 0
-2359 -2360 -2395 0
2359 2360 -2395 0
-2359 2360 2395 0
2359 -2360 2395 0
-2361 -2363 -2397 0
2361 2363 -2397 0
-2361 2363 2397 0
2361 -2363 2397 0
-2365 -2367 -2399 0
2365 2367 -2399 0
-2365 2367 2399 0
2365 -2367 2399 0
-2369 -2371 -2401 0
2369 2371 -2401 0
-2369 2371 2401 0
2369 -2371 2401 0
-2373 -2375 -2403 0
2373 2375 -2403 0
-2373 2375 2403 0
2373 -2375 2403 0
-2377 -2379 -2405 0
2377 2379 -2405 0
-2377 2379 2405 0
2377 -2379 2405 0
-2381 -2383 -2407 0
2381 2383 -2407 0
-2381 2383 2407 0
2381 -2383 2407 0
-2385 -2387 -2409 0
2385 2387 -2409 0
-2385 2387 2409 0
2385 -2387 2409 0
-2389 -2391 -2411 0
2389 2391 -2411 0
-2389 2391 2411 0
2389 -2391 2411 0
-2393 -2395 -2413 0
2393 2395 -2413 0
-2393 2395 2413 0
2393 -2395 2413 0
-2397 -2399 -2415 0
2397 2399 -2415 0
-2397 2399 2415 0
2397 -2399 2415 0
-2401 -2403 -2417 0
2401 2403 -2417 0
-2401 2403 2417 0
2401 -2403 2417 0
-2405 -2407 -2419 0
2405 2407 -2419 0
-2405 2407 2419 0
2405 -2407 2419 0
-2409 -2411 -2421 0
2409 2411 -2421 0
-2409 2411 2421 0
2409 -2411 2421 0
-2413 -2415 -2423 0
2413 2415 -2423 0
-2413 2415 2423 0
2413 -2415 2423 0
-2417 -2419 -2425 0
2417 2419 -2425 0
-2417 2419 2425 0
2417 -2419 2425 0
-2421 -2423 -2425 0
2421 2423 -2425 0
-2421 2423 2425 0
2421 -2423 2425 0
-2312 -2314 -2430 0
2312 2314 -2430 0
-2312 2314 2430 0
2312 -2314 2430 0
-2320 -2322 -2433 0
2320 2322 -2433 0
-2320 2322 2433 0
2320 -2322 2433 0
-2326 -2328 -2435 0
2326 2328 -2435 0
-2326 2328 2435 0
2326 -2328 2435 0
-2332 -2334 -2487 0
2332 2334 -2487 0
-2332 2334 2487 0
2332 -2334 2487 0
-2338 -2340 -2437 0
2338 2340 -2437 0
-2338 2340 2437 0
2338 -2340 2437 0
-2342 -2344 -2439 0
2342 2344 -2439 0
-2342 2344 2439 0
2342 -2344 2439 0
-2348 -2350 -2442 0
2348 2350 -2442 0
-2348 2350 2442 0
2348 -2350 2442 0
-2352 -2354 -2443 0
2352 2354 -2443 0
-2352 2354 2443 0
2352 -2354 2443 0
-2356 -2358 -2445 0
2356 2358 -2445 0
-2356 2358 2445 0
2356 -2358 2445 0
-2362 -2364 -2448 0
2362 2364 -2448 0
-2362 2364 2448 0
2362 -2364 2448 0
-2366 -2368 -2449 0
2366 2368 -2449 0
-2366 2368 2449 0
2366 -2368 2449 0
-2370 -2372 -2451 0
2370 2372 -2451 0
-2370 2372 2451 0
2370 -2372 2451 0
-2374 -2376 -2453 0
2374 2376 -2453 0
-2374 2376 2453 0
2374 -2376 2453 0
-2378 -2380 -2455 0
2378 2380 -2455 0
-2378 2380 2455 0
2378 -2380 2455 0
-2382 -2384 -2457 0
2382 2384 -2457 0
-2382 2384 2457 0
2382 -2384 2457 0
-2386 -2388 -2459 0
2386 2388 -2459 0
-2386 2388 2459 0
2386 -2388 2459 0
-2390 -2392 -2461 0
2390 2392 -2461 0
-2390 2392 2461 0
2390 -2392 2461 0
-2394 -2396 -2463 0
2394 2396 -2463 0
-2394 2396 2463 0
2394 -2396 2463 0
-2398 -2400 -2465 0
2398 2400 -2465 0
-2398 2400 2465 0
2398 -2400 2465 0
-2402 -2404 -2467 0
2402 2404 -2467 0
-2402 2404 2467 0
2402 -2404 2467 0
-2406 -2408 -2469 0
2406 2408 -2469 0
-2406 2408 2469 0
2406 -2408 2469 0
-2410 -2412 -2471 0
2410 2412 -2471 0
-2410 2412 2471 0
2410 -2412 2471 0
-2414 -2416 -2473 0
2414 2416 -2473 0
-2414 2416 2473 0
2414 -2416 2473 0
-2418 -2420 -2475 0
2418 2420 -2475 0
-2418 2420 2475 0
2418 -2420 2475 0
-2422 -2424 -2477 0
2422 2424 -2477 0
-2422 2424 2477 0
2422 -2424 2477 0
-2426 -2427 -2479 0
2426 2427 -2479 0
-2426 2427 2479 0
2426 -2427 2479 0
-2428 -2429 -2481 0
2428 2429 -2481 0
-2428 2429 2481 0
2428 -2429 2481 0
-2430 -2431 -2482 0
2430 2431 -2482 0
-2430 2431 2482 0
2430 -2431 2482 0
-2432 -2433 -2484 0
2432 2433 -2484 0
-2432 2433 2484 0
2432 -2433 2484 0
-2434 -2435 -2486 0
2434 2435 -2486 0
-2434 2435 2486 0
2434 -2435 2486 0
-2436 -2437 -2488 0
2436 2437 -2488 0
-2436 2437 2488 0
2436 -2437 2488 0
-2439 -2441 -2490 0
2439 2441 -2490 0
-2439 2441 2490 0
2439 -2441 2490 0
-2442 -2443 -2492 0
2442 2443 -2492 0
-2442 2443 2492 0
2442 -2443 2492 0
-2445 -2447 -2494 0
2445 2447 -2494 0
-2445 2447 2494 0
2445 -2447 2494 0
-2448 -2449 -2496 0
2448 2449 -2496 0
-2448 2449 2496 0
2448 -2449 2496 0
-2451 -2453 -2498 0
2451 2453 -2498 0
-2451 2453 2498 0
2451 -2453 2498 0
-2455 -2457 -2500 0
2455 2457 -2500 0
-2455 2457 2500 0
2455 -2457 2500 0
-2459 -2461 -2502 0
2459 2461 -2502 0
-2459 2461 2502 0
2459 -2461 2502 0
-2463 -2465 -2504 0
2463 2465 -2504 0
-2463 2465 2504 0
2463 -2465 2504 0
-2467 -2469 -2506 0
2467 2469 -2506 0
-2467 2469 2506 0
2467 -2469 2506 0
-2471 -2473 -2508 0
2471 2473 -2508 0
-2471 2473 2508 0
2471 -2473 2508 0
-2475 -2477 -2510 0
2475 2477 -2510 0
-2475 2477 2510 0
2475 -2477 2510 0
-2425 -2479 -2512 0
2425 2479 -2512 0
2425 -2479 2512 0
-2425 2479 2512 0
-2481 -2482 -2514 0
2481 2482 -2514 0
-2481 2482 2514 0
2481 -2482 2514 0
-2484 -2486 -2516 0
2484 2486 -2516 0
-2484 2486 2516 0
2484 -2486 2516 0
-2487 -2488 -2518 0
2487 2488 -2518 0
-2487 2488 2518 0
2487 -2488 2518 0
-2490 -2492 -2520 0
2490 2492 -2520 0
-2490 2492 2520 0
2490 -2492 2520 0
-2494 -2496 -2522 0
2494 2496 -2522 0
-2494 2496 2522 0
2494 -2496 2522 0
-2498 -2500 -2524 0
2498 2500 -2524 0
-2498 2500 2524 0
2498 -2500 2524 0
-2502 -2504 -2526 0
2502 2504 -2526 0
-2502 2504 2526 0
2502 -2504 2526 0
-2506 -2508 -2528 0
2506 2508 -2528 0
-2506 2508 2528 0
2506 -2508 2528 0
-2510 -2512 -2530 0
2510 2512 -2530 0
-2510 2512 2530 0
2510 -2512 2530 0
-2514 -2516 -2532 0
2514 2516 -2532 0
-2514 2516 2532 0
2514 -2516 2532 0
-2518 -2520 -2534 0
2518 2520 -2534 0
-2518 2520 2534 0
2518 -2520 2534 0
-2522 -2524 -2536 0
2522 2524 -2536 0
-2522 2524 2536 0
2522 -2524 2536 0
-2526 -2528 -2538 0
2526 2528 -2538 0
-2526 2528 2538 0
2526 -2528 2538 0
-2530 -2532 -2540 0
2530 2532 -2540 0
-2530 2532 2540 0
2530 -2532 2540 0
-2534 -2536 -2542 0
2534 2536 -2542 0
-2534 2536 2542 0
2534 -2536 2542 0
-2538 -2540 -2542 0
2538 2540 -2542 0
-2538 2540 2542 0
2538 -2540 2542 0
-2438 -2440 -2548 0
2438 2440 -2548 0
-2438 2440 2548 0
2438 -2440 2548 0
-2444 -2446 -2550 0
2444 2446 -2550 0
-2444 2446 2550 0
2444 -2446 2550 0
-2450 -2452 -2552 0
2450 2452 -2552 0
-2450 2452 2552 0
2450 -2452 2552 0
-2454 -2456 -2554 0
2454 2456 -2554 0
-2454 2456 2554 0
2454 -2456 2554 0
-2458 -2460 -2556 0
2458 2460 -2556 0
-2458 2460 2556 0
2458 -2460 2556 0
-2462 -2464 -2558 0
2462 2464 -2558 0
-2462 2464 2558 0
2462 -2464 2558 0
-2466 -2468 -2560 0
2466 2468 -2560 0
-2466 2468 2560 0
2466 -2468 2560 0
-2470 -2472 -2562 0
2470 2472 -2562 0
-2470 2472 2562 0
2470 -2472 2562 0
-2474 -2476 -2564 0
2474 2476 -2564 0
-2474 2476 2564 0
2474 -2476 2564 0
-2478 -2480 -2566 0
2478 2480 -2566 0
-2478 2480 2566 0
2478 -2480 2566 0
-2483 -2485 -2569 0
2483 2485 -2569 0
-2483 2485 2569 0
2483 -2485 2569 0
-2489 -2491 -2571 0
2489 2491 -2571 0
-2489 2491 2571 0
2489 -2491 2571 0
-2493 -2495 -2572 0
2493 2495 -2572 0
-2493 2495 2572 0
2493 -2495 2572 0
-2497 -2499 -2574 0
2497 2499 -2574 0
-2497 2499 2574 0
2497 -2499 2574 0
-2501 -2503 -2576 0
2501 2503 -2576 0
-2501 2503 2576 0
2501 -2503 2576 0
-2505 -2507 -2578 0
2505 2507 -2578 0
-2505 2507 2578 0
2505 -2507 2578 0
-2509 -2511 -2580 0
2509 2511 -2580 0
-2509 2511 2580 0
2509 -2511 2580 0
-2513 -2515 -2582 0
2513 2515 -2582 0
-2513 2515 2582 0
2513 -2515 2582 0
-2517 -2519 -2584 0
2517 2519 -2584 0
-2517 2519 2584 0
2517 -2519 2584 0
-2521 -2523 -2586 0
2521 2523 -2586 0
-2521 2523 2586 0
2521 -2523 2586 0
-2525 -2527 -2588 0
2525 2527 -2588 0
-2525 2527 2588 0
2525 -2527 2588 0
-2529 -2531 -2590 0
2529 2531 -2590 0
-2529 2531 2590 0
2529 -2531 2590 0
-2533 -2535 -2592 0
2533 2535 -2592 0
-2533 2535 2592 0
2533 -2535 2592 0
-2537 -2539 -2594 0
2537 2539 -2594 0
-2537 2539 2594 0
2537 -2539 2594 0
-2541 -2543 -2596 0
2541 2543 -2596 0
-2541 2543 2596 0
2541 -2543 2596 0
-2542 -2544 -2598 0
2542 2544 -2598 0
2542 -2544 2598 0
-2542 2544 2598 0
-2546 -2547 -2601 0
2546 2547 -2601 0
-2546 2547 2601 0
2546 -2547 2601 0
-2548 -2549 -2603 0
2548 2549 -2603 0
-2548 2549 2603 0
2548 -2549 2603 0
-2550 -2551 -2605 0
2550 2551 -2605 0
-2550 2551 2605 0
2550 -2551 2605 0
-2552 -2554 -2607 0
2552 2554 -2607 0
-2552 2554 2607 0
2552 -2554 2607 0
-2556 -2558 -2609 0
2556 2558 -2609 0
-2556 2558 2609 0
2556 -2558 2609 0
-2560 -2562 -2611 0
2560 2562 -2611 0
-2560 2562 2611 0
2560 -2562 2611 0
-2564 -2566 -2613 0
2564 2566 -2613 0
-2564 2566 2613 0
2564 -2566 2613 0
-2568 -2569 -2615 0
2568 2569 -2615 0
-2568 2569 2615 0
2568 -2569 2615 0
-2570 -2571 -2617 0
2570 2571 -2617 0
-2570 2571 2617 0
2570 -2571 2617 0
-2572 -2574 -2619 0
2572 2574 -2619 0
-2572 2574 2619 0
2572 -2574 2619 0
-2576 -2578 -2621 0
2576 2578 -2621 0
-2576 2578 2621 0
2576 -2578 2621 0
-2580 -2582 -2623 0
2580 2582 -2623 0
-2580 2582 2623 0
2580 -2582 2623 0
-2584 -2586 -2625 0
2584 2586 -2625 0
-2584 2586 2625 0
2584 -2586 2625 0
-2588 -2590 -2627 0
2588 2590 -2627 0
-2588 2590 2627 0
2588 -2590 2627 0
-2592 -2594 -2629 0
2592 2594 -2629 0
-2592 2594 2629 0
2592 -2594 2629 0
-2596 -2598 -2631 0
2596 2598 -2631 0
-2596 2598 2631 0
2596 -2598 2631 0
-2545 -2600 -2633 0
2545 2600 -2633 0
2545 -2600 2633 0
-2545 2600 2633 0
-2601 -2603 -2635 0
2601 2603 -2635 0
-2601 2603 2635 0
2601 -2603 2635 0
-2605 -2607 -2637 0
2605 2607 -2637 0
-2605 2607 2637 0
2605 -2607 2637 0
-2609 -2611 -2639 0
2609 2611 -2639 0
-2609 2611 2639 0
2609 -2611 2639 0
-2613 -2615 -2641 0
2613 2615 -2641 0
-2613 2615 2641 0
2613 -2615 2641 0
-2617 -2619 -2643 0
2617 2619 -2643 0
-2617 2619 2643 0
2617 -2619 2643 0
-2621 -2623 -2645 0
2621 2623 -2645 0
-2621 2623 2645 0
2621 -2623 2645 0
-2625 -2627 -2647 0
2625 2627 -2647 0
-2625 2627 2647 0
2625 -2627 2647 0
-2629 -2631 -2649 0
2629 2631 -2649 0
-2629 2631 2649 0
2629 -2631 2649 0
-2633 -2635 -2651 0
2633 2635 -2651 0
-2633 2635 2651 0
2633 -2635 2651 0
-2637 -2639 -2653 0
2637 2639 -2653 0
-2637 2639 2653 0
2637 -2639 2653 0
-2641 -2643 -2655 0
2641 2643 -2655 0
-2641 2643 2655 0
2641 -2643 2655 0
-2645 -2647 -2657 0
2645 2647 -2657 0
-2645 2647 2657 0
2645 -2647 2657 0
-2649 -2651 -2659 0
2649 2651 -2659 0
-2649 2651 2659 0
2649 -2651 2659 0
-2653 -2655 -2661 0
2653 2655 -2661 0
-2653 2655 2661 0
2653 -2655 2661 0
-2657 -2659 -2661 0
2657 2659 -2661 0
-2657 2659 2661 0
2657 -2659 2661 0
-2553 -2555 -2666 0
2553 2555 -2666 0
-2553 2555 2666 0
2553 -2555 2666 0
-2557 -2559 -2667 0
2557 2559 -2667 0
-2557 2559 2667 0
2557 -2559 2667 0
-2561 -2563 -2669 0
2561 2563 -2669 0
-2561 2563 2669 0
2561 -2563 2669 0
-2565 -2567 -2671 0
2565 2567 -2671 0
-2565 2567 2671 0
2565 -2567 2671 0
-2573 -2575 -2674 0
2573 2575 -2674 0
-2573 2575 2674 0
2573 -2575 2674 0
-2577 -2579 -2675 0
2577 2579 -2675 0
-2577 2579 2675 0
2577 -2579 2675 0
-2581 -2583 -2677 0
2581 2583 -2677 0
-2581 2583 2677 0
2581 -2583 2677 0
-2585 -2587 -2679 0
2585 2587 -2679 0
-2585 2587 2679 0
2585 -2587 2679 0
-2589 -2591 -2681 0
2589 2591 -2681 0
-2589 2591 2681 0
2589 -2591 2681 0
-2593 -2595 -2683 0
2593 2595 -2683 0
-2593 2595 2683 0
2593 -2595 2683 0
-2597 -2599 -2729 0
2597 2599 -2729 0
-2597 2599 2729 0
2597 -2599 2729 0
-2602 -2604 -2686 0
2602 2604 -2686 0
-2602 2604 2686 0
2602 -2604 2686 0
-2606 -2608 -2687 0
2606 2608 -2687 0
-2606 2608 2687 0
2606 -2608 2687 0
-2610 -2612 -2689 0
2610 2612 -2689 0
-2610 2612 2689 0
2610 -2612 2689 0
-2614 -2616 -2691 0
2614 2616 -2691 0
-2614 2616 2691 0
2614 -2616 2691 0
-2618 -2620 -2693 0
2618 2620 -2693 0
-2618 2620 2693 0
2618 -2620 2693 0
-2622 -2624 -2695 0
2622 2624 -2695 0
-2622 2624 2695 0
2622 -2624 2695 0
-2626 -2628 -2697 0
2626 2628 -2697 0
-2626 2628 2697 0
2626 -2628 2697 0
-2630 -2632 -2699 0
2630 2632 -2699 0
-2630 2632 2699 0
2630 -2632 2699 0
-2634 -2636 -2701 0
2634 2636 -2701 0
-2634 2636 2701 0
2634 -2636 2701 0
-2638 -2640 -2703 0
2638 2640 -2703 0
-2638 2640 2703 0
2638 -2640 2703 0
-2642 -2644 -2705 0
2642 2644 -2705 0
-2642 2644 2705 0
2642 -2644 2705 0
-2646 -2648 -2707 0
2646 2648 -2707 0
-2646 2648 2707 0
2646 -2648 2707 0
-2650 -2652 -2709 0
2650 2652 -2709 0
-2650 2652 2709 0
2650 -2652 2709 0
-2654 -2656 -2711 0
2654 2656 -2711 0
-2654 2656 2711 0
2654 -2656 2711 0
-2658 -2660 -2713 0
2658 2660 -2713 0
-2658 2660 2713 0
2658 -2660 2713 0
-2662 -2663 -2715 0
2662 2663 -2715 0
-2662 2663 2715 0
2662 -2663 2715 0
-2664 -2665 -2716 0
2664 2665 -2716 0
-2664 2665 2716 0
2664 -2665 2716 0
-2666 -2667 -2717 0
2666 2667 -2717 0
-2666 2667 2717 0
2666 -2667 2717 0
-2669 -2671 -2719 0
2669 2671 -2719 0
-2669 2671 2719 0
2669 -2671 2719 0
-2672 -2673 -2721 0
2672 2673 -2721 0
-2672 2673 2721 0
2672 -2673 2721 0
-2674 -2675 -2723 0
2674 2675 -2723 0
-2674 2675 2723 0
2674 -2675 2723 0
-2677 -2679 -2725 0
2677 2679 -2725 0
-2677 2679 2725 0
2677 -2679 2725 0
-2681 -2683 -2727 0
2681 2683 -2727 0
-2681 2683 2727 0
2681 -2683 2727 0
-2686 -2687 -2730 0
2686 2687 -2730 0
-2686 2687 2730 0
2686 -2687 2730 0
-2689 -2691 -2731 0
2689 2691 -2731 0
-2689 2691 2731 0
2689 -2691 2731 0
-2693 -2695 -2733 0
2693 2695 -2733 0
-2693 2695 2733 0
2693 -2695 2733 0
-2697 -2699 -2735 0
2697 2699 -2735 0
-2697 2699 2735 0
2697 -2699 2735 0
-2701 -2703 -2737 0
2701 2703 -2737 0
-2701 2703 2737 0
2701 -2703 2737 0
-2705 -2707 -2739 0
2705 2707 -2739 0
-2705 2707 2739 0
2705 -2707 2739 0
-2709 -2711 -2741 0
2709 2711 -2741 0
-2709 2711 2741 0
2709 -2711 2741 0
-2713 -2715 -2743 0
2713 2715 -2743 0
-2713 2715 2743 0
2713 -2715 2743 0
-2716 -2717 -2744 0
2716 2717 -2744 0
-2716 2717 2744 0
2716 -2717 2744 0
-2719 -2721 -2746 0
2719 2721 -2746 0
-2719 2721 2746 0
2719 -2721 2746 0
-2723 -2725 -2748 0
2723 2725 -2748 0
-2723 2725 2748 0
2723 -2725 2748 0
-2727 -2729 -2750 0
2727 2729 -2750 0
-2727 2729 2750 0
2727 -2729 2750 0
-2730 -2731 -2752 0
2730 2731 -2752 0
-2730 2731 2752 0
2730 -2731 2752 0
-2733 -2735 -2754 0
2733 2735 -2754 0
-2733 2735 2754 0
2733 -2735 2754 0
-2737 -2739 -2756 0
2737 2739 -2756 0
-2737 2739 2756 0
2737 -2739 2756 0
-2741 -2743 -2758 0
2741 2743 -2758 0
-2741 2743 2758 0
2741 -2743 2758 0
-2661 -2744 -2760 0
2661 2744 -2760 0
-2661 2744 2760 0
2661 -2744 2760 0
-2746 -2748 -2762 0
2746 2748 -2762 0
-2746 2748 2762 0
2746 -2748 2762 0
-2750 -2752 -2764 0
2750 2752 -2764 0
-2750 2752 2764 0
2750 -2752 2764 0
-2754 -2756 -2766 0
2754 2756 -2766 0
-2754 2756 2766 0
2754 -2756 2766 0
-2758 -2760 -2768 0
2758 2760 -2768 0
-2758 2760 2768 0
2758 -2760 2768 0
-2762 -2764 -2770 0
2762 2764 -2770 0
-2762 2764 2770 0
2762 -2764 2770 0
-2766 -2768 -2770 0
2766 2768 -2770 0
-2766 2768 2770 0
2766 -2768 2770 0
-2668 -2670 -2774 0
2668 2670 -2774 0
-2668 2670 2774 0
2668 -2670 2774 0
-2676 -2678 -2777 0
2676 2678 -2777 0
-2676 2678 2777 0
2676 -2678 2777 0
-2680 -2682 -2779 0
2680 2682 -2779 0
-2680 2682 2779 0
2680 -2682 2779 0
-2684 -2685 -2781 0
2684 2685 -2781 0
-2684 2685 2781 0
2684 -2685 2781 0
-2688 -2690 -2783 0
2688 2690 -2783 0
-2688 2690 2783 0
2688 -2690 2783 0
-2692 -2694 -2785 0
2692 2694 -2785 0
-2692 2694 2785 0
2692 -2694 2785 0
-2696 -2698 -2787 0
2696 2698 -2787 0
-2696 2698 2787 0
2696 -2698 2787 0
-2700 -2702 -2789 0
2700 2702 -2789 0
-2700 2702 2789 0
2700 -2702 2789 0
-2704 -2706 -2791 0
2704 2706 -2791 0
-2704 2706 2791 0
2704 -2706 2791 0
-2708 -2710 -2793 0
2708 2710 -2793 0
-2708 2710 2793 0
2708 -2710 2793 0
-2712 -2714 -2795 0
2712 2714 -2795 0
-2712 2714 2795 0
2712 -2714 2795 0
-2718 -2720 -2798 0
2718 2720 -2798 0
-2718 2720 2798 0
2718 -2720 2798 0
-2722 -2724 -2799 0
2722 2724 -2799 0
-2722 2724 2799 0
2722 -2724 2799 0
-2726 -2728 -2801 0
2726 2728 -2801 0
-2726 2728 2801 0
2726 -2728 2801 0
-2732 -2734 -2804 0
2732 2734 -2804 0
-2732 2734 2804 0
2732 -2734 2804 0
-2736 -2738 -2805 0
2736 2738 -2805 0
-2736 2738 2805 0
2736 -2738 2805 0
-2740 -2742 -2807 0
2740 2742 -2807 0
-2740 2742 2807 0
2740 -2742 2807 0
-2745 -2747 -2810 0
2745 2747 -2810 0
-2745 2747 2810 0
2745 -2747 2810 0
-2749 -2751 -2811 0
2749 2751 -2811 0
-2749 2751 2811 0
2749 -2751 2811 0
-2753 -2755 -2813 0
2753 2755 -2813 0
-2753 2755 2813 0
2753 -2755 2813 0
-2757 -2759 -2815 0
2757 2759 -2815 0
-2757 2759 2815 0
2757 -2759 2815 0
-2761 -2763 -2817 0
2761 2763 -2817 0
-2761 2763 2817 0
2761 -2763 2817 0
-2765 -2767 -2819 0
2765 2767 -2819 0
-2765 2767 2819 0
2765 -2767 2819 0
-2769 -2771 -2821 0
2769 2771 -2821 0
-2769 2771 2821 0
2769 -2771 2821 0
-2770 -2772 -2855 0
2770 2772 -2855 0
2770 -2772 2855 0
-2770 2772 2855 0
-2773 -2774 -2823 0
2773 2774 -2823 0
-2773 2774 2823 0
2773 -2774 2823 0
-2775 -2776 -2825 0
2775 2776 -2825 0
-2775 2776 2825 0
2775 -2776 2825 0
-2777 -2779 -2827 0
2777 2779 -2827 0
-2777 2779 2827 0
2777 -2779 2827 0
-2781 -2782 -2829 0
2781 2782 -2829 0
-2781 2782 2829 0
2781 -2782 2829 0
-2783 -2785 -2831 0
2783 2785 -2831 0
-2783 2785 2831 0
2783 -2785 2831 0
-2787 -2789 -2833 0
2787 2789 -2833 0
-2787 2789 2833 0
2787 -2789 2833 0
-2791 -2793 -2835 0
2791 2793 -2835 0
-2791 2793 2835 0
2791 -2793 2835 0
-2795 -2796 -2837 0
2795 2796 -2837 0
-2795 2796 2837 0
2795 -2796 2837 0
-2797 -2798 -2839 0
2797 2798 -2839 0
-2797 2798 2839 0
2797 -2798 2839 0
-2799 -2801 -2841 0
2799 2801 -2841 0
-2799 2801 2841 0
2799 -2801 2841 0
-2803 -2804 -2843 0
2803 2804 -2843 0
-2803 2804 2843 0
2803 -2804 2843 0
-2805 -2807 -2845 0
2805 2807 -2845 0
-2805 2807 2845 0
2805 -2807 2845 0
-2809 -2810 -2847 0
2809 2810 -2847 0
-2809 2810 2847 0
2809 -2810 2847 0
-2811 -2813 -2849 0
2811 2813 -2849 0
-2811 2813 2849 0
2811 -2813 2849 0
-2815 -2817 -2851 0
2815 2817 -2851 0
-2815 2817 2851 0
2815 -2817 2851 0
-2819 -2821 -2853 0
2819 2821 -2853 0
-2819 2821 2853 0
2819 -2821 2853 0
-2823 -2825 -2856 0
2823 2825 -2856 0
-2823 2825 2856 0
2823 -2825 2856 0
-2827 -2829 -2857 0
2827 2829 -2857 0
-2827 2829 2857 0
2827 -2829 2857 0
-2831 -2833 -2859 0
2831 2833 -2859 0
-2831 2833 2859 0
2831 -2833 2859 0
-2835 -2837 -2861 0
2835 2837 -2861 0
-2835 2837 2861 0
2835 -2837 2861 0
-2839 -2841 -2863 0
2839 2841 -2863 0
-2839 2841 2863 0
2839 -2841 2863 0
-2843 -2845 -2865 0
2843 2845 -2865 0
-2843 2845 2865 0
2843 -2845 2865 0
-2847 -2849 -2867 0
2847 2849 -2867 0
-2847 2849 2867 0
2847 -2849 2867 0
-2851 -2853 -2869 0
2851 2853 -2869 0
-2851 2853 2869 0
2851 -2853 2869 0
-2855 -2856 -2871 0
2855 2856 -2871 0
-2855 2856 2871 0
2855 -2856 2871 0
-2857 -2859 -2873 0
2857 2859 -2873 0
-2857 2859 2873 0
2857 -2859 2873 0
-2861 -2863 -2875 0
2861 2863 -2875 0
-2861 2863 2875 0
2861 -2863 2875 0
-2865 -2867 -2877 0
2865 2867 -2877 0
-2865 2867 2877 0
2865 -2867 2877 0
-2869 -2871 -2879 0
2869 2871 -2879 0
-2869 2871 2879 0
2869 -2871 2879 0
-2873 -2875 -2881 0
2873 2875 -2881 0
-2873 2875 2881 0
2873 -2875 2881 0
-2877 -2879 -2881 0
2877 2879 -2881 0
-2877 2879 2881 0
2877 -2879 2881 0
-2778 -2780 -2885 0
2778 2780 -2885 0
-2778 2780 2885 0
2778 -2780 2885 0
-2784 -2786 -2887 0
2784 2786 -2887 0
-2784 2786 2887 0
2784 -2786 2887 0
-2788 -2790 -2888 0
2788 2790 -2888 0
-2788 2790 2888 0
2788 -2790 2888 0
-2792 -2794 -2890 0
2792 2794 -2890 0
-2792 2794 2890 0
2792 -2794 2890 0
-2800 -2802 -2894 0
2800 2802 -2894 0
-2800 2802 2894 0
2800 -2802 2894 0
-2806 -2808 -2896 0
2806 2808 -2896 0
-2806 2808 2896 0
2806 -2808 2896 0
-2812 -2814 -2898 0
2812 2814 -2898 0
-2812 2814 2898 0
2812 -2814 2898 0
-2816 -2818 -2900 0
2816 2818 -2900 0
-2816 2818 2900 0
2816 -2818 2900 0
-2820 -2822 -2902 0
2820 2822 -2902 0
-2820 2822 2902 0
2820 -2822 2902 0
-2824 -2826 -2904 0
2824 2826 -2904 0
-2824 2826 2904 0
2824 -2826 2904 0
-2828 -2830 -2906 0
2828 2830 -2906 0
-2828 2830 2906 0
2828 -2830 2906 0
-2832 -2834 -2908 0
2832 2834 -2908 0
-2832 2834 2908 0
2832 -2834 2908 0
-2836 -2838 -2910 0
2836 2838 -2910 0
-2836 2838 2910 0
2836 -2838 2910 0
-2840 -2842 -2912 0
2840 2842 -2912 0
-2840 2842 2912 0
2840 -2842 2912 0
-2844 -2846 -2914 0
2844 2846 -2914 0
-2844 2846 2914 0
2844 -2846 2914 0
-2848 -2850 -2916 0
2848 2850 -2916 0
-2848 2850 2916 0
2848 -2850 2916 0
-2852 -2854 -2918 0
2852 2854 -2918 0
-2852 2854 2918 0
2852 -2854 2918 0
-2858 -2860 -2921 0
2858 2860 -2921 0
-2858 2860 2921 0
2858 -2860 2921 0
-2862 -2864 -2922 0
2862 2864 -2922 0
-2862 2864 2922 0
2862 -2864 2922 0
-2866 -2868 -2924 0
2866 2868 -2924 0
-2866 2868 2924 0
2866 -2868 2924 0
-2870 -2872 -2926 0
2870 2872 -2926 0
-2870 2872 2926 0
2870 -2872 2926 0
-2874 -2876 -2928 0
2874 2876 -2928 0
-2874 2876 2928 0
2874 -2876 2928 0
-2878 -2880 -2930 0
2878 2880 -2930 0
-2878 2880 2930 0
2878 -2880 2930 0
-2882 -2883 -2932 0
2882 2883 -2932 0
-2882 2883 2932 0
2882 -2883 2932 0
-2885 -2886 -2934 0
2885 2886 -2934 0
-2885 2886 2934 0
2885 -2886 2934 0
-2887 -2888 -2936 0
2887 2888 -2936 0
-2887 2888 2936 0
2887 -2888 2936 0
-2890 -2892 -2938 0
2890 2892 -2938 0
-2890 2892 2938 0
2890 -2892 2938 0
-2893 -2894 -2940 0
2893 2894 -2940 0
-2893 2894 2940 0
2893 -2894 2940 0
-2895 -2896 -2942 0
2895 2896 -2942 0
-2895 2896 2942 0
2895 -2896 2942 0
-2897 -2898 -2944 0
2897 2898 -2944 0
-2897 2898 2944 0
2897 -2898 2944 0
-2900 -2902 -2946 0
2900 2902 -2946 0
-2900 2902 2946 0
2900 -2902 2946 0
-2903 -2904 -2948 0
2903 2904 -2948 0
-2903 2904 2948 0
2903 -2904 2948 0
-2906 -2908 -2950 0
2906 2908 -2950 0
-2906 2908 2950 0
2906 -2908 2950 0
-2910 -2912 -2952 0
2910 2912 -2952 0
-2910 2912 2952 0
2910 -2912 2952 0
-2914 -2916 -2954 0
2914 2916 -2954 0
-2914 2916 2954 0
2914 -2916 2954 0
-2918 -2920 -2956 0
2918 2920 -2956 0
-2918 2920 2956 0
2918 -2920 2956 0
-2921 -2922 -2958 0
2921 2922 -2958 0
-2921 2922 2958 0
2921 -2922 2958 0
-2924 -2926 -2960 0
2924 2926 -2960 0
-2924 2926 2960 0
2924 -2926 2960 0
-2928 -2930 -2962 0
2928 2930 -2962 0
-2928 2930 2962 0
2928 -2930 2962 0
-2881 -2932 -2964 0
2881 2932 -2964 0
2881 -2932 2964 0
-2881 2932 2964 0
-2884 -2934 -2966 0
2884 2934 -2966 0
-2884 2934 2966 0
2884 -2934 2966 0
-2936 -2938 -2968 0
2936 2938 -2968 0
-2936 2938 2968 0
2936 -2938 2968 0
-2940 -2942 -2970 0
2940 2942 -2970 0
-2940 2942 2970 0
2940 -2942 2970 0
-2944 -2946 -2972 0
2944 2946 -2972 0
-2944 2946 2972 0
2944 -2946 2972 0
-2948 -2950 -2974 0
2948 2950 -2974 0
-2948 2950 2974 0
2948 -2950 2974 0
-2952 -2954 -2976 0
2952 2954 -2976 0
-2952 2954 2976 0
2952 -2954 2976 0
-2956 -2958 -2978 0
2956 2958 -2978 0
-2956 2958 2978 0
2956 -2958 2978 0
-2960 -2962 -2980 0
2960 2962 -2980 0
-2960 2962 2980 0
2960 -2962 2980 0
-2964 -2966 -2982 0
2964 2966 -2982 0
-2964 2966 2982 0
2964 -2966 2982 0
-2968 -2970 -2984 0
2968 2970 -2984 0
-2968 2970 2984 0
2968 -2970 2984 0
-2972 -2974 -2986 0
2972 2974 -2986 0
-2972 2974 2986 0
2972 -2974 2986 0
-2976 -2978 -2988 0
2976 2978 -2988 0
-2976 2978 2988 0
2976 -2978 2988 0
-2980 -2982 -2990 0
2980 2982 -2990 0
-2980 2982 2990 0
2980 -2982 2990 0
-2984 -2986 -2992 0
2984 2986 -2992 0
-2984 2986 2992 0
2984 -2986 2992 0
-2988 -2990 -2992 0
2988 2990 -2992 0
-2988 2990 2992 0
2988 -2990 2992 0
-2889 -2891 -2997 0
2889 2891 -2997 0
-2889 2891 2997 0
2889 -2891 2997 0
-2899 -2901 -3000 0
2899 2901 -3000 0
-2899 2901 3000 0
2899 -2901 3000 0
-2905 -2907 -3002 0
2905 2907 -3002 0
-2905 2907 3002 0
2905 -2907 3002 0
-2909 -2911 -3003 0
2909 2911 -3003 0
-2909 2911 3003 0
2909 -2911 3003 0
-2913 -2915 -3005 0
2913 2915 -3005 0
-2913 2915 3005 0
2913 -2915 3005 0
-2917 -2919 -3007 0
2917 2919 -3007 0
-2917 2919 3007 0
2917 -2919 3007 0
-2923 -2925 -3009 0
2923 2925 -3009 0
-2923 2925 3009 0
2923 -2925 3009 0
-2927 -2929 -3011 0
2927 2929 -3011 0
-2927 2929 3011 0
2927 -2929 3011 0
-2931 -2933 -3055 0
2931 2933 -3055 0
-2931 2933 3055 0
2931 -2933 3055 0
-2935 -2937 -3013 0
2935 2937 -3013 0
-2935 2937 3013 0
2935 -2937 3013 0
-2939 -2941 -3015 0
2939 2941 -3015 0
-2939 2941 3015 0
2939 -2941 3015 0
-2943 -2945 -3017 0
2943 2945 -3017 0
-2943 2945 3017 0
2943 -2945 3017 0
-2947 -2949 -3019 0
2947 2949 -3019 0
-2947 2949 3019 0
2947 -2949 3019 0
-2951 -2953 -3021 0
2951 2953 -3021 0
-2951 2953 3021 0
2951 -2953 3021 0
-2955 -2957 -3023 0
2955 2957 -3023 0
-2955 2957 3023 0
2955 -2957 3023 0
-2959 -2961 -3025 0
2959 2961 -3025 0
-2959 2961 3025 0
2959 -2961 3025 0
-2963 -2965 -3027 0
2963 2965 -3027 0
-2963 2965 3027 0
2963 -2965 3027 0
-2967 -2969 -3029 0
2967 2969 -3029 0
-2967 2969 3029 0
2967 -2969 3029 0
-2971 -2973 -3031 0
2971 2973 -3031 0
-2971 2973 3031 0
2971 -2973 3031 0
-2975 -2977 -3033 0
2975 2977 -3033 0
-2975 2977 3033 0
2975 -2977 3033 0
-2979 -2981 -3035 0
2979 2981 -3035 0
-2979 2981 3035 0
2979 -2981 3035 0
-2983 -2985 -3037 0
2983 2985 -3037 0
-2983 2985 3037 0
2983 -2985 3037 0
-2987 -2989 -3039 0
2987 2989 -3039 0
-2987 2989 3039 0
2987 -2989 3039 0
-2991 -2993 -3041 0
2991 2993 -3041 0
-2991 2993 3041 0
2991 -2993 3041 0
-2992 -2994 -3043 0
2992 2994 -3043 0
2992 -2994 3043 0
-2992 2994 3043 0
-2996 -2997 -3045 0
2996 2997 -3045 0
-2996 2997 3045 0
2996 -2997 3045 0
-2999 -3000 -3046 0
2999 3000 -3046 0
-2999 3000 3046 0
2999 -3000 3046 0
-3001 -3002 -3047 0
3001 3002 -3047 0
-3001 3002 3047 0
3001 -3002 3047 0
-3003 -3005 -3049 0
3003 3005 -3049 0
-3003 3005 3049 0
3003 -3005 3049 0
-3007 -3008 -3051 0
3007 3008 -3051 0
-3007 3008 3051 0
3007 -3008 3051 0
-3009 -3011 -3053 0
3009 3011 -3053 0
-3009 3011 3053 0
3009 -3011 3053 0
-3013 -3015 -3056 0
3013 3015 -3056 0
-3013 3015 3056 0
3013 -3015 3056 0
-3017 -3019 -3057 0
3017 3019 -3057 0
-3017 3019 3057 0
3017 -3019 3057 0
-3021 -3023 -3059 0
3021 3023 -3059 0
-3021 3023 3059 0
3021 -3023 3059 0
-3025 -3027 -3061 0
3025 3027 -3061 0
-3025 3027 3061 0
3025 -3027 3061 0
-3029 -3031 -3063 0
3029 3031 -3063 0
-3029 3031 3063 0
3029 -3031 3063 0
-3033 -3035 -3065 0
3033 3035 -3065 0
-3033 3035 3065 0
3033 -3035 3065 0
-3037 -3039 -3067 0
3037 3039 -3067 0
-3037 3039 3067 0
3037 -3039 3067 0
-3041 -3043 -3069 0
3041 3043 -3069 0
-3041 3043 3069 0
3041 -3043 3069 0
-2995 -3045 -3071 0
2995 3045 -3071 0
-2995 3045 3071 0
2995 -3045 3071 0
-2998 -3046 -3073 0
2998 3046 -3073 0
-2998 3046 3073 0
2998 -3046 3073 0
-3047 -3049 -3075 0
3047 3049 -3075 0
-3047 3049 3075 0
3047 -3049 3075 0
-3051 -3053 -3077 0
3051 3053 -3077 0
-3051 3053 3077 0
3051 -3053 3077 0
-3055 -3056 -3079 0
3055 3056 -3079 0
-3055 3056 3079 0
3055 -3056 3079 0
-3057 -3059 -3081 0
3057 3059 -3081 0
-3057 3059 3081 0
3057 -3059 3081 0
-3061 -3063 -3083 0
3061 3063 -3083 0
-3061 3063 3083 0
3061 -3063 3083 0
-3065 -3067 -3085 0
3065 3067 -3085 0
-3065 3067 3085 0
3065 -3067 3085 0
-3069 -3071 -3087 0
3069 3071 -3087 0
-3069 3071 3087 0
3069 -3071 3087 0
-3073 -3075 -3089 0
3073 3075 -3089 0
-3073 3075 3089 0
3073 -3075 3089 0
-3077 -3079 -3091 0
3077 3079 -3091 0
-3077 3079 3091 0
3077 -3079 3091 0
-3081 -3083 -3093 0
3081 3083 -3093 0
-3081 3083 3093 0
3081 -3083 3093 0
-3085 -3087 -3095 0
3085 3087 -3095 0
-3085 3087 3095 0
3085 -3087 3095 0
-3089 -3091 -3097 0
3089 3091 -3097 0
-3089 3091 3097 0
3089 -3091 3097 0
-3093 -3095 -3097 0
3093 3095 -3097 0
-3093 3095 3097 0
3093 -3095 3097 0
-3004 -3006 -3103 0
3004 3006 -3103 0
-3004 3006 3103 0
3004 -3006 3103 0
-3010 -3012 -3105 0
3010 3012 -3105 0
-3010 3012 3105 0
3010 -3012 3105 0
-3014 -3016 -3107 0
3014 3016 -3107 0
-3014 3016 3107 0
3014 -3016 3107 0
-3018 -3020 -3108 0
3018 3020 -3108 0
-3018 3020 3108 0
3018 -3020 3108 0
-3022 -3024 -3110 0
3022 3024 -3110 0
-3022 3024 3110 0
3022 -3024 3110 0
-3026 -3028 -3112 0
3026 3028 -3112 0
-3026 3028 3112 0
3026 -3028 3112 0
-3030 -3032 -3114 0
3030 3032 -3114 0
-3030 3032 3114 0
3030 -3032 3114 0
-3034 -3036 -3116 0
3034 3036 -3116 0
-3034 3036 3116 0
3034 -3036 3116 0
-3038 -3040 -3118 0
3038 3040 -3118 0
-3038 3040 3118 0
3038 -3040 3118 0
-3042 -3044 -3120 0
3042 3044 -3120 0
-3042 3044 3120 0
3042 -3044 3120 0
-3048 -3050 -3123 0
3048 3050 -3123 0
-3048 3050 3123 0
3048 -3050 3123 0
-3052 -3054 -3124 0
3052 3054 -3124 0
-3052 3054 3124 0
3052 -3054 3124 0
-3058 -3060 -3126 0
3058 3060 -3126 0
-3058 3060 3126 0
3058 -3060 3126 0
-3062 -3064 -3128 0
3062 3064 -3128 0
-3062 3064 3128 0
3062 -3064 3128 0
-3066 -3068 -3130 0
3066 3068 -3130 0
-3066 3068 3130 0
3066 -3068 3130 0
-3070 -3072 -3132 0
3070 3072 -3132 0
-3070 3072 3132 0
3070 -3072 3132 0
-3074 -3076 -3134 0
3074 3076 -3134 0
-3074 3076 3134 0
3074 -3076 3134 0
-3078 -3080 -3136 0
3078 3080 -3136 0
-3078 3080 3136 0
3078 -3080 3136 0
-3082 -3084 -3138 0
3082 3084 -3138 0
-3082 3084 3138 0
3082 -3084 3138 0
-3086 -3088 -3140 0
3086 3088 -3140 0
-3086 3088 3140 0
3086 -3088 3140 0
-3090 -3092 -3142 0
3090 3092 -3142 0
-3090 3092 3142 0
3090 -3092 3142 0
-3094 -3096 -3144 0
3094 3096 -3144 0
-3094 3096 3144 0
3094 -3096 3144 0
-3098 -3099 -3146 0
3098 3099 -3146 0
-3098 3099 3146 0
3098 -3099 3146 0
-3101 -3102 -3147 0
3101 3102 -3147 0
-3101 3102 3147 0
3101 -3102 3147 0
-3103 -3104 -3148 0
3103 3104 -3148 0
-3103 3104 3148 0
3103 -3104 3148 0
-3105 -3106 -3150 0
3105 3106 -3150 0
-3105 3106 3150 0
3105 -3106 3150 0
-3107 -3108 -3152 0
3107 3108 -3152 0
-3107 3108 3152 0
3107 -3108 3152 0
-3110 -3112 -3154 0
3110 3112 -3154 0
-3110 3112 3154 0
3110 -3112 3154 0
-3114 -3116 -3156 0
3114 3116 -3156 0
-3114 3116 3156 0
3114 -3116 3156 0
-3118 -3120 -3158 0
3118 3120 -3158 0
-3118 3120 3158 0
3118 -3120 3158 0
-3121 -3122 -3160 0
3121 3122 -3160 0
-3121 3122 3160 0
3121 -3122 3160 0
-3123 -3124 -3162 0
3123 3124 -3162 0
-3123 3124 3162 0
3123 -3124 3162 0
-3125 -3126 -3164 0
3125 3126 -3164 0
-3125 3126 3164 0
3125 -3126 3164 0
-3128 -3130 -3166 0
3128 3130 -3166 0
-3128 3130 3166 0
3128 -3130 3166 0
-3132 -3134 -3168 0
3132 3134 -3168 0
-3132 3134 3168 0
3132 -3134 3168 0
-3136 -3138 -3170 0
3136 3138 -3170 0
-3136 3138 3170 0
3136 -3138 3170 0
-3140 -3142 -3172 0
3140 3142 -3172 0
-3140 3142 3172 0
3140 -3142 3172 0
-3144 -3146 -3174 0
3144 3146 -3174 0
-3144 3146 3174 0
3144 -3146 3174 0
-3097 -3100 -3176 0
3097 3100 -3176 0
-3097 3100 3176 0
3097 -3100 3176 0
-3147 -3148 -3178 0
3147 3148 -3178 0
-3147 3148 3178 0
3147 -3148 3178 0
-3150 -3152 -3180 0
3150 3152 -3180 0
-3150 3152 3180 0
3150 -3152 3180 0
-3154 -3156 -3182 0
3154 3156 -3182 0
-3154 3156 3182 0
3154 -3156 3182 0
-3158 -3160 -3184 0
3158 3160 -3184 0
-3158 3160 3184 0
3158 -3160 3184 0
-3162 -3164 -3186 0
3162 3164 -3186 0
-3162 3164 3186 0
3162 -3164 3186 0
-3166 -3168 -3188 0
3166 3168 -3188 0
-3166 3168 3188 0
3166 -3168 3188 0
-3170 -3172 -3190 0
3170 3172 -3190 0
-3170 3172 3190 0
3170 -3172 3190 0
-3174 -3176 -3192 0
3174 3176 -3192 0
-3174 3176 3192 0
3174 -3176 3192 0
-3178 -3180 -3194 0
3178 3180 -3194 0
-3178 3180 3194 0
3178 -3180 3194 0
-3182 -3184 -3196 0
3182 3184 -3196 0
-3182 3184 3196 0
3182 -3184 3196 0
-3186 -3188 -3198 0
3186 3188 -3198 0
-3186 3188 3198 0
3186 -3188 3198 0
-3190 -3192 -3200 0
3190 3192 -3200 0
-3190 3192 3200 0
3190 -3192 3200 0
-3194 -3196 -3202 0
3194 3196 -3202 0
-3194 3196 3202 0
3194 -3196 3202 0
-3198 -3200 -3202 0
3198 3200 -3202 0
-3198 3200 3202 0
3198 -3200 3202 0
-3109 -3111 -3208 0
3109 3111 -3208 0
-3109 3111 3208 0
3109 -3111 3208 0
-3113 -3115 -3209 0
3113 3115 -3209 0
-3113 3115 3209 0
3113 -3115 3209 0
-3117 -3119 -3211 0
3117 3119 -3211 0
-3117 3119 3211 0
3117 -3119 3211 0
-3127 -3129 -3216 0
3127 3129 -3216 0
-3127 3129 3216 0
3127 -3129 3216 0
-3131 -3133 -3217 0
3131 3133 -3217 0
-3131 3133 3217 0
3131 -3133 3217 0
-3135 -3137 -3219 0
3135 3137 -3219 0
-3135 3137 3219 0
3135 -3137 3219 0
-3139 -3141 -3221 0
3139 3141 -3221 0
-3139 3141 3221 0
3139 -3141 3221 0
-3143 -3145 -3223 0
3143 3145 -3223 0
-3143 3145 3223 0
3143 -3145 3223 0
-3149 -3151 -3227 0
3149 3151 -3227 0
-3149 3151 3227 0
3149 -3151 3227 0
-3153 -3155 -3229 0
3153 3155 -3229 0
-3153 3155 3229 0
3153 -3155 3229 0
-3157 -3159 -3231 0
3157 3159 -3231 0
-3157 3159 3231 0
3157 -3159 3231 0
-3161 -3163 -3233 0
3161 3163 -3233 0
-3161 3163 3233 0
3161 -3163 3233 0
-3165 -3167 -3235 0
3165 3167 -3235 0
-3165 3167 3235 0
3165 -3167 3235 0
-3169 -3171 -3237 0
3169 3171 -3237 0
-3169 3171 3237 0
3169 -3171 3237 0
-3173 -3175 -3239 0
3173 3175 -3239 0
-3173 3175 3239 0
3173 -3175 3239 0
-3177 -3179 -3241 0
3177 3179 -3241 0
-3177 3179 3241 0
3177 -3179 3241 0
-3181 -3183 -3243 0
3181 3183 -3243 0
-3181 3183 3243 0
3181 -3183 3243 0
-3185 -3187 -3245 0
3185 3187 -3245 0
-3185 3187 3245 0
3185 -3187 3245 0
-3189 -3191 -3247 0
3189 3191 -3247 0
-3189 3191 3247 0
3189 -3191 3247 0
-3193 -3195 -3249 0
3193 3195 -3249 0
-3193 3195 3249 0
3193 -3195 3249 0
-3197 -3199 -3251 0
3197 3199 -3251 0
-3197 3199 3251 0
3197 -3199 3251 0
-3201 -3203 -3253 0
3201 3203 -3253 0
-3201 3203 3253 0
3201 -3203 3253 0
-3202 -3204 -3284 0
3202 3204 -3284 0
3202 -3204 3284 0
-3202 3204 3284 0
-3205 -3206 -3255 0
3205 3206 -3255 0
-3205 3206 3255 0
3205 -3206 3255 0
-3207 -3208 -3257 0
3207 3208 -3257 0
-3207 3208 3257 0
3207 -3208 3257 0
-3209 -3211 -3259 0
3209 3211 -3259 0
-3209 3211 3259 0
3209 -3211 3259 0
-3213 -3214 -3261 0
3213 3214 -3261 0
-3213 3214 3261 0
3213 -3214 3261 0
-3215 -3216 -3263 0
3215 3216 -3263 0
-3215 3216 3263 0
3215 -3216 3263 0
-3217 -3219 -3265 0
3217 3219 -3265 0
-3217 3219 3265 0
3217 -3219 3265 0
-3221 -3223 -3267 0
3221 3223 -3267 0
-3221 3223 3267 0
3221 -3223 3267 0
-3225 -3226 -3269 0
3225 3226 -3269 0
-3225 3226 3269 0
3225 -3226 3269 0
-3227 -3229 -3271 0
3227 3229 -3271 0
-3227 3229 3271 0
3227 -3229 3271 0
-3231 -3233 -3273 0
3231 3233 -3273 0
-3231 3233 3273 0
3231 -3233 3273 0
-3235 -3237 -3275 0
3235 3237 -3275 0
-3235 3237 3275 0
3235 -3237 3275 0
-3239 -3241 -3277 0
3239 3241 -3277 0
-3239 3241 3277 0
3239 -3241 3277 0
-3243 -3245 -3279 0
3243 3245 -3279 0
-3243 3245 3279 0
3243 -3245 3279 0
-3247 -3249 -3281 0
3247 3249 -3281 0
-3247 3249 3281 0
3247 -3249 3281 0
-3251 -3253 -3283 0
3251 3253 -3283 0
-3251 3253 3283 0
3251 -3253 3283 0
-3255 -3257 -3285 0
3255 3257 -3285 0
-3255 3257 3285 0
3255 -3257 3285 0
-3259 -3261 -3287 0
3259 3261 -3287 0
-3259 3261 3287 0
3259 -3261 3287 0
-3263 -3265 -3289 0
3263 3265 -3289 0
-3263 3265 3289 0
3263 -3265 3289 0
-3267 -3269 -3291 0
3267 3269 -3291 0
-3267 3269 3291 0
3267 -3269 3291 0
-3271 -3273 -3293 0
3271 3273 -3293 0
-3271 3273 3293 0
3271 -3273 3293 0
-3275 -3277 -3295 0
3275 3277 -3295 0
-3275 3277 3295 0
3275 -3277 3295 0
-3279 -3281 -3297 0
3279 3281 -3297 0
-3279 3281 3297 0
3279 -3281 3297 0
-3283 -3284 -3299 0
3283 3284 -3299 0
-3283 3284 3299 0
3283 -3284 3299 0
-3285 -3287 -3301 0
3285 3287 -3301 0
-3285 3287 3301 0
3285 -3287 3301 0
-3289 -3291 -3303 0
3289 3291 -3303 0
-3289 3291 3303 0
3289 -3291 3303 0
-3293 -3295 -3305 0
3293 3295 -3305 0
-3293 3295 3305 0
3293 -3295 3305 0
-3297 -3299 -3307 0
3297 3299 -3307 0
-3297 3299 3307 0
3297 -3299 3307 0
-3301 -3303 -3309 0
3301 3303 -3309 0
-3301 3303 3309 0
3301 -3303 3309 0
-3305 -3307 -3309 0
3305 3307 -3309 0
-3305 3307 3309 0
3305 -3307 3309 0
-3210 -3212 -3358 0
3210 3212 -3358 0
-3210 3212 3358 0
3210 -3212 3358 0
-3218 -3220 -3314 0
3218 3220 -3314 0
-3218 3220 3314 0
3218 -3220 3314 0
-3222 -3224 -3360 0
3222 3224 -3360 0
-3222 3224 3360 0
3222 -3224 3360 0
-3228 -3230 -3317 0
3228 3230 -3317 0
-3228 3230 3317 0
3228 -3230 3317 0
-3232 -3234 -3318 0
3232 3234 -3318 0
-3232 3234 3318 0
3232 -3234 3318 0
-3236 -3238 -3320 0
3236 3238 -3320 0
-3236 3238 3320 0
3236 -3238 3320 0
-3240 -3242 -3322 0
3240 3242 -3322 0
-3240 3242 3322 0
3240 -3242 3322 0
-3244 -3246 -3324 0
3244 3246 -3324 0
-3244 3246 3324 0
3244 -3246 3324 0
-3248 -3250 -3326 0
3248 3250 -3326 0
-3248 3250 3326 0
3248 -3250 3326 0
-3252 -3254 -3328 0
3252 3254 -3328 0
-3252 3254 3328 0
3252 -3254 3328 0
-3256 -3258 -3331 0
3256 3258 -3331 0
-3256 3258 3331 0
3256 -3258 3331 0
-3260 -3262 -3332 0
3260 3262 -3332 0
-3260 3262 3332 0
3260 -3262 3332 0
-3264 -3266 -3334 0
3264 3266 -3334 0
-3264 3266 3334 0
3264 -3266 3334 0
-3268 -3270 -3336 0
3268 3270 -3336 0
-3268 3270 3336 0
3268 -3270 3336 0
-3272 -3274 -3338 0
3272 3274 -3338 0
-3272 3274 3338 0
3272 -3274 3338 0
-3276 -3278 -3340 0
3276 3278 -3340 0
-3276 3278 3340 0
3276 -3278 3340 0
-3280 -3282 -3342 0
3280 3282 -3342 0
-3280 3282 3342 0
3280 -3282 3342 0
-3286 -3288 -3345 0
3286 3288 -3345 0
-3286 3288 3345 0
3286 -3288 3345 0
-3290 -3292 -3346 0
3290 3292 -3346 0
-3290 3292 3346 0
3290 -3292 3346 0
-3294 -3296 -3348 0
3294 3296 -3348 0
-3294 3296 3348 0
3294 -3296 3348 0
-3298 -3300 -3350 0
3298 3300 -3350 0
-3298 3300 3350 0
3298 -3300 3350 0
-3302 -3304 -3352 0
3302 3304 -3352 0
-3302 3304 3352 0
3302 -3304 3352 0
-3306 -3308 -3354 0
3306 3308 -3354 0
-3306 3308 3354 0
3306 -3308 3354 0
-3310 -3311 -3356 0
3310 3311 -3356 0
-3310 3311 3356 0
3310 -3311 3356 0
-3313 -3314 -3359 0
3313 3314 -3359 0
-3313 3314 3359 0
3313 -3314 3359 0
-3317 -3318 -3361 0
3317 3318 -3361 0
-3317 3318 3361 0
3317 -3318 3361 0
-3320 -3322 -3362 0
3320 3322 -3362 0
-3320 3322 3362 0
3320 -3322 3362 0
-3324 -3326 -3364 0
3324 3326 -3364 0
-3324 3326 3364 0
3324 -3326 3364 0
-3328 -3330 -3366 0
3328 3330 -3366 0
-3328 3330 3366 0
3328 -3330 3366 0
-3331 -3332 -3368 0
3331 3332 -3368 0
-3331 3332 3368 0
3331 -3332 3368 0
-3334 -3336 -3370 0
3334 3336 -3370 0
-3334 3336 3370 0
3334 -3336 3370 0
-3338 -3340 -3372 0
3338 3340 -3372 0
-3338 3340 3372 0
3338 -3340 3372 0
-3342 -3344 -3374 0
3342 3344 -3374 0
-3342 3344 3374 0
3342 -3344 3374 0
-3345 -3346 -3376 0
3345 3346 -3376 0
-3345 3346 3376 0
3345 -3346 3376 0
-3348 -3350 -3378 0
3348 3350 -3378 0
-3348 3350 3378 0
3348 -3350 3378 0
-3352 -3354 -3380 0
3352 3354 -3380 0
-3352 3354 3380 0
3352 -3354 3380 0
-3309 -3356 -3382 0
3309 3356 -3382 0
3309 -3356 3382 0
-3309 3356 3382 0
-3312 -3358 -3384 0
3312 3358 -3384 0
-3312 3358 3384 0
3312 -3358 3384 0
-3359 -3360 -3386 0
3359 3360 -3386 0
-3359 3360 3386 0
3359 -3360 3386 0
-3361 -3362 -3388 0
3361 3362 -3388 0
-3361 3362 3388 0
3361 -3362 3388 0
-3364 -3366 -3390 0
3364 3366 -3390 0
-3364 3366 3390 0
3364 -3366 3390 0
-3368 -3370 -3392 0
3368 3370 -3392 0
-3368 3370 3392 0
3368 -3370 3392 0
-3372 -3374 -3394 0
3372 3374 -3394 0
-3372 3374 3394 0
3372 -3374 3394 0
-3376 -3378 -3396 0
3376 3378 -3396 0
-3376 3378 3396 0
3376 -3378 3396 0
-3380 -3382 -3398 0
3380 3382 -3398 0
-3380 3382 3398 0
3380 -3382 3398 0
-3384 -3386 -3400 0
3384 3386 -3400 0
-3384 3386 3400 0
3384 -3386 3400 0
-3388 -3390 -3402 0
3388 3390 -3402 0
-3388 3390 3402 0
3388 -3390 3402 0
-3392 -3394 -3404 0
3392 3394 -3404 0
-3392 3394 3404 0
3392 -3394 3404 0
-3396 -3398 -3406 0
3396 3398 -3406 0
-3396 3398 3406 0
3396 -3398 3406 0
-3400 -3402 -3408 0
3400 3402 -3408 0
-3400 3402 3408 0
3400 -3402 3408 0
-3404 -3406 -3408 0
3404 3406 -3408 0
-3404 3406 3408 0
3404 -3406 3408 0
-3315 -3316 -3456 0
3315 3316 -3456 0
-3315 3316 3456 0
3315 -3316 3456 0
-3319 -3321 -3413 0
3319 3321 -3413 0
-3319 3321 3413 0
3319 -3321 3413 0
-3323 -3325 -3414 0
3323 3325 -3414 0
-3323 3325 3414 0
3323 -3325 3414 0
-3327 -3329 -3416 0
3327 3329 -3416 0
-3327 3329 3416 0
3327 -3329 3416 0
-3333 -3335 -3419 0
3333 3335 -3419 0
-3333 3335 3419 0
3333 -3335 3419 0
-3337 -3339 -3420 0
3337 3339 -3420 0
-3337 3339 3420 0
3337 -3339 3420 0
-3341 -3343 -3422 0
3341 3343 -3422 0
-3341 3343 3422 0
3341 -3343 3422 0
-3347 -3349 -3425 0
3347 3349 -3425 0
-3347 3349 3425 0
3347 -3349 3425 0
-3351 -3353 -3426 0
3351 3353 -3426 0
-3351 3353 3426 0
3351 -3353 3426 0
-3355 -3357 -3428 0
3355 3357 -3428 0
-3355 3357 3428 0
3355 -3357 3428 0
-3363 -3365 -3431 0
3363 3365 -3431 0
-3363 3365 3431 0
3363 -3365 3431 0
-3367 -3369 -3432 0
3367 3369 -3432 0
-3367 3369 3432 0
3367 -3369 3432 0
-3371 -3373 -3434 0
3371 3373 -3434 0
-3371 3373 3434 0
3371 -3373 3434 0
-3375 -3377 -3436 0
3375 3377 -3436 0
-3375 3377 3436 0
3375 -3377 3436 0
-3379 -3381 -3438 0
3379 3381 -3438 0
-3379 3381 3438 0
3379 -3381 3438 0
-3383 -3385 -3440 0
3383 3385 -3440 0
-3383 3385 3440 0
3383 -3385 3440 0
-3387 -3389 -3442 0
3387 3389 -3442 0
-3387 3389 3442 0
3387 -3389 3442 0
-3391 -3393 -3444 0
3391 3393 -3444 0
-3391 3393 3444 0
3391 -3393 3444 0
-3395 -3397 -3446 0
3395 3397 -3446 0
-3395 3397 3446 0
3395 -3397 3446 0
-3399 -3401 -3448 0
3399 3401 -3448 0
-3399 3401 3448 0
3399 -3401 3448 0
-3403 -3405 -3450 0
3403 3405 -3450 0
-3403 3405 3450 0
3403 -3405 3450 0
-3407 -3409 -3452 0
3407 3409 -3452 0
-3407 3409 3452 0
3407 -3409 3452 0
-3408 -3410 -3454 0
3408 3410 -3454 0
3408 -3410 3454 0
-3408 3410 3454 0
-3412 -3413 -3457 0
3412 3413 -3457 0
-3412 3413 3457 0
3412 -3413 3457 0
-3414 -3416 -3459 0
3414 3416 -3459 0
-3414 3416 3459 0
3414 -3416 3459 0
-3418 -3419 -3461 0
3418 3419 -3461 0
-3418 3419 3461 0
3418 -3419 3461 0
-3420 -3422 -3463 0
3420 3422 -3463 0
-3420 3422 3463 0
3420 -3422 3463 0
-3424 -3425 -3465 0
3424 3425 -3465 0
-3424 3425 3465 0
3424 -3425 3465 0
-3426 -3428 -3467 0
3426 3428 -3467 0
-3426 3428 3467 0
3426 -3428 3467 0
-3430 -3431 -3470 0
3430 3431 -3470 0
-3430 3431 3470 0
3430 -3431 3470 0
-3432 -3434 -3471 0
3432 3434 -3471 0
-3432 3434 3471 0
3432 -3434 3471 0
-3436 -3438 -3473 0
3436 3438 -3473 0
-3436 3438 3473 0
3436 -3438 3473 0
-3440 -3442 -3475 0
3440 3442 -3475 0
-3440 3442 3475 0
3440 -3442 3475 0
-3444 -3446 -3477 0
3444 3446 -3477 0
-3444 3446 3477 0
3444 -3446 3477 0
-3448 -3450 -3479 0
3448 3450 -3479 0
-3448 3450 3479 0
3448 -3450 3479 0
-3452 -3454 -3481 0
3452 3454 -3481 0
-3452 3454 3481 0
3452 -3454 3481 0
-3411 -3456 -3483 0
3411 3456 -3483 0
-3411 3456 3483 0
3411 -3456 3483 0
-3457 -3459 -3485 0
3457 3459 -3485 0
-3457 3459 3485 0
3457 -3459 3485 0
-3461 -3463 -3487 0
3461 3463 -3487 0
-3461 3463 3487 0
3461 -3463 3487 0
-3465 -3467 -3489 0
3465 3467 -3489 0
-3465 3467 3489 0
3465 -3467 3489 0
-3469 -3470 -3491 0
3469 3470 -3491 0
-3469 3470 3491 0
3469 -3470 3491 0
-3471 -3473 -3493 0
3471 3473 -3493 0
-3471 3473 3493 0
3471 -3473 3493 0
-3475 -3477 -3495 0
3475 3477 -3495 0
-3475 3477 3495 0
3475 -3477 3495 0
-3479 -3481 -3497 0
3479 3481 -3497 0
-3479 3481 3497 0
3479 -3481 3497 0
-3483 -3485 -3499 0
3483 3485 -3499 0
-3483 3485 3499 0
3483 -3485 3499 0
-3487 -3489 -3501 0
3487 3489 -3501 0
-3487 3489 3501 0
3487 -3489 3501 0
-3491 -3493 -3503 0
3491 3493 -3503 0
-3491 3493 3503 0
3491 -3493 3503 0
-3495 -3497 -3505 0
3495 3497 -3505 0
-3495 3497 3505 0
3495 -3497 3505 0
-3499 -3501 -3507 0
3499 3501 -3507 0
-3499 3501 3507 0
3499 -3501 3507 0
-3503 -3505 -3507 0
3503 3505 -3507 0
-3503 3505 3507 0
3503 -3505 3507 0
-3415 -3417 -3512 0
3415 3417 -3512 0
-3415 3417 3512 0
3415 -3417 3512 0
-3421 -3423 -3514 0
3421 3423 -3514 0
-3421 3423 3514 0
3421 -3423 3514 0
-3427 -3429 -3557 0
3427 3429 -3557 0
-3427 3429 3557 0
3427 -3429 3557 0
-3433 -3435 -3517 0
3433 3435 -3517 0
-3433 3435 3517 0
3433 -3435 3517 0
-3437 -3439 -3519 0
3437 3439 -3519 0
-3437 3439 3519 0
3437 -3439 3519 0
-3441 -3443 -3521 0
3441 3443 -3521 0
-3441 3443 3521 0
3441 -3443 3521 0
-3445 -3447 -3523 0
3445 3447 -3523 0
-3445 3447 3523 0
3445 -3447 3523 0
-3449 -3451 -3525 0
3449 3451 -3525 0
-3449 3451 3525 0
3449 -3451 3525 0
-3453 -3455 -3563 0
3453 3455 -3563 0
-3453 3455 3563 0
3453 -3455 3563 0
-3458 -3460 -3528 0
3458 3460 -3528 0
-3458 3460 3528 0
3458 -3460 3528 0
-3462 -3464 -3529 0
3462 3464 -3529 0
-3462 3464 3529 0
3462 -3464 3529 0
-3466 -3468 -3531 0
3466 3468 -3531 0
-3466 3468 3531 0
3466 -3468 3531 0
-3472 -3474 -3534 0
3472 3474 -3534 0
-3472 3474 3534 0
3472 -3474 3534 0
-3476 -3478 -3535 0
3476 3478 -3535 0
-3476 3478 3535 0
3476 -3478 3535 0
-3480 -3482 -3537 0
3480 3482 -3537 0
-3480 3482 3537 0
3480 -3482 3537 0
-3484 -3486 -3539 0
3484 3486 -3539 0
-3484 3486 3539 0
3484 -3486 3539 0
-3488 -3490 -3541 0
3488 3490 -3541 0
-3488 3490 3541 0
3488 -3490 3541 0
-3492 -3494 -3543 0
3492 3494 -3543 0
-3492 3494 3543 0
3492 -3494 3543 0
-3496 -3498 -3545 0
3496 3498 -3545 0
-3496 3498 3545 0
3496 -3498 3545 0
-3500 -3502 -3547 0
3500 3502 -3547 0
-3500 3502 3547 0
3500 -3502 3547 0
-3504 -3506 -3549 0
3504 3506 -3549 0
-3504 3506 3549 0
3504 -3506 3549 0
-3508 -3509 -3551 0
3508 3509 -3551 0
-3508 3509 3551 0
3508 -3509 3551 0
-3510 -3511 -3552 0
3510 3511 -3552 0
-3510 3511 3552 0
3510 -3511 3552 0
-3512 -3513 -3554 0
3512 3513 -3554 0
-3512 3513 3554 0
3512 -3513 3554 0
-3514 -3515 -3556 0
3514 3515 -3556 0
-3514 3515 3556 0
3514 -3515 3556 0
-3516 -3517 -3558 0
3516 3517 -3558 0
-3516 3517 3558 0
3516 -3517 3558 0
-3519 -3521 -3560 0
3519 3521 -3560 0
-3519 3521 3560 0
3519 -3521 3560 0
-3523 -3525 -3562 0
3523 3525 -3562 0
-3523 3525 3562 0
3523 -3525 3562 0
-3528 -3529 -3564 0
3528 3529 -3564 0
-3528 3529 3564 0
3528 -3529 3564 0
-3531 -3533 -3566 0
3531 3533 -3566 0
-3531 3533 3566 0
3531 -3533 3566 0
-3534 -3535 -3568 0
3534 3535 -3568 0
-3534 3535 3568 0
3534 -3535 3568 0
-3537 -3539 -3570 0
3537 3539 -3570 0
-3537 3539 3570 0
3537 -3539 3570 0
-3541 -3543 -3572 0
3541 3543 -3572 0
-3541 3543 3572 0
3541 -3543 3572 0
-3545 -3547 -3574 0
3545 3547 -3574 0
-3545 3547 3574 0
3545 -3547 3574 0
-3549 -3551 -3576 0
3549 3551 -3576 0
-3549 3551 3576 0
3549 -3551 3576 0
-3507 -3552 -3578 0
3507 3552 -3578 0
-3507 3552 3578 0
3507 -3552 3578 0
-3554 -3556 -3580 0
3554 3556 -3580 0
-3554 3556 3580 0
3554 -3556 3580 0
-3557 -3558 -3582 0
3557 3558 -3582 0
-3557 3558 3582 0
3557 -3558 3582 0
-3560 -3562 -3584 0
3560 3562 -3584 0
-3560 3562 3584 0
3560 -3562 3584 0
-3563 -3564 -3586 0
3563 3564 -3586 0
-3563 3564 3586 0
3563 -3564 3586 0
-3566 -3568 -3588 0
3566 3568 -3588 0
-3566 3568 3588 0
3566 -3568 3588 0
-3570 -3572 -3590 0
3570 3572 -3590 0
-3570 3572 3590 0
3570 -3572 3590 0
-3574 -3576 -3592 0
3574 3576 -3592 0
-3574 3576 3592 0
3574 -3576 3592 0
-3578 -3580 -3594 0
3578 3580 -3594 0
-3578 3580 3594 0
3578 -3580 3594 0
-3582 -3584 -3596 0
3582 3584 -3596 0
-3582 3584 3596 0
3582 -3584 3596 0
-3586 -3588 -3598 0
3586 3588 -3598 0
-3586 3588 3598 0
3586 -3588 3598 0
-3590 -3592 -3600 0
3590 3592 -3600 0
-3590 3592 3600 0
3590 -3592 3600 0
-3594 -3596 -3602 0
3594 3596 -3602 0
-3594 3596 3602 0
3594 -3596 3602 0
-3598 -3600 -3602 0
3598 3600 -3602 0
-3598 3600 3602 0
3598 -3600 3602 0
-3518 -3520 -3648 0
3518 3520 -3648 0
-3518 3520 3648 0
3518 -3520 3648 0
-3522 -3524 -3608 0
3522 3524 -3608 0
-3522 3524 3608 0
3522 -3524 3608 0
-3526 -3527 -3610 0
3526 3527 -3610 0
-3526 3527 3610 0
3526 -3527 3610 0
-3530 -3532 -3613 0
3530 3532 -3613 0
-3530 3532 3613 0
3530 -3532 3613 0
-3536 -3538 -3615 0
3536 3538 -3615 0
-3536 3538 3615 0
3536 -3538 3615 0
-3540 -3542 -3616 0
3540 3542 -3616 0
-3540 3542 3616 0
3540 -3542 3616 0
-3544 -3546 -3618 0
3544 3546 -3618 0
-3544 3546 3618 0
3544 -3546 3618 0
-3548 -3550 -3620 0
3548 3550 -3620 0
-3548 3550 3620 0
3548 -3550 3620 0
-3553 -3555 -3622 0
3553 3555 -3622 0
-3553 3555 3622 0
3553 -3555 3622 0
-3559 -3561 -3624 0
3559 3561 -3624 0
-3559 3561 3624 0
3559 -3561 3624 0
-3565 -3567 -3626 0
3565 3567 -3626 0
-3565 3567 3626 0
3565 -3567 3626 0
-3569 -3571 -3628 0
3569 3571 -3628 0
-3569 3571 3628 0
3569 -3571 3628 0
-3573 -3575 -3630 0
3573 3575 -3630 0
-3573 3575 3630 0
3573 -3575 3630 0
-3577 -3579 -3632 0
3577 3579 -3632 0
-3577 3579 3632 0
3577 -3579 3632 0
-3581 -3583 -3634 0
3581 3583 -3634 0
-3581 3583 3634 0
3581 -3583 3634 0
-3585 -3587 -3636 0
3585 3587 -3636 0
-3585 3587 3636 0
3585 -3587 3636 0
-3589 -3591 -3638 0
3589 3591 -3638 0
-3589 3591 3638 0
3589 -3591 3638 0
-3593 -3595 -3640 0
3593 3595 -3640 0
-3593 3595 3640 0
3593 -3595 3640 0
-3597 -3599 -3642 0
3597 3599 -3642 0
-3597 3599 3642 0
3597 -3599 3642 0
-3601 -3603 -3644 0
3601 3603 -3644 0
-3601 3603 3644 0
3601 -3603 3644 0
-3602 -3604 -3646 0
3602 3604 -3646 0
3602 -3604 3646 0
-3602 3604 3646 0
-3606 -3607 -3647 0
3606 3607 -3647 0
-3606 3607 3647 0
3606 -3607 3647 0
-3608 -3610 -3649 0
3608 3610 -3649 0
-3608 3610 3649 0
3608 -3610 3649 0
-3612 -3613 -3651 0
3612 3613 -3651 0
-3612 3613 3651 0
3612 -3613 3651 0
-3614 -3615 -3653 0
3614 3615 -3653 0
-3614 3615 3653 0
3614 -3615 3653 0
-3616 -3618 -3655 0
3616 3618 -3655 0
-3616 3618 3655 0
3616 -3618 3655 0
-3620 -3621 -3657 0
3620 3621 -3657 0
-3620 3621 3657 0
3620 -3621 3657 0
-3622 -3623 -3659 0
3622 3623 -3659 0
-3622 3623 3659 0
3622 -3623 3659 0
-3624 -3625 -3661 0
3624 3625 -3661 0
-3624 3625 3661 0
3624 -3625 3661 0
-3626 -3628 -3663 0
3626 3628 -3663 0
-3626 3628 3663 0
3626 -3628 3663 0
-3630 -3632 -3665 0
3630 3632 -3665 0
-3630 3632 3665 0
3630 -3632 3665 0
-3634 -3636 -3667 0
3634 3636 -3667 0
-3634 3636 3667 0
3634 -3636 3667 0
-3638 -3640 -3669 0
3638 3640 -3669 0
-3638 3640 3669 0
3638 -3640 3669 0
-3642 -3644 -3671 0
3642 3644 -3671 0
-3642 3644 3671 0
3642 -3644 3671 0
-3605 -3646 -3673 0
3605 3646 -3673 0
3605 -3646 3673 0
-3605 3646 3673 0
-3647 -3648 -3675 0
3647 3648 -3675 0
-3647 3648 3675 0
3647 -3648 3675 0
-3649 -3651 -3677 0
3649 3651 -3677 0
-3649 3651 3677 0
3649 -3651 3677 0
-3653 -3655 -3679 0
3653 3655 -3679 0
-3653 3655 3679 0
3653 -3655 3679 0
-3657 -3659 -3681 0
3657 3659 -3681 0
-3657 3659 3681 0
3657 -3659 3681 0
-3661 -3663 -3683 0
3661 3663 -3683 0
-3661 3663 3683 0
3661 -3663 3683 0
-3665 -3667 -3685 0
3665 3667 -3685 0
-3665 3667 3685 0
3665 -3667 3685 0
-3669 -3671 -3687 0
3669 3671 -3687 0
-3669 3671 3687 0
3669 -3671 3687 0
-3673 -3675 -3689 0
3673 3675 -3689 0
-3673 3675 3689 0
3673 -3675 3689 0
-3677 -3679 -3691 0
3677 3679 -3691 0
-3677 3679 3691 0
3677 -3679 3691 0
-3681 -3683 -3693 0
3681 3683 -3693 0
-3681 3683 3693 0
3681 -3683 3693 0
-3685 -3687 -3695 0
3685 3687 -3695 0
-3685 3687 3695 0
3685 -3687 3695 0
-3689 -3691 -3697 0
3689 3691 -3697 0
-3689 3691 3697 0
3689 -3691 3697 0
-3693 -3695 -3697 0
3693 3695 -3697 0
-3693 3695 3697 0
3693 -3695 3697 0
-3609 -3611 -3701 0
3609 3611 -3701 0
-3609 3611 3701 0
3609 -3611 3701 0
-3617 -3619 -3704 0
3617 3619 -3704 0
-3617 3619 3704 0
3617 -3619 3704 0
-3627 -3629 -3708 0
3627 3629 -3708 0
-3627 3629 3708 0
3627 -3629 3708 0
-3631 -3633 -3710 0
3631 3633 -3710 0
-3631 3633 3710 0
3631 -3633 3710 0
-3635 -3637 -3712 0
3635 3637 -3712 0
-3635 3637 3712 0
3635 -3637 3712 0
-3639 -3641 -3714 0
3639 3641 -3714 0
-3639 3641 3714 0
3639 -3641 3714 0
-3643 -3645 -3716 0
3643 3645 -3716 0
-3643 3645 3716 0
3643 -3645 3716 0
-3650 -3652 -3719 0
3650 3652 -3719 0
-3650 3652 3719 0
3650 -3652 3719 0
-3654 -3656 -3720 0
3654 3656 -3720 0
-3654 3656 3720 0
3654 -3656 3720 0
-3658 -3660 -3722 0
3658 3660 -3722 0
-3658 3660 3722 0
3658 -3660 3722 0
-3662 -3664 -3724 0
3662 3664 -3724 0
-3662 3664 3724 0
3662 -3664 3724 0
-3666 -3668 -3726 0
3666 3668 -3726 0
-3666 3668 3726 0
3666 -3668 3726 0
-3670 -3672 -3728 0
3670 3672 -3728 0
-3670 3672 3728 0
3670 -3672 3728 0
-3674 -3676 -3730 0
3674 3676 -3730 0
-3674 3676 3730 0
3674 -3676 3730 0
-3678 -3680 -3732 0
3678 3680 -3732 0
-3678 3680 3732 0
3678 -3680 3732 0
-3682 -3684 -3734 0
3682 3684 -3734 0
-3682 3684 3734 0
3682 -3684 3734 0
-3686 -3688 -3736 0
3686 3688 -3736 0
-3686 3688 3736 0
3686 -3688 3736 0
-3690 -3692 -3738 0
3690 3692 -3738 0
-3690 3692 3738 0
3690 -3692 3738 0
-3694 -3696 -3740 0
3694 3696 -3740 0
-3694 3696 3740 0
3694 -3696 3740 0
-3698 -3699 -3742 0
3698 3699 -3742 0
-3698 3699 3742 0
3698 -3699 3742 0
-3701 -3702 -3744 0
3701 3702 -3744 0
-3701 3702 3744 0
3701 -3702 3744 0
-3703 -3704 -3746 0
3703 3704 -3746 0
-3703 3704 3746 0
3703 -3704 3746 0
-3705 -3706 -3748 0
3705 3706 -3748 0
-3705 3706 3748 0
3705 -3706 3748 0
-3707 -3708 -3750 0
3707 3708 -3750 0
-3707 3708 3750 0
3707 -3708 3750 0
-3710 -3712 -3752 0
3710 3712 -3752 0
-3710 3712 3752 0
3710 -3712 3752 0
-3714 -3716 -3754 0
3714 3716 -3754 0
-3714 3716 3754 0
3714 -3716 3754 0
-3717 -3718 -3756 0
3717 3718 -3756 0
-3717 3718 3756 0
3717 -3718 3756 0
-3719 -3720 -3758 0
3719 3720 -3758 0
-3719 3720 3758 0
3719 -3720 3758 0
-3722 -3724 -3760 0
3722 3724 -3760 0
-3722 3724 3760 0
3722 -3724 3760 0
-3726 -3728 -3762 0
3726 3728 -3762 0
-3726 3728 3762 0
3726 -3728 3762 0
-3730 -3732 -3764 0
3730 3732 -3764 0
-3730 3732 3764 0
3730 -3732 3764 0
-3734 -3736 -3766 0
3734 3736 -3766 0
-3734 3736 3766 0
3734 -3736 3766 0
-3738 -3740 -3768 0
3738 3740 -3768 0
-3738 3740 3768 0
3738 -3740 3768 0
-3697 -3742 -3770 0
3697 3742 -3770 0
3697 -3742 3770 0
-3697 3742 3770 0
-3700 -3744 -3772 0
3700 3744 -3772 0
-3700 3744 3772 0
3700 -3744 3772 0
-3746 -3748 -3774 0
3746 3748 -3774 0
-3746 3748 3774 0
3746 -3748 3774 0
-3750 -3752 -3776 0
3750 3752 -3776 0
-3750 3752 3776 0
3750 -3752 3776 0
-3754 -3756 -3778 0
3754 3756 -3778 0
-3754 3756 3778 0
3754 -3756 3778 0
-3758 -3760 -3780 0
3758 3760 -3780 0
-3758 3760 3780 0
3758 -3760 3780 0
-3762 -3764 -3782 0
3762 3764 -3782 0
-3762 3764 3782 0
3762 -3764 3782 0
-3766 -3768 -3784 0
3766 3768 -3784 0
-3766 3768 3784 0
3766 -3768 3784 0
-3770 -3772 -3786 0
3770 3772 -3786 0
-3770 3772 3786 0
3770 -3772 3786 0
-3774 -3776 -3788 0
3774 3776 -3788 0
-3774 3776 3788 0
3774 -3776 3788 0
-3778 -3780 -3790 0
3778 3780 -3790 0
-3778 3780 3790 0
3778 -3780 3790 0
-3782 -3784 -3792 0
3782 3784 -3792 0
-3782 3784 3792 0
3782 -3784 3792 0
-3786 -3788 -3794 0
3786 3788 -3794 0
-3786 3788 3794 0
3786 -3788 3794 0
-3790 -3792 -3794 0
3790 3792 -3794 0
-3790 3792 3794 0
3790 -3792 3794 0
-3709 -3711 -3839 0
3709 3711 -3839 0
-3709 3711 3839 0
3709 -3711 3839 0
-3713 -3715 -3798 0
3713 3715 -3798 0
-3713 3715 3798 0
3713 -3715 3798 0
-3721 -3723 -3801 0
3721 3723 -3801 0
-3721 3723 3801 0
3721 -3723 3801 0
-3725 -3727 -3802 0
3725 3727 -3802 0
-3725 3727 3802 0
3725 -3727 3802 0
-3729 -3731 -3804 0
3729 3731 -3804 0
-3729 3731 3804 0
3729 -3731 3804 0
-3733 -3735 -3806 0
3733 3735 -3806 0
-3733 3735 3806 0
3733 -3735 3806 0
-3737 -3739 -3808 0
3737 3739 -3808 0
-3737 3739 3808 0
3737 -3739 3808 0
-3741 -3743 -3846 0
3741 3743 -3846 0
-3741 3743 3846 0
3741 -3743 3846 0
-3745 -3747 -3810 0
3745 3747 -3810 0
-3745 3747 3810 0
3745 -3747 3810 0
-3749 -3751 -3812 0
3749 3751 -3812 0
-3749 3751 3812 0
3749 -3751 3812 0
-3753 -3755 -3814 0
3753 3755 -3814 0
-3753 3755 3814 0
3753 -3755 3814 0
-3757 -3759 -3816 0
3757 3759 -3816 0
-3757 3759 3816 0
3757 -3759 3816 0
-3761 -3763 -3818 0
3761 3763 -3818 0
-3761 3763 3818 0
3761 -3763 3818 0
-3765 -3767 -3820 0
3765 3767 -3820 0
-3765 3767 3820 0
3765 -3767 3820 0
-3769 -3771 -3822 0
3769 3771 -3822 0
-3769 3771 3822 0
3769 -3771 3822 0
-3773 -3775 -3824 0
3773 3775 -3824 0
-3773 3775 3824 0
3773 -3775 3824 0
-3777 -3779 -3826 0
3777 3779 -3826 0
-3777 3779 3826 0
3777 -3779 3826 0
-3781 -3783 -3828 0
3781 3783 -3828 0
-3781 3783 3828 0
3781 -3783 3828 0
-3785 -3787 -3830 0
3785 3787 -3830 0
-3785 3787 3830 0
3785 -3787 3830 0
-3789 -3791 -3832 0
3789 3791 -3832 0
-3789 3791 3832 0
3789 -3791 3832 0
-3793 -3795 -3834 0
3793 3795 -3834 0
-3793 3795 3834 0
3793 -3795 3834 0
-3794 -3796 -3836 0
3794 3796 -3836 0
3794 -3796 3836 0
-3794 3796 3836 0
-3798 -3799 -3840 0
3798 3799 -3840 0
-3798 3799 3840 0
3798 -3799 3840 0
-3800 -3801 -3841 0
3800 3801 -3841 0
-3800 3801 3841 0
3800 -3801 3841 0
-3802 -3804 -3843 0
3802 3804 -3843 0
-3802 3804 3843 0
3802 -3804 3843 0
-3806 -3808 -3845 0
3806 3808 -3845 0
-3806 3808 3845 0
3806 -3808 3845 0
-3810 -3812 -3847 0
3810 3812 -3847 0
-3810 3812 3847 0
3810 -3812 3847 0
-3814 -3816 -3849 0
3814 3816 -3849 0
-3814 3816 3849 0
3814 -3816 3849 0
-3818 -3820 -3851 0
3818 3820 -3851 0
-3818 3820 3851 0
3818 -3820 3851 0
-3822 -3824 -3853 0
3822 3824 -3853 0
-3822 3824 3853 0
3822 -3824 3853 0
-3826 -3828 -3855 0
3826 3828 -3855 0
-3826 3828 3855 0
3826 -3828 3855 0
-3830 -3832 -3857 0
3830 3832 -3857 0
-3830 3832 3857 0
3830 -3832 3857 0
-3834 -3836 -3859 0
3834 3836 -3859 0
-3834 3836 3859 0
3834 -3836 3859 0
-3797 -3838 -3861 0
3797 3838 -3861 0
3797 -3838 3861 0
-3797 3838 3861 0
-3839 -3840 -3863 0
3839 3840 -3863 0
-3839 3840 3863 0
3839 -3840 3863 0
-3841 -3843 -3865 0
3841 3843 -3865 0
-3841 3843 3865 0
3841 -3843 3865 0
-3845 -3846 -3867 0
3845 3846 -3867 0
-3845 3846 3867 0
3845 -3846 3867 0
-3847 -3849 -3869 0
3847 3849 -3869 0
-3847 3849 3869 0
3847 -3849 3869 0
-3851 -3853 -3871 0
3851 3853 -3871 0
-3851 3853 3871 0
3851 -3853 3871 0
-3855 -3857 -3873 0
3855 3857 -3873 0
-3855 3857 3873 0
3855 -3857 3873 0
-3859 -3861 -3875 0
3859 3861 -3875 0
-3859 3861 3875 0
3859 -3861 3875 0
-3863 -3865 -3877 0
3863 3865 -3877 0
-3863 3865 3877 0
3863 -3865 3877 0
-3867 -3869 -3879 0
3867 3869 -3879 0
-3867 3869 3879 0
3867 -3869 3879 0
-3871 -3873 -3881 0
3871 3873 -3881 0
-3871 3873 3881 0
3871 -3873 3881 0
-3875 -3877 -3883 0
3875 3877 -3883 0
-3875 3877 3883 0
3875 -3877 3883 0
-3879 -3881 -3883 0
3879 3881 -3883 0
-3879 3881 3883 0
3879 -3881 3883 0
-3803 -3805 -3888 0
3803 3805 -3888 0
-3803 3805 3888 0
3803 -3805 3888 0
-3807 -3809 -3889 0
3807 3809 -3889 0
-3807 3809 3889 0
3807 -3809 3889 0
-3811 -3813 -3891 0
3811 3813 -3891 0
-3811 3813 3891 0
3811 -3813 3891 0
-3815 -3817 -3893 0
3815 3817 -3893 0
-3815 3817 3893 0
3815 -3817 3893 0
-3819 -3821 -3895 0
3819 3821 -3895 0
-3819 3821 3895 0
3819 -3821 3895 0
-3823 -3825 -3897 0
3823 3825 -3897 0
-3823 3825 3897 0
3823 -3825 3897 0
-3827 -3829 -3899 0
3827 3829 -3899 0
-3827 3829 3899 0
3827 -3829 3899 0
-3831 -3833 -3901 0
3831 3833 -3901 0
-3831 3833 3901 0
3831 -3833 3901 0
-3835 -3837 -3903 0
3835 3837 -3903 0
-3835 3837 3903 0
3835 -3837 3903 0
-3842 -3844 -3905 0
3842 3844 -3905 0
-3842 3844 3905 0
3842 -3844 3905 0
-3848 -3850 -3907 0
3848 3850 -3907 0
-3848 3850 3907 0
3848 -3850 3907 0
-3852 -3854 -3908 0
3852 3854 -3908 0
-3852 3854 3908 0
3852 -3854 3908 0
-3856 -3858 -3910 0
3856 3858 -3910 0
-3856 3858 3910 0
3856 -3858 3910 0
-3860 -3862 -3912 0
3860 3862 -3912 0
-3860 3862 3912 0
3860 -3862 3912 0
-3864 -3866 -3914 0
3864 3866 -3914 0
-3864 3866 3914 0
3864 -3866 3914 0
-3868 -3870 -3916 0
3868 3870 -3916 0
-3868 3870 3916 0
3868 -3870 3916 0
-3872 -3874 -3918 0
3872 3874 -3918 0
-3872 3874 3918 0
3872 -3874 3918 0
-3876 -3878 -3920 0
3876 3878 -3920 0
-3876 3878 3920 0
3876 -3878 3920 0
-3880 -3882 -3922 0
3880 3882 -3922 0
-3880 3882 3922 0
3880 -3882 3922 0
-3884 -3885 -3924 0
3884 3885 -3924 0
-3884 3885 3924 0
3884 -3885 3924 0
-3886 -3887 -3926 0
3886 3887 -3926 0
-3886 3887 3926 0
3886 -3887 3926 0
-3888 -3889 -3927 0
3888 3889 -3927 0
-3888 3889 3927 0
3888 -3889 3927 0
-3890 -3891 -3929 0
3890 3891 -3929 0
-3890 3891 3929 0
3890 -3891 3929 0
-3893 -3895 -3931 0
3893 3895 -3931 0
-3893 3895 3931 0
3893 -3895 3931 0
-3897 -3899 -3933 0
3897 3899 -3933 0
-3897 3899 3933 0
3897 -3899 3933 0
-3901 -3903 -3935 0
3901 3903 -3935 0
-3901 3903 3935 0
3901 -3903 3935 0
-3905 -3906 -3936 0
3905 3906 -3936 0
-3905 3906 3936 0
3905 -3906 3936 0
-3907 -3908 -3938 0
3907 3908 -3938 0
-3907 3908 3938 0
3907 -3908 3938 0
-3910 -3912 -3940 0
3910 3912 -3940 0
-3910 3912 3940 0
3910 -3912 3940 0
-3914 -3916 -3942 0
3914 3916 -3942 0
-3914 3916 3942 0
3914 -3916 3942 0
-3918 -3920 -3944 0
3918 3920 -3944 0
-3918 3920 3944 0
3918 -3920 3944 0
-3922 -3924 -3946 0
3922 3924 -3946 0
-3922 3924 3946 0
3922 -3924 3946 0
-3883 -3925 -3948 0
3883 3925 -3948 0
-3883 3925 3948 0
3883 -3925 3948 0
-3926 -3927 -3950 0
3926 3927 -3950 0
-3926 3927 3950 0
3926 -3927 3950 0
-3929 -3931 -3952 0
3929 3931 -3952 0
-3929 3931 3952 0
3929 -3931 3952 0
-3933 -3935 -3954 0
3933 3935 -3954 0
-3933 3935 3954 0
3933 -3935 3954 0
-3904 -3936 -3956 0
3904 3936 -3956 0
-3904 3936 3956 0
3904 -3936 3956 0
-3938 -3940 -3958 0
3938 3940 -3958 0
-3938 3940 3958 0
3938 -3940 3958 0
-3942 -3944 -3960 0
3942 3944 -3960 0
-3942 3944 3960 0
3942 -3944 3960 0
-3946 -3948 -3962 0
3946 3948 -3962 0
-3946 3948 3962 0
3946 -3948 3962 0
-3950 -3952 -3964 0
3950 3952 -3964 0
-3950 3952 3964 0
3950 -3952 3964 0
-3954 -3956 -3966 0
3954 3956 -3966 0
-3954 3956 3966 0
3954 -3956 3966 0
-3958 -3960 -3968 0
3958 3960 -3968 0
-3958 3960 3968 0
3958 -3960 3968 0
-3962 -3964 -3970 0
3962 3964 -3970 0
-3962 3964 3970 0
3962 -3964 3970 0
-3966 -3968 -3970 0
3966 3968 -3970 0
-3966 3968 3970 0
3966 -3968 3970 0
-3892 -3894 -3975 0
3892 3894 -3975 0
-3892 3894 3975 0
3892 -3894 3975 0
-3896 -3898 -3977 0
3896 3898 -3977 0
-3896 3898 3977 0
3896 -3898 3977 0
-3900 -3902 -3979 0
3900 3902 -3979 0
-3900 3902 3979 0
3900 -3902 3979 0
-3909 -3911 -3983 0
3909 3911 -3983 0
-3909 3911 3983 0
3909 -3911 3983 0
-3913 -3915 -3985 0
3913 3915 -3985 0
-3913 3915 3985 0
3913 -3915 3985 0
-3917 -3919 -3987 0
3917 3919 -3987 0
-3917 3919 3987 0
3917 -3919 3987 0
-3921 -3923 -3989 0
3921 3923 -3989 0
-3921 3923 3989 0
3921 -3923 3989 0
-3928 -3930 -3993 0
3928 3930 -3993 0
-3928 3930 3993 0
3928 -3930 3993 0
-3932 -3934 -3995 0
3932 3934 -3995 0
-3932 3934 3995 0
3932 -3934 3995 0
-3937 -3939 -3998 0
3937 3939 -3998 0
-3937 3939 3998 0
3937 -3939 3998 0
-3941 -3943 -3999 0
3941 3943 -3999 0
-3941 3943 3999 0
3941 -3943 3999 0
-3945 -3947 -4001 0
3945 3947 -4001 0
-3945 3947 4001 0
3945 -3947 4001 0
-3949 -3951 -4003 0
3949 3951 -4003 0
-3949 3951 4003 0
3949 -3951 4003 0
-3953 -3955 -4005 0
3953 3955 -4005 0
-3953 3955 4005 0
3953 -3955 4005 0
-3957 -3959 -4007 0
3957 3959 -4007 0
-3957 3959 4007 0
3957 -3959 4007 0
-3961 -3963 -4009 0
3961 3963 -4009 0
-3961 3963 4009 0
3961 -3963 4009 0
-3965 -3967 -4011 0
3965 3967 -4011 0
-3965 3967 4011 0
3965 -3967 4011 0
-3969 -3971 -4013 0
3969 3971 -4013 0
-3969 3971 4013 0
3969 -3971 4013 0
-3970 -3972 -4040 0
3970 3972 -4040 0
3970 -3972 4040 0
-3970 3972 4040 0
-3973 -3974 -4015 0
3973 3974 -4015 0
-3973 3974 4015 0
3973 -3974 4015 0
-3975 -3977 -4017 0
3975 3977 -4017 0
-3975 3977 4017 0
3975 -3977 4017 0
-3979 -3980 -4019 0
3979 3980 -4019 0
-3979 3980 4019 0
3979 -3980 4019 0
-3981 -3982 -4021 0
3981 3982 -4021 0
-3981 3982 4021 0
3981 -3982 4021 0
-3983 -3985 -4023 0
3983 3985 -4023 0
-3983 3985 4023 0
3983 -3985 4023 0
-3987 -3989 -4025 0
3987 3989 -4025 0
-3987 3989 4025 0
3987 -3989 4025 0
-3991 -3992 -4027 0
3991 3992 -4027 0
-3991 3992 4027 0
3991 -3992 4027 0
-3993 -3995 -4029 0
3993 3995 -4029 0
-3993 3995 4029 0
3993 -3995 4029 0
-3997 -3998 -4031 0
3997 3998 -4031 0
-3997 3998 4031 0
3997 -3998 4031 0
-3999 -4001 -4033 0
3999 4001 -4033 0
-3999 4001 4033 0
3999 -4001 4033 0
-4003 -4005 -4035 0
4003 4005 -4035 0
-4003 4005 4035 0
4003 -4005 4035 0
-4007 -4009 -4037 0
4007 4009 -4037 0
-4007 4009 4037 0
4007 -4009 4037 0
-4011 -4013 -4039 0
4011 4013 -4039 0
-4011 4013 4039 0
4011 -4013 4039 0
-4015 -4017 -4041 0
4015 4017 -4041 0
-4015 4017 4041 0
4015 -4017 4041 0
-4019 -4021 -4043 0
4019 4021 -4043 0
-4019 4021 4043 0
4019 -4021 4043 0
-4023 -4025 -4045 0
4023 4025 -4045 0
-4023 4025 4045 0
4023 -4025 4045 0
-4027 -4029 -4047 0
4027 4029 -4047 0
-4027 4029 4047 0
4027 -4029 4047 0
-4031 -4033 -4049 0
4031 4033 -4049 0
-4031 4033 4049 0
4031 -4033 4049 0
-4035 -4037 -4051 0
4035 4037 -4051 0
-4035 4037 4051 0
4035 -4037 4051 0
-4039 -4040 -4053 0
4039 4040 -4053 0
-4039 4040 4053 0
4039 -4040 4053 0
-4041 -4043 -4055 0
4041 4043 -4055 0
-4041 4043 4055 0
4041 -4043 4055 0
-4045 -4047 -4057 0
4045 4047 -4057 0
-4045 4047 4057 0
4045 -4047 4057 0
-4049 -4051 -4059 0
4049 4051 -4059 0
-4049 4051 4059 0
4049 -4051 4059 0
-4053 -4055 -4061 0
4053 4055 -4061 0
-4053 4055 4061 0
4053 -4055 4061 0
-4057 -4059 -4061 0
4057 4059 -4061 0
-4057 4059 4061 0
4057 -4059 4061 0
-3976 -3978 -4100 0
3976 3978 -4100 0
-3976 3978 4100 0
3976 -3978 4100 0
-3984 -3986 -4065 0
3984 3986 -4065 0
-3984 3986 4065 0
3984 -3986 4065 0
-3988 -3990 -4066 0
3988 3990 -4066 0
-3988 3990 4066 0
3988 -3990 4066 0
-3994 -3996 -4102 0
3994 3996 -4102 0
-3994 3996 4102 0
3994 -3996 4102 0
-4000 -4002 -4068 0
4000 4002 -4068 0
-4000 4002 4068 0
4000 -4002 4068 0
-4004 -4006 -4070 0
4004 4006 -4070 0
-4004 4006 4070 0
4004 -4006 4070 0
-4008 -4010 -4072 0
4008 4010 -4072 0
-4008 4010 4072 0
4008 -4010 4072 0
-4012 -4014 -4074 0
4012 4014 -4074 0
-4012 4014 4074 0
4012 -4014 4074 0
-4016 -4018 -4077 0
4016 4018 -4077 0
-4016 4018 4077 0
4016 -4018 4077 0
-4020 -4022 -4078 0
4020 4022 -4078 0
-4020 4022 4078 0
4020 -4022 4078 0
-4024 -4026 -4080 0
4024 4026 -4080 0
-4024 4026 4080 0
4024 -4026 4080 0
-4028 -4030 -4082 0
4028 4030 -4082 0
-4028 4030 4082 0
4028 -4030 4082 0
-4032 -4034 -4084 0
4032 4034 -4084 0
-4032 4034 4084 0
4032 -4034 4084 0
-4036 -4038 -4086 0
4036 4038 -4086 0
-4036 4038 4086 0
4036 -4038 4086 0
-4042 -4044 -4088 0
4042 4044 -4088 0
-4042 4044 4088 0
4042 -4044 4088 0
-4046 -4048 -4090 0
4046 4048 -4090 0
-4046 4048 4090 0
4046 -4048 4090 0
-4050 -4052 -4092 0
4050 4052 -4092 0
-4050 4052 4092 0
4050 -4052 4092 0
-4054 -4056 -4094 0
4054 4056 -4094 0
-4054 4056 4094 0
4054 -4056 4094 0
-4058 -4060 -4096 0
4058 4060 -4096 0
-4058 4060 4096 0
4058 -4060 4096 0
-4062 -4063 -4098 0
4062 4063 -4098 0
-4062 4063 4098 0
4062 -4063 4098 0
-4065 -4066 -4101 0
4065 4066 -4101 0
-4065 4066 4101 0
4065 -4066 4101 0
-4067 -4068 -4103 0
4067 4068 -4103 0
-4067 4068 4103 0
4067 -4068 4103 0
-4070 -4072 -4104 0
4070 4072 -4104 0
-4070 4072 4104 0
4070 -4072 4104 0
-4074 -4076 -4106 0
4074 4076 -4106 0
-4074 4076 4106 0
4074 -4076 4106 0
-4077 -4078 -4108 0
4077 4078 -4108 0
-4077 4078 4108 0
4077 -4078 4108 0
-4080 -4082 -4110 0
4080 4082 -4110 0
-4080 4082 4110 0
4080 -4082 4110 0
-4084 -4086 -4112 0
4084 4086 -4112 0
-4084 4086 4112 0
4084 -4086 4112 0
-4087 -4088 -4114 0
4087 4088 -4114 0
-4087 4088 4114 0
4087 -4088 4114 0
-4090 -4092 -4116 0
4090 4092 -4116 0
-4090 4092 4116 0
4090 -4092 4116 0
-4094 -4096 -4118 0
4094 4096 -4118 0
-4094 4096 4118 0
4094 -4096 4118 0
-4061 -4098 -4120 0
4061 4098 -4120 0
4061 -4098 4120 0
-4061 4098 4120 0
-4064 -4100 -4122 0
4064 4100 -4122 0
4064 -4100 4122 0
-4064 4100 4122 0
-4101 -4102 -4124 0
4101 4102 -4124 0
-4101 4102 4124 0
4101 -4102 4124 0
-4103 -4104 -4126 0
4103 4104 -4126 0
-4103 4104 4126 0
4103 -4104 4126 0
-4106 -4108 -4128 0
4106 4108 -4128 0
-4106 4108 4128 0
4106 -4108 4128 0
-4110 -4112 -4130 0
4110 4112 -4130 0
-4110 4112 4130 0
4110 -4112 4130 0
-4114 -4116 -4132 0
4114 4116 -4132 0
-4114 4116 4132 0
4114 -4116 4132 0
-4118 -4120 -4134 0
4118 4120 -4134 0
-4118 4120 4134 0
4118 -4120 4134 0
-4122 -4124 -4136 0
4122 4124 -4136 0
-4122 4124 4136 0
4122 -4124 4136 0
-4126 -4128 -4138 0
4126 4128 -4138 0
-4126 4128 4138 0
4126 -4128 4138 0
-4130 -4132 -4140 0
4130 4132 -4140 0
-4130 4132 4140 0
4130 -4132 4140 0
-4134 -4136 -4142 0
4134 4136 -4142 0
-4134 4136 4142 0
4134 -4136 4142 0
-4138 -4140 -4142 0
4138 4140 -4142 0
-4138 4140 4142 0
4138 -4140 4142 0
-4069 -4071 -4149 0
4069 4071 -4149 0
-4069 4071 4149 0
4069 -4071 4149 0
-4073 -4075 -4150 0
4073 4075 -4150 0
-4073 4075 4150 0
4073 -4075 4150 0
-4079 -4081 -4152 0
4079 4081 -4152 0
-4079 4081 4152 0
4079 -4081 4152 0
-4083 -4085 -4154 0
4083 4085 -4154 0
-4083 4085 4154 0
4083 -4085 4154 0
-4089 -4091 -4157 0
4089 4091 -4157 0
-4089 4091 4157 0
4089 -4091 4157 0
-4093 -4095 -4158 0
4093 4095 -4158 0
-4093 4095 4158 0
4093 -4095 4158 0
-4097 -4099 -4160 0
4097 4099 -4160 0
-4097 4099 4160 0
4097 -4099 4160 0
-4105 -4107 -4163 0
4105 4107 -4163 0
-4105 4107 4163 0
4105 -4107 4163 0
-4109 -4111 -4164 0
4109 4111 -4164 0
-4109 4111 4164 0
4109 -4111 4164 0
-4113 -4115 -4166 0
4113 4115 -4166 0
-4113 4115 4166 0
4113 -4115 4166 0
-4117 -4119 -4168 0
4117 4119 -4168 0
-4117 4119 4168 0
4117 -4119 4168 0
-4121 -4123 -4170 0
4121 4123 -4170 0
-4121 4123 4170 0
4121 -4123 4170 0
-4125 -4127 -4172 0
4125 4127 -4172 0
-4125 4127 4172 0
4125 -4127 4172 0
-4129 -4131 -4174 0
4129 4131 -4174 0
-4129 4131 4174 0
4129 -4131 4174 0
-4133 -4135 -4176 0
4133 4135 -4176 0
-4133 4135 4176 0
4133 -4135 4176 0
-4137 -4139 -4178 0
4137 4139 -4178 0
-4137 4139 4178 0
4137 -4139 4178 0
-4141 -4143 -4180 0
4141 4143 -4180 0
-4141 4143 4180 0
4141 -4143 4180 0
-4142 -4144 -4182 0
4142 4144 -4182 0
4142 -4144 4182 0
-4142 4144 4182 0
-4146 -4147 -4184 0
4146 4147 -4184 0
-4146 4147 4184 0
4146 -4147 4184 0
-4148 -4149 -4185 0
4148 4149 -4185 0
-4148 4149 4185 0
4148 -4149 4185 0
-4150 -4151 -4187 0
4150 4151 -4187 0
-4150 4151 4187 0
4150 -4151 4187 0
-4152 -4154 -4189 0
4152 4154 -4189 0
-4152 4154 4189 0
4152 -4154 4189 0
-4156 -4157 -4191 0
4156 4157 -4191 0
-4156 4157 4191 0
4156 -4157 4191 0
-4158 -4160 -4193 0
4158 4160 -4193 0
-4158 4160 4193 0
4158 -4160 4193 0
-4162 -4163 -4195 0
4162 4163 -4195 0
-4162 4163 4195 0
4162 -4163 4195 0
-4164 -4166 -4197 0
4164 4166 -4197 0
-4164 4166 4197 0
4164 -4166 4197 0
-4168 -4170 -4199 0
4168 4170 -4199 0
-4168 4170 4199 0
4168 -4170 4199 0
-4172 -4174 -4201 0
4172 4174 -4201 0
-4172 4174 4201 0
4172 -4174 4201 0
-4176 -4178 -4203 0
4176 4178 -4203 0
-4176 4178 4203 0
4176 -4178 4203 0
-4180 -4182 -4205 0
4180 4182 -4205 0
-4180 4182 4205 0
4180 -4182 4205 0
-4145 -4184 -4207 0
4145 4184 -4207 0
-4145 4184 4207 0
4145 -4184 4207 0
-4185 -4187 -4209 0
4185 4187 -4209 0
-4185 4187 4209 0
4185 -4187 4209 0
-4189 -4191 -4211 0
4189 4191 -4211 0
-4189 4191 4211 0
4189 -4191 4211 0
-4193 -4194 -4213 0
4193 4194 -4213 0
-4193 4194 4213 0
4193 -4194 4213 0
-4195 -4197 -4215 0
4195 4197 -4215 0
-4195 4197 4215 0
4195 -4197 4215 0
-4199 -4201 -4217 0
4199 4201 -4217 0
-4199 4201 4217 0
4199 -4201 4217 0
-4203 -4205 -4219 0
4203 4205 -4219 0
-4203 4205 4219 0
4203 -4205 4219 0
-4207 -4209 -4221 0
4207 4209 -4221 0
-4207 4209 4221 0
4207 -4209 4221 0
-4211 -4213 -4223 0
4211 4213 -4223 0
-4211 4213 4223 0
4211 -4213 4223 0
-4215 -4217 -4225 0
4215 4217 -4225 0
-4215 4217 4225 0
4215 -4217 4225 0
-4219 -4221 -4227 0
4219 4221 -4227 0
-4219 4221 4227 0
4219 -4221 4227 0
-4223 -4225 -4227 0
4223 4225 -4227 0
-4223 4225 4227 0
4223 -4225 4227 0
-4153 -4155 -4232 0
4153 4155 -4232 0
-4153 4155 4232 0
4153 -4155 4232 0
-4159 -4161 -4234 0
4159 4161 -4234 0
-4159 4161 4234 0
4159 -4161 4234 0
-4165 -4167 -4236 0
4165 4167 -4236 0
-4165 4167 4236 0
4165 -4167 4236 0
-4169 -4171 -4237 0
4169 4171 -4237 0
-4169 4171 4237 0
4169 -4171 4237 0
-4173 -4175 -4239 0
4173 4175 -4239 0
-4173 4175 4239 0
4173 -4175 4239 0
-4177 -4179 -4241 0
4177 4179 -4241 0
-4177 4179 4241 0
4177 -4179 4241 0
-4181 -4183 -4243 0
4181 4183 -4243 0
-4181 4183 4243 0
4181 -4183 4243 0
-4186 -4188 -4246 0
4186 4188 -4246 0
-4186 4188 4246 0
4186 -4188 4246 0
-4190 -4192 -4247 0
4190 4192 -4247 0
-4190 4192 4247 0
4190 -4192 4247 0
-4196 -4198 -4249 0
4196 4198 -4249 0
-4196 4198 4249 0
4196 -4198 4249 0
-4200 -4202 -4251 0
4200 4202 -4251 0
-4200 4202 4251 0
4200 -4202 4251 0
-4204 -4206 -4253 0
4204 4206 -4253 0
-4204 4206 4253 0
4204 -4206 4253 0
-4208 -4210 -4255 0
4208 4210 -4255 0
-4208 4210 4255 0
4208 -4210 4255 0
-4212 -4214 -4257 0
4212 4214 -4257 0
-4212 4214 4257 0
4212 -4214 4257 0
-4216 -4218 -4259 0
4216 4218 -4259 0
-4216 4218 4259 0
4216 -4218 4259 0
-4220 -4222 -4261 0
4220 4222 -4261 0
-4220 4222 4261 0
4220 -4222 4261 0
-4224 -4226 -4263 0
4224 4226 -4263 0
-4224 4226 4263 0
4224 -4226 4263 0
-4228 -4229 -4265 0
4228 4229 -4265 0
-4228 4229 4265 0
4228 -4229 4265 0
-4231 -4232 -4266 0
4231 4232 -4266 0
-4231 4232 4266 0
4231 -4232 4266 0
-4233 -4234 -4267 0
4233 4234 -4267 0
-4233 4234 4267 0
4233 -4234 4267 0
-4236 -4237 -4268 0
4236 4237 -4268 0
-4236 4237 4268 0
4236 -4237 4268 0
-4239 -4241 -4270 0
4239 4241 -4270 0
-4239 4241 4270 0
4239 -4241 4270 0
-4243 -4245 -4272 0
4243 4245 -4272 0
-4243 4245 4272 0
4243 -4245 4272 0
-4246 -4247 -4274 0
4246 4247 -4274 0
-4246 4247 4274 0
4246 -4247 4274 0
-4248 -4249 -4276 0
4248 4249 -4276 0
-4248 4249 4276 0
4248 -4249 4276 0
-4251 -4253 -4278 0
4251 4253 -4278 0
-4251 4253 4278 0
4251 -4253 4278 0
-4255 -4257 -4280 0
4255 4257 -4280 0
-4255 4257 4280 0
4255 -4257 4280 0
-4259 -4261 -4282 0
4259 4261 -4282 0
-4259 4261 4282 0
4259 -4261 4282 0
-4263 -4265 -4284 0
4263 4265 -4284 0
-4263 4265 4284 0
4263 -4265 4284 0
-4227 -4230 -4286 0
4227 4230 -4286 0
-4227 4230 4286 0
4227 -4230 4286 0
-4266 -4267 -4288 0
4266 4267 -4288 0
-4266 4267 4288 0
4266 -4267 4288 0
-4235 -4268 -4290 0
4235 4268 -4290 0
-4235 4268 4290 0
4235 -4268 4290 0
-4270 -4272 -4292 0
4270 4272 -4292 0
-4270 4272 4292 0
4270 -4272 4292 0
-4274 -4276 -4294 0
4274 4276 -4294 0
-4274 4276 4294 0
4274 -4276 4294 0
-4278 -4280 -4296 0
4278 4280 -4296 0
-4278 4280 4296 0
4278 -4280 4296 0
-4282 -4284 -4298 0
4282 4284 -4298 0
-4282 4284 4298 0
4282 -4284 4298 0
-4286 -4288 -4300 0
4286 4288 -4300 0
-4286 4288 4300 0
4286 -4288 4300 0
-4290 -4292 -4302 0
4290 4292 -4302 0
-4290 4292 4302 0
4290 -4292 4302 0
-4294 -4296 -4304 0
4294 4296 -4304 0
-4294 4296 4304 0
4294 -4296 4304 0
-4298 -4300 -4306 0
4298 4300 -4306 0
-4298 4300 4306 0
4298 -4300 4306 0
-4302 -4304 -4306 0
4302 4304 -4306 0
-4302 4304 4306 0
4302 -4304 4306 0
-4238 -4240 -4312 0
4238 4240 -4312 0
-4238 4240 4312 0
4238 -4240 4312 0
-4242 -4244 -4313 0
4242 4244 -4313 0
-4242 4244 4313 0
4242 -4244 4313 0
-4250 -4252 -4316 0
4250 4252 -4316 0
-4250 4252 4316 0
4250 -4252 4316 0
-4254 -4256 -4317 0
4254 4256 -4317 0
-4254 4256 4317 0
4254 -4256 4317 0
-4258 -4260 -4319 0
4258 4260 -4319 0
-4258 4260 4319 0
4258 -4260 4319 0
-4262 -4264 -4321 0
4262 4264 -4321 0
-4262 4264 4321 0
4262 -4264 4321 0
-4269 -4271 -4325 0
4269 4271 -4325 0
-4269 4271 4325 0
4269 -4271 4325 0
-4273 -4275 -4327 0
4273 4275 -4327 0
-4273 4275 4327 0
4273 -4275 4327 0
-4277 -4279 -4329 0
4277 4279 -4329 0
-4277 4279 4329 0
4277 -4279 4329 0
-4281 -4283 -4331 0
4281 4283 -4331 0
-4281 4283 4331 0
4281 -4283 4331 0
-4285 -4287 -4333 0
4285 4287 -4333 0
-4285 4287 4333 0
4285 -4287 4333 0
-4289 -4291 -4335 0
4289 4291 -4335 0
-4289 4291 4335 0
4289 -4291 4335 0
-4293 -4295 -4337 0
4293 4295 -4337 0
-4293 4295 4337 0
4293 -4295 4337 0
-4297 -4299 -4339 0
4297 4299 -4339 0
-4297 4299 4339 0
4297 -4299 4339 0
-4301 -4303 -4341 0
4301 4303 -4341 0
-4301 4303 4341 0
4301 -4303 4341 0
-4305 -4307 -4343 0
4305 4307 -4343 0
-4305 4307 4343 0
4305 -4307 4343 0
-4306 -4308 -4369 0
4306 4308 -4369 0
4306 -4308 4369 0
-4306 4308 4369 0
-4309 -4310 -4345 0
4309 4310 -4345 0
-4309 4310 4345 0
4309 -4310 4345 0
-4311 -4312 -4347 0
4311 4312 -4347 0
-4311 4312 4347 0
4311 -4312 4347 0
-4313 -4314 -4349 0
4313 4314 -4349 0
-4313 4314 4349 0
4313 -4314 4349 0
-4315 -4316 -4351 0
4315 4316 -4351 0
-4315 4316 4351 0
4315 -4316 4351 0
-4317 -4319 -4353 0
4317 4319 -4353 0
-4317 4319 4353 0
4317 -4319 4353 0
-4321 -4322 -4355 0
4321 4322 -4355 0
-4321 4322 4355 0
4321 -4322 4355 0
-4323 -4324 -4357 0
4323 4324 -4357 0
-4323 4324 4357 0
4323 -4324 4357 0
-4325 -4327 -4359 0
4325 4327 -4359 0
-4325 4327 4359 0
4325 -4327 4359 0
-4329 -4331 -4361 0
4329 4331 -4361 0
-4329 4331 4361 0
4329 -4331 4361 0
-4333 -4335 -4363 0
4333 4335 -4363 0
-4333 4335 4363 0
4333 -4335 4363 0
-4337 -4339 -4365 0
4337 4339 -4365 0
-4337 4339 4365 0
4337 -4339 4365 0
-4341 -4343 -4367 0
4341 4343 -4367 0
-4341 4343 4367 0
4341 -4343 4367 0
-4345 -4347 -4370 0
4345 4347 -4370 0
-4345 4347 4370 0
4345 -4347 4370 0
-4349 -4351 -4371 0
4349 4351 -4371 0
-4349 4351 4371 0
4349 -4351 4371 0
-4353 -4355 -4373 0
4353 4355 -4373 0
-4353 4355 4373 0
4353 -4355 4373 0
-4357 -4359 -4375 0
4357 4359 -4375 0
-4357 4359 4375 0
4357 -4359 4375 0
-4361 -4363 -4377 0
4361 4363 -4377 0
-4361 4363 4377 0
4361 -4363 4377 0
-4365 -4367 -4379 0
4365 4367 -4379 0
-4365 4367 4379 0
4365 -4367 4379 0
-4369 -4370 -4381 0
4369 4370 -4381 0
-4369 4370 4381 0
4369 -4370 4381 0
-4371 -4373 -4383 0
4371 4373 -4383 0
-4371 4373 4383 0
4371 -4373 4383 0
-4375 -4377 -4385 0
4375 4377 -4385 0
-4375 4377 4385 0
4375 -4377 4385 0
-4379 -4381 -4387 0
4379 4381 -4387 0
-4379 4381 4387 0
4379 -4381 4387 0
-4383 -4385 -4387 0
4383 4385 -4387 0
-4383 4385 4387 0
4383 -4385 4387 0
-4318 -4320 -4392 0
4318 4320 -4392 0
-4318 4320 4392 0
4318 -4320 4392 0
-4326 -4328 -4430 0
4326 4328 -4430 0
-4326 4328 4430 0
4326 -4328 4430 0
-4330 -4332 -4395 0
4330 4332 -4395 0
-4330 4332 4395 0
4330 -4332 4395 0
-4334 -4336 -4397 0
4334 4336 -4397 0
-4334 4336 4397 0
4334 -4336 4397 0
-4338 -4340 -4399 0
4338 4340 -4399 0
-4338 4340 4399 0
4338 -4340 4399 0
-4342 -4344 -4401 0
4342 4344 -4401 0
-4342 4344 4401 0
4342 -4344 4401 0
-4346 -4348 -4403 0
4346 4348 -4403 0
-4346 4348 4403 0
4346 -4348 4403 0
-4350 -4352 -4405 0
4350 4352 -4405 0
-4350 4352 4405 0
4350 -4352 4405 0
-4354 -4356 -4407 0
4354 4356 -4407 0
-4354 4356 4407 0
4354 -4356 4407 0
-4358 -4360 -4409 0
4358 4360 -4409 0
-4358 4360 4409 0
4358 -4360 4409 0
-4362 -4364 -4411 0
4362 4364 -4411 0
-4362 4364 4411 0
4362 -4364 4411 0
-4366 -4368 -4413 0
4366 4368 -4413 0
-4366 4368 4413 0
4366 -4368 4413 0
-4372 -4374 -4416 0
4372 4374 -4416 0
-4372 4374 4416 0
4372 -4374 4416 0
-4376 -4378 -4417 0
4376 4378 -4417 0
-4376 4378 4417 0
4376 -4378 4417 0
-4380 -4382 -4419 0
4380 4382 -4419 0
-4380 4382 4419 0
4380 -4382 4419 0
-4384 -4386 -4421 0
4384 4386 -4421 0
-4384 4386 4421 0
4384 -4386 4421 0
-4388 -4389 -4423 0
4388 4389 -4423 0
-4388 4389 4423 0
4388 -4389 4423 0
-4390 -4391 -4426 0
4390 4391 -4426 0
-4390 4391 4426 0
4390 -4391 4426 0
-4392 -4393 -4428 0
4392 4393 -4428 0
-4392 4393 4428 0
4392 -4393 4428 0
-4395 -4397 -4431 0
4395 4397 -4431 0
-4395 4397 4431 0
4395 -4397 4431 0
-4399 -4401 -4432 0
4399 4401 -4432 0
-4399 4401 4432 0
4399 -4401 4432 0
-4402 -4403 -4434 0
4402 4403 -4434 0
-4402 4403 4434 0
4402 -4403 4434 0
-4405 -4407 -4436 0
4405 4407 -4436 0
-4405 4407 4436 0
4405 -4407 4436 0
-4409 -4411 -4438 0
4409 4411 -4438 0
-4409 4411 4438 0
4409 -4411 4438 0
-4413 -4415 -4440 0
4413 4415 -4440 0
-4413 4415 4440 0
4413 -4415 4440 0
-4416 -4417 -4442 0
4416 4417 -4442 0
-4416 4417 4442 0
4416 -4417 4442 0
-4419 -4421 -4444 0
4419 4421 -4444 0
-4419 4421 4444 0
4419 -4421 4444 0
-4387 -4423 -4446 0
4387 4423 -4446 0
4387 -4423 4446 0
-4387 4423 4446 0
-4425 -4426 -4448 0
4425 4426 -4448 0
-4425 4426 4448 0
4425 -4426 4448 0
-4428 -4430 -4450 0
4428 4430 -4450 0
-4428 4430 4450 0
4428 -4430 4450 0
-4431 -4432 -4452 0
4431 4432 -4452 0
-4431 4432 4452 0
4431 -4432 4452 0
-4434 -4436 -4454 0
4434 4436 -4454 0
-4434 4436 4454 0
4434 -4436 4454 0
-4438 -4440 -4456 0
4438 4440 -4456 0
-4438 4440 4456 0
4438 -4440 4456 0
-4442 -4444 -4458 0
4442 4444 -4458 0
-4442 4444 4458 0
4442 -4444 4458 0
-4446 -4448 -4460 0
4446 4448 -4460 0
-4446 4448 4460 0
4446 -4448 4460 0
-4450 -4452 -4462 0
4450 4452 -4462 0
-4450 4452 4462 0
4450 -4452 4462 0
-4454 -4456 -4464 0
4454 4456 -4464 0
-4454 4456 4464 0
4454 -4456 4464 0
-4458 -4460 -4466 0
4458 4460 -4466 0
-4458 4460 4466 0
4458 -4460 4466 0
-4462 -4464 -4466 0
4462 4464 -4466 0
-4462 4464 4466 0
4462 -4464 4466 0
-4394 -4396 -4470 0
4394 4396 -4470 0
-4394 4396 4470 0
4394 -4396 4470 0
-4398 -4400 -4472 0
4398 4400 -4472 0
-4398 4400 4472 0
4398 -4400 4472 0
-4404 -4406 -4475 0
4404 4406 -4475 0
-4404 4406 4475 0
4404 -4406 4475 0
-4408 -4410 -4476 0
4408 4410 -4476 0
-4408 4410 4476 0
4408 -4410 4476 0
-4412 -4414 -4478 0
4412 4414 -4478 0
-4412 4414 4478 0
4412 -4414 4478 0
-4418 -4420 -4481 0
4418 4420 -4481 0
-4418 4420 4481 0
4418 -4420 4481 0
-4422 -4424 -4512 0
4422 4424 -4512 0
-4422 4424 4512 0
4422 -4424 4512 0
-4427 -4429 -4482 0
4427 4429 -4482 0
-4427 4429 4482 0
4427 -4429 4482 0
-4433 -4435 -4484 0
4433 4435 -4484 0
-4433 4435 4484 0
4433 -4435 4484 0
-4437 -4439 -4486 0
4437 4439 -4486 0
-4437 4439 4486 0
4437 -4439 4486 0
-4441 -4443 -4488 0
4441 4443 -4488 0
-4441 4443 4488 0
4441 -4443 4488 0
-4445 -4447 -4490 0
4445 4447 -4490 0
-4445 4447 4490 0
4445 -4447 4490 0
-4449 -4451 -4492 0
4449 4451 -4492 0
-4449 4451 4492 0
4449 -4451 4492 0
-4453 -4455 -4494 0
4453 4455 -4494 0
-4453 4455 4494 0
4453 -4455 4494 0
-4457 -4459 -4496 0
4457 4459 -4496 0
-4457 4459 4496 0
4457 -4459 4496 0
-4461 -4463 -4498 0
4461 4463 -4498 0
-4461 4463 4498 0
4461 -4463 4498 0
-4465 -4467 -4500 0
4465 4467 -4500 0
-4465 4467 4500 0
4465 -4467 4500 0
-4466 -4468 -4502 0
4466 4468 -4502 0
4466 -4468 4502 0
-4466 4468 4502 0
-4470 -4472 -4504 0
4470 4472 -4504 0
-4470 4472 4504 0
4470 -4472 4504 0
-4474 -4475 -4506 0
4474 4475 -4506 0
-4474 4475 4506 0
4474 -4475 4506 0
-4476 -4478 -4508 0
4476 4478 -4508 0
-4476 4478 4508 0
4476 -4478 4508 0
-4480 -4481 -4510 0
4480 4481 -4510 0
-4480 4481 4510 0
4480 -4481 4510 0
-4482 -4483 -4513 0
4482 4483 -4513 0
-4482 4483 4513 0
4482 -4483 4513 0
-4484 -4486 -4514 0
4484 4486 -4514 0
-4484 4486 4514 0
4484 -4486 4514 0
-4488 -4490 -4516 0
4488 4490 -4516 0
-4488 4490 4516 0
4488 -4490 4516 0
-4492 -4494 -4518 0
4492 4494 -4518 0
-4492 4494 4518 0
4492 -4494 4518 0
-4496 -4498 -4520 0
4496 4498 -4520 0
-4496 4498 4520 0
4496 -4498 4520 0
-4500 -4502 -4522 0
4500 4502 -4522 0
-4500 4502 4522 0
4500 -4502 4522 0
-4504 -4506 -4523 0
4504 4506 -4523 0
-4504 4506 4523 0
4504 -4506 4523 0
-4508 -4510 -4525 0
4508 4510 -4525 0
-4508 4510 4525 0
4508 -4510 4525 0
-4512 -4513 -4527 0
4512 4513 -4527 0
-4512 4513 4527 0
4512 -4513 4527 0
-4514 -4516 -4529 0
4514 4516 -4529 0
-4514 4516 4529 0
4514 -4516 4529 0
-4518 -4520 -4531 0
4518 4520 -4531 0
-4518 4520 4531 0
4518 -4520 4531 0
-4469 -4522 -4533 0
4469 4522 -4533 0
4469 -4522 4533 0
-4469 4522 4533 0
-4523 -4525 -4535 0
4523 4525 -4535 0
-4523 4525 4535 0
4523 -4525 4535 0
-4527 -4529 -4537 0
4527 4529 -4537 0
-4527 4529 4537 0
4527 -4529 4537 0
-4531 -4533 -4539 0
4531 4533 -4539 0
-4531 4533 4539 0
4531 -4533 4539 0
-4535 -4537 -4539 0
4535 4537 -4539 0
-4535 4537 4539 0
4535 -4537 4539 0
-4471 -4473 -4572 0
4471 4473 -4572 0
-4471 4473 4572 0
4471 -4473 4572 0
-4477 -4479 -4543 0
4477 4479 -4543 0
-4477 4479 4543 0
4477 -4479 4543 0
-4485 -4487 -4547 0
4485 4487 -4547 0
-4485 4487 4547 0
4485 -4487 4547 0
-4489 -4491 -4549 0
4489 4491 -4549 0
-4489 4491 4549 0
4489 -4491 4549 0
-4493 -4495 -4551 0
4493 4495 -4551 0
-4493 4495 4551 0
4493 -4495 4551 0
-4497 -4499 -4553 0
4497 4499 -4553 0
-4497 4499 4553 0
4497 -4499 4553 0
-4501 -4503 -4555 0
4501 4503 -4555 0
-4501 4503 4555 0
4501 -4503 4555 0
-4505 -4507 -4582 0
4505 4507 -4582 0
-4505 4507 4582 0
4505 -4507 4582 0
-4509 -4511 -4557 0
4509 4511 -4557 0
-4509 4511 4557 0
4509 -4511 4557 0
-4515 -4517 -4560 0
4515 4517 -4560 0
-4515 4517 4560 0
4515 -4517 4560 0
-4519 -4521 -4561 0
4519 4521 -4561 0
-4519 4521 4561 0
4519 -4521 4561 0
-4524 -4526 -4563 0
4524 4526 -4563 0
-4524 4526 4563 0
4524 -4526 4563 0
-4528 -4530 -4565 0
4528 4530 -4565 0
-4528 4530 4565 0
4528 -4530 4565 0
-4532 -4534 -4567 0
4532 4534 -4567 0
-4532 4534 4567 0
4532 -4534 4567 0
-4536 -4538 -4569 0
4536 4538 -4569 0
-4536 4538 4569 0
4536 -4538 4569 0
-4540 -4541 -4571 0
4540 4541 -4571 0
-4540 4541 4571 0
4540 -4541 4571 0
-4542 -4543 -4573 0
4542 4543 -4573 0
-4542 4543 4573 0
4542 -4543 4573 0
-4544 -4545 -4574 0
4544 4545 -4574 0
-4544 4545 4574 0
4544 -4545 4574 0
-4546 -4547 -4576 0
4546 4547 -4576 0
-4546 4547 4576 0
4546 -4547 4576 0
-4549 -4551 -4578 0
4549 4551 -4578 0
-4549 4551 4578 0
4549 -4551 4578 0
-4553 -4555 -4580 0
4553 4555 -4580 0
-4553 4555 4580 0
4553 -4555 4580 0
-4557 -4559 -4583 0
4557 4559 -4583 0
-4557 4559 4583 0
4557 -4559 4583 0
-4560 -4561 -4584 0
4560 4561 -4584 0
-4560 4561 4584 0
4560 -4561 4584 0
-4562 -4563 -4586 0
4562 4563 -4586 0
-4562 4563 4586 0
4562 -4563 4586 0
-4565 -4567 -4588 0
4565 4567 -4588 0
-4565 4567 4588 0
4565 -4567 4588 0
-4569 -4571 -4590 0
4569 4571 -4590 0
-4569 4571 4590 0
4569 -4571 4590 0
-4539 -4572 -4592 0
4539 4572 -4592 0
-4539 4572 4592 0
4539 -4572 4592 0
-4573 -4574 -4594 0
4573 4574 -4594 0
-4573 4574 4594 0
4573 -4574 4594 0
-4576 -4578 -4596 0
4576 4578 -4596 0
-4576 4578 4596 0
4576 -4578 4596 0
-4580 -4582 -4598 0
4580 4582 -4598 0
-4580 4582 4598 0
4580 -4582 4598 0
-4583 -4584 -4600 0
4583 4584 -4600 0
-4583 4584 4600 0
4583 -4584 4600 0
-4586 -4588 -4602 0
4586 4588 -4602 0
-4586 4588 4602 0
4586 -4588 4602 0
-4590 -4592 -4604 0
4590 4592 -4604 0
-4590 4592 4604 0
4590 -4592 4604 0
-4594 -4596 -4606 0
4594 4596 -4606 0
-4594 4596 4606 0
4594 -4596 4606 0
-4598 -4600 -4608 0
4598 4600 -4608 0
-4598 4600 4608 0
4598 -4600 4608 0
-4602 -4604 -4610 0
4602 4604 -4610 0
-4602 4604 4610 0
4602 -4604 4610 0
-4606 -4608 -4610 0
4606 4608 -4610 0
-4606 4608 4610 0
4606 -4608 4610 0
-4548 -4550 -4614 0
4548 4550 -4614 0
-4548 4550 4614 0
4548 -4550 4614 0
-4552 -4554 -4616 0
4552 4554 -4616 0
-4552 4554 4616 0
4552 -4554 4616 0
-4556 -4558 -4619 0
4556 4558 -4619 0
-4556 4558 4619 0
4556 -4558 4619 0
-4564 -4566 -4622 0
4564 4566 -4622 0
-4564 4566 4622 0
4564 -4566 4622 0
-4568 -4570 -4624 0
4568 4570 -4624 0
-4568 4570 4624 0
4568 -4570 4624 0
-4575 -4577 -4628 0
4575 4577 -4628 0
-4575 4577 4628 0
4575 -4577 4628 0
-4579 -4581 -4630 0
4579 4581 -4630 0
-4579 4581 4630 0
4579 -4581 4630 0
-4585 -4587 -4633 0
4585 4587 -4633 0
-4585 4587 4633 0
4585 -4587 4633 0
-4589 -4591 -4634 0
4589 4591 -4634 0
-4589 4591 4634 0
4589 -4591 4634 0
-4593 -4595 -4636 0
4593 4595 -4636 0
-4593 4595 4636 0
4593 -4595 4636 0
-4597 -4599 -4638 0
4597 4599 -4638 0
-4597 4599 4638 0
4597 -4599 4638 0
-4601 -4603 -4640 0
4601 4603 -4640 0
-4601 4603 4640 0
4601 -4603 4640 0
-4605 -4607 -4642 0
4605 4607 -4642 0
-4605 4607 4642 0
4605 -4607 4642 0
-4609 -4611 -4644 0
4609 4611 -4644 0
-4609 4611 4644 0
4609 -4611 4644 0
-4610 -4612 -4646 0
4610 4612 -4646 0
4610 -4612 4646 0
-4610 4612 4646 0
-4614 -4616 -4648 0
4614 4616 -4648 0
-4614 4616 4648 0
4614 -4616 4648 0
-4618 -4619 -4649 0
4618 4619 -4649 0
-4618 4619 4649 0
4618 -4619 4649 0
-4620 -4621 -4651 0
4620 4621 -4651 0
-4620 4621 4651 0
4620 -4621 4651 0
-4622 -4624 -4653 0
4622 4624 -4653 0
-4622 4624 4653 0
4622 -4624 4653 0
-4626 -4627 -4655 0
4626 4627 -4655 0
-4626 4627 4655 0
4626 -4627 4655 0
-4628 -4630 -4657 0
4628 4630 -4657 0
-4628 4630 4657 0
4628 -4630 4657 0
-4632 -4633 -4659 0
4632 4633 -4659 0
-4632 4633 4659 0
4632 -4633 4659 0
-4634 -4636 -4661 0
4634 4636 -4661 0
-4634 4636 4661 0
4634 -4636 4661 0
-4638 -4640 -4663 0
4638 4640 -4663 0
-4638 4640 4663 0
4638 -4640 4663 0
-4642 -4644 -4665 0
4642 4644 -4665 0
-4642 4644 4665 0
4642 -4644 4665 0
-4646 -4647 -4667 0
4646 4647 -4667 0
-4646 4647 4667 0
4646 -4647 4667 0
-4613 -4648 -4669 0
4613 4648 -4669 0
-4613 4648 4669 0
4613 -4648 4669 0
-4649 -4651 -4671 0
4649 4651 -4671 0
-4649 4651 4671 0
4649 -4651 4671 0
-4653 -4655 -4673 0
4653 4655 -4673 0
-4653 4655 4673 0
4653 -4655 4673 0
-4657 -4659 -4675 0
4657 4659 -4675 0
-4657 4659 4675 0
4657 -4659 4675 0
-4661 -4663 -4677 0
4661 4663 -4677 0
-4661 4663 4677 0
4661 -4663 4677 0
-4665 -4667 -4679 0
4665 4667 -4679 0
-4665 4667 4679 0
4665 -4667 4679 0
-4669 -4671 -4681 0
4669 4671 -4681 0
-4669 4671 4681 0
4669 -4671 4681 0
-4673 -4675 -4683 0
4673 4675 -4683 0
-4673 4675 4683 0
4673 -4675 4683 0
-4677 -4679 -4685 0
4677 4679 -4685 0
-4677 4679 4685 0
4677 -4679 4685 0
-4681 -4683 -4685 0
4681 4683 -4685 0
-4681 4683 4685 0
4681 -4683 4685 0
-4615 -4617 -4718 0
4615 4617 -4718 0
-4615 4617 4718 0
4615 -4617 4718 0
-4623 -4625 -4719 0
4623 4625 -4719 0
-4623 4625 4719 0
4623 -4625 4719 0
-4629 -4631 -4689 0
4629 4631 -4689 0
-4629 4631 4689 0
4629 -4631 4689 0
-4635 -4637 -4691 0
4635 4637 -4691 0
-4635 4637 4691 0
4635 -4637 4691 0
-4639 -4641 -4692 0
4639 4641 -4692 0
-4639 4641 4692 0
4639 -4641 4692 0
-4643 -4645 -4694 0
4643 4645 -4694 0
-4643 4645 4694 0
4643 -4645 4694 0
-4650 -4652 -4698 0
4650 4652 -4698 0
-4650 4652 4698 0
4650 -4652 4698 0
-4654 -4656 -4700 0
4654 4656 -4700 0
-4654 4656 4700 0
4654 -4656 4700 0
-4658 -4660 -4702 0
4658 4660 -4702 0
-4658 4660 4702 0
4658 -4660 4702 0
-4662 -4664 -4704 0
4662 4664 -4704 0
-4662 4664 4704 0
4662 -4664 4704 0
-4666 -4668 -4706 0
4666 4668 -4706 0
-4666 4668 4706 0
4666 -4668 4706 0
-4670 -4672 -4708 0
4670 4672 -4708 0
-4670 4672 4708 0
4670 -4672 4708 0
-4674 -4676 -4710 0
4674 4676 -4710 0
-4674 4676 4710 0
4674 -4676 4710 0
-4678 -4680 -4712 0
4678 4680 -4712 0
-4678 4680 4712 0
4678 -4680 4712 0
-4682 -4684 -4714 0
4682 4684 -4714 0
-4682 4684 4714 0
4682 -4684 4714 0
-4686 -4687 -4716 0
4686 4687 -4716 0
-4686 4687 4716 0
4686 -4687 4716 0
-4689 -4690 -4720 0
4689 4690 -4720 0
-4689 4690 4720 0
4689 -4690 4720 0
-4691 -4692 -4722 0
4691 4692 -4722 0
-4691 4692 4722 0
4691 -4692 4722 0
-4694 -4696 -4724 0
4694 4696 -4724 0
-4694 4696 4724 0
4694 -4696 4724 0
-4697 -4698 -4726 0
4697 4698 -4726 0
-4697 4698 4726 0
4697 -4698 4726 0
-4700 -4702 -4728 0
4700 4702 -4728 0
-4700 4702 4728 0
4700 -4702 4728 0
-4704 -4706 -4730 0
4704 4706 -4730 0
-4704 4706 4730 0
4704 -4706 4730 0
-4708 -4710 -4732 0
4708 4710 -4732 0
-4708 4710 4732 0
4708 -4710 4732 0
-4712 -4714 -4734 0
4712 4714 -4734 0
-4712 4714 4734 0
4712 -4714 4734 0
-4685 -4716 -4736 0
4685 4716 -4736 0
4685 -4716 4736 0
-4685 4716 4736 0
-4688 -4718 -4738 0
4688 4718 -4738 0
4688 -4718 4738 0
-4688 4718 4738 0
-4719 -4720 -4740 0
4719 4720 -4740 0
-4719 4720 4740 0
4719 -4720 4740 0
-4722 -4724 -4742 0
4722 4724 -4742 0
-4722 4724 4742 0
4722 -4724 4742 0
-4726 -4728 -4744 0
4726 4728 -4744 0
-4726 4728 4744 0
4726 -4728 4744 0
-4730 -4732 -4746 0
4730 4732 -4746 0
-4730 4732 4746 0
4730 -4732 4746 0
-4734 -4736 -4748 0
4734 4736 -4748 0
-4734 4736 4748 0
4734 -4736 4748 0
-4738 -4740 -4750 0
4738 4740 -4750 0
-4738 4740 4750 0
4738 -4740 4750 0
-4742 -4744 -4752 0
4742 4744 -4752 0
-4742 4744 4752 0
4742 -4744 4752 0
-4746 -4748 -4754 0
4746 4748 -4754 0
-4746 4748 4754 0
4746 -4748 4754 0
-4750 -4752 -4754 0
4750 4752 -4754 0
-4750 4752 4754 0
4750 -4752 4754 0
-4693 -4695 -4761 0
4693 4695 -4761 0
-4693 4695 4761 0
4693 -4695 4761 0
-4699 -4701 -4792 0
4699 4701 -4792 0
-4699 4701 4792 0
4699 -4701 4792 0
-4703 -4705 -4762 0
4703 4705 -4762 0
-4703 4705 4762 0
4703 -4705 4762 0
-4707 -4709 -4764 0
4707 4709 -4764 0
-4707 4709 4764 0
4707 -4709 4764 0
-4711 -4713 -4766 0
4711 4713 -4766 0
-4711 4713 4766 0
4711 -4713 4766 0
-4715 -4717 -4768 0
4715 4717 -4768 0
-4715 4717 4768 0
4715 -4717 4768 0
-4721 -4723 -4770 0
4721 4723 -4770 0
-4721 4723 4770 0
4721 -4723 4770 0
-4725 -4727 -4772 0
4725 4727 -4772 0
-4725 4727 4772 0
4725 -4727 4772 0
-4729 -4731 -4774 0
4729 4731 -4774 0
-4729 4731 4774 0
4729 -4731 4774 0
-4733 -4735 -4776 0
4733 4735 -4776 0
-4733 4735 4776 0
4733 -4735 4776 0
-4737 -4739 -4778 0
4737 4739 -4778 0
-4737 4739 4778 0
4737 -4739 4778 0
-4741 -4743 -4780 0
4741 4743 -4780 0
-4741 4743 4780 0
4741 -4743 4780 0
-4745 -4747 -4782 0
4745 4747 -4782 0
-4745 4747 4782 0
4745 -4747 4782 0
-4749 -4751 -4784 0
4749 4751 -4784 0
-4749 4751 4784 0
4749 -4751 4784 0
-4753 -4755 -4786 0
4753 4755 -4786 0
-4753 4755 4786 0
4753 -4755 4786 0
-4754 -4756 -4788 0
4754 4756 -4788 0
4754 -4756 4788 0
-4754 4756 4788 0
-4758 -4759 -4790 0
4758 4759 -4790 0
-4758 4759 4790 0
4758 -4759 4790 0
-4760 -4761 -4791 0
4760 4761 -4791 0
-4760 4761 4791 0
4760 -4761 4791 0
-4762 -4764 -4793 0
4762 4764 -4793 0
-4762 4764 4793 0
4762 -4764 4793 0
-4766 -4768 -4795 0
4766 4768 -4795 0
-4766 4768 4795 0
4766 -4768 4795 0
-4770 -4772 -4810 0
4770 4772 -4810 0
-4770 4772 4810 0
4770 -4772 4810 0
-4774 -4776 -4797 0
4774 4776 -4797 0
-4774 4776 4797 0
4774 -4776 4797 0
-4778 -4780 -4799 0
4778 4780 -4799 0
-4778 4780 4799 0
4778 -4780 4799 0
-4782 -4784 -4801 0
4782 4784 -4801 0
-4782 4784 4801 0
4782 -4784 4801 0
-4786 -4788 -4803 0
4786 4788 -4803 0
-4786 4788 4803 0
4786 -4788 4803 0
-4757 -4790 -4805 0
4757 4790 -4805 0
-4757 4790 4805 0
4757 -4790 4805 0
-4791 -4792 -4807 0
4791 4792 -4807 0
-4791 4792 4807 0
4791 -4792 4807 0
-4793 -4795 -4809 0
4793 4795 -4809 0
-4793 4795 4809 0
4793 -4795 4809 0
-4797 -4799 -4811 0
4797 4799 -4811 0
-4797 4799 4811 0
4797 -4799 4811 0
-4801 -4803 -4813 0
4801 4803 -4813 0
-4801 4803 4813 0
4801 -4803 4813 0
-4805 -4807 -4815 0
4805 4807 -4815 0
-4805 4807 4815 0
4805 -4807 4815 0
-4809 -4810 -4817 0
4809 4810 -4817 0
-4809 4810 4817 0
4809 -4810 4817 0
-4811 -4813 -4819 0
4811 4813 -4819 0
-4811 4813 4819 0
4811 -4813 4819 0
-4815 -4817 -4819 0
4815 4817 -4819 0
-4815 4817 4819 0
4815 -4817 4819 0
-4763 -4765 -4823 0
4763 4765 -4823 0
-4763 4765 4823 0
4763 -4765 4823 0
-4767 -4769 -4852 0
4767 4769 -4852 0
-4767 4769 4852 0
4767 -4769 4852 0
-4771 -4773 -4826 0
4771 4773 -4826 0
-4771 4773 4826 0
4771 -4773 4826 0
-4775 -4777 -4827 0
4775 4777 -4827 0
-4775 4777 4827 0
4775 -4777 4827 0
-4779 -4781 -4829 0
4779 4781 -4829 0
-4779 4781 4829 0
4779 -4781 4829 0
-4783 -4785 -4831 0
4783 4785 -4831 0
-4783 4785 4831 0
4783 -4785 4831 0
-4787 -4789 -4833 0
4787 4789 -4833 0
-4787 4789 4833 0
4787 -4789 4833 0
-4794 -4796 -4837 0
4794 4796 -4837 0
-4794 4796 4837 0
4794 -4796 4837 0
-4798 -4800 -4839 0
4798 4800 -4839 0
-4798 4800 4839 0
4798 -4800 4839 0
-4802 -4804 -4841 0
4802 4804 -4841 0
-4802 4804 4841 0
4802 -4804 4841 0
-4806 -4808 -4843 0
4806 4808 -4843 0
-4806 4808 4843 0
4806 -4808 4843 0
-4812 -4814 -4845 0
4812 4814 -4845 0
-4812 4814 4845 0
4812 -4814 4845 0
-4816 -4818 -4847 0
4816 4818 -4847 0
-4816 4818 4847 0
4816 -4818 4847 0
-4820 -4821 -4849 0
4820 4821 -4849 0
-4820 4821 4849 0
4820 -4821 4849 0
-4822 -4823 -4851 0
4822 4823 -4851 0
-4822 4823 4851 0
4822 -4823 4851 0
-4826 -4827 -4853 0
4826 4827 -4853 0
-4826 4827 4853 0
4826 -4827 4853 0
-4829 -4831 -4854 0
4829 4831 -4854 0
-4829 4831 4854 0
4829 -4831 4854 0
-4833 -4835 -4856 0
4833 4835 -4856 0
-4833 4835 4856 0
4833 -4835 4856 0
-4836 -4837 -4858 0
4836 4837 -4858 0
-4836 4837 4858 0
4836 -4837 4858 0
-4838 -4839 -4860 0
4838 4839 -4860 0
-4838 4839 4860 0
4838 -4839 4860 0
-4841 -4843 -4862 0
4841 4843 -4862 0
-4841 4843 4862 0
4841 -4843 4862 0
-4844 -4845 -4864 0
4844 4845 -4864 0
-4844 4845 4864 0
4844 -4845 4864 0
-4847 -4849 -4866 0
4847 4849 -4866 0
-4847 4849 4866 0
4847 -4849 4866 0
-4819 -4850 -4868 0
4819 4850 -4868 0
-4819 4850 4868 0
4819 -4850 4868 0
-4851 -4852 -4870 0
4851 4852 -4870 0
-4851 4852 4870 0
4851 -4852 4870 0
-4853 -4854 -4872 0
4853 4854 -4872 0
-4853 4854 4872 0
4853 -4854 4872 0
-4856 -4858 -4874 0
4856 4858 -4874 0
-4856 4858 4874 0
4856 -4858 4874 0
-4860 -4862 -4876 0
4860 4862 -4876 0
-4860 4862 4876 0
4860 -4862 4876 0
-4864 -4866 -4878 0
4864 4866 -4878 0
-4864 4866 4878 0
4864 -4866 4878 0
-4868 -4870 -4880 0
4868 4870 -4880 0
-4868 4870 4880 0
4868 -4870 4880 0
-4872 -4874 -4882 0
4872 4874 -4882 0
-4872 4874 4882 0
4872 -4874 4882 0
-4876 -4878 -4884 0
4876 4878 -4884 0
-4876 4878 4884 0
4876 -4878 4884 0
-4880 -4882 -4884 0
4880 4882 -4884 0
-4880 4882 4884 0
4880 -4882 4884 0
-4824 -4825 -4887 0
4824 4825 -4887 0
-4824 4825 4887 0
4824 -4825 4887 0
-4828 -4830 -4889 0
4828 4830 -4889 0
-4828 4830 4889 0
4828 -4830 4889 0
-4832 -4834 -4891 0
4832 4834 -4891 0
-4832 4834 4891 0
4832 -4834 4891 0
-4840 -4842 -4894 0
4840 4842 -4894 0
-4840 4842 4894 0
4840 -4842 4894 0
-4846 -4848 -4896 0
4846 4848 -4896 0
-4846 4848 4896 0
4846 -4848 4896 0
-4855 -4857 -4900 0
4855 4857 -4900 0
-4855 4857 4900 0
4855 -4857 4900 0
-4859 -4861 -4902 0
4859 4861 -4902 0
-4859 4861 4902 0
4859 -4861 4902 0
-4863 -4865 -4904 0
4863 4865 -4904 0
-4863 4865 4904 0
4863 -4865 4904 0
-4867 -4869 -4906 0
4867 4869 -4906 0
-4867 4869 4906 0
4867 -4869 4906 0
-4871 -4873 -4908 0
4871 4873 -4908 0
-4871 4873 4908 0
4871 -4873 4908 0
-4875 -4877 -4910 0
4875 4877 -4910 0
-4875 4877 4910 0
4875 -4877 4910 0
-4879 -4881 -4912 0
4879 4881 -4912 0
-4879 4881 4912 0
4879 -4881 4912 0
-4883 -4885 -4914 0
4883 4885 -4914 0
-4883 4885 4914 0
4883 -4885 4914 0
-4884 -4886 -4933 0
4884 4886 -4933 0
4884 -4886 4933 0
-4884 4886 4933 0
-4887 -4888 -4916 0
4887 4888 -4916 0
-4887 4888 4916 0
4887 -4888 4916 0
-4889 -4891 -4918 0
4889 4891 -4918 0
-4889 4891 4918 0
4889 -4891 4918 0
-4894 -4895 -4920 0
4894 4895 -4920 0
-4894 4895 4920 0
4894 -4895 4920 0
-4896 -4897 -4921 0
4896 4897 -4921 0
-4896 4897 4921 0
4896 -4897 4921 0
-4898 -4899 -4923 0
4898 4899 -4923 0
-4898 4899 4923 0
4898 -4899 4923 0
-4900 -4902 -4925 0
4900 4902 -4925 0
-4900 4902 4925 0
4900 -4902 4925 0
-4904 -4906 -4927 0
4904 4906 -4927 0
-4904 4906 4927 0
4904 -4906 4927 0
-4908 -4910 -4929 0
4908 4910 -4929 0
-4908 4910 4929 0
4908 -4910 4929 0
-4912 -4914 -4931 0
4912 4914 -4931 0
-4912 4914 4931 0
4912 -4914 4931 0
-4916 -4918 -4934 0
4916 4918 -4934 0
-4916 4918 4934 0
4916 -4918 4934 0
-4893 -4920 -4935 0
4893 4920 -4935 0
-4893 4920 4935 0
4893 -4920 4935 0
-4921 -4923 -4937 0
4921 4923 -4937 0
-4921 4923 4937 0
4921 -4923 4937 0
-4925 -4927 -4939 0
4925 4927 -4939 0
-4925 4927 4939 0
4925 -4927 4939 0
-4929 -4931 -4941 0
4929 4931 -4941 0
-4929 4931 4941 0
4929 -4931 4941 0
-4933 -4934 -4943 0
4933 4934 -4943 0
-4933 4934 4943 0
4933 -4934 4943 0
-4935 -4937 -4945 0
4935 4937 -4945 0
-4935 4937 4945 0
4935 -4937 4945 0
-4939 -4941 -4947 0
4939 4941 -4947 0
-4939 4941 4947 0
4939 -4941 4947 0
-4943 -4945 -4947 0
4943 4945 -4947 0
-4943 4945 4947 0
4943 -4945 4947 0
-4890 -4892 -4951 0
4890 4892 -4951 0
-4890 4892 4951 0
4890 -4892 4951 0
-4901 -4903 -4953 0
4901 4903 -4953 0
-4901 4903 4953 0
4901 -4903 4953 0
-4905 -4907 -4954 0
4905 4907 -4954 0
-4905 4907 4954 0
4905 -4907 4954 0
-4909 -4911 -4956 0
4909 4911 -4956 0
-4909 4911 4956 0
4909 -4911 4956 0
-4913 -4915 -4958 0
4913 4915 -4958 0
-4913 4915 4958 0
4913 -4915 4958 0
-4917 -4919 -4960 0
4917 4919 -4960 0
-4917 4919 4960 0
4917 -4919 4960 0
-4922 -4924 -4962 0
4922 4924 -4962 0
-4922 4924 4962 0
4922 -4924 4962 0
-4926 -4928 -4964 0
4926 4928 -4964 0
-4926 4928 4964 0
4926 -4928 4964 0
-4930 -4932 -4966 0
4930 4932 -4966 0
-4930 4932 4966 0
4930 -4932 4966 0
-4936 -4938 -4968 0
4936 4938 -4968 0
-4936 4938 4968 0
4936 -4938 4968 0
-4940 -4942 -4970 0
4940 4942 -4970 0
-4940 4942 4970 0
4940 -4942 4970 0
-4944 -4946 -4972 0
4944 4946 -4972 0
-4944 4946 4972 0
4944 -4946 4972 0
-4948 -4949 -4974 0
4948 4949 -4974 0
-4948 4949 4974 0
4948 -4949 4974 0
-4950 -4951 -4976 0
4950 4951 -4976 0
-4950 4951 4976 0
4950 -4951 4976 0
-4953 -4954 -4978 0
4953 4954 -4978 0
-4953 4954 4978 0
4953 -4954 4978 0
-4956 -4958 -4980 0
4956 4958 -4980 0
-4956 4958 4980 0
4956 -4958 4980 0
-4959 -4960 -4982 0
4959 4960 -4982 0
-4959 4960 4982 0
4959 -4960 4982 0
-4961 -4962 -4984 0
4961 4962 -4984 0
-4961 4962 4984 0
4961 -4962 4984 0
-4964 -4966 -4986 0
4964 4966 -4986 0
-4964 4966 4986 0
4964 -4966 4986 0
-4967 -4968 -4988 0
4967 4968 -4988 0
-4967 4968 4988 0
4967 -4968 4988 0
-4970 -4972 -4990 0
4970 4972 -4990 0
-4970 4972 4990 0
4970 -4972 4990 0
-4947 -4974 -4992 0
4947 4974 -4992 0
4947 -4974 4992 0
-4947 4974 4992 0
-4976 -4977 -4994 0
4976 4977 -4994 0
-4976 4977 4994 0
4976 -4977 4994 0
-4952 -4978 -4996 0
4952 4978 -4996 0
-4952 4978 4996 0
4952 -4978 4996 0
-4980 -4982 -4998 0
4980 4982 -4998 0
-4980 4982 4998 0
4980 -4982 4998 0
-4984 -4986 -5000 0
4984 4986 -5000 0
-4984 4986 5000 0
4984 -4986 5000 0
-4988 -4990 -5002 0
4988 4990 -5002 0
-4988 4990 5002 0
4988 -4990 5002 0
-4992 -4994 -5004 0
4992 4994 -5004 0
-4992 4994 5004 0
4992 -4994 5004 0
-4996 -4998 -5006 0
4996 4998 -5006 0
-4996 4998 5006 0
4996 -4998 5006 0
-5000 -5002 -5008 0
5000 5002 -5008 0
-5000 5002 5008 0
5000 -5002 5008 0
-5004 -5006 -5008 0
5004 5006 -5008 0
-5004 5006 5008 0
5004 -5006 5008 0
-4955 -4957 -5013 0
4955 4957 -5013 0
-4955 4957 5013 0
4955 -4957 5013 0
-4963 -4965 -5016 0
4963 4965 -5016 0
-4963 4965 5016 0
4963 -4965 5016 0
-4969 -4971 -5018 0
4969 4971 -5018 0
-4969 4971 5018 0
4969 -4971 5018 0
-4973 -4975 -5019 0
4973 4975 -5019 0
-4973 4975 5019 0
4973 -4975 5019 0
-4979 -4981 -5045 0
4979 4981 -5045 0
-4979 4981 5045 0
4979 -4981 5045 0
-4983 -4985 -5021 0
4983 4985 -5021 0
-4983 4985 5021 0
4983 -4985 5021 0
-4987 -4989 -5023 0
4987 4989 -5023 0
-4987 4989 5023 0
4987 -4989 5023 0
-4991 -4993 -5025 0
4991 4993 -5025 0
-4991 4993 5025 0
4991 -4993 5025 0
-4995 -4997 -5027 0
4995 4997 -5027 0
-4995 4997 5027 0
4995 -4997 5027 0
-4999 -5001 -5029 0
4999 5001 -5029 0
-4999 5001 5029 0
4999 -5001 5029 0
-5003 -5005 -5031 0
5003 5005 -5031 0
-5003 5005 5031 0
5003 -5005 5031 0
-5007 -5009 -5033 0
5007 5009 -5033 0
-5007 5009 5033 0
5007 -5009 5033 0
-5008 -5010 -5035 0
5008 5010 -5035 0
5008 -5010 5035 0
-5008 5010 5035 0
-5013 -5014 -5037 0
5013 5014 -5037 0
-5013 5014 5037 0
5013 -5014 5037 0
-5015 -5016 -5039 0
5015 5016 -5039 0
-5015 5016 5039 0
5015 -5016 5039 0
-5017 -5018 -5041 0
5017 5018 -5041 0
-5017 5018 5041 0
5017 -5018 5041 0
-5019 -5020 -5043 0
5019 5020 -5043 0
-5019 5020 5043 0
5019 -5020 5043 0
-5021 -5023 -5046 0
5021 5023 -5046 0
-5021 5023 5046 0
5021 -5023 5046 0
-5025 -5027 -5047 0
5025 5027 -5047 0
-5025 5027 5047 0
5025 -5027 5047 0
-5029 -5031 -5049 0
5029 5031 -5049 0
-5029 5031 5049 0
5029 -5031 5049 0
-5033 -5035 -5051 0
5033 5035 -5051 0
-5033 5035 5051 0
5033 -5035 5051 0
-5011 -5012 -5053 0
5011 5012 -5053 0
-5011 5012 5053 0
5011 -5012 5053 0
-5037 -5039 -5055 0
5037 5039 -5055 0
-5037 5039 5055 0
5037 -5039 5055 0
-5041 -5043 -5057 0
5041 5043 -5057 0
-5041 5043 5057 0
5041 -5043 5057 0
-5045 -5046 -5059 0
5045 5046 -5059 0
-5045 5046 5059 0
5045 -5046 5059 0
-5047 -5049 -5061 0
5047 5049 -5061 0
-5047 5049 5061 0
5047 -5049 5061 0
-5051 -5053 -5063 0
5051 5053 -5063 0
-5051 5053 5063 0
5051 -5053 5063 0
-5055 -5057 -5065 0
5055 5057 -5065 0
-5055 5057 5065 0
5055 -5057 5065 0
-5059 -5061 -5067 0
5059 5061 -5067 0
-5059 5061 5067 0
5059 -5061 5067 0
-5063 -5065 -5067 0
5063 5065 -5067 0
-5063 5065 5067 0
5063 -5065 5067 0
-5022 -5024 -5075 0
5022 5024 -5075 0
-5022 5024 5075 0
5022 -5024 5075 0
-5026 -5028 -5076 0
5026 5028 -5076 0
-5026 5028 5076 0
5026 -5028 5076 0
-5030 -5032 -5078 0
5030 5032 -5078 0
-5030 5032 5078 0
5030 -5032 5078 0
-5034 -5036 -5080 0
5034 5036 -5080 0
-5034 5036 5080 0
5034 -5036 5080 0
-5038 -5040 -5101 0
5038 5040 -5101 0
-5038 5040 5101 0
5038 -5040 5101 0
-5042 -5044 -5082 0
5042 5044 -5082 0
-5042 5044 5082 0
5042 -5044 5082 0
-5048 -5050 -5085 0
5048 5050 -5085 0
-5048 5050 5085 0
5048 -5050 5085 0
-5052 -5054 -5086 0
5052 5054 -5086 0
-5052 5054 5086 0
5052 -5054 5086 0
-5056 -5058 -5088 0
5056 5058 -5088 0
-5056 5058 5088 0
5056 -5058 5088 0
-5060 -5062 -5090 0
5060 5062 -5090 0
-5060 5062 5090 0
5060 -5062 5090 0
-5064 -5066 -5092 0
5064 5066 -5092 0
-5064 5066 5092 0
5064 -5066 5092 0
-5068 -5069 -5094 0
5068 5069 -5094 0
-5068 5069 5094 0
5068 -5069 5094 0
-5071 -5072 -5095 0
5071 5072 -5095 0
-5071 5072 5095 0
5071 -5072 5095 0
-5073 -5074 -5096 0
5073 5074 -5096 0
-5073 5074 5096 0
5073 -5074 5096 0
-5075 -5076 -5098 0
5075 5076 -5098 0
-5075 5076 5098 0
5075 -5076 5098 0
-5078 -5080 -5100 0
5078 5080 -5100 0
-5078 5080 5100 0
5078 -5080 5100 0
-5082 -5084 -5102 0
5082 5084 -5102 0
-5082 5084 5102 0
5082 -5084 5102 0
-5085 -5086 -5104 0
5085 5086 -5104 0
-5085 5086 5104 0
5085 -5086 5104 0
-5088 -5090 -5106 0
5088 5090 -5106 0
-5088 5090 5106 0
5088 -5090 5106 0
-5092 -5094 -5108 0
5092 5094 -5108 0
-5092 5094 5108 0
5092 -5094 5108 0
-5067 -5070 -5110 0
5067 5070 -5110 0
-5067 5070 5110 0
5067 -5070 5110 0
-5095 -5096 -5112 0
5095 5096 -5112 0
-5095 5096 5112 0
5095 -5096 5112 0
-5098 -5100 -5114 0
5098 5100 -5114 0
-5098 5100 5114 0
5098 -5100 5114 0
-5101 -5102 -5116 0
5101 5102 -5116 0
-5101 5102 5116 0
5101 -5102 5116 0
-5104 -5106 -5118 0
5104 5106 -5118 0
-5104 5106 5118 0
5104 -5106 5118 0
-5108 -5110 -5120 0
5108 5110 -5120 0
-5108 5110 5120 0
5108 -5110 5120 0
-5112 -5114 -5122 0
5112 5114 -5122 0
-5112 5114 5122 0
5112 -5114 5122 0
-5116 -5118 -5124 0
5116 5118 -5124 0
-5116 5118 5124 0
5116 -5118 5124 0
-5120 -5122 -5124 0
5120 5122 -5124 0
-5120 5122 5124 0
5120 -5122 5124 0
-5077 -5079 -5128 0
5077 5079 -5128 0
-5077 5079 5128 0
5077 -5079 5128 0
-5081 -5083 -5130 0
5081 5083 -5130 0
-5081 5083 5130 0
5081 -5083 5130 0
-5087 -5089 -5132 0
5087 5089 -5132 0
-5087 5089 5132 0
5087 -5089 5132 0
-5091 -5093 -5134 0
5091 5093 -5134 0
-5091 5093 5134 0
5091 -5093 5134 0
-5097 -5099 -5138 0
5097 5099 -5138 0
-5097 5099 5138 0
5097 -5099 5138 0
-5103 -5105 -5140 0
5103 5105 -5140 0
-5103 5105 5140 0
5103 -5105 5140 0
-5107 -5109 -5142 0
5107 5109 -5142 0
-5107 5109 5142 0
5107 -5109 5142 0
-5111 -5113 -5144 0
5111 5113 -5144 0
-5111 5113 5144 0
5111 -5113 5144 0
-5115 -5117 -5146 0
5115 5117 -5146 0
-5115 5117 5146 0
5115 -5117 5146 0
-5119 -5121 -5148 0
5119 5121 -5148 0
-5119 5121 5148 0
5119 -5121 5148 0
-5123 -5125 -5150 0
5123 5125 -5150 0
-5123 5125 5150 0
5123 -5125 5150 0
-5124 -5126 -5166 0
5124 5126 -5166 0
5124 -5126 5166 0
-5124 5126 5166 0
-5128 -5129 -5152 0
5128 5129 -5152 0
-5128 5129 5152 0
5128 -5129 5152 0
-5130 -5131 -5153 0
5130 5131 -5153 0
-5130 5131 5153 0
5130 -5131 5153 0
-5132 -5134 -5155 0
5132 5134 -5155 0
-5132 5134 5155 0
5132 -5134 5155 0
-5136 -5137 -5157 0
5136 5137 -5157 0
-5136 5137 5157 0
5136 -5137 5157 0
-5138 -5139 -5159 0
5138 5139 -5159 0
-5138 5139 5159 0
5138 -5139 5159 0
-5140 -5142 -5161 0
5140 5142 -5161 0
-5140 5142 5161 0
5140 -5142 5161 0
-5144 -5146 -5163 0
5144 5146 -5163 0
-5144 5146 5163 0
5144 -5146 5163 0
-5148 -5150 -5165 0
5148 5150 -5165 0
-5148 5150 5165 0
5148 -5150 5165 0
-5127 -5152 -5167 0
5127 5152 -5167 0
-5127 5152 5167 0
5127 -5152 5167 0
-5153 -5155 -5169 0
5153 5155 -5169 0
-5153 5155 5169 0
5153 -5155 5169 0
-5157 -5159 -5171 0
5157 5159 -5171 0
-5157 5159 5171 0
5157 -5159 5171 0
-5161 -5163 -5173 0
5161 5163 -5173 0
-5161 5163 5173 0
5161 -5163 5173 0
-5165 -5166 -5175 0
5165 5166 -5175 0
-5165 5166 5175 0
5165 -5166 5175 0
-5167 -5169 -5177 0
5167 5169 -5177 0
-5167 5169 5177 0
5167 -5169 5177 0
-5171 -5173 -5179 0
5171 5173 -5179 0
-5171 5173 5179 0
5171 -5173 5179 0
-5175 -5177 -5179 0
5175 5177 -5179 0
-5175 5177 5179 0
5175 -5177 5179 0
-5133 -5135 -5184 0
5133 5135 -5184 0
-5133 5135 5184 0
5133 -5135 5184 0
-5141 -5143 -5185 0
5141 5143 -5185 0
-5141 5143 5185 0
5141 -5143 5185 0
-5145 -5147 -5186 0
5145 5147 -5186 0
-5145 5147 5186 0
5145 -5147 5186 0
-5149 -5151 -5188 0
5149 5151 -5188 0
-5149 5151 5188 0
5149 -5151 5188 0
-5154 -5156 -5192 0
5154 5156 -5192 0
-5154 5156 5192 0
5154 -5156 5192 0
-5158 -5160 -5194 0
5158 5160 -5194 0
-5158 5160 5194 0
5158 -5160 5194 0
-5162 -5164 -5196 0
5162 5164 -5196 0
-5162 5164 5196 0
5162 -5164 5196 0
-5168 -5170 -5198 0
5168 5170 -5198 0
-5168 5170 5198 0
5168 -5170 5198 0
-5172 -5174 -5200 0
5172 5174 -5200 0
-5172 5174 5200 0
5172 -5174 5200 0
-5176 -5178 -5202 0
5176 5178 -5202 0
-5176 5178 5202 0
5176 -5178 5202 0
-5180 -5181 -5204 0
5180 5181 -5204 0
-5180 5181 5204 0
5180 -5181 5204 0
-5183 -5184 -5206 0
5183 5184 -5206 0
-5183 5184 5206 0
5183 -5184 5206 0
-5185 -5186 -5208 0
5185 5186 -5208 0
-5185 5186 5208 0
5185 -5186 5208 0
-5188 -5190 -5210 0
5188 5190 -5210 0
-5188 5190 5210 0
5188 -5190 5210 0
-5191 -5192 -5212 0
5191 5192 -5212 0
-5191 5192 5212 0
5191 -5192 5212 0
-5194 -5196 -5214 0
5194 5196 -5214 0
-5194 5196 5214 0
5194 -5196 5214 0
-5197 -5198 -5216 0
5197 5198 -5216 0
-5197 5198 5216 0
5197 -5198 5216 0
-5200 -5202 -5218 0
5200 5202 -5218 0
-5200 5202 5218 0
5200 -5202 5218 0
-5179 -5204 -5220 0
5179 5204 -5220 0
5179 -5204 5220 0
-5179 5204 5220 0
-5182 -5206 -5222 0
5182 5206 -5222 0
-5182 5206 5222 0
5182 -5206 5222 0
-5207 -5208 -5224 0
5207 5208 -5224 0
-5207 5208 5224 0
5207 -5208 5224 0
-5210 -5212 -5226 0
5210 5212 -5226 0
-5210 5212 5226 0
5210 -5212 5226 0
-5214 -5216 -5228 0
5214 5216 -5228 0
-5214 5216 5228 0
5214 -5216 5228 0
-5218 -5220 -5230 0
5218 5220 -5230 0
-5218 5220 5230 0
5218 -5220 5230 0
-5222 -5224 -5232 0
5222 5224 -5232 0
-5222 5224 5232 0
5222 -5224 5232 0
-5226 -5228 -5234 0
5226 5228 -5234 0
-5226 5228 5234 0
5226 -5228 5234 0
-5230 -5232 -5234 0
5230 5232 -5234 0
-5230 5232 5234 0
5230 -5232 5234 0
-5187 -5189 -5262 0
5187 5189 -5262 0
-5187 5189 5262 0
5187 -5189 5262 0
-5193 -5195 -5239 0
5193 5195 -5239 0
-5193 5195 5239 0
5193 -5195 5239 0
-5199 -5201 -5241 0
5199 5201 -5241 0
-5199 5201 5241 0
5199 -5201 5241 0
-5203 -5205 -5243 0
5203 5205 -5243 0
-5203 5205 5243 0
5203 -5205 5243 0
-5209 -5211 -5246 0
5209 5211 -5246 0
-5209 5211 5246 0
5209 -5211 5246 0
-5213 -5215 -5248 0
5213 5215 -5248 0
-5213 5215 5248 0
5213 -5215 5248 0
-5217 -5219 -5250 0
5217 5219 -5250 0
-5217 5219 5250 0
5217 -5219 5250 0
-5221 -5223 -5252 0
5221 5223 -5252 0
-5221 5223 5252 0
5221 -5223 5252 0
-5225 -5227 -5254 0
5225 5227 -5254 0
-5225 5227 5254 0
5225 -5227 5254 0
-5229 -5231 -5256 0
5229 5231 -5256 0
-5229 5231 5256 0
5229 -5231 5256 0
-5233 -5235 -5258 0
5233 5235 -5258 0
-5233 5235 5258 0
5233 -5235 5258 0
-5234 -5236 -5260 0
5234 5236 -5260 0
5234 -5236 5260 0
-5234 5236 5260 0
-5237 -5238 -5273 0
5237 5238 -5273 0
-5237 5238 5273 0
5237 -5238 5273 0
-5239 -5240 -5263 0
5239 5240 -5263 0
-5239 5240 5263 0
5239 -5240 5263 0
-5241 -5243 -5264 0
5241 5243 -5264 0
-5241 5243 5264 0
5241 -5243 5264 0
-5246 -5248 -5265 0
5246 5248 -5265 0
-5246 5248 5265 0
5246 -5248 5265 0
-5250 -5252 -5267 0
5250 5252 -5267 0
-5250 5252 5267 0
5250 -5252 5267 0
-5254 -5256 -5269 0
5254 5256 -5269 0
-5254 5256 5269 0
5254 -5256 5269 0
-5258 -5260 -5271 0
5258 5260 -5271 0
-5258 5260 5271 0
5258 -5260 5271 0
-5262 -5263 -5274 0
5262 5263 -5274 0
-5262 5263 5274 0
5262 -5263 5274 0
-5245 -5264 -5275 0
5245 5264 -5275 0
5245 -5264 5275 0
-5245 5264 5275 0
-5265 -5267 -5277 0
5265 5267 -5277 0
-5265 5267 5277 0
5265 -5267 5277 0
-5269 -5271 -5279 0
5269 5271 -5279 0
-5269 5271 5279 0
5269 -5271 5279 0
-5273 -5274 -5281 0
5273 5274 -5281 0
-5273 5274 5281 0
5273 -5274 5281 0
-5275 -5277 -5283 0
5275 5277 -5283 0
-5275 5277 5283 0
5275 -5277 5283 0
-5279 -5281 -5283 0
5279 5281 -5283 0
-5279 5281 5283 0
5279 -5281 5283 0
-5242 -5244 -5288 0
5242 5244 -5288 0
-5242 5244 5288 0
5242 -5244 5288 0
-5247 -5249 -5308 0
5247 5249 -5308 0
-5247 5249 5308 0
5247 -5249 5308 0
-5251 -5253 -5290 0
5251 5253 -5290 0
-5251 5253 5290 0
5251 -5253 5290 0
-5255 -5257 -5292 0
5255 5257 -5292 0
-5255 5257 5292 0
5255 -5257 5292 0
-5259 -5261 -5294 0
5259 5261 -5294 0
-5259 5261 5294 0
5259 -5261 5294 0
-5266 -5268 -5299 0
5266 5268 -5299 0
-5266 5268 5299 0
5266 -5268 5299 0
-5270 -5272 -5300 0
5270 5272 -5300 0
-5270 5272 5300 0
5270 -5272 5300 0
-5276 -5278 -5302 0
5276 5278 -5302 0
-5276 5278 5302 0
5276 -5278 5302 0
-5280 -5282 -5304 0
5280 5282 -5304 0
-5280 5282 5304 0
5280 -5282 5304 0
-5284 -5285 -5306 0
5284 5285 -5306 0
-5284 5285 5306 0
5284 -5285 5306 0
-5287 -5288 -5307 0
5287 5288 -5307 0
-5287 5288 5307 0
5287 -5288 5307 0
-5290 -5292 -5309 0
5290 5292 -5309 0
-5290 5292 5309 0
5290 -5292 5309 0
-5294 -5296 -5310 0
5294 5296 -5310 0
-5294 5296 5310 0
5294 -5296 5310 0
-5297 -5298 -5312 0
5297 5298 -5312 0
-5297 5298 5312 0
5297 -5298 5312 0
-5299 -5300 -5314 0
5299 5300 -5314 0
-5299 5300 5314 0
5299 -5300 5314 0
-5301 -5302 -5316 0
5301 5302 -5316 0
-5301 5302 5316 0
5301 -5302 5316 0
-5304 -5306 -5318 0
5304 5306 -5318 0
-5304 5306 5318 0
5304 -5306 5318 0
-5283 -5286 -5320 0
5283 5286 -5320 0
-5283 5286 5320 0
5283 -5286 5320 0
-5307 -5308 -5322 0
5307 5308 -5322 0
-5307 5308 5322 0
5307 -5308 5322 0
-5309 -5310 -5324 0
5309 5310 -5324 0
-5309 5310 5324 0
5309 -5310 5324 0
-5312 -5314 -5326 0
5312 5314 -5326 0
-5312 5314 5326 0
5312 -5314 5326 0
-5316 -5318 -5328 0
5316 5318 -5328 0
-5316 5318 5328 0
5316 -5318 5328 0
-5320 -5322 -5330 0
5320 5322 -5330 0
-5320 5322 5330 0
5320 -5322 5330 0
-5324 -5326 -5332 0
5324 5326 -5332 0
-5324 5326 5332 0
5324 -5326 5332 0
-5328 -5330 -5332 0
5328 5330 -5332 0
-5328 5330 5332 0
5328 -5330 5332 0
-5289 -5291 -5336 0
5289 5291 -5336 0
-5289 5291 5336 0
5289 -5291 5336 0
-5293 -5295 -5356 0
5293 5295 -5356 0
-5293 5295 5356 0
5293 -5295 5356 0
-5303 -5305 -5339 0
5303 5305 -5339 0
-5303 5305 5339 0
5303 -5305 5339 0
-5311 -5313 -5343 0
5311 5313 -5343 0
-5311 5313 5343 0
5311 -5313 5343 0
-5315 -5317 -5345 0
5315 5317 -5345 0
-5315 5317 5345 0
5315 -5317 5345 0
-5319 -5321 -5347 0
5319 5321 -5347 0
-5319 5321 5347 0
5319 -5321 5347 0
-5323 -5325 -5349 0
5323 5325 -5349 0
-5323 5325 5349 0
5323 -5325 5349 0
-5327 -5329 -5351 0
5327 5329 -5351 0
-5327 5329 5351 0
5327 -5329 5351 0
-5331 -5333 -5353 0
5331 5333 -5353 0
-5331 5333 5353 0
5331 -5333 5353 0
-5332 -5334 -5369 0
5332 5334 -5369 0
5332 -5334 5369 0
-5332 5334 5369 0
-5335 -5336 -5355 0
5335 5336 -5355 0
-5335 5336 5355 0
5335 -5336 5355 0
-5337 -5338 -5357 0
5337 5338 -5357 0
-5337 5338 5357 0
5337 -5338 5357 0
-5339 -5340 -5359 0
5339 5340 -5359 0
-5339 5340 5359 0
5339 -5340 5359 0
-5341 -5342 -5361 0
5341 5342 -5361 0
-5341 5342 5361 0
5341 -5342 5361 0
-5343 -5345 -5363 0
5343 5345 -5363 0
-5343 5345 5363 0
5343 -5345 5363 0
-5347 -5349 -5365 0
5347 5349 -5365 0
-5347 5349 5365 0
5347 -5349 5365 0
-5351 -5353 -5367 0
5351 5353 -5367 0
-5351 5353 5367 0
5351 -5353 5367 0
-5355 -5356 -5370 0
5355 5356 -5370 0
-5355 5356 5370 0
5355 -5356 5370 0
-5357 -5359 -5371 0
5357 5359 -5371 0
-5357 5359 5371 0
5357 -5359 5371 0
-5361 -5363 -5373 0
5361 5363 -5373 0
-5361 5363 5373 0
5361 -5363 5373 0
-5365 -5367 -5375 0
5365 5367 -5375 0
-5365 5367 5375 0
5365 -5367 5375 0
-5369 -5370 -5377 0
5369 5370 -5377 0
-5369 5370 5377 0
5369 -5370 5377 0
-5371 -5373 -5379 0
5371 5373 -5379 0
-5371 5373 5379 0
5371 -5373 5379 0
-5375 -5377 -5379 0
5375 5377 -5379 0
-5375 5377 5379 0
5375 -5377 5379 0
-5344 -5346 -5403 0
5344 5346 -5403 0
-5344 5346 5403 0
5344 -5346 5403 0
-5348 -5350 -5386 0
5348 5350 -5386 0
-5348 5350 5386 0
5348 -5350 5386 0
-5352 -5354 -5388 0
5352 5354 -5388 0
-5352 5354 5388 0
5352 -5354 5388 0
-5358 -5360 -5391 0
5358 5360 -5391 0
-5358 5360 5391 0
5358 -5360 5391 0
-5362 -5364 -5392 0
5362 5364 -5392 0
-5362 5364 5392 0
5362 -5364 5392 0
-5366 -5368 -5394 0
5366 5368 -5394 0
-5366 5368 5394 0
5366 -5368 5394 0
-5372 -5374 -5397 0
5372 5374 -5397 0
-5372 5374 5397 0
5372 -5374 5397 0
-5376 -5378 -5398 0
5376 5378 -5398 0
-5376 5378 5398 0
5376 -5378 5398 0
-5380 -5381 -5400 0
5380 5381 -5400 0
-5380 5381 5400 0
5380 -5381 5400 0
-5382 -5383 -5402 0
5382 5383 -5402 0
-5382 5383 5402 0
5382 -5383 5402 0
-5386 -5388 -5404 0
5386 5388 -5404 0
-5386 5388 5404 0
5386 -5388 5404 0
-5389 -5390 -5406 0
5389 5390 -5406 0
-5389 5390 5406 0
5389 -5390 5406 0
-5391 -5392 -5408 0
5391 5392 -5408 0
-5391 5392 5408 0
5391 -5392 5408 0
-5394 -5396 -5410 0
5394 5396 -5410 0
-5394 5396 5410 0
5394 -5396 5410 0
-5397 -5398 -5412 0
5397 5398 -5412 0
-5397 5398 5412 0
5397 -5398 5412 0
-5379 -5400 -5414 0
5379 5400 -5414 0
5379 -5400 5414 0
-5379 5400 5414 0
-5384 -5402 -5416 0
5384 5402 -5416 0
5384 -5402 5416 0
-5384 5402 5416 0
-5403 -5404 -5418 0
5403 5404 -5418 0
-5403 5404 5418 0
5403 -5404 5418 0
-5406 -5408 -5420 0
5406 5408 -5420 0
-5406 5408 5420 0
5406 -5408 5420 0
-5410 -5412 -5422 0
5410 5412 -5422 0
-5410 5412 5422 0
5410 -5412 5422 0
-5414 -5416 -5424 0
5414 5416 -5424 0
-5414 5416 5424 0
5414 -5416 5424 0
-5418 -5420 -5426 0
5418 5420 -5426 0
-5418 5420 5426 0
5418 -5420 5426 0
-5422 -5424 -5426 0
5422 5424 -5426 0
-5422 5424 5426 0
5422 -5424 5426 0
-5385 -5387 -5447 0
5385 5387 -5447 0
-5385 5387 5447 0
5385 -5387 5447 0
-5393 -5395 -5431 0
5393 5395 -5431 0
-5393 5395 5431 0
5393 -5395 5431 0
-5399 -5401 -5433 0
5399 5401 -5433 0
-5399 5401 5433 0
5399 -5401 5433 0
-5405 -5407 -5453 0
5405 5407 -5453 0
-5405 5407 5453 0
5405 -5407 5453 0
-5409 -5411 -5435 0
5409 5411 -5435 0
-5409 5411 5435 0
5409 -5411 5435 0
-5413 -5415 -5437 0
5413 5415 -5437 0
-5413 5415 5437 0
5413 -5415 5437 0
-5417 -5419 -5439 0
5417 5419 -5439 0
-5417 5419 5439 0
5417 -5419 5439 0
-5421 -5423 -5441 0
5421 5423 -5441 0
-5421 5423 5441 0
5421 -5423 5441 0
-5425 -5427 -5443 0
5425 5427 -5443 0
-5425 5427 5443 0
5425 -5427 5443 0
-5426 -5428 -5445 0
5426 5428 -5445 0
5426 -5428 5445 0
-5426 5428 5445 0
-5429 -5430 -5448 0
5429 5430 -5448 0
-5429 5430 5448 0
5429 -5430 5448 0
-5431 -5432 -5450 0
5431 5432 -5450 0
-5431 5432 5450 0
5431 -5432 5450 0
-5433 -5434 -5452 0
5433 5434 -5452 0
-5433 5434 5452 0
5433 -5434 5452 0
-5435 -5437 -5454 0
5435 5437 -5454 0
-5435 5437 5454 0
5435 -5437 5454 0
-5439 -5441 -5456 0
5439 5441 -5456 0
-5439 5441 5456 0
5439 -5441 5456 0
-5443 -5445 -5458 0
5443 5445 -5458 0
-5443 5445 5458 0
5443 -5445 5458 0
-5448 -5450 -5459 0
5448 5450 -5459 0
-5448 5450 5459 0
5448 -5450 5459 0
-5452 -5453 -5461 0
5452 5453 -5461 0
-5452 5453 5461 0
5452 -5453 5461 0
-5454 -5456 -5463 0
5454 5456 -5463 0
-5454 5456 5463 0
5454 -5456 5463 0
-5447 -5458 -5465 0
5447 5458 -5465 0
5447 -5458 5465 0
-5447 5458 5465 0
-5459 -5461 -5467 0
5459 5461 -5467 0
-5459 5461 5467 0
5459 -5461 5467 0
-5463 -5465 -5467 0
5463 5465 -5467 0
-5463 5465 5467 0
5463 -5465 5467 0
-5436 -5438 -5474 0
5436 5438 -5474 0
-5436 5438 5474 0
5436 -5438 5474 0
-5440 -5442 -5476 0
5440 5442 -5476 0
-5440 5442 5476 0
5440 -5442 5476 0
-5444 -5446 -5478 0
5444 5446 -5478 0
-5444 5446 5478 0
5444 -5446 5478 0
-5449 -5451 -5492 0
5449 5451 -5492 0
-5449 5451 5492 0
5449 -5451 5492 0
-5455 -5457 -5480 0
5455 5457 -5480 0
-5455 5457 5480 0
5455 -5457 5480 0
-5460 -5462 -5482 0
5460 5462 -5482 0
-5460 5462 5482 0
5460 -5462 5482 0
-5464 -5466 -5484 0
5464 5466 -5484 0
-5464 5466 5484 0
5464 -5466 5484 0
-5468 -5469 -5486 0
5468 5469 -5486 0
-5468 5469 5486 0
5468 -5469 5486 0
-5471 -5472 -5487 0
5471 5472 -5487 0
-5471 5472 5487 0
5471 -5472 5487 0
-5473 -5474 -5488 0
5473 5474 -5488 0
-5473 5474 5488 0
5473 -5474 5488 0
-5476 -5478 -5490 0
5476 5478 -5490 0
-5476 5478 5490 0
5476 -5478 5490 0
-5479 -5480 -5493 0
5479 5480 -5493 0
-5479 5480 5493 0
5479 -5480 5493 0
-5481 -5482 -5494 0
5481 5482 -5494 0
-5481 5482 5494 0
5481 -5482 5494 0
-5484 -5486 -5496 0
5484 5486 -5496 0
-5484 5486 5496 0
5484 -5486 5496 0
-5467 -5470 -5498 0
5467 5470 -5498 0
-5467 5470 5498 0
5467 -5470 5498 0
-5487 -5488 -5500 0
5487 5488 -5500 0
-5487 5488 5500 0
5487 -5488 5500 0
-5490 -5492 -5502 0
5490 5492 -5502 0
-5490 5492 5502 0
5490 -5492 5502 0
-5493 -5494 -5504 0
5493 5494 -5504 0
-5493 5494 5504 0
5493 -5494 5504 0
-5496 -5498 -5506 0
5496 5498 -5506 0
-5496 5498 5506 0
5496 -5498 5506 0
-5500 -5502 -5508 0
5500 5502 -5508 0
-5500 5502 5508 0
5500 -5502 5508 0
-5504 -5506 -5508 0
5504 5506 -5508 0
-5504 5506 5508 0
5504 -5506 5508 0
-5475 -5477 -5527 0
5475 5477 -5527 0
-5475 5477 5527 0
5475 -5477 5527 0
-5483 -5485 -5514 0
5483 5485 -5514 0
-5483 5485 5514 0
5483 -5485 5514 0
-5489 -5491 -5517 0
5489 5491 -5517 0
-5489 5491 5517 0
5489 -5491 5517 0
-5495 -5497 -5519 0
5495 5497 -5519 0
-5495 5497 5519 0
5495 -5497 5519 0
-5499 -5501 -5521 0
5499 5501 -5521 0
-5499 5501 5521 0
5499 -5501 5521 0
-5503 -5505 -5523 0
5503 5505 -5523 0
-5503 5505 5523 0
5503 -5505 5523 0
-5507 -5509 -5525 0
5507 5509 -5525 0
-5507 5509 5525 0
5507 -5509 5525 0
-5508 -5510 -5538 0
5508 5510 -5538 0
5508 -5510 5538 0
-5508 5510 5538 0
-5511 -5512 -5528 0
5511 5512 -5528 0
-5511 5512 5528 0
5511 -5512 5528 0
-5513 -5514 -5529 0
5513 5514 -5529 0
-5513 5514 5529 0
5513 -5514 5529 0
-5515 -5516 -5531 0
5515 5516 -5531 0
-5515 5516 5531 0
5515 -5516 5531 0
-5517 -5518 -5533 0
5517 5518 -5533 0
-5517 5518 5533 0
5517 -5518 5533 0
-5519 -5521 -5535 0
5519 5521 -5535 0
-5519 5521 5535 0
5519 -5521 5535 0
-5523 -5525 -5537 0
5523 5525 -5537 0
-5523 5525 5537 0
5523 -5525 5537 0
-5527 -5528 -5539 0
5527 5528 -5539 0
-5527 5528 5539 0
5527 -5528 5539 0
-5529 -5531 -5541 0
5529 5531 -5541 0
-5529 5531 5541 0
5529 -5531 5541 0
-5533 -5535 -5543 0
5533 5535 -5543 0
-5533 5535 5543 0
5533 -5535 5543 0
-5537 -5538 -5545 0
5537 5538 -5545 0
-5537 5538 5545 0
5537 -5538 5545 0
-5539 -5541 -5547 0
5539 5541 -5547 0
-5539 5541 5547 0
5539 -5541 5547 0
-5543 -5545 -5547 0
5543 5545 -5547 0
-5543 5545 5547 0
5543 -5545 5547 0
-5520 -5522 -5553 0
5520 5522 -5553 0
-5520 5522 5553 0
5520 -5522 5553 0
-5524 -5526 -5555 0
5524 5526 -5555 0
-5524 5526 5555 0
5524 -5526 5555 0
-5530 -5532 -5559 0
5530 5532 -5559 0
-5530 5532 5559 0
5530 -5532 5559 0
-5534 -5536 -5561 0
5534 5536 -5561 0
-5534 5536 5561 0
5534 -5536 5561 0
-5540 -5542 -5564 0
5540 5542 -5564 0
-5540 5542 5564 0
5540 -5542 5564 0
-5544 -5546 -5565 0
5544 5546 -5565 0
-5544 5546 5565 0
5544 -5546 5565 0
-5548 -5549 -5567 0
5548 5549 -5567 0
-5548 5549 5567 0
5548 -5549 5567 0
-5552 -5553 -5569 0
5552 5553 -5569 0
-5552 5553 5569 0
5552 -5553 5569 0
-5555 -5557 -5570 0
5555 5557 -5570 0
-5555 5557 5570 0
5555 -5557 5570 0
-5558 -5559 -5572 0
5558 5559 -5572 0
-5558 5559 5572 0
5558 -5559 5572 0
-5561 -5563 -5574 0
5561 5563 -5574 0
-5561 5563 5574 0
5561 -5563 5574 0
-5564 -5565 -5576 0
5564 5565 -5576 0
-5564 5565 5576 0
5564 -5565 5576 0
-5547 -5567 -5578 0
5547 5567 -5578 0
5547 -5567 5578 0
-5547 5567 5578 0
-5550 -5551 -5580 0
5550 5551 -5580 0
-5550 5551 5580 0
5550 -5551 5580 0
-5569 -5570 -5582 0
5569 5570 -5582 0
-5569 5570 5582 0
5569 -5570 5582 0
-5572 -5574 -5584 0
5572 5574 -5584 0
-5572 5574 5584 0
5572 -5574 5584 0
-5576 -5578 -5586 0
5576 5578 -5586 0
-5576 5578 5586 0
5576 -5578 5586 0
-5580 -5582 -5588 0
5580 5582 -5588 0
-5580 5582 5588 0
5580 -5582 5588 0
-5584 -5586 -5588 0
5584 5586 -5588 0
-5584 5586 5588 0
5584 -5586 5588 0
-5554 -5556 -5606 0
5554 5556 -5606 0
-5554 5556 5606 0
5554 -5556 5606 0
-5560 -5562 -5607 0
5560 5562 -5607 0
-5560 5562 5607 0
5560 -5562 5607 0
-5566 -5568 -5592 0
5566 5568 -5592 0
-5566 5568 5592 0
5566 -5568 5592 0
-5571 -5573 -5594 0
5571 5573 -5594 0
-5571 5573 5594 0
5571 -5573 5594 0
-5575 -5577 -5596 0
5575 5577 -5596 0
-5575 5577 5596 0
5575 -5577 5596 0
-5579 -5581 -5598 0
5579 5581 -5598 0
-5579 5581 5598 0
5579 -5581 5598 0
-5583 -5585 -5600 0
5583 5585 -5600 0
-5583 5585 5600 0
5583 -5585 5600 0
-5587 -5589 -5602 0
5587 5589 -5602 0
-5587 5589 5602 0
5587 -5589 5602 0
-5588 -5590 -5604 0
5588 5590 -5604 0
5588 -5590 5604 0
-5588 5590 5604 0
-5591 -5592 -5608 0
5591 5592 -5608 0
-5591 5592 5608 0
5591 -5592 5608 0
-5594 -5596 -5609 0
5594 5596 -5609 0
-5594 5596 5609 0
5594 -5596 5609 0
-5598 -5600 -5610 0
5598 5600 -5610 0
-5598 5600 5610 0
5598 -5600 5610 0
-5602 -5604 -5612 0
5602 5604 -5612 0
-5602 5604 5612 0
5602 -5604 5612 0
-5607 -5608 -5614 0
5607 5608 -5614 0
-5607 5608 5614 0
5607 -5608 5614 0
-5593 -5609 -5615 0
5593 5609 -5615 0
-5593 5609 5615 0
5593 -5609 5615 0
-5610 -5612 -5617 0
5610 5612 -5617 0
-5610 5612 5617 0
5610 -5612 5617 0
-5606 -5614 -5619 0
5606 5614 -5619 0
-5606 5614 5619 0
5606 -5614 5619 0
-5615 -5617 -5619 0
5615 5617 -5619 0
-5615 5617 5619 0
5615 -5617 5619 0
-5595 -5597 -5624 0
5595 5597 -5624 0
-5595 5597 5624 0
5595 -5597 5624 0
-5599 -5601 -5625 0
5599 5601 -5625 0
-5599 5601 5625 0
5599 -5601 5625 0
-5603 -5605 -5637 0
5603 5605 -5637 0
-5603 5605 5637 0
5603 -5605 5637 0
-5611 -5613 -5630 0
5611 5613 -5630 0
-5611 5613 5630 0
5611 -5613 5630 0
-5616 -5618 -5632 0
5616 5618 -5632 0
-5616 5618 5632 0
5616 -5618 5632 0
-5620 -5621 -5633 0
5620 5621 -5633 0
-5620 5621 5633 0
5620 -5621 5633 0
-5622 -5623 -5634 0
5622 5623 -5634 0
-5622 5623 5634 0
5622 -5623 5634 0
-5624 -5625 -5636 0
5624 5625 -5636 0
-5624 5625 5636 0
5624 -5625 5636 0
-5628 -5629 -5638 0
5628 5629 -5638 0
-5628 5629 5638 0
5628 -5629 5638 0
-5630 -5631 -5640 0
5630 5631 -5640 0
-5630 5631 5640 0
5630 -5631 5640 0
-5632 -5633 -5642 0
5632 5633 -5642 0
-5632 5633 5642 0
5632 -5633 5642 0
-5619 -5634 -5644 0
5619 5634 -5644 0
-5619 5634 5644 0
5619 -5634 5644 0
-5635 -5636 -5646 0
5635 5636 -5646 0
-5635 5636 5646 0
5635 -5636 5646 0
-5637 -5638 -5648 0
5637 5638 -5648 0
-5637 5638 5648 0
5637 -5638 5648 0
-5640 -5642 -5650 0
5640 5642 -5650 0
-5640 5642 5650 0
5640 -5642 5650 0
-5644 -5646 -5652 0
5644 5646 -5652 0
-5644 5646 5652 0
5644 -5646 5652 0
-5648 -5650 -5652 0
5648 5650 -5652 0
-5648 5650 5652 0
5648 -5650 5652 0
-5626 -5627 -5656 0
5626 5627 -5656 0
-5626 5627 5656 0
5626 -5627 5656 0
-5639 -5641 -5661 0
5639 5641 -5661 0
-5639 5641 5661 0
5639 -5641 5661 0
-5643 -5645 -5663 0
5643 5645 -5663 0
-5643 5645 5663 0
5643 -5645 5663 0
-5647 -5649 -5665 0
5647 5649 -5665 0
-5647 5649 5665 0
5647 -5649 5665 0
-5651 -5653 -5667 0
5651 5653 -5667 0
-5651 5653 5667 0
5651 -5653 5667 0
-5652 -5654 -5679 0
5652 5654 -5679 0
5652 -5654 5679 0
-5652 5654 5679 0
-5655 -5656 -5669 0
5655 5656 -5669 0
-5655 5656 5669 0
5655 -5656 5669 0
-5657 -5658 -5671 0
5657 5658 -5671 0
-5657 5658 5671 0
5657 -5658 5671 0
-5659 -5660 -5673 0
5659 5660 -5673 0
-5659 5660 5673 0
5659 -5660 5673 0
-5661 -5663 -5675 0
5661 5663 -5675 0
-5661 5663 5675 0
5661 -5663 5675 0
-5665 -5667 -5677 0
5665 5667 -5677 0
-5665 5667 5677 0
5665 -5667 5677 0
-5669 -5670 -5680 0
5669 5670 -5680 0
-5669 5670 5680 0
5669 -5670 5680 0
-5671 -5673 -5681 0
5671 5673 -5681 0
-5671 5673 5681 0
5671 -5673 5681 0
-5675 -5677 -5683 0
5675 5677 -5683 0
-5675 5677 5683 0
5675 -5677 5683 0
-5679 -5680 -5685 0
5679 5680 -5685 0
-5679 5680 5685 0
5679 -5680 5685 0
-5681 -5683 -5685 0
5681 5683 -5685 0
-5681 5683 5685 0
5681 -5683 5685 0
-5662 -5664 -5688 0
5662 5664 -5688 0
-5662 5664 5688 0
5662 -5664 5688 0
-5666 -5668 -5689 0
5666 5668 -5689 0
-5666 5668 5689 0
5666 -5668 5689 0
-5672 -5674 -5692 0
5672 5674 -5692 0
-5672 5674 5692 0
5672 -5674 5692 0
-5676 -5678 -5693 0
5676 5678 -5693 0
-5676 5678 5693 0
5676 -5678 5693 0
-5682 -5684 -5695 0
5682 5684 -5695 0
-5682 5684 5695 0
5682 -5684 5695 0
-5686 -5687 -5697 0
5686 5687 -5697 0
-5686 5687 5697 0
5686 -5687 5697 0
-5688 -5689 -5699 0
5688 5689 -5699 0
-5688 5689 5699 0
5688 -5689 5699 0
-5690 -5691 -5700 0
5690 5691 -5700 0
-5690 5691 5700 0
5690 -5691 5700 0
-5692 -5693 -5702 0
5692 5693 -5702 0
-5692 5693 5702 0
5692 -5693 5702 0
-5694 -5695 -5704 0
5694 5695 -5704 0
-5694 5695 5704 0
5694 -5695 5704 0
-5685 -5697 -5706 0
5685 5697 -5706 0
5685 -5697 5706 0
-5685 5697 5706 0
-5699 -5700 -5709 0
5699 5700 -5709 0
-5699 5700 5709 0
5699 -5700 5709 0
-5702 -5704 -5710 0
5702 5704 -5710 0
-5702 5704 5710 0
5702 -5704 5710 0
-5706 -5708 -5712 0
5706 5708 -5712 0
-5706 5708 5712 0
5706 -5708 5712 0
-5709 -5710 -5712 0
5709 5710 -5712 0
-5709 5710 5712 0
5709 -5710 5712 0
-5696 -5698 -5728 0
5696 5698 -5728 0
-5696 5698 5728 0
5696 -5698 5728 0
-5701 -5703 -5720 0
5701 5703 -5720 0
-5701 5703 5720 0
5701 -5703 5720 0
-5705 -5707 -5721 0
5705 5707 -5721 0
-5705 5707 5721 0
5705 -5707 5721 0
-5711 -5713 -5723 0
5711 5713 -5723 0
-5711 5713 5723 0
5711 -5713 5723 0
-5712 -5714 -5725 0
5712 5714 -5725 0
5712 -5714 5725 0
-5712 5714 5725 0
-5715 -5716 -5734 0
5715 5716 -5734 0
-5715 5716 5734 0
5715 -5716 5734 0
-5717 -5718 -5727 0
5717 5718 -5727 0
-5717 5718 5727 0
5717 -5718 5727 0
-5719 -5720 -5729 0
5719 5720 -5729 0
-5719 5720 5729 0
5719 -5720 5729 0
-5721 -5722 -5731 0
5721 5722 -5731 0
-5721 5722 5731 0
5721 -5722 5731 0
-5723 -5725 -5733 0
5723 5725 -5733 0
-5723 5725 5733 0
5723 -5725 5733 0
-5727 -5728 -5735 0
5727 5728 -5735 0
-5727 5728 5735 0
5727 -5728 5735 0
-5729 -5731 -5737 0
5729 5731 -5737 0
-5729 5731 5737 0
5729 -5731 5737 0
-5733 -5734 -5739 0
5733 5734 -5739 0
-5733 5734 5739 0
5733 -5734 5739 0
-5735 -5737 -5739 0
5735 5737 -5739 0
-5735 5737 5739 0
5735 -5737 5739 0
-5724 -5726 -5745 0
5724 5726 -5745 0
-5724 5726 5745 0
5724 -5726 5745 0
-5730 -5732 -5748 0
5730 5732 -5748 0
-5730 5732 5748 0
5730 -5732 5748 0
-5736 -5738 -5750 0
5736 5738 -5750 0
-5736 5738 5750 0
5736 -5738 5750 0
-5740 -5741 -5751 0
5740 5741 -5751 0
-5740 5741 5751 0
5740 -5741 5751 0
-5742 -5743 -5752 0
5742 5743 -5752 0
-5742 5743 5752 0
5742 -5743 5752 0
-5744 -5745 -5753 0
5744 5745 -5753 0
-5744 5745 5753 0
5744 -5745 5753 0
-5746 -5747 -5755 0
5746 5747 -5755 0
-5746 5747 5755 0
5746 -5747 5755 0
-5748 -5749 -5757 0
5748 5749 -5757 0
-5748 5749 5757 0
5748 -5749 5757 0
-5750 -5751 -5759 0
5750 5751 -5759 0
-5750 5751 5759 0
5750 -5751 5759 0
-5752 -5753 -5761 0
5752 5753 -5761 0
-5752 5753 5761 0
5752 -5753 5761 0
-5755 -5757 -5762 0
5755 5757 -5762 0
-5755 5757 5762 0
5755 -5757 5762 0
-5739 -5759 -5764 0
5739 5759 -5764 0
5739 -5759 5764 0
-5739 5759 5764 0
-5761 -5762 -5764 0
5761 5762 -5764 0
-5761 5762 5764 0
5761 -5762 5764 0
-5754 -5756 -5772 0
5754 5756 -5772 0
-5754 5756 5772 0
5754 -5756 5772 0
-5758 -5760 -5774 0
5758 5760 -5774 0
-5758 5760 5774 0
5758 -5760 5774 0
-5763 -5765 -5777 0
5763 5765 -5777 0
-5763 5765 5777 0
5763 -5765 5777 0
-5764 -5766 -5784 0
5764 5766 -5784 0
5764 -5766 5784 0
-5764 5766 5784 0
-5768 -5769 -5778 0
5768 5769 -5778 0
-5768 5769 5778 0
5768 -5769 5778 0
-5770 -5771 -5779 0
5770 5771 -5779 0
-5770 5771 5779 0
5770 -5771 5779 0
-5772 -5774 -5781 0
5772 5774 -5781 0
-5772 5774 5781 0
5772 -5774 5781 0
-5776 -5777 -5783 0
5776 5777 -5783 0
-5776 5777 5783 0
5776 -5777 5783 0
-5767 -5778 -5785 0
5767 5778 -5785 0
-5767 5778 5785 0
5767 -5778 5785 0
-5779 -5781 -5787 0
5779 5781 -5787 0
-5779 5781 5787 0
5779 -5781 5787 0
-5783 -5784 -5789 0
5783 5784 -5789 0
-5783 5784 5789 0
5783 -5784 5789 0
-5785 -5787 -5789 0
5785 5787 -5789 0
-5785 5787 5789 0
5785 -5787 5789 0
-5773 -5775 -5801 0
5773 5775 -5801 0
-5773 5775 5801 0
5773 -5775 5801 0
-5780 -5782 -5795 0
5780 5782 -5795 0
-5780 5782 5795 0
5780 -5782 5795 0
-5786 -5788 -5797 0
5786 5788 -5797 0
-5786 5788 5797 0
5786 -5788 5797 0
-5790 -5791 -5799 0
5790 5791 -5799 0
-5790 5791 5799 0
5790 -5791 5799 0
-5792 -5793 -5802 0
5792 5793 -5802 0
-5792 5793 5802 0
5792 -5793 5802 0
-5794 -5795 -5803 0
5794 5795 -5803 0
-5794 5795 5803 0
5794 -5795 5803 0
-5796 -5797 -5805 0
5796 5797 -5805 0
-5796 5797 5805 0
5796 -5797 5805 0
-5789 -5799 -5807 0
5789 5799 -5807 0
5789 -5799 5807 0
-5789 5799 5807 0
-5802 -5803 -5808 0
5802 5803 -5808 0
-5802 5803 5808 0
5802 -5803 5808 0
-5805 -5807 -5810 0
5805 5807 -5810 0
-5805 5807 5810 0
5805 -5807 5810 0
-5801 -5808 -5810 0
5801 5808 -5810 0
-5801 5808 5810 0
5801 -5808 5810 0
-5798 -5800 -5814 0
5798 5800 -5814 0
-5798 5800 5814 0
5798 -5800 5814 0
-5804 -5806 -5816 0
5804 5806 -5816 0
-5804 5806 5816 0
5804 -5806 5816 0
-5809 -5811 -5818 0
5809 5811 -5818 0
-5809 5811 5818 0
5809 -5811 5818 0
-5810 -5812 -5820 0
5810 5812 -5820 0
5810 -5812 5820 0
-5810 5812 5820 0
-5813 -5814 -5822 0
5813 5814 -5822 0
-5813 5814 5822 0
5813 -5814 5822 0
-5816 -5817 -5823 0
5816 5817 -5823 0
-5816 5817 5823 0
5816 -5817 5823 0
-5818 -5820 -5825 0
5818 5820 -5825 0
-5818 5820 5825 0
5818 -5820 5825 0
-5815 -5822 -5828 0
5815 5822 -5828 0
5815 -5822 5828 0
-5815 5822 5828 0
-5823 -5825 -5829 0
5823 5825 -5829 0
-5823 5825 5829 0
5823 -5825 5829 0
-5827 -5828 -5829 0
5827 5828 -5829 0
-5827 5828 5829 0
5827 -5828 5829 0
-5819 -5821 -5838 0
5819 5821 -5838 0
-5819 5821 5838 0
5819 -5821 5838 0
-5824 -5826 -5834 0
5824 5826 -5834 0
-5824 5826 5834 0
5824 -5826 5834 0
-5830 -5831 -5836 0
5830 5831 -5836 0
-5830 5831 5836 0
5830 -5831 5836 0
-5833 -5834 -5839 0
5833 5834 -5839 0
-5833 5834 5839 0
5833 -5834 5839 0
-5835 -5836 -5840 0
5835 5836 -5840 0
-5835 5836 5840 0
5835 -5836 5840 0
-5829 -5832 -5842 0
5829 5832 -5842 0
-5829 5832 5842 0
5829 -5832 5842 0
-5837 -5838 -5844 0
5837 5838 -5844 0
-5837 5838 5844 0
5837 -5838 5844 0
-5839 -5840 -5846 0
5839 5840 -5846 0
-5839 5840 5846 0
5839 -5840 5846 0
-5842 -5844 -5846 0
5842 5844 -5846 0
-5842 5844 5846 0
5842 -5844 5846 0
-5841 -5843 -5852 0
5841 5843 -5852 0
-5841 5843 5852 0
5841 -5843 5852 0
-5845 -5847 -5854 0
5845 5847 -5854 0
-5845 5847 5854 0
5845 -5847 5854 0
-5846 -5848 -5859 0
5846 5848 -5859 0
5846 -5848 5859 0
-5846 5848 5859 0
-5849 -5850 -5857 0
5849 5850 -5857 0
-5849 5850 5857 0
5849 -5850 5857 0
-5852 -5854 -5858 0
5852 5854 -5858 0
-5852 5854 5858 0
5852 -5854 5858 0
-5856 -5857 -5860 0
5856 5857 -5860 0
-5856 5857 5860 0
5856 -5857 5860 0
-5851 -5858 -5861 0
5851 5858 -5861 0
-5851 5858 5861 0
5851 -5858 5861 0
-5859 -5860 -5861 0
5859 5860 -5861 0
-5859 5860 5861 0
5859 -5860 5861 0
-5853 -5855 -5869 0
5853 5855 -5869 0
-5853 5855 5869 0
5853 -5855 5869 0
-5862 -5863 -5868 0
5862 5863 -5868 0
-5862 5863 5868 0
5862 -5863 5868 0
-5864 -5865 -5870 0
5864 5865 -5870 0
-5864 5865 5870 0
5864 -5865 5870 0
-5866 -5867 -5871 0
5866 5867 -5871 0
-5866 5867 5871 0
5866 -5867 5871 0
-5861 -5868 -5873 0
5861 5868 -5873 0
5861 -5868 5873 0
-5861 5868 5873 0
-5870 -5871 -5875 0
5870 5871 -5875 0
-5870 5871 5875 0
5870 -5871 5875 0
-5869 -5873 -5875 0
5869 5873 -5875 0
5869 -5873 5875 0
-5869 5873 5875 0
-5872 -5874 -5878 0
5872 5874 -5878 0
-5872 5874 5878 0
5872 -5874 5878 0
-5875 -5876 -5880 0
5875 5876 -5880 0
5875 -5876 5880 0
-5875 5876 5880 0
-5877 -5878 -5882 0
5877 5878 -5882 0
-5877 5878 5882 0
5877 -5878 5882 0
-5879 -5880 -5883 0
5879 5880 -5883 0
-5879 5880 5883 0
5879 -5880 5883 0
-5881 -5882 -5885 0
5881 5882 -5885 0
-5881 5882 5885 0
5881 -5882 5885 0
-5883 -5884 -5885 0
5883 5884 -5885 0
-5883 5884 5885 0
5883 -5884 5885 0
-5886 -5887 -5892 0
5886 5887 -5892 0
-5886 5887 5892 0
5886 -5887 5892 0
-5888 -5889 -5893 0
5888 5889 -5893 0
-5888 5889 5893 0
5888 -5889 5893 0
-5891 -5892 -5894 0
5891 5892 -5894 0
-5891 5892 5894 0
5891 -5892 5894 0
-5890 -5893 -5895 0
5890 5893 -5895 0
5890 -5893 5895 0
-5890 5893 5895 0
-5885 -5894 -5895 0
5885 5894 -5895 0
5885 -5894 5895 0
-5885 5894 5895 0
-5895 -5896 -5902 0
5895 5896 -5902 0
5895 -5896 5902 0
-5895 5896 5902 0
-5897 -5898 -5903 0
5897 5898 -5903 0
-5897 5898 5903 0
5897 -5898 5903 0
-5899 -5900 -5901 0
5899 5900 -5901 0
-5899 5900 5901 0
5899 -5900 5901 0
-5901 -5902 -5903 0
5901 5902 -5903 0
-5901 5902 5903 0
5901 -5902 5903 0
-5904 -5905 -5907 0
5904 5905 -5907 0
-5904 5905 5907 0
5904 -5905 5907 0
-5903 -5906 -5908 0
5903 5906 -5908 0
5903 -5906 5908 0
-5903 5906 5908 0
-5907 -5908 -5909 0
5907 5908 -5909 0
-5907 5908 5909 0
5907 -5908 5909 0
-5909 -5910 -5912 0
5909 5910 -5912 0
5909 -5910 5912 0
-5909 5910 5912 0
-5911 -5912 -5915 0
5911 5912 -5915 0
-5911 5912 5915 0
5911 -5912 5915 0
5913 -5914 5915 0
5913 5914 -5915 0
