c Factorization SAT instance #35: N = 499153 = 617 x 809
c p = 617 (10 bits), q = 809 (10 bits)
c N = 499153 (19 bits)
c Generator: generate_instances.py  d=3, k=50, seed=None
p cnf 6137 21673
-1 -2 10 0
1 -10 0
2 -10 0
-1 -3 11 0
1 -11 0
3 -11 0
-1 -4 12 0
1 -12 0
4 -12 0
-1 -5 13 0
1 -13 0
5 -13 0
-1 -6 14 0
1 -14 0
6 -14 0
-1 -7 15 0
1 -15 0
7 -15 0
-1 -8 16 0
1 -16 0
8 -16 0
-1 -9 17 0
1 -17 0
9 -17 0
-1 -18 19 0
18 -19 0
1 -19 0
-2 -18 20 0
18 -20 0
2 -20 0
-3 -18 21 0
18 -21 0
3 -21 0
-4 -18 22 0
18 -22 0
4 -22 0
-5 -18 23 0
18 -23 0
5 -23 0
-6 -18 24 0
18 -24 0
6 -24 0
-7 -18 25 0
18 -25 0
7 -25 0
-8 -18 26 0
18 -26 0
8 -26 0
-9 -18 27 0
18 -27 0
9 -27 0
-1 -28 29 0
28 -29 0
1 -29 0
-2 -28 30 0
28 -30 0
2 -30 0
-3 -28 31 0
28 -31 0
3 -31 0
-4 -28 32 0
28 -32 0
4 -32 0
-5 -28 33 0
28 -33 0
5 -33 0
-6 -28 34 0
28 -34 0
6 -34 0
-7 -28 35 0
28 -35 0
7 -35 0
-8 -28 36 0
28 -36 0
8 -36 0
-9 -28 37 0
28 -37 0
9 -37 0
-1 -38 39 0
38 -39 0
1 -39 0
-2 -38 40 0
38 -40 0
2 -40 0
-3 -38 41 0
38 -41 0
3 -41 0
-4 -38 42 0
38 -42 0
4 -42 0
-5 -38 43 0
38 -43 0
5 -43 0
-6 -38 44 0
38 -44 0
6 -44 0
-7 -38 45 0
38 -45 0
7 -45 0
-8 -38 46 0
38 -46 0
8 -46 0
-9 -38 47 0
38 -47 0
9 -47 0
-1 -48 49 0
48 -49 0
1 -49 0
-2 -48 50 0
48 -50 0
2 -50 0
-3 -48 51 0
48 -51 0
3 -51 0
-4 -48 52 0
48 -52 0
4 -52 0
-5 -48 53 0
48 -53 0
5 -53 0
-6 -48 54 0
48 -54 0
6 -54 0
-7 -48 55 0
48 -55 0
7 -55 0
-8 -48 56 0
48 -56 0
8 -56 0
-9 -48 57 0
48 -57 0
9 -57 0
-1 -58 59 0
58 -59 0
1 -59 0
-2 -58 60 0
58 -60 0
2 -60 0
-3 -58 61 0
58 -61 0
3 -61 0
-4 -58 62 0
58 -62 0
4 -62 0
-5 -58 63 0
58 -63 0
5 -63 0
-6 -58 64 0
58 -64 0
6 -64 0
-7 -58 65 0
58 -65 0
7 -65 0
-8 -58 66 0
58 -66 0
8 -66 0
-9 -58 67 0
58 -67 0
9 -67 0
-1 -68 69 0
68 -69 0
1 -69 0
-2 -68 70 0
68 -70 0
2 -70 0
-3 -68 71 0
68 -71 0
3 -71 0
-4 -68 72 0
68 -72 0
4 -72 0
-5 -68 73 0
68 -73 0
5 -73 0
-6 -68 74 0
68 -74 0
6 -74 0
-7 -68 75 0
68 -75 0
7 -75 0
-8 -68 76 0
68 -76 0
8 -76 0
-9 -68 77 0
68 -77 0
9 -77 0
-1 -78 79 0
78 -79 0
1 -79 0
-2 -78 80 0
78 -80 0
2 -80 0
-3 -78 81 0
78 -81 0
3 -81 0
-4 -78 82 0
78 -82 0
4 -82 0
-5 -78 83 0
78 -83 0
5 -83 0
-6 -78 84 0
78 -84 0
6 -84 0
-7 -78 85 0
78 -85 0
7 -85 0
-8 -78 86 0
78 -86 0
8 -86 0
-9 -78 87 0
78 -87 0
9 -87 0
-1 -88 89 0
88 -89 0
1 -89 0
-2 -88 90 0
88 -90 0
2 -90 0
-3 -88 91 0
88 -91 0
3 -91 0
-4 -88 92 0
88 -92 0
4 -92 0
-5 -88 93 0
88 -93 0
5 -93 0
-6 -88 94 0
88 -94 0
6 -94 0
-7 -88 95 0
88 -95 0
7 -95 0
-8 -88 96 0
88 -96 0
8 -96 0
-9 -88 97 0
88 -97 0
9 -97 0
-1 -2 99 0
2 -99 0
1 -99 0
-1 -18 100 0
18 -100 0
1 -100 0
-3 -10 102 0
3 -102 0
10 -102 0
-19 -28 104 0
19 -104 0
28 -104 0
-99 -100 106 0
99 -106 0
100 -106 0
-98 -101 108 0
98 -108 0
101 -108 0
-103 -105 109 0
103 -109 0
105 -109 0
-4 -11 111 0
4 -111 0
11 -111 0
-20 -29 113 0
20 -113 0
29 -113 0
-38 -102 115 0
38 -115 0
102 -115 0
-104 -106 117 0
104 -117 0
106 -117 0
-108 -109 119 0
108 -119 0
109 -119 0
-107 -110 121 0
107 -121 0
110 -121 0
-112 -114 123 0
112 -123 0
114 -123 0
-116 -118 125 0
116 -125 0
118 -125 0
-120 -122 140 0
120 -140 0
122 -140 0
-5 -12 127 0
5 -127 0
12 -127 0
-21 -30 129 0
21 -129 0
30 -129 0
-39 -48 131 0
39 -131 0
48 -131 0
-111 -113 133 0
111 -133 0
113 -133 0
-115 -117 135 0
115 -135 0
117 -135 0
-119 -121 137 0
119 -137 0
121 -137 0
-123 -125 139 0
123 -139 0
125 -139 0
-126 -128 164 0
126 -164 0
128 -164 0
-130 -132 143 0
130 -143 0
132 -143 0
-134 -136 145 0
134 -145 0
136 -145 0
-138 -140 147 0
138 -147 0
140 -147 0
-141 -142 149 0
141 -149 0
142 -149 0
-144 -146 150 0
144 -150 0
146 -150 0
-6 -13 152 0
6 -152 0
13 -152 0
-22 -31 154 0
22 -154 0
31 -154 0
-40 -49 156 0
40 -156 0
49 -156 0
-58 -127 158 0
58 -158 0
127 -158 0
-129 -131 160 0
129 -160 0
131 -160 0
-133 -135 162 0
133 -162 0
135 -162 0
-137 -139 201 0
137 -201 0
139 -201 0
-143 -145 166 0
143 -166 0
145 -166 0
-147 -149 168 0
147 -168 0
149 -168 0
-148 -150 170 0
150 -170 0
148 -170 0
-151 -153 172 0
151 -172 0
153 -172 0
-155 -157 174 0
155 -174 0
157 -174 0
-159 -161 176 0
159 -176 0
161 -176 0
-163 -164 178 0
163 -178 0
164 -178 0
-165 -167 180 0
165 -180 0
167 -180 0
-169 -171 182 0
169 -182 0
171 -182 0
-173 -175 184 0
173 -184 0
175 -184 0
-177 -179 186 0
177 -186 0
179 -186 0
-181 -183 187 0
181 -187 0
183 -187 0
-7 -14 188 0
7 -188 0
14 -188 0
-23 -32 190 0
23 -190 0
32 -190 0
-41 -50 192 0
41 -192 0
50 -192 0
-59 -68 194 0
59 -194 0
68 -194 0
-152 -154 196 0
152 -196 0
154 -196 0
-156 -158 198 0
156 -198 0
158 -198 0
-160 -162 200 0
160 -200 0
162 -200 0
-166 -168 251 0
166 -251 0
168 -251 0
-170 -172 204 0
170 -204 0
172 -204 0
-174 -176 206 0
174 -206 0
176 -206 0
-178 -180 208 0
178 -208 0
180 -208 0
-182 -184 210 0
182 -210 0
184 -210 0
-186 -187 254 0
186 -254 0
187 -254 0
-189 -191 214 0
189 -214 0
191 -214 0
-193 -195 216 0
193 -216 0
195 -216 0
-197 -199 218 0
197 -218 0
199 -218 0
-201 -202 220 0
201 -220 0
202 -220 0
-203 -205 222 0
203 -222 0
205 -222 0
-207 -209 224 0
207 -224 0
209 -224 0
-211 -212 226 0
211 -226 0
212 -226 0
-213 -215 228 0
213 -228 0
215 -228 0
-217 -219 230 0
217 -230 0
219 -230 0
-221 -223 232 0
221 -232 0
223 -232 0
-225 -227 234 0
225 -234 0
227 -234 0
-229 -231 235 0
229 -235 0
231 -235 0
-8 -15 236 0
8 -236 0
15 -236 0
-24 -33 238 0
24 -238 0
33 -238 0
-42 -51 240 0
42 -240 0
51 -240 0
-60 -69 242 0
60 -242 0
69 -242 0
-78 -188 244 0
78 -244 0
188 -244 0
-190 -192 246 0
190 -246 0
192 -246 0
-194 -196 248 0
194 -248 0
196 -248 0
-198 -200 250 0
198 -250 0
200 -250 0
-204 -206 315 0
204 -315 0
206 -315 0
-208 -210 316 0
208 -316 0
210 -316 0
-214 -216 256 0
214 -256 0
216 -256 0
-218 -220 258 0
218 -258 0
220 -258 0
-222 -224 260 0
222 -260 0
224 -260 0
-226 -228 262 0
226 -262 0
228 -262 0
-230 -232 264 0
230 -264 0
232 -264 0
-234 -235 266 0
234 -266 0
235 -266 0
-237 -239 322 0
237 -322 0
239 -322 0
-241 -243 270 0
241 -270 0
243 -270 0
-245 -247 272 0
245 -272 0
247 -272 0
-249 -251 274 0
249 -274 0
251 -274 0
-252 -253 276 0
252 -276 0
253 -276 0
-254 -255 278 0
254 -278 0
255 -278 0
-257 -259 280 0
257 -280 0
259 -280 0
-261 -263 282 0
261 -282 0
263 -282 0
-265 -267 284 0
265 -284 0
267 -284 0
-268 -269 286 0
268 -286 0
269 -286 0
-271 -273 288 0
271 -288 0
273 -288 0
-275 -277 290 0
275 -290 0
277 -290 0
-279 -281 292 0
279 -292 0
281 -292 0
-283 -285 294 0
283 -294 0
285 -294 0
-287 -289 296 0
287 -296 0
289 -296 0
-291 -293 336 0
291 -336 0
293 -336 0
-9 -16 298 0
9 -298 0
16 -298 0
-25 -34 300 0
25 -300 0
34 -300 0
-43 -52 302 0
43 -302 0
52 -302 0
-61 -70 304 0
61 -304 0
70 -304 0
-79 -88 306 0
79 -306 0
88 -306 0
-236 -238 308 0
236 -308 0
238 -308 0
-240 -242 310 0
240 -310 0
242 -310 0
-244 -246 312 0
244 -312 0
246 -312 0
-248 -250 314 0
248 -314 0
250 -314 0
-256 -258 318 0
256 -318 0
258 -318 0
-260 -262 320 0
260 -320 0
262 -320 0
-264 -266 395 0
264 -395 0
266 -395 0
-270 -272 324 0
270 -324 0
272 -324 0
-274 -276 326 0
274 -326 0
276 -326 0
-278 -280 328 0
278 -328 0
280 -328 0
-282 -284 330 0
282 -330 0
284 -330 0
-286 -288 332 0
286 -332 0
288 -332 0
-290 -292 334 0
290 -334 0
292 -334 0
-294 -296 401 0
294 -401 0
296 -401 0
-297 -299 338 0
297 -338 0
299 -338 0
-301 -303 340 0
301 -340 0
303 -340 0
-305 -307 342 0
305 -342 0
307 -342 0
-309 -311 344 0
309 -344 0
311 -344 0
-313 -315 346 0
313 -346 0
315 -346 0
-316 -317 348 0
316 -348 0
317 -348 0
-319 -321 350 0
319 -350 0
321 -350 0
-322 -323 352 0
322 -352 0
323 -352 0
-325 -327 354 0
325 -354 0
327 -354 0
-329 -331 356 0
329 -356 0
331 -356 0
-333 -335 358 0
333 -358 0
335 -358 0
-336 -337 360 0
336 -360 0
337 -360 0
-339 -341 362 0
339 -362 0
341 -362 0
-343 -345 364 0
343 -364 0
345 -364 0
-347 -349 366 0
347 -366 0
349 -366 0
-351 -353 368 0
351 -368 0
353 -368 0
-355 -357 370 0
355 -370 0
357 -370 0
-359 -361 372 0
359 -372 0
361 -372 0
-363 -365 374 0
363 -374 0
365 -374 0
-367 -369 376 0
367 -376 0
369 -376 0
-371 -373 377 0
371 -377 0
373 -377 0
-17 -26 379 0
17 -379 0
26 -379 0
-35 -44 381 0
35 -381 0
44 -381 0
-53 -62 383 0
53 -383 0
62 -383 0
-71 -80 385 0
71 -385 0
80 -385 0
-89 -298 387 0
89 -387 0
298 -387 0
-300 -302 389 0
300 -389 0
302 -389 0
-304 -306 391 0
304 -391 0
306 -391 0
-308 -310 393 0
308 -393 0
310 -393 0
-312 -314 485 0
312 -485 0
314 -485 0
-318 -320 486 0
318 -486 0
320 -486 0
-324 -326 397 0
324 -397 0
326 -397 0
-328 -330 399 0
328 -399 0
330 -399 0
-332 -334 488 0
332 -488 0
334 -488 0
-338 -340 403 0
338 -403 0
340 -403 0
-342 -344 405 0
342 -405 0
344 -405 0
-346 -348 407 0
346 -407 0
348 -407 0
-350 -352 409 0
350 -409 0
352 -409 0
-354 -356 411 0
354 -411 0
356 -411 0
-358 -360 413 0
358 -413 0
360 -413 0
-362 -364 415 0
362 -415 0
364 -415 0
-366 -368 417 0
366 -417 0
368 -417 0
-370 -372 419 0
370 -419 0
372 -419 0
-374 -376 421 0
374 -421 0
376 -421 0
-375 -377 423 0
377 -423 0
375 -423 0
-378 -380 425 0
378 -425 0
380 -425 0
-382 -384 427 0
382 -427 0
384 -427 0
-386 -388 429 0
386 -429 0
388 -429 0
-390 -392 502 0
390 -502 0
392 -502 0
-394 -395 433 0
394 -433 0
395 -433 0
-396 -398 435 0
396 -435 0
398 -435 0
-400 -401 437 0
400 -437 0
401 -437 0
-402 -404 439 0
402 -439 0
404 -439 0
-406 -408 441 0
406 -441 0
408 -441 0
-410 -412 443 0
410 -443 0
412 -443 0
-414 -416 445 0
414 -445 0
416 -445 0
-418 -420 447 0
418 -447 0
420 -447 0
-422 -424 449 0
422 -449 0
424 -449 0
-426 -428 451 0
426 -451 0
428 -451 0
-430 -431 453 0
430 -453 0
431 -453 0
-432 -434 455 0
432 -455 0
434 -455 0
-436 -438 457 0
436 -457 0
438 -457 0
-440 -442 459 0
440 -459 0
442 -459 0
-444 -446 461 0
444 -461 0
446 -461 0
-448 -450 463 0
448 -463 0
450 -463 0
-452 -454 465 0
452 -465 0
454 -465 0
-456 -458 467 0
456 -467 0
458 -467 0
-460 -462 469 0
460 -469 0
462 -469 0
-464 -466 470 0
464 -470 0
466 -470 0
-27 -36 471 0
27 -471 0
36 -471 0
-45 -54 473 0
45 -473 0
54 -473 0
-63 -72 475 0
63 -475 0
72 -475 0
-81 -90 477 0
81 -477 0
90 -477 0
-379 -381 479 0
379 -479 0
381 -479 0
-383 -385 481 0
383 -481 0
385 -481 0
-387 -389 483 0
387 -483 0
389 -483 0
-391 -393 589 0
391 -589 0
393 -589 0
-397 -399 590 0
397 -590 0
399 -590 0
-403 -405 591 0
403 -591 0
405 -591 0
-407 -409 491 0
407 -491 0
409 -491 0
-411 -413 493 0
411 -493 0
413 -493 0
-415 -417 495 0
415 -495 0
417 -495 0
-419 -421 497 0
419 -497 0
421 -497 0
-423 -425 499 0
423 -499 0
425 -499 0
-427 -429 501 0
427 -501 0
429 -501 0
-433 -435 597 0
433 -597 0
435 -597 0
-437 -439 505 0
437 -505 0
439 -505 0
-441 -443 507 0
441 -507 0
443 -507 0
-445 -447 509 0
445 -509 0
447 -509 0
-449 -451 511 0
449 -511 0
451 -511 0
-453 -455 513 0
453 -513 0
455 -513 0
-457 -459 515 0
457 -515 0
459 -515 0
-461 -463 517 0
461 -517 0
463 -517 0
-465 -467 519 0
465 -519 0
467 -519 0
-469 -470 606 0
469 -606 0
470 -606 0
-472 -474 523 0
472 -523 0
474 -523 0
-476 -478 525 0
476 -525 0
478 -525 0
-480 -482 527 0
480 -527 0
482 -527 0
-484 -485 529 0
484 -529 0
485 -529 0
-486 -487 531 0
486 -531 0
487 -531 0
-488 -489 533 0
488 -533 0
489 -533 0
-490 -492 535 0
490 -535 0
492 -535 0
-494 -496 537 0
494 -537 0
496 -537 0
-498 -500 539 0
498 -539 0
500 -539 0
-502 -503 541 0
502 -541 0
503 -541 0
-504 -506 543 0
504 -543 0
506 -543 0
-508 -510 545 0
508 -545 0
510 -545 0
-512 -514 547 0
512 -547 0
514 -547 0
-516 -518 549 0
516 -549 0
518 -549 0
-520 -521 551 0
520 -551 0
521 -551 0
-522 -524 553 0
522 -553 0
524 -553 0
-526 -528 555 0
526 -555 0
528 -555 0
-530 -532 557 0
530 -557 0
532 -557 0
-534 -536 559 0
534 -559 0
536 -559 0
-538 -540 561 0
538 -561 0
540 -561 0
-542 -544 563 0
542 -563 0
544 -563 0
-546 -548 565 0
546 -565 0
548 -565 0
-550 -552 567 0
550 -567 0
552 -567 0
-554 -556 569 0
554 -569 0
556 -569 0
-558 -560 571 0
558 -571 0
560 -571 0
-562 -564 573 0
562 -573 0
564 -573 0
-566 -568 575 0
566 -575 0
568 -575 0
-570 -572 576 0
570 -576 0
572 -576 0
-37 -46 577 0
37 -577 0
46 -577 0
-55 -64 579 0
55 -579 0
64 -579 0
-73 -82 581 0
73 -581 0
82 -581 0
-91 -471 583 0
91 -583 0
471 -583 0
-473 -475 585 0
473 -585 0
475 -585 0
-477 -479 587 0
477 -587 0
479 -587 0
-481 -483 705 0
481 -705 0
483 -705 0
-491 -493 593 0
491 -593 0
493 -593 0
-495 -497 595 0
495 -595 0
497 -595 0
-499 -501 707 0
499 -707 0
501 -707 0
-505 -507 599 0
505 -599 0
507 -599 0
-509 -511 601 0
509 -601 0
511 -601 0
-513 -515 603 0
513 -603 0
515 -603 0
-517 -519 605 0
517 -605 0
519 -605 0
-523 -525 710 0
523 -710 0
525 -710 0
-527 -529 609 0
527 -609 0
529 -609 0
-531 -533 611 0
531 -611 0
533 -611 0
-535 -537 613 0
535 -613 0
537 -613 0
-539 -541 615 0
539 -615 0
541 -615 0
-543 -545 617 0
543 -617 0
545 -617 0
-547 -549 619 0
547 -619 0
549 -619 0
-551 -553 621 0
551 -621 0
553 -621 0
-555 -557 623 0
555 -623 0
557 -623 0
-559 -561 625 0
559 -625 0
561 -625 0
-563 -565 627 0
563 -627 0
565 -627 0
-567 -569 629 0
567 -629 0
569 -629 0
-571 -573 631 0
571 -631 0
573 -631 0
-575 -576 723 0
575 -723 0
576 -723 0
-578 -580 635 0
578 -635 0
580 -635 0
-582 -584 637 0
582 -637 0
584 -637 0
-586 -588 639 0
586 -639 0
588 -639 0
-589 -590 641 0
589 -641 0
590 -641 0
-591 -592 643 0
591 -643 0
592 -643 0
-594 -596 645 0
594 -645 0
596 -645 0
-597 -598 647 0
597 -647 0
598 -647 0
-600 -602 649 0
600 -649 0
602 -649 0
-604 -606 651 0
604 -651 0
606 -651 0
-607 -608 653 0
607 -653 0
608 -653 0
-610 -612 655 0
610 -655 0
612 -655 0
-614 -616 657 0
614 -657 0
616 -657 0
-618 -620 659 0
618 -659 0
620 -659 0
-622 -624 661 0
622 -661 0
624 -661 0
-626 -628 663 0
626 -663 0
628 -663 0
-630 -632 665 0
630 -665 0
632 -665 0
-633 -634 667 0
633 -667 0
634 -667 0
-636 -638 669 0
636 -669 0
638 -669 0
-640 -642 671 0
640 -671 0
642 -671 0
-644 -646 673 0
644 -673 0
646 -673 0
-648 -650 675 0
648 -675 0
650 -675 0
-652 -654 677 0
652 -677 0
654 -677 0
-656 -658 679 0
656 -679 0
658 -679 0
-660 -662 681 0
660 -681 0
662 -681 0
-664 -666 683 0
664 -683 0
666 -683 0
-668 -670 685 0
668 -685 0
670 -685 0
-672 -674 687 0
672 -687 0
674 -687 0
-676 -678 689 0
676 -689 0
678 -689 0
-680 -682 691 0
680 -691 0
682 -691 0
-684 -686 693 0
684 -693 0
686 -693 0
-688 -690 753 0
688 -753 0
690 -753 0
-47 -56 695 0
47 -695 0
56 -695 0
-65 -74 697 0
65 -697 0
74 -697 0
-83 -92 699 0
83 -699 0
92 -699 0
-577 -579 701 0
577 -701 0
579 -701 0
-581 -583 703 0
581 -703 0
583 -703 0
-585 -587 826 0
585 -826 0
587 -826 0
-593 -595 827 0
593 -827 0
595 -827 0
-599 -601 828 0
599 -828 0
601 -828 0
-603 -605 829 0
603 -829 0
605 -829 0
-609 -611 712 0
609 -712 0
611 -712 0
-613 -615 714 0
613 -714 0
615 -714 0
-617 -619 716 0
617 -716 0
619 -716 0
-621 -623 718 0
621 -718 0
623 -718 0
-625 -627 720 0
625 -720 0
627 -720 0
-629 -631 722 0
629 -722 0
631 -722 0
-635 -637 835 0
635 -835 0
637 -835 0
-639 -641 726 0
639 -726 0
641 -726 0
-643 -645 728 0
643 -728 0
645 -728 0
-647 -649 730 0
647 -730 0
649 -730 0
-651 -653 732 0
651 -732 0
653 -732 0
-655 -657 734 0
655 -734 0
657 -734 0
-659 -661 736 0
659 -736 0
661 -736 0
-663 -665 738 0
663 -738 0
665 -738 0
-667 -669 740 0
667 -740 0
669 -740 0
-671 -673 742 0
671 -742 0
673 -742 0
-675 -677 744 0
675 -744 0
677 -744 0
-679 -681 746 0
679 -746 0
681 -746 0
-683 -685 748 0
683 -748 0
685 -748 0
-687 -689 750 0
687 -750 0
689 -750 0
-691 -693 752 0
691 -752 0
693 -752 0
-694 -696 849 0
694 -849 0
696 -849 0
-698 -700 756 0
698 -756 0
700 -756 0
-702 -704 758 0
702 -758 0
704 -758 0
-706 -707 851 0
706 -851 0
707 -851 0
-708 -709 761 0
708 -761 0
709 -761 0
-710 -711 763 0
710 -763 0
711 -763 0
-713 -715 765 0
713 -765 0
715 -765 0
-717 -719 767 0
717 -767 0
719 -767 0
-721 -723 769 0
721 -769 0
723 -769 0
-724 -725 771 0
724 -771 0
725 -771 0
-727 -729 773 0
727 -773 0
729 -773 0
-731 -733 775 0
731 -775 0
733 -775 0
-735 -737 777 0
735 -777 0
737 -777 0
-739 -741 779 0
739 -779 0
741 -779 0
-743 -745 781 0
743 -781 0
745 -781 0
-747 -749 783 0
747 -783 0
749 -783 0
-751 -753 785 0
751 -785 0
753 -785 0
-754 -755 787 0
754 -787 0
755 -787 0
-705 -757 789 0
757 -789 0
705 -789 0
-759 -760 791 0
759 -791 0
760 -791 0
-762 -764 793 0
762 -793 0
764 -793 0
-766 -768 795 0
766 -795 0
768 -795 0
-770 -772 797 0
770 -797 0
772 -797 0
-774 -776 799 0
774 -799 0
776 -799 0
-778 -780 801 0
778 -801 0
780 -801 0
-782 -784 803 0
782 -803 0
784 -803 0
-786 -788 805 0
786 -805 0
788 -805 0
-790 -792 807 0
790 -807 0
792 -807 0
-794 -796 809 0
794 -809 0
796 -809 0
-798 -800 811 0
798 -811 0
800 -811 0
-802 -804 813 0
802 -813 0
804 -813 0
-806 -808 815 0
806 -815 0
808 -815 0
-810 -812 816 0
810 -816 0
812 -816 0
-57 -66 818 0
57 -818 0
66 -818 0
-75 -84 820 0
75 -820 0
84 -820 0
-93 -695 822 0
93 -822 0
695 -822 0
-697 -699 824 0
697 -824 0
699 -824 0
-701 -703 959 0
701 -959 0
703 -959 0
-712 -714 960 0
712 -960 0
714 -960 0
-716 -718 832 0
716 -832 0
718 -832 0
-720 -722 834 0
720 -834 0
722 -834 0
-726 -728 962 0
726 -962 0
728 -962 0
-730 -732 838 0
730 -838 0
732 -838 0
-734 -736 840 0
734 -840 0
736 -840 0
-738 -740 842 0
738 -842 0
740 -842 0
-742 -744 844 0
742 -844 0
744 -844 0
-746 -748 846 0
746 -846 0
748 -846 0
-750 -752 848 0
750 -848 0
752 -848 0
-756 -758 968 0
756 -968 0
758 -968 0
-761 -763 969 0
761 -969 0
763 -969 0
-765 -767 854 0
765 -854 0
767 -854 0
-769 -771 856 0
769 -856 0
771 -856 0
-773 -775 858 0
773 -858 0
775 -858 0
-777 -779 860 0
777 -860 0
779 -860 0
-781 -783 862 0
781 -862 0
783 -862 0
-785 -787 864 0
785 -864 0
787 -864 0
-789 -791 866 0
789 -866 0
791 -866 0
-793 -795 868 0
793 -868 0
795 -868 0
-797 -799 870 0
797 -870 0
799 -870 0
-801 -803 872 0
801 -872 0
803 -872 0
-805 -807 874 0
805 -874 0
807 -874 0
-809 -811 876 0
809 -876 0
811 -876 0
-813 -815 878 0
813 -878 0
815 -878 0
-814 -816 880 0
816 -880 0
814 -880 0
-817 -819 882 0
817 -882 0
819 -882 0
-821 -823 884 0
821 -884 0
823 -884 0
-825 -826 886 0
825 -886 0
826 -886 0
-827 -828 888 0
827 -888 0
828 -888 0
-829 -830 890 0
829 -890 0
830 -890 0
-831 -833 892 0
831 -892 0
833 -892 0
-835 -836 894 0
835 -894 0
836 -894 0
-837 -839 896 0
837 -896 0
839 -896 0
-841 -843 898 0
841 -898 0
843 -898 0
-845 -847 900 0
845 -900 0
847 -900 0
-849 -850 902 0
849 -902 0
850 -902 0
-851 -852 904 0
851 -904 0
852 -904 0
-853 -855 906 0
853 -906 0
855 -906 0
-857 -859 908 0
857 -908 0
859 -908 0
-861 -863 910 0
861 -910 0
863 -910 0
-865 -867 912 0
865 -912 0
867 -912 0
-869 -871 914 0
869 -914 0
871 -914 0
-873 -875 916 0
873 -916 0
875 -916 0
-877 -879 918 0
877 -918 0
879 -918 0
-881 -883 920 0
881 -920 0
883 -920 0
-885 -887 922 0
885 -922 0
887 -922 0
-889 -891 924 0
889 -924 0
891 -924 0
-893 -895 926 0
893 -926 0
895 -926 0
-897 -899 928 0
897 -928 0
899 -928 0
-901 -903 930 0
901 -930 0
903 -930 0
-905 -907 932 0
905 -932 0
907 -932 0
-909 -911 934 0
909 -934 0
911 -934 0
-913 -915 936 0
913 -936 0
915 -936 0
-917 -919 938 0
917 -938 0
919 -938 0
-921 -923 940 0
921 -940 0
923 -940 0
-925 -927 942 0
925 -942 0
927 -942 0
-929 -931 944 0
929 -944 0
931 -944 0
-933 -935 946 0
933 -946 0
935 -946 0
-937 -939 948 0
937 -948 0
939 -948 0
-941 -943 950 0
941 -950 0
943 -950 0
-945 -947 951 0
945 -951 0
947 -951 0
-67 -76 953 0
67 -953 0
76 -953 0
-85 -94 955 0
85 -955 0
94 -955 0
-818 -820 957 0
818 -957 0
820 -957 0
-822 -824 1095 0
822 -1095 0
824 -1095 0
-832 -834 1096 0
832 -1096 0
834 -1096 0
-838 -840 964 0
838 -964 0
840 -964 0
-842 -844 966 0
842 -966 0
844 -966 0
-846 -848 1098 0
846 -1098 0
848 -1098 0
-854 -856 1099 0
854 -1099 0
856 -1099 0
-858 -860 972 0
858 -972 0
860 -972 0
-862 -864 974 0
862 -974 0
864 -974 0
-866 -868 976 0
866 -976 0
868 -976 0
-870 -872 978 0
870 -978 0
872 -978 0
-874 -876 980 0
874 -980 0
876 -980 0
-878 -880 982 0
878 -982 0
880 -982 0
-882 -884 984 0
882 -984 0
884 -984 0
-886 -888 986 0
886 -986 0
888 -986 0
-890 -892 988 0
890 -988 0
892 -988 0
-894 -896 990 0
894 -990 0
896 -990 0
-898 -900 992 0
898 -992 0
900 -992 0
-902 -904 994 0
902 -994 0
904 -994 0
-906 -908 996 0
906 -996 0
908 -996 0
-910 -912 998 0
910 -998 0
912 -998 0
-914 -916 1000 0
914 -1000 0
916 -1000 0
-918 -920 1002 0
918 -1002 0
920 -1002 0
-922 -924 1004 0
922 -1004 0
924 -1004 0
-926 -928 1006 0
926 -1006 0
928 -1006 0
-930 -932 1008 0
930 -1008 0
932 -1008 0
-934 -936 1010 0
934 -1010 0
936 -1010 0
-938 -940 1012 0
938 -1012 0
940 -1012 0
-942 -944 1014 0
942 -1014 0
944 -1014 0
-946 -948 1016 0
946 -1016 0
948 -1016 0
-950 -951 1018 0
950 -1018 0
951 -1018 0
-949 -952 1020 0
949 -1020 0
952 -1020 0
-954 -956 1022 0
954 -1022 0
956 -1022 0
-958 -959 1125 0
958 -1125 0
959 -1125 0
-961 -962 1025 0
961 -1025 0
962 -1025 0
-963 -965 1027 0
963 -1027 0
965 -1027 0
-967 -968 1029 0
967 -1029 0
968 -1029 0
-969 -970 1031 0
969 -1031 0
970 -1031 0
-971 -973 1033 0
971 -1033 0
973 -1033 0
-975 -977 1035 0
975 -1035 0
977 -1035 0
-979 -981 1037 0
979 -1037 0
981 -1037 0
-983 -985 1039 0
983 -1039 0
985 -1039 0
-987 -989 1041 0
987 -1041 0
989 -1041 0
-991 -993 1043 0
991 -1043 0
993 -1043 0
-995 -997 1045 0
995 -1045 0
997 -1045 0
-999 -1001 1047 0
999 -1047 0
1001 -1047 0
-1003 -1005 1049 0
1003 -1049 0
1005 -1049 0
-1007 -1009 1051 0
1007 -1051 0
1009 -1051 0
-1011 -1013 1053 0
1011 -1053 0
1013 -1053 0
-1015 -1017 1055 0
1015 -1055 0
1017 -1055 0
-1019 -1021 1057 0
1019 -1057 0
1021 -1057 0
-960 -1023 1059 0
1023 -1059 0
960 -1059 0
-1024 -1026 1061 0
1024 -1061 0
1026 -1061 0
-1028 -1030 1063 0
1028 -1063 0
1030 -1063 0
-1032 -1034 1065 0
1032 -1065 0
1034 -1065 0
-1036 -1038 1067 0
1036 -1067 0
1038 -1067 0
-1040 -1042 1069 0
1040 -1069 0
1042 -1069 0
-1044 -1046 1071 0
1044 -1071 0
1046 -1071 0
-1048 -1050 1073 0
1048 -1073 0
1050 -1073 0
-1052 -1054 1075 0
1052 -1075 0
1054 -1075 0
-1056 -1058 1077 0
1056 -1077 0
1058 -1077 0
-1060 -1062 1079 0
1060 -1079 0
1062 -1079 0
-1064 -1066 1081 0
1064 -1081 0
1066 -1081 0
-1068 -1070 1083 0
1068 -1083 0
1070 -1083 0
-1072 -1074 1085 0
1072 -1085 0
1074 -1085 0
-1076 -1078 1087 0
1076 -1087 0
1078 -1087 0
-1080 -1082 1089 0
1080 -1089 0
1082 -1089 0
-1084 -1086 1090 0
1084 -1090 0
1086 -1090 0
-77 -86 1091 0
77 -1091 0
86 -1091 0
-95 -953 1093 0
95 -1093 0
953 -1093 0
-955 -957 1233 0
955 -1233 0
957 -1233 0
-964 -966 1234 0
964 -1234 0
966 -1234 0
-972 -974 1235 0
972 -1235 0
974 -1235 0
-976 -978 1102 0
976 -1102 0
978 -1102 0
-980 -982 1104 0
980 -1104 0
982 -1104 0
-984 -986 1106 0
984 -1106 0
986 -1106 0
-988 -990 1108 0
988 -1108 0
990 -1108 0
-992 -994 1110 0
992 -1110 0
994 -1110 0
-996 -998 1112 0
996 -1112 0
998 -1112 0
-1000 -1002 1114 0
1000 -1114 0
1002 -1114 0
-1004 -1006 1116 0
1004 -1116 0
1006 -1116 0
-1008 -1010 1118 0
1008 -1118 0
1010 -1118 0
-1012 -1014 1120 0
1012 -1120 0
1014 -1120 0
-1016 -1018 1122 0
1016 -1122 0
1018 -1122 0
-1020 -1022 1124 0
1020 -1124 0
1022 -1124 0
-1025 -1027 1246 0
1025 -1246 0
1027 -1246 0
-1029 -1031 1128 0
1029 -1128 0
1031 -1128 0
-1033 -1035 1130 0
1033 -1130 0
1035 -1130 0
-1037 -1039 1132 0
1037 -1132 0
1039 -1132 0
-1041 -1043 1134 0
1041 -1134 0
1043 -1134 0
-1045 -1047 1136 0
1045 -1136 0
1047 -1136 0
-1049 -1051 1138 0
1049 -1138 0
1051 -1138 0
-1053 -1055 1140 0
1053 -1140 0
1055 -1140 0
-1057 -1059 1142 0
1057 -1142 0
1059 -1142 0
-1061 -1063 1144 0
1061 -1144 0
1063 -1144 0
-1065 -1067 1146 0
1065 -1146 0
1067 -1146 0
-1069 -1071 1148 0
1069 -1148 0
1071 -1148 0
-1073 -1075 1150 0
1073 -1150 0
1075 -1150 0
-1077 -1079 1152 0
1077 -1152 0
1079 -1152 0
-1081 -1083 1154 0
1081 -1154 0
1083 -1154 0
-1085 -1087 1156 0
1085 -1156 0
1087 -1156 0
-1089 -1090 1158 0
1089 -1158 0
1090 -1158 0
-1092 -1094 1263 0
1092 -1263 0
1094 -1263 0
-1096 -1097 1264 0
1096 -1264 0
1097 -1264 0
-1098 -1099 1163 0
1098 -1163 0
1099 -1163 0
-1100 -1101 1165 0
1100 -1165 0
1101 -1165 0
-1103 -1105 1167 0
1103 -1167 0
1105 -1167 0
-1107 -1109 1169 0
1107 -1169 0
1109 -1169 0
-1111 -1113 1171 0
1111 -1171 0
1113 -1171 0
-1115 -1117 1173 0
1115 -1173 0
1117 -1173 0
-1119 -1121 1175 0
1119 -1175 0
1121 -1175 0
-1123 -1125 1177 0
1123 -1177 0
1125 -1177 0
-1126 -1127 1179 0
1126 -1179 0
1127 -1179 0
-1129 -1131 1181 0
1129 -1181 0
1131 -1181 0
-1133 -1135 1183 0
1133 -1183 0
1135 -1183 0
-1137 -1139 1185 0
1137 -1185 0
1139 -1185 0
-1141 -1143 1187 0
1141 -1187 0
1143 -1187 0
-1145 -1147 1189 0
1145 -1189 0
1147 -1189 0
-1149 -1151 1191 0
1149 -1191 0
1151 -1191 0
-1153 -1155 1193 0
1153 -1193 0
1155 -1193 0
-1157 -1159 1195 0
1157 -1195 0
1159 -1195 0
-1095 -1160 1197 0
1160 -1197 0
1095 -1197 0
-1161 -1162 1199 0
1161 -1199 0
1162 -1199 0
-1164 -1166 1201 0
1164 -1201 0
1166 -1201 0
-1168 -1170 1203 0
1168 -1203 0
1170 -1203 0
-1172 -1174 1205 0
1172 -1205 0
1174 -1205 0
-1176 -1178 1207 0
1176 -1207 0
1178 -1207 0
-1180 -1182 1209 0
1180 -1209 0
1182 -1209 0
-1184 -1186 1211 0
1184 -1211 0
1186 -1211 0
-1188 -1190 1213 0
1188 -1213 0
1190 -1213 0
-1192 -1194 1215 0
1192 -1215 0
1194 -1215 0
-1196 -1198 1217 0
1196 -1217 0
1198 -1217 0
-1200 -1202 1219 0
1200 -1219 0
1202 -1219 0
-1204 -1206 1221 0
1204 -1221 0
1206 -1221 0
-1208 -1210 1223 0
1208 -1223 0
1210 -1223 0
-1212 -1214 1225 0
1212 -1225 0
1214 -1225 0
-1216 -1218 1227 0
1216 -1227 0
1218 -1227 0
-1220 -1222 1229 0
1220 -1229 0
1222 -1229 0
-1224 -1226 1298 0
1224 -1298 0
1226 -1298 0
-87 -96 1231 0
87 -1231 0
96 -1231 0
-1091 -1093 1373 0
1091 -1373 0
1093 -1373 0
-1102 -1104 1440 0
1102 -1440 0
1104 -1440 0
-1106 -1108 1238 0
1106 -1238 0
1108 -1238 0
-1110 -1112 1240 0
1110 -1240 0
1112 -1240 0
-1114 -1116 1242 0
1114 -1242 0
1116 -1242 0
-1118 -1120 1244 0
1118 -1244 0
1120 -1244 0
-1122 -1124 1378 0
1122 -1378 0
1124 -1378 0
-1128 -1130 1248 0
1128 -1248 0
1130 -1248 0
-1132 -1134 1250 0
1132 -1250 0
1134 -1250 0
-1136 -1138 1252 0
1136 -1252 0
1138 -1252 0
-1140 -1142 1254 0
1140 -1254 0
1142 -1254 0
-1144 -1146 1256 0
1144 -1256 0
1146 -1256 0
-1148 -1150 1258 0
1148 -1258 0
1150 -1258 0
-1152 -1154 1260 0
1152 -1260 0
1154 -1260 0
-1156 -1158 1262 0
1156 -1262 0
1158 -1262 0
-1163 -1165 1266 0
1163 -1266 0
1165 -1266 0
-1167 -1169 1268 0
1167 -1268 0
1169 -1268 0
-1171 -1173 1270 0
1171 -1270 0
1173 -1270 0
-1175 -1177 1272 0
1175 -1272 0
1177 -1272 0
-1179 -1181 1274 0
1179 -1274 0
1181 -1274 0
-1183 -1185 1276 0
1183 -1276 0
1185 -1276 0
-1187 -1189 1278 0
1187 -1278 0
1189 -1278 0
-1191 -1193 1280 0
1191 -1280 0
1193 -1280 0
-1195 -1197 1282 0
1195 -1282 0
1197 -1282 0
-1199 -1201 1284 0
1199 -1284 0
1201 -1284 0
-1203 -1205 1286 0
1203 -1286 0
1205 -1286 0
-1207 -1209 1288 0
1207 -1288 0
1209 -1288 0
-1211 -1213 1290 0
1211 -1290 0
1213 -1290 0
-1215 -1217 1292 0
1215 -1292 0
1217 -1292 0
-1219 -1221 1294 0
1219 -1294 0
1221 -1294 0
-1223 -1225 1296 0
1223 -1296 0
1225 -1296 0
-1227 -1229 1400 0
1227 -1400 0
1229 -1400 0
-1230 -1232 1401 0
1230 -1401 0
1232 -1401 0
-1234 -1235 1301 0
1234 -1301 0
1235 -1301 0
-1236 -1237 1303 0
1236 -1303 0
1237 -1303 0
-1239 -1241 1305 0
1239 -1305 0
1241 -1305 0
-1243 -1245 1307 0
1243 -1307 0
1245 -1307 0
-1246 -1247 1309 0
1246 -1309 0
1247 -1309 0
-1249 -1251 1311 0
1249 -1311 0
1251 -1311 0
-1253 -1255 1313 0
1253 -1313 0
1255 -1313 0
-1257 -1259 1315 0
1257 -1315 0
1259 -1315 0
-1261 -1263 1317 0
1261 -1317 0
1263 -1317 0
-1264 -1265 1319 0
1264 -1319 0
1265 -1319 0
-1267 -1269 1321 0
1267 -1321 0
1269 -1321 0
-1271 -1273 1323 0
1271 -1323 0
1273 -1323 0
-1275 -1277 1325 0
1275 -1325 0
1277 -1325 0
-1279 -1281 1327 0
1279 -1327 0
1281 -1327 0
-1283 -1285 1329 0
1283 -1329 0
1285 -1329 0
-1287 -1289 1331 0
1287 -1331 0
1289 -1331 0
-1291 -1293 1333 0
1291 -1333 0
1293 -1333 0
-1295 -1297 1335 0
1295 -1335 0
1297 -1335 0
-1298 -1299 1337 0
1298 -1337 0
1299 -1337 0
-1233 -1300 1339 0
1233 -1339 0
1300 -1339 0
-1302 -1304 1341 0
1302 -1341 0
1304 -1341 0
-1306 -1308 1343 0
1306 -1343 0
1308 -1343 0
-1310 -1312 1345 0
1310 -1345 0
1312 -1345 0
-1314 -1316 1347 0
1314 -1347 0
1316 -1347 0
-1318 -1320 1349 0
1318 -1349 0
1320 -1349 0
-1322 -1324 1351 0
1322 -1351 0
1324 -1351 0
-1326 -1328 1353 0
1326 -1353 0
1328 -1353 0
-1330 -1332 1355 0
1330 -1355 0
1332 -1355 0
-1334 -1336 1357 0
1334 -1357 0
1336 -1357 0
-1338 -1340 1359 0
1338 -1359 0
1340 -1359 0
-1342 -1344 1361 0
1342 -1361 0
1344 -1361 0
-1346 -1348 1363 0
1346 -1363 0
1348 -1363 0
-1350 -1352 1365 0
1350 -1365 0
1352 -1365 0
-1354 -1356 1367 0
1354 -1367 0
1356 -1367 0
-1358 -1360 1369 0
1358 -1369 0
1360 -1369 0
-1362 -1364 1371 0
1362 -1371 0
1364 -1371 0
-1366 -1368 1438 0
1366 -1438 0
1368 -1438 0
-97 -1231 1511 0
97 -1511 0
1231 -1511 0
-1238 -1240 1375 0
1238 -1375 0
1240 -1375 0
-1242 -1244 1377 0
1242 -1377 0
1244 -1377 0
-1248 -1250 1512 0
1248 -1512 0
1250 -1512 0
-1252 -1254 1381 0
1252 -1381 0
1254 -1381 0
-1256 -1258 1383 0
1256 -1383 0
1258 -1383 0
-1260 -1262 1514 0
1260 -1514 0
1262 -1514 0
-1266 -1268 1385 0
1266 -1385 0
1268 -1385 0
-1270 -1272 1387 0
1270 -1387 0
1272 -1387 0
-1274 -1276 1389 0
1274 -1389 0
1276 -1389 0
-1278 -1280 1391 0
1278 -1391 0
1280 -1391 0
-1282 -1284 1393 0
1282 -1393 0
1284 -1393 0
-1286 -1288 1395 0
1286 -1395 0
1288 -1395 0
-1290 -1292 1397 0
1290 -1397 0
1292 -1397 0
-1294 -1296 1399 0
1294 -1399 0
1296 -1399 0
-1301 -1303 1403 0
1301 -1403 0
1303 -1403 0
-1305 -1307 1405 0
1305 -1405 0
1307 -1405 0
-1309 -1311 1407 0
1309 -1407 0
1311 -1407 0
-1313 -1315 1409 0
1313 -1409 0
1315 -1409 0
-1317 -1319 1411 0
1317 -1411 0
1319 -1411 0
-1321 -1323 1413 0
1321 -1413 0
1323 -1413 0
-1325 -1327 1415 0
1325 -1415 0
1327 -1415 0
-1329 -1331 1417 0
1329 -1417 0
1331 -1417 0
-1333 -1335 1419 0
1333 -1419 0
1335 -1419 0
-1337 -1339 1421 0
1337 -1421 0
1339 -1421 0
-1341 -1343 1423 0
1341 -1423 0
1343 -1423 0
-1345 -1347 1425 0
1345 -1425 0
1347 -1425 0
-1349 -1351 1427 0
1349 -1427 0
1351 -1427 0
-1353 -1355 1429 0
1353 -1429 0
1355 -1429 0
-1357 -1359 1431 0
1357 -1431 0
1359 -1431 0
-1361 -1363 1433 0
1361 -1433 0
1363 -1433 0
-1365 -1367 1435 0
1365 -1435 0
1367 -1435 0
-1369 -1371 1437 0
1369 -1437 0
1371 -1437 0
-1372 -1373 1539 0
1372 -1539 0
1373 -1539 0
-1374 -1376 1540 0
1374 -1540 0
1376 -1540 0
-1378 -1379 1443 0
1378 -1443 0
1379 -1443 0
-1380 -1382 1445 0
1380 -1445 0
1382 -1445 0
-1384 -1386 1542 0
1384 -1542 0
1386 -1542 0
-1388 -1390 1449 0
1388 -1449 0
1390 -1449 0
-1392 -1394 1451 0
1392 -1451 0
1394 -1451 0
-1396 -1398 1453 0
1396 -1453 0
1398 -1453 0
-1400 -1401 1455 0
1400 -1455 0
1401 -1455 0
-1402 -1404 1457 0
1402 -1457 0
1404 -1457 0
-1406 -1408 1459 0
1406 -1459 0
1408 -1459 0
-1410 -1412 1461 0
1410 -1461 0
1412 -1461 0
-1414 -1416 1463 0
1414 -1463 0
1416 -1463 0
-1418 -1420 1465 0
1418 -1465 0
1420 -1465 0
-1422 -1424 1467 0
1422 -1467 0
1424 -1467 0
-1426 -1428 1469 0
1426 -1469 0
1428 -1469 0
-1430 -1432 1471 0
1430 -1471 0
1432 -1471 0
-1434 -1436 1473 0
1434 -1473 0
1436 -1473 0
-1438 -1439 1475 0
1438 -1475 0
1439 -1475 0
-1440 -1441 1477 0
1440 -1477 0
1441 -1477 0
-1442 -1444 1479 0
1442 -1479 0
1444 -1479 0
-1446 -1447 1481 0
1446 -1481 0
1447 -1481 0
-1448 -1450 1483 0
1448 -1483 0
1450 -1483 0
-1452 -1454 1485 0
1452 -1485 0
1454 -1485 0
-1456 -1458 1487 0
1456 -1487 0
1458 -1487 0
-1460 -1462 1489 0
1460 -1489 0
1462 -1489 0
-1464 -1466 1491 0
1464 -1491 0
1466 -1491 0
-1468 -1470 1493 0
1468 -1493 0
1470 -1493 0
-1472 -1474 1495 0
1472 -1495 0
1474 -1495 0
-1476 -1478 1497 0
1476 -1497 0
1478 -1497 0
-1480 -1482 1499 0
1480 -1499 0
1482 -1499 0
-1484 -1486 1501 0
1484 -1501 0
1486 -1501 0
-1488 -1490 1503 0
1488 -1503 0
1490 -1503 0
-1492 -1494 1505 0
1492 -1505 0
1494 -1505 0
-1496 -1498 1507 0
1496 -1507 0
1498 -1507 0
-1500 -1502 1509 0
1500 -1509 0
1502 -1509 0
-1504 -1506 1510 0
1504 -1510 0
1506 -1510 0
-1375 -1377 1710 0
1375 -1710 0
1377 -1710 0
-1381 -1383 1647 0
1381 -1647 0
1383 -1647 0
-1385 -1387 1516 0
1385 -1516 0
1387 -1516 0
-1389 -1391 1518 0
1389 -1518 0
1391 -1518 0
-1393 -1395 1520 0
1393 -1520 0
1395 -1520 0
-1397 -1399 1521 0
1397 -1521 0
1399 -1521 0
-1403 -1405 1650 0
1403 -1650 0
1405 -1650 0
-1407 -1409 1524 0
1407 -1524 0
1409 -1524 0
-1411 -1413 1526 0
1411 -1526 0
1413 -1526 0
-1415 -1417 1528 0
1415 -1528 0
1417 -1528 0
-1419 -1421 1530 0
1419 -1530 0
1421 -1530 0
-1423 -1425 1532 0
1423 -1532 0
1425 -1532 0
-1427 -1429 1534 0
1427 -1534 0
1429 -1534 0
-1431 -1433 1536 0
1431 -1536 0
1433 -1536 0
-1435 -1437 1538 0
1435 -1538 0
1437 -1538 0
-1443 -1445 1659 0
1443 -1659 0
1445 -1659 0
-1449 -1451 1544 0
1449 -1544 0
1451 -1544 0
-1453 -1455 1546 0
1453 -1546 0
1455 -1546 0
-1457 -1459 1548 0
1457 -1548 0
1459 -1548 0
-1461 -1463 1550 0
1461 -1550 0
1463 -1550 0
-1465 -1467 1552 0
1465 -1552 0
1467 -1552 0
-1469 -1471 1554 0
1469 -1554 0
1471 -1554 0
-1473 -1475 1556 0
1473 -1556 0
1475 -1556 0
-1477 -1479 1558 0
1477 -1558 0
1479 -1558 0
-1481 -1483 1560 0
1481 -1560 0
1483 -1560 0
-1485 -1487 1562 0
1485 -1562 0
1487 -1562 0
-1489 -1491 1564 0
1489 -1564 0
1491 -1564 0
-1493 -1495 1566 0
1493 -1566 0
1495 -1566 0
-1497 -1499 1568 0
1497 -1568 0
1499 -1568 0
-1501 -1503 1570 0
1501 -1570 0
1503 -1570 0
-1505 -1507 1572 0
1505 -1572 0
1507 -1572 0
-1509 -1510 1574 0
1509 -1574 0
1510 -1574 0
-1512 -1513 1577 0
1512 -1577 0
1513 -1577 0
-1514 -1515 1579 0
1514 -1579 0
1515 -1579 0
-1517 -1519 1676 0
1517 -1676 0
1519 -1676 0
-1522 -1523 1583 0
1522 -1583 0
1523 -1583 0
-1525 -1527 1585 0
1525 -1585 0
1527 -1585 0
-1529 -1531 1587 0
1529 -1587 0
1531 -1587 0
-1533 -1535 1589 0
1533 -1589 0
1535 -1589 0
-1537 -1539 1591 0
1537 -1591 0
1539 -1591 0
-1540 -1541 1593 0
1540 -1593 0
1541 -1593 0
-1542 -1543 1595 0
1542 -1595 0
1543 -1595 0
-1545 -1547 1597 0
1545 -1597 0
1547 -1597 0
-1549 -1551 1599 0
1549 -1599 0
1551 -1599 0
-1553 -1555 1601 0
1553 -1601 0
1555 -1601 0
-1557 -1559 1603 0
1557 -1603 0
1559 -1603 0
-1561 -1563 1605 0
1561 -1605 0
1563 -1605 0
-1565 -1567 1607 0
1565 -1607 0
1567 -1607 0
-1569 -1571 1609 0
1569 -1609 0
1571 -1609 0
-1511 -1573 1611 0
1573 -1611 0
1511 -1611 0
-1575 -1576 1613 0
1575 -1613 0
1576 -1613 0
-1578 -1580 1615 0
1578 -1615 0
1580 -1615 0
-1581 -1582 1617 0
1581 -1617 0
1582 -1617 0
-1584 -1586 1619 0
1584 -1619 0
1586 -1619 0
-1588 -1590 1621 0
1588 -1621 0
1590 -1621 0
-1592 -1594 1623 0
1592 -1623 0
1594 -1623 0
-1596 -1598 1625 0
1596 -1625 0
1598 -1625 0
-1600 -1602 1627 0
1600 -1627 0
1602 -1627 0
-1604 -1606 1629 0
1604 -1629 0
1606 -1629 0
-1608 -1610 1631 0
1608 -1631 0
1610 -1631 0
-1612 -1614 1633 0
1612 -1633 0
1614 -1633 0
-1616 -1618 1635 0
1616 -1635 0
1618 -1635 0
-1620 -1622 1637 0
1620 -1637 0
1622 -1637 0
-1624 -1626 1639 0
1624 -1639 0
1626 -1639 0
-1628 -1630 1641 0
1628 -1641 0
1630 -1641 0
-1632 -1634 1643 0
1632 -1643 0
1634 -1643 0
-1636 -1638 1645 0
1636 -1645 0
1638 -1645 0
-1640 -1642 1646 0
1640 -1646 0
1642 -1646 0
-1516 -1518 1778 0
1516 -1778 0
1518 -1778 0
-1520 -1521 1779 0
1520 -1779 0
1521 -1779 0
-1524 -1526 1652 0
1524 -1652 0
1526 -1652 0
-1528 -1530 1654 0
1528 -1654 0
1530 -1654 0
-1532 -1534 1656 0
1532 -1656 0
1534 -1656 0
-1536 -1538 1658 0
1536 -1658 0
1538 -1658 0
-1544 -1546 1661 0
1544 -1661 0
1546 -1661 0
-1548 -1550 1663 0
1548 -1663 0
1550 -1663 0
-1552 -1554 1665 0
1552 -1665 0
1554 -1665 0
-1556 -1558 1667 0
1556 -1667 0
1558 -1667 0
-1560 -1562 1669 0
1560 -1669 0
1562 -1669 0
-1564 -1566 1671 0
1564 -1671 0
1566 -1671 0
-1568 -1570 1673 0
1568 -1673 0
1570 -1673 0
-1572 -1574 1675 0
1572 -1675 0
1574 -1675 0
-1577 -1579 1789 0
1577 -1789 0
1579 -1789 0
-1583 -1585 1790 0
1583 -1790 0
1585 -1790 0
-1587 -1589 1679 0
1587 -1679 0
1589 -1679 0
-1591 -1593 1681 0
1591 -1681 0
1593 -1681 0
-1595 -1597 1683 0
1595 -1683 0
1597 -1683 0
-1599 -1601 1685 0
1599 -1685 0
1601 -1685 0
-1603 -1605 1687 0
1603 -1687 0
1605 -1687 0
-1607 -1609 1689 0
1607 -1689 0
1609 -1689 0
-1611 -1613 1691 0
1611 -1691 0
1613 -1691 0
-1615 -1617 1693 0
1615 -1693 0
1617 -1693 0
-1619 -1621 1695 0
1619 -1695 0
1621 -1695 0
-1623 -1625 1697 0
1623 -1697 0
1625 -1697 0
-1627 -1629 1699 0
1627 -1699 0
1629 -1699 0
-1631 -1633 1701 0
1631 -1701 0
1633 -1701 0
-1635 -1637 1703 0
1635 -1703 0
1637 -1703 0
-1639 -1641 1705 0
1639 -1705 0
1641 -1705 0
-1643 -1645 1707 0
1643 -1707 0
1645 -1707 0
-1644 -1646 1709 0
1646 -1709 0
1644 -1709 0
-1647 -1648 1807 0
1647 -1807 0
1648 -1807 0
-1649 -1650 1713 0
1649 -1713 0
1650 -1713 0
-1651 -1653 1715 0
1651 -1715 0
1653 -1715 0
-1655 -1657 1809 0
1655 -1809 0
1657 -1809 0
-1660 -1662 1718 0
1660 -1718 0
1662 -1718 0
-1664 -1666 1720 0
1664 -1720 0
1666 -1720 0
-1668 -1670 1722 0
1668 -1722 0
1670 -1722 0
-1672 -1674 1724 0
1672 -1724 0
1674 -1724 0
-1676 -1677 1812 0
1676 -1812 0
1677 -1812 0
-1678 -1680 1728 0
1678 -1728 0
1680 -1728 0
-1682 -1684 1730 0
1682 -1730 0
1684 -1730 0
-1686 -1688 1732 0
1686 -1732 0
1688 -1732 0
-1690 -1692 1734 0
1690 -1734 0
1692 -1734 0
-1694 -1696 1736 0
1694 -1736 0
1696 -1736 0
-1698 -1700 1738 0
1698 -1738 0
1700 -1738 0
-1702 -1704 1740 0
1702 -1740 0
1704 -1740 0
-1706 -1708 1742 0
1706 -1742 0
1708 -1742 0
-1710 -1711 1744 0
1710 -1744 0
1711 -1744 0
-1712 -1714 1746 0
1712 -1746 0
1714 -1746 0
-1659 -1716 1748 0
1716 -1748 0
1659 -1748 0
-1717 -1719 1750 0
1717 -1750 0
1719 -1750 0
-1721 -1723 1752 0
1721 -1752 0
1723 -1752 0
-1725 -1726 1754 0
1725 -1754 0
1726 -1754 0
-1727 -1729 1756 0
1727 -1756 0
1729 -1756 0
-1731 -1733 1758 0
1731 -1758 0
1733 -1758 0
-1735 -1737 1760 0
1735 -1760 0
1737 -1760 0
-1739 -1741 1762 0
1739 -1762 0
1741 -1762 0
-1743 -1745 1764 0
1743 -1764 0
1745 -1764 0
-1747 -1749 1766 0
1747 -1766 0
1749 -1766 0
-1751 -1753 1768 0
1751 -1768 0
1753 -1768 0
-1755 -1757 1770 0
1755 -1770 0
1757 -1770 0
-1759 -1761 1772 0
1759 -1772 0
1761 -1772 0
-1763 -1765 1774 0
1763 -1774 0
1765 -1774 0
-1767 -1769 1776 0
1767 -1776 0
1769 -1776 0
-1771 -1773 1777 0
1771 -1777 0
1773 -1777 0
-1652 -1654 1909 0
1652 -1909 0
1654 -1909 0
-1656 -1658 1910 0
1656 -1910 0
1658 -1910 0
-1661 -1663 1782 0
1661 -1782 0
1663 -1782 0
-1665 -1667 1784 0
1665 -1784 0
1667 -1784 0
-1669 -1671 1786 0
1669 -1786 0
1671 -1786 0
-1673 -1675 1788 0
1673 -1788 0
1675 -1788 0
-1679 -1681 1792 0
1679 -1792 0
1681 -1792 0
-1683 -1685 1794 0
1683 -1794 0
1685 -1794 0
-1687 -1689 1796 0
1687 -1796 0
1689 -1796 0
-1691 -1693 1798 0
1691 -1798 0
1693 -1798 0
-1695 -1697 1800 0
1695 -1800 0
1697 -1800 0
-1699 -1701 1802 0
1699 -1802 0
1701 -1802 0
-1703 -1705 1804 0
1703 -1804 0
1705 -1804 0
-1707 -1709 1806 0
1707 -1806 0
1709 -1806 0
-1713 -1715 1920 0
1713 -1920 0
1715 -1920 0
-1718 -1720 1921 0
1718 -1921 0
1720 -1921 0
-1722 -1724 1922 0
1722 -1922 0
1724 -1922 0
-1728 -1730 1814 0
1728 -1814 0
1730 -1814 0
-1732 -1734 1816 0
1732 -1816 0
1734 -1816 0
-1736 -1738 1818 0
1736 -1818 0
1738 -1818 0
-1740 -1742 1820 0
1740 -1820 0
1742 -1820 0
-1744 -1746 1822 0
1744 -1822 0
1746 -1822 0
-1748 -1750 1824 0
1748 -1824 0
1750 -1824 0
-1752 -1754 1826 0
1752 -1826 0
1754 -1826 0
-1756 -1758 1828 0
1756 -1828 0
1758 -1828 0
-1760 -1762 1830 0
1760 -1830 0
1762 -1830 0
-1764 -1766 1832 0
1764 -1832 0
1766 -1832 0
-1768 -1770 1834 0
1768 -1834 0
1770 -1834 0
-1772 -1774 1836 0
1772 -1836 0
1774 -1836 0
-1776 -1777 1933 0
1776 -1933 0
1777 -1933 0
-1778 -1779 1839 0
1778 -1839 0
1779 -1839 0
-1780 -1781 1841 0
1780 -1841 0
1781 -1841 0
-1783 -1785 1935 0
1783 -1935 0
1785 -1935 0
-1787 -1789 1845 0
1787 -1845 0
1789 -1845 0
-1790 -1791 1847 0
1790 -1847 0
1791 -1847 0
-1793 -1795 1849 0
1793 -1849 0
1795 -1849 0
-1797 -1799 1851 0
1797 -1851 0
1799 -1851 0
-1801 -1803 1853 0
1801 -1853 0
1803 -1853 0
-1805 -1807 1855 0
1805 -1855 0
1807 -1855 0
-1808 -1809 1857 0
1808 -1857 0
1809 -1857 0
-1810 -1811 1859 0
1810 -1859 0
1811 -1859 0
-1812 -1813 1861 0
1812 -1861 0
1813 -1861 0
-1815 -1817 1863 0
1815 -1863 0
1817 -1863 0
-1819 -1821 1865 0
1819 -1865 0
1821 -1865 0
-1823 -1825 1867 0
1823 -1867 0
1825 -1867 0
-1827 -1829 1869 0
1827 -1869 0
1829 -1869 0
-1831 -1833 1871 0
1831 -1871 0
1833 -1871 0
-1835 -1837 1873 0
1835 -1873 0
1837 -1873 0
-1775 -1838 1875 0
1775 -1875 0
1838 -1875 0
-1840 -1842 1877 0
1840 -1877 0
1842 -1877 0
-1843 -1844 1879 0
1843 -1879 0
1844 -1879 0
-1846 -1848 1881 0
1846 -1881 0
1848 -1881 0
-1850 -1852 1883 0
1850 -1883 0
1852 -1883 0
-1854 -1856 1885 0
1854 -1885 0
1856 -1885 0
-1858 -1860 1887 0
1858 -1887 0
1860 -1887 0
-1862 -1864 1889 0
1862 -1889 0
1864 -1889 0
-1866 -1868 1891 0
1866 -1891 0
1868 -1891 0
-1870 -1872 1893 0
1870 -1893 0
1872 -1893 0
-1874 -1876 1895 0
1874 -1895 0
1876 -1895 0
-1878 -1880 1897 0
1878 -1897 0
1880 -1897 0
-1882 -1884 1899 0
1882 -1899 0
1884 -1899 0
-1886 -1888 1901 0
1886 -1901 0
1888 -1901 0
-1890 -1892 1903 0
1890 -1903 0
1892 -1903 0
-1894 -1896 1905 0
1894 -1905 0
1896 -1905 0
-1898 -1900 1907 0
1898 -1907 0
1900 -1907 0
-1902 -1904 1908 0
1902 -1908 0
1904 -1908 0
-1782 -1784 2038 0
1782 -2038 0
1784 -2038 0
-1786 -1788 2039 0
1786 -2039 0
1788 -2039 0
-1792 -1794 1913 0
1792 -1913 0
1794 -1913 0
-1796 -1798 1915 0
1796 -1915 0
1798 -1915 0
-1800 -1802 1917 0
1800 -1917 0
1802 -1917 0
-1804 -1806 1919 0
1804 -1919 0
1806 -1919 0
-1814 -1816 2042 0
1814 -2042 0
1816 -2042 0
-1818 -1820 1925 0
1818 -1925 0
1820 -1925 0
-1822 -1824 1927 0
1822 -1927 0
1824 -1927 0
-1826 -1828 1929 0
1826 -1929 0
1828 -1929 0
-1830 -1832 1931 0
1830 -1931 0
1832 -1931 0
-1834 -1836 2045 0
1834 -2045 0
1836 -2045 0
-1839 -1841 2046 0
1839 -2046 0
1841 -2046 0
-1845 -1847 1937 0
1845 -1937 0
1847 -1937 0
-1849 -1851 1939 0
1849 -1939 0
1851 -1939 0
-1853 -1855 1941 0
1853 -1941 0
1855 -1941 0
-1857 -1859 1943 0
1857 -1943 0
1859 -1943 0
-1861 -1863 1945 0
1861 -1945 0
1863 -1945 0
-1865 -1867 1947 0
1865 -1947 0
1867 -1947 0
-1869 -1871 1949 0
1869 -1949 0
1871 -1949 0
-1873 -1875 1951 0
1873 -1951 0
1875 -1951 0
-1877 -1879 1953 0
1877 -1953 0
1879 -1953 0
-1881 -1883 1955 0
1881 -1955 0
1883 -1955 0
-1885 -1887 1957 0
1885 -1957 0
1887 -1957 0
-1889 -1891 1959 0
1889 -1959 0
1891 -1959 0
-1893 -1895 1961 0
1893 -1961 0
1895 -1961 0
-1897 -1899 1963 0
1897 -1963 0
1899 -1963 0
-1901 -1903 1965 0
1901 -1965 0
1903 -1965 0
-1905 -1907 1967 0
1905 -1967 0
1907 -1967 0
-1906 -1908 2061 0
1908 -2061 0
1906 -2061 0
-1910 -1911 2062 0
1910 -2062 0
1911 -2062 0
-1912 -1914 1972 0
1912 -1972 0
1914 -1972 0
-1916 -1918 1974 0
1916 -1974 0
1918 -1974 0
-1920 -1921 1976 0
1920 -1976 0
1921 -1976 0
-1922 -1923 1978 0
1922 -1978 0
1923 -1978 0
-1924 -1926 1980 0
1924 -1980 0
1926 -1980 0
-1928 -1930 1982 0
1928 -1982 0
1930 -1982 0
-1932 -1933 1984 0
1932 -1984 0
1933 -1984 0
-1934 -1935 1986 0
1934 -1986 0
1935 -1986 0
-1936 -1938 1988 0
1936 -1988 0
1938 -1988 0
-1940 -1942 1990 0
1940 -1990 0
1942 -1990 0
-1944 -1946 1992 0
1944 -1992 0
1946 -1992 0
-1948 -1950 1994 0
1948 -1994 0
1950 -1994 0
-1952 -1954 1996 0
1952 -1996 0
1954 -1996 0
-1956 -1958 1998 0
1956 -1998 0
1958 -1998 0
-1960 -1962 2000 0
1960 -2000 0
1962 -2000 0
-1964 -1966 2002 0
1964 -2002 0
1966 -2002 0
-1909 -1968 2004 0
1968 -2004 0
1909 -2004 0
-1969 -1970 2006 0
1969 -2006 0
1970 -2006 0
-1971 -1973 2008 0
1971 -2008 0
1973 -2008 0
-1975 -1977 2010 0
1975 -2010 0
1977 -2010 0
-1979 -1981 2012 0
1979 -2012 0
1981 -2012 0
-1983 -1985 2014 0
1983 -2014 0
1985 -2014 0
-1987 -1989 2016 0
1987 -2016 0
1989 -2016 0
-1991 -1993 2018 0
1991 -2018 0
1993 -2018 0
-1995 -1997 2020 0
1995 -2020 0
1997 -2020 0
-1999 -2001 2022 0
1999 -2022 0
2001 -2022 0
-2003 -2005 2024 0
2003 -2024 0
2005 -2024 0
-2007 -2009 2026 0
2007 -2026 0
2009 -2026 0
-2011 -2013 2028 0
2011 -2028 0
2013 -2028 0
-2015 -2017 2030 0
2015 -2030 0
2017 -2030 0
-2019 -2021 2032 0
2019 -2032 0
2021 -2032 0
-2023 -2025 2034 0
2023 -2034 0
2025 -2034 0
-2027 -2029 2036 0
2027 -2036 0
2029 -2036 0
-2031 -2033 2037 0
2031 -2037 0
2033 -2037 0
-1913 -1915 2163 0
1913 -2163 0
1915 -2163 0
-1917 -1919 2164 0
1917 -2164 0
1919 -2164 0
-1925 -1927 2165 0
1925 -2165 0
1927 -2165 0
-1929 -1931 2166 0
1929 -2166 0
1931 -2166 0
-1937 -1939 2167 0
1937 -2167 0
1939 -2167 0
-1941 -1943 2049 0
1941 -2049 0
1943 -2049 0
-1945 -1947 2051 0
1945 -2051 0
1947 -2051 0
-1949 -1951 2053 0
1949 -2053 0
1951 -2053 0
-1953 -1955 2055 0
1953 -2055 0
1955 -2055 0
-1957 -1959 2057 0
1957 -2057 0
1959 -2057 0
-1961 -1963 2059 0
1961 -2059 0
1963 -2059 0
-1965 -1967 2173 0
1965 -2173 0
1967 -2173 0
-1972 -1974 2174 0
1972 -2174 0
1974 -2174 0
-1976 -1978 2065 0
1976 -2065 0
1978 -2065 0
-1980 -1982 2067 0
1980 -2067 0
1982 -2067 0
-1984 -1986 2069 0
1984 -2069 0
1986 -2069 0
-1988 -1990 2071 0
1988 -2071 0
1990 -2071 0
-1992 -1994 2073 0
1992 -2073 0
1994 -2073 0
-1996 -1998 2075 0
1996 -2075 0
1998 -2075 0
-2000 -2002 2077 0
2000 -2077 0
2002 -2077 0
-2004 -2006 2079 0
2004 -2079 0
2006 -2079 0
-2008 -2010 2081 0
2008 -2081 0
2010 -2081 0
-2012 -2014 2083 0
2012 -2083 0
2014 -2083 0
-2016 -2018 2085 0
2016 -2085 0
2018 -2085 0
-2020 -2022 2087 0
2020 -2087 0
2022 -2087 0
-2024 -2026 2089 0
2024 -2089 0
2026 -2089 0
-2028 -2030 2091 0
2028 -2091 0
2030 -2091 0
-2032 -2034 2093 0
2032 -2093 0
2034 -2093 0
-2036 -2037 2095 0
2036 -2095 0
2037 -2095 0
-2038 -2039 2189 0
2038 -2189 0
2039 -2189 0
-2040 -2041 2190 0
2040 -2190 0
2041 -2190 0
-2043 -2044 2099 0
2043 -2099 0
2044 -2099 0
-2045 -2046 2101 0
2045 -2101 0
2046 -2101 0
-2047 -2048 2103 0
2047 -2103 0
2048 -2103 0
-2050 -2052 2105 0
2050 -2105 0
2052 -2105 0
-2054 -2056 2107 0
2054 -2107 0
2056 -2107 0
-2058 -2060 2109 0
2058 -2109 0
2060 -2109 0
-2061 -2062 2111 0
2061 -2111 0
2062 -2111 0
-2063 -2064 2113 0
2063 -2113 0
2064 -2113 0
-2066 -2068 2115 0
2066 -2115 0
2068 -2115 0
-2070 -2072 2117 0
2070 -2117 0
2072 -2117 0
-2074 -2076 2119 0
2074 -2119 0
2076 -2119 0
-2078 -2080 2121 0
2078 -2121 0
2080 -2121 0
-2082 -2084 2123 0
2082 -2123 0
2084 -2123 0
-2086 -2088 2125 0
2086 -2125 0
2088 -2125 0
-2090 -2092 2127 0
2090 -2127 0
2092 -2127 0
-2035 -2094 2129 0
2094 -2129 0
2035 -2129 0
-2096 -2097 2131 0
2096 -2131 0
2097 -2131 0
-2042 -2098 2133 0
2042 -2133 0
2098 -2133 0
-2100 -2102 2135 0
2100 -2135 0
2102 -2135 0
-2104 -2106 2137 0
2104 -2137 0
2106 -2137 0
-2108 -2110 2139 0
2108 -2139 0
2110 -2139 0
-2112 -2114 2141 0
2112 -2141 0
2114 -2141 0
-2116 -2118 2143 0
2116 -2143 0
2118 -2143 0
-2120 -2122 2145 0
2120 -2145 0
2122 -2145 0
-2124 -2126 2147 0
2124 -2147 0
2126 -2147 0
-2128 -2130 2149 0
2128 -2149 0
2130 -2149 0
-2132 -2134 2151 0
2132 -2151 0
2134 -2151 0
-2136 -2138 2153 0
2136 -2153 0
2138 -2153 0
-2140 -2142 2155 0
2140 -2155 0
2142 -2155 0
-2144 -2146 2157 0
2144 -2157 0
2146 -2157 0
-2148 -2150 2159 0
2148 -2159 0
2150 -2159 0
-2152 -2154 2161 0
2152 -2161 0
2154 -2161 0
-2156 -2158 2162 0
2156 -2162 0
2158 -2162 0
-2049 -2051 2169 0
2049 -2169 0
2051 -2169 0
-2053 -2055 2171 0
2053 -2171 0
2055 -2171 0
-2057 -2059 2293 0
2057 -2293 0
2059 -2293 0
-2065 -2067 2294 0
2065 -2294 0
2067 -2294 0
-2069 -2071 2177 0
2069 -2177 0
2071 -2177 0
-2073 -2075 2179 0
2073 -2179 0
2075 -2179 0
-2077 -2079 2181 0
2077 -2181 0
2079 -2181 0
-2081 -2083 2183 0
2081 -2183 0
2083 -2183 0
-2085 -2087 2185 0
2085 -2185 0
2087 -2185 0
-2089 -2091 2187 0
2089 -2187 0
2091 -2187 0
-2093 -2095 2300 0
2093 -2300 0
2095 -2300 0
-2099 -2101 2301 0
2099 -2301 0
2101 -2301 0
-2103 -2105 2193 0
2103 -2193 0
2105 -2193 0
-2107 -2109 2195 0
2107 -2195 0
2109 -2195 0
-2111 -2113 2197 0
2111 -2197 0
2113 -2197 0
-2115 -2117 2199 0
2115 -2199 0
2117 -2199 0
-2119 -2121 2201 0
2119 -2201 0
2121 -2201 0
-2123 -2125 2203 0
2123 -2203 0
2125 -2203 0
-2127 -2129 2205 0
2127 -2205 0
2129 -2205 0
-2131 -2133 2207 0
2131 -2207 0
2133 -2207 0
-2135 -2137 2209 0
2135 -2209 0
2137 -2209 0
-2139 -2141 2211 0
2139 -2211 0
2141 -2211 0
-2143 -2145 2213 0
2143 -2213 0
2145 -2213 0
-2147 -2149 2215 0
2147 -2215 0
2149 -2215 0
-2151 -2153 2217 0
2151 -2217 0
2153 -2217 0
-2155 -2157 2219 0
2155 -2219 0
2157 -2219 0
-2159 -2161 2221 0
2159 -2221 0
2161 -2221 0
-2160 -2162 2223 0
2162 -2223 0
2160 -2223 0
-2164 -2165 2316 0
2164 -2316 0
2165 -2316 0
-2166 -2167 2226 0
2166 -2226 0
2167 -2226 0
-2168 -2170 2228 0
2168 -2228 0
2170 -2228 0
-2172 -2173 2230 0
2172 -2230 0
2173 -2230 0
-2174 -2175 2232 0
2174 -2232 0
2175 -2232 0
-2176 -2178 2234 0
2176 -2234 0
2178 -2234 0
-2180 -2182 2236 0
2180 -2236 0
2182 -2236 0
-2184 -2186 2238 0
2184 -2238 0
2186 -2238 0
-2188 -2189 2240 0
2188 -2240 0
2189 -2240 0
-2190 -2191 2242 0
2190 -2242 0
2191 -2242 0
-2192 -2194 2244 0
2192 -2244 0
2194 -2244 0
-2196 -2198 2246 0
2196 -2246 0
2198 -2246 0
-2200 -2202 2248 0
2200 -2248 0
2202 -2248 0
-2204 -2206 2250 0
2204 -2250 0
2206 -2250 0
-2208 -2210 2252 0
2208 -2252 0
2210 -2252 0
-2212 -2214 2254 0
2212 -2254 0
2214 -2254 0
-2216 -2218 2256 0
2216 -2256 0
2218 -2256 0
-2220 -2222 2258 0
2220 -2258 0
2222 -2258 0
-2163 -2224 2260 0
2163 -2260 0
2224 -2260 0
-2225 -2227 2262 0
2225 -2262 0
2227 -2262 0
-2229 -2231 2264 0
2229 -2264 0
2231 -2264 0
-2233 -2235 2266 0
2233 -2266 0
2235 -2266 0
-2237 -2239 2268 0
2237 -2268 0
2239 -2268 0
-2241 -2243 2270 0
2241 -2270 0
2243 -2270 0
-2245 -2247 2272 0
2245 -2272 0
2247 -2272 0
-2249 -2251 2274 0
2249 -2274 0
2251 -2274 0
-2253 -2255 2276 0
2253 -2276 0
2255 -2276 0
-2257 -2259 2278 0
2257 -2278 0
2259 -2278 0
-2261 -2263 2280 0
2261 -2280 0
2263 -2280 0
-2265 -2267 2282 0
2265 -2282 0
2267 -2282 0
-2269 -2271 2284 0
2269 -2284 0
2271 -2284 0
-2273 -2275 2286 0
2273 -2286 0
2275 -2286 0
-2277 -2279 2288 0
2277 -2288 0
2279 -2288 0
-2281 -2283 2290 0
2281 -2290 0
2283 -2290 0
-2285 -2287 2291 0
2285 -2291 0
2287 -2291 0
-2169 -2171 2413 0
2169 -2413 0
2171 -2413 0
-2177 -2179 2296 0
2177 -2296 0
2179 -2296 0
-2181 -2183 2298 0
2181 -2298 0
2183 -2298 0
-2185 -2187 2414 0
2185 -2414 0
2187 -2414 0
-2193 -2195 2415 0
2193 -2415 0
2195 -2415 0
-2197 -2199 2304 0
2197 -2304 0
2199 -2304 0
-2201 -2203 2306 0
2201 -2306 0
2203 -2306 0
-2205 -2207 2308 0
2205 -2308 0
2207 -2308 0
-2209 -2211 2310 0
2209 -2310 0
2211 -2310 0
-2213 -2215 2312 0
2213 -2312 0
2215 -2312 0
-2217 -2219 2314 0
2217 -2314 0
2219 -2314 0
-2221 -2223 2421 0
2221 -2421 0
2223 -2421 0
-2226 -2228 2318 0
2226 -2318 0
2228 -2318 0
-2230 -2232 2320 0
2230 -2320 0
2232 -2320 0
-2234 -2236 2322 0
2234 -2322 0
2236 -2322 0
-2238 -2240 2324 0
2238 -2324 0
2240 -2324 0
-2242 -2244 2326 0
2242 -2326 0
2244 -2326 0
-2246 -2248 2328 0
2246 -2328 0
2248 -2328 0
-2250 -2252 2330 0
2250 -2330 0
2252 -2330 0
-2254 -2256 2332 0
2254 -2332 0
2256 -2332 0
-2258 -2260 2334 0
2258 -2334 0
2260 -2334 0
-2262 -2264 2336 0
2262 -2336 0
2264 -2336 0
-2266 -2268 2338 0
2266 -2338 0
2268 -2338 0
-2270 -2272 2340 0
2270 -2340 0
2272 -2340 0
-2274 -2276 2342 0
2274 -2342 0
2276 -2342 0
-2278 -2280 2344 0
2278 -2344 0
2280 -2344 0
-2282 -2284 2346 0
2282 -2346 0
2284 -2346 0
-2286 -2288 2348 0
2286 -2348 0
2288 -2348 0
-2290 -2291 2438 0
2290 -2438 0
2291 -2438 0
-2292 -2293 2439 0
2292 -2439 0
2293 -2439 0
-2294 -2295 2352 0
2294 -2352 0
2295 -2352 0
-2297 -2299 2354 0
2297 -2354 0
2299 -2354 0
-2300 -2301 2356 0
2300 -2356 0
2301 -2356 0
-2302 -2303 2358 0
2302 -2358 0
2303 -2358 0
-2305 -2307 2360 0
2305 -2360 0
2307 -2360 0
-2309 -2311 2362 0
2309 -2362 0
2311 -2362 0
-2313 -2315 2364 0
2313 -2364 0
2315 -2364 0
-2316 -2317 2366 0
2316 -2366 0
2317 -2366 0
-2319 -2321 2368 0
2319 -2368 0
2321 -2368 0
-2323 -2325 2370 0
2323 -2370 0
2325 -2370 0
-2327 -2329 2372 0
2327 -2372 0
2329 -2372 0
-2331 -2333 2374 0
2331 -2374 0
2333 -2374 0
-2335 -2337 2376 0
2335 -2376 0
2337 -2376 0
-2339 -2341 2378 0
2339 -2378 0
2341 -2378 0
-2343 -2345 2380 0
2343 -2380 0
2345 -2380 0
-2347 -2349 2382 0
2347 -2382 0
2349 -2382 0
-2350 -2351 2456 0
2350 -2456 0
2351 -2456 0
-2353 -2355 2385 0
2353 -2385 0
2355 -2385 0
-2357 -2359 2387 0
2357 -2387 0
2359 -2387 0
-2361 -2363 2389 0
2361 -2389 0
2363 -2389 0
-2365 -2367 2391 0
2365 -2391 0
2367 -2391 0
-2369 -2371 2393 0
2369 -2393 0
2371 -2393 0
-2373 -2375 2395 0
2373 -2395 0
2375 -2395 0
-2377 -2379 2397 0
2377 -2397 0
2379 -2397 0
-2289 -2381 2399 0
2381 -2399 0
2289 -2399 0
-2383 -2384 2401 0
2383 -2401 0
2384 -2401 0
-2386 -2388 2403 0
2386 -2403 0
2388 -2403 0
-2390 -2392 2405 0
2390 -2405 0
2392 -2405 0
-2394 -2396 2407 0
2394 -2407 0
2396 -2407 0
-2398 -2400 2409 0
2398 -2409 0
2400 -2409 0
-2402 -2404 2411 0
2402 -2411 0
2404 -2411 0
-2406 -2408 2412 0
2406 -2412 0
2408 -2412 0
-2296 -2298 2536 0
2296 -2536 0
2298 -2536 0
-2304 -2306 2417 0
2304 -2417 0
2306 -2417 0
-2308 -2310 2419 0
2308 -2419 0
2310 -2419 0
-2312 -2314 2538 0
2312 -2538 0
2314 -2538 0
-2318 -2320 2423 0
2318 -2423 0
2320 -2423 0
-2322 -2324 2425 0
2322 -2425 0
2324 -2425 0
-2326 -2328 2427 0
2326 -2427 0
2328 -2427 0
-2330 -2332 2429 0
2330 -2429 0
2332 -2429 0
-2334 -2336 2431 0
2334 -2431 0
2336 -2431 0
-2338 -2340 2433 0
2338 -2433 0
2340 -2433 0
-2342 -2344 2435 0
2342 -2435 0
2344 -2435 0
-2346 -2348 2437 0
2346 -2437 0
2348 -2437 0
-2352 -2354 2441 0
2352 -2441 0
2354 -2441 0
-2356 -2358 2443 0
2356 -2443 0
2358 -2443 0
-2360 -2362 2445 0
2360 -2445 0
2362 -2445 0
-2364 -2366 2447 0
2364 -2447 0
2366 -2447 0
-2368 -2370 2449 0
2368 -2449 0
2370 -2449 0
-2372 -2374 2451 0
2372 -2451 0
2374 -2451 0
-2376 -2378 2453 0
2376 -2453 0
2378 -2453 0
-2380 -2382 2455 0
2380 -2455 0
2382 -2455 0
-2385 -2387 2552 0
2385 -2552 0
2387 -2552 0
-2389 -2391 2459 0
2389 -2459 0
2391 -2459 0
-2393 -2395 2461 0
2393 -2461 0
2395 -2461 0
-2397 -2399 2463 0
2397 -2463 0
2399 -2463 0
-2401 -2403 2465 0
2401 -2465 0
2403 -2465 0
-2405 -2407 2467 0
2405 -2467 0
2407 -2467 0
-2409 -2411 2469 0
2409 -2469 0
2411 -2469 0
-2410 -2412 2558 0
2412 -2558 0
2410 -2558 0
-2414 -2415 2559 0
2414 -2559 0
2415 -2559 0
-2416 -2418 2474 0
2416 -2474 0
2418 -2474 0
-2420 -2421 2476 0
2420 -2476 0
2421 -2476 0
-2422 -2424 2478 0
2422 -2478 0
2424 -2478 0
-2426 -2428 2480 0
2426 -2480 0
2428 -2480 0
-2430 -2432 2482 0
2430 -2482 0
2432 -2482 0
-2434 -2436 2484 0
2434 -2484 0
2436 -2484 0
-2438 -2439 2486 0
2438 -2486 0
2439 -2486 0
-2440 -2442 2488 0
2440 -2488 0
2442 -2488 0
-2444 -2446 2490 0
2444 -2490 0
2446 -2490 0
-2448 -2450 2492 0
2448 -2492 0
2450 -2492 0
-2452 -2454 2494 0
2452 -2494 0
2454 -2494 0
-2456 -2457 2496 0
2456 -2496 0
2457 -2496 0
-2458 -2460 2498 0
2458 -2498 0
2460 -2498 0
-2462 -2464 2500 0
2462 -2500 0
2464 -2500 0
-2466 -2468 2502 0
2466 -2502 0
2468 -2502 0
-2413 -2470 2504 0
2470 -2504 0
2413 -2504 0
-2471 -2472 2506 0
2471 -2506 0
2472 -2506 0
-2473 -2475 2508 0
2473 -2508 0
2475 -2508 0
-2477 -2479 2510 0
2477 -2510 0
2479 -2510 0
-2481 -2483 2512 0
2481 -2512 0
2483 -2512 0
-2485 -2487 2514 0
2485 -2514 0
2487 -2514 0
-2489 -2491 2516 0
2489 -2516 0
2491 -2516 0
-2493 -2495 2518 0
2493 -2518 0
2495 -2518 0
-2497 -2499 2520 0
2497 -2520 0
2499 -2520 0
-2501 -2503 2522 0
2501 -2522 0
2503 -2522 0
-2505 -2507 2524 0
2505 -2524 0
2507 -2524 0
-2509 -2511 2526 0
2509 -2526 0
2511 -2526 0
-2513 -2515 2528 0
2513 -2528 0
2515 -2528 0
-2517 -2519 2530 0
2517 -2530 0
2519 -2530 0
-2521 -2523 2532 0
2521 -2532 0
2523 -2532 0
-2525 -2527 2534 0
2525 -2534 0
2527 -2534 0
-2529 -2531 2535 0
2529 -2535 0
2531 -2535 0
-2417 -2419 2655 0
2417 -2655 0
2419 -2655 0
-2423 -2425 2656 0
2423 -2656 0
2425 -2656 0
-2427 -2429 2541 0
2427 -2541 0
2429 -2541 0
-2431 -2433 2543 0
2431 -2543 0
2433 -2543 0
-2435 -2437 2658 0
2435 -2658 0
2437 -2658 0
-2441 -2443 2545 0
2441 -2545 0
2443 -2545 0
-2445 -2447 2547 0
2445 -2547 0
2447 -2547 0
-2449 -2451 2549 0
2449 -2549 0
2451 -2549 0
-2453 -2455 2551 0
2453 -2551 0
2455 -2551 0
-2459 -2461 2661 0
2459 -2661 0
2461 -2661 0
-2463 -2465 2555 0
2463 -2555 0
2465 -2555 0
-2467 -2469 2557 0
2467 -2557 0
2469 -2557 0
-2474 -2476 2561 0
2474 -2561 0
2476 -2561 0
-2478 -2480 2563 0
2478 -2563 0
2480 -2563 0
-2482 -2484 2565 0
2482 -2565 0
2484 -2565 0
-2486 -2488 2567 0
2486 -2567 0
2488 -2567 0
-2490 -2492 2569 0
2490 -2569 0
2492 -2569 0
-2494 -2496 2571 0
2494 -2571 0
2496 -2571 0
-2498 -2500 2573 0
2498 -2573 0
2500 -2573 0
-2502 -2504 2575 0
2502 -2575 0
2504 -2575 0
-2506 -2508 2577 0
2506 -2577 0
2508 -2577 0
-2510 -2512 2579 0
2510 -2579 0
2512 -2579 0
-2514 -2516 2581 0
2514 -2581 0
2516 -2581 0
-2518 -2520 2583 0
2518 -2583 0
2520 -2583 0
-2522 -2524 2585 0
2522 -2585 0
2524 -2585 0
-2526 -2528 2587 0
2526 -2587 0
2528 -2587 0
-2530 -2532 2589 0
2530 -2589 0
2532 -2589 0
-2534 -2535 2591 0
2534 -2591 0
2535 -2591 0
-2537 -2538 2593 0
2537 -2593 0
2538 -2593 0
-2539 -2540 2595 0
2539 -2595 0
2540 -2595 0
-2542 -2544 2678 0
2542 -2678 0
2544 -2678 0
-2546 -2548 2599 0
2546 -2599 0
2548 -2599 0
-2550 -2552 2601 0
2550 -2601 0
2552 -2601 0
-2553 -2554 2603 0
2553 -2603 0
2554 -2603 0
-2556 -2558 2605 0
2556 -2605 0
2558 -2605 0
-2559 -2560 2607 0
2559 -2607 0
2560 -2607 0
-2562 -2564 2609 0
2562 -2609 0
2564 -2609 0
-2566 -2568 2611 0
2566 -2611 0
2568 -2611 0
-2570 -2572 2613 0
2570 -2613 0
2572 -2613 0
-2574 -2576 2615 0
2574 -2615 0
2576 -2615 0
-2578 -2580 2617 0
2578 -2617 0
2580 -2617 0
-2582 -2584 2619 0
2582 -2619 0
2584 -2619 0
-2586 -2588 2621 0
2586 -2621 0
2588 -2621 0
-2533 -2590 2623 0
2590 -2623 0
2533 -2623 0
-2536 -2592 2625 0
2536 -2625 0
2592 -2625 0
-2594 -2596 2627 0
2594 -2627 0
2596 -2627 0
-2597 -2598 2629 0
2597 -2629 0
2598 -2629 0
-2600 -2602 2631 0
2600 -2631 0
2602 -2631 0
-2604 -2606 2633 0
2604 -2633 0
2606 -2633 0
-2608 -2610 2635 0
2608 -2635 0
2610 -2635 0
-2612 -2614 2637 0
2612 -2637 0
2614 -2637 0
-2616 -2618 2639 0
2616 -2639 0
2618 -2639 0
-2620 -2622 2641 0
2620 -2641 0
2622 -2641 0
-2624 -2626 2643 0
2624 -2643 0
2626 -2643 0
-2628 -2630 2645 0
2628 -2645 0
2630 -2645 0
-2632 -2634 2647 0
2632 -2647 0
2634 -2647 0
-2636 -2638 2649 0
2636 -2649 0
2638 -2649 0
-2640 -2642 2651 0
2640 -2651 0
2642 -2651 0
-2644 -2646 2653 0
2644 -2653 0
2646 -2653 0
-2648 -2650 2654 0
2648 -2654 0
2650 -2654 0
-2541 -2543 2768 0
2541 -2768 0
2543 -2768 0
-2545 -2547 2769 0
2545 -2769 0
2547 -2769 0
-2549 -2551 2770 0
2549 -2770 0
2551 -2770 0
-2555 -2557 2771 0
2555 -2771 0
2557 -2771 0
-2561 -2563 2663 0
2561 -2663 0
2563 -2663 0
-2565 -2567 2665 0
2565 -2665 0
2567 -2665 0
-2569 -2571 2667 0
2569 -2667 0
2571 -2667 0
-2573 -2575 2669 0
2573 -2669 0
2575 -2669 0
-2577 -2579 2671 0
2577 -2671 0
2579 -2671 0
-2581 -2583 2673 0
2581 -2673 0
2583 -2673 0
-2585 -2587 2675 0
2585 -2675 0
2587 -2675 0
-2589 -2591 2677 0
2589 -2677 0
2591 -2677 0
-2593 -2595 2778 0
2593 -2778 0
2595 -2778 0
-2599 -2601 2779 0
2599 -2779 0
2601 -2779 0
-2603 -2605 2681 0
2603 -2681 0
2605 -2681 0
-2607 -2609 2683 0
2607 -2683 0
2609 -2683 0
-2611 -2613 2685 0
2611 -2685 0
2613 -2685 0
-2615 -2617 2687 0
2615 -2687 0
2617 -2687 0
-2619 -2621 2689 0
2619 -2689 0
2621 -2689 0
-2623 -2625 2691 0
2623 -2691 0
2625 -2691 0
-2627 -2629 2693 0
2627 -2693 0
2629 -2693 0
-2631 -2633 2695 0
2631 -2695 0
2633 -2695 0
-2635 -2637 2697 0
2635 -2697 0
2637 -2697 0
-2639 -2641 2699 0
2639 -2699 0
2641 -2699 0
-2643 -2645 2701 0
2643 -2701 0
2645 -2701 0
-2647 -2649 2703 0
2647 -2703 0
2649 -2703 0
-2651 -2653 2705 0
2651 -2705 0
2653 -2705 0
-2652 -2654 2707 0
2654 -2707 0
2652 -2707 0
-2656 -2657 2793 0
2656 -2793 0
2657 -2793 0
-2658 -2659 2710 0
2658 -2710 0
2659 -2710 0
-2660 -2661 2712 0
2660 -2712 0
2661 -2712 0
-2662 -2664 2795 0
2662 -2795 0
2664 -2795 0
-2666 -2668 2716 0
2666 -2716 0
2668 -2716 0
-2670 -2672 2718 0
2670 -2718 0
2672 -2718 0
-2674 -2676 2797 0
2674 -2797 0
2676 -2797 0
-2678 -2679 2722 0
2678 -2722 0
2679 -2722 0
-2680 -2682 2724 0
2680 -2724 0
2682 -2724 0
-2684 -2686 2726 0
2684 -2726 0
2686 -2726 0
-2688 -2690 2728 0
2688 -2728 0
2690 -2728 0
-2692 -2694 2730 0
2692 -2730 0
2694 -2730 0
-2696 -2698 2732 0
2696 -2732 0
2698 -2732 0
-2700 -2702 2734 0
2700 -2734 0
2702 -2734 0
-2704 -2706 2736 0
2704 -2736 0
2706 -2736 0
-2655 -2708 2738 0
2655 -2738 0
2708 -2738 0
-2709 -2711 2740 0
2709 -2740 0
2711 -2740 0
-2713 -2714 2742 0
2713 -2742 0
2714 -2742 0
-2715 -2717 2744 0
2715 -2744 0
2717 -2744 0
-2719 -2720 2746 0
2719 -2746 0
2720 -2746 0
-2721 -2723 2748 0
2721 -2748 0
2723 -2748 0
-2725 -2727 2750 0
2725 -2750 0
2727 -2750 0
-2729 -2731 2752 0
2729 -2752 0
2731 -2752 0
-2733 -2735 2754 0
2733 -2754 0
2735 -2754 0
-2737 -2739 2756 0
2737 -2756 0
2739 -2756 0
-2741 -2743 2758 0
2741 -2758 0
2743 -2758 0
-2745 -2747 2760 0
2745 -2760 0
2747 -2760 0
-2749 -2751 2762 0
2749 -2762 0
2751 -2762 0
-2753 -2755 2764 0
2753 -2764 0
2755 -2764 0
-2757 -2759 2766 0
2757 -2766 0
2759 -2766 0
-2761 -2763 2767 0
2761 -2767 0
2763 -2767 0
-2663 -2665 2885 0
2663 -2885 0
2665 -2885 0
-2667 -2669 2774 0
2667 -2774 0
2669 -2774 0
-2671 -2673 2776 0
2671 -2776 0
2673 -2776 0
-2675 -2677 2887 0
2675 -2887 0
2677 -2887 0
-2681 -2683 2888 0
2681 -2888 0
2683 -2888 0
-2685 -2687 2782 0
2685 -2782 0
2687 -2782 0
-2689 -2691 2784 0
2689 -2784 0
2691 -2784 0
-2693 -2695 2786 0
2693 -2786 0
2695 -2786 0
-2697 -2699 2788 0
2697 -2788 0
2699 -2788 0
-2701 -2703 2790 0
2701 -2790 0
2703 -2790 0
-2705 -2707 2792 0
2705 -2792 0
2707 -2792 0
-2710 -2712 2894 0
2710 -2894 0
2712 -2894 0
-2716 -2718 2895 0
2716 -2895 0
2718 -2895 0
-2722 -2724 2896 0
2722 -2896 0
2724 -2896 0
-2726 -2728 2800 0
2726 -2800 0
2728 -2800 0
-2730 -2732 2802 0
2730 -2802 0
2732 -2802 0
-2734 -2736 2804 0
2734 -2804 0
2736 -2804 0
-2738 -2740 2806 0
2738 -2806 0
2740 -2806 0
-2742 -2744 2808 0
2742 -2808 0
2744 -2808 0
-2746 -2748 2810 0
2746 -2810 0
2748 -2810 0
-2750 -2752 2812 0
2750 -2812 0
2752 -2812 0
-2754 -2756 2814 0
2754 -2814 0
2756 -2814 0
-2758 -2760 2816 0
2758 -2816 0
2760 -2816 0
-2762 -2764 2818 0
2762 -2818 0
2764 -2818 0
-2766 -2767 2906 0
2766 -2906 0
2767 -2906 0
-2768 -2769 2821 0
2768 -2821 0
2769 -2821 0
-2770 -2771 2823 0
2770 -2823 0
2771 -2823 0
-2772 -2773 2825 0
2772 -2825 0
2773 -2825 0
-2775 -2777 2827 0
2775 -2827 0
2777 -2827 0
-2778 -2779 2829 0
2778 -2829 0
2779 -2829 0
-2780 -2781 2831 0
2780 -2831 0
2781 -2831 0
-2783 -2785 2833 0
2783 -2833 0
2785 -2833 0
-2787 -2789 2835 0
2787 -2835 0
2789 -2835 0
-2791 -2793 2837 0
2791 -2837 0
2793 -2837 0
-2794 -2795 2839 0
2794 -2839 0
2795 -2839 0
-2796 -2797 2841 0
2796 -2841 0
2797 -2841 0
-2798 -2799 2843 0
2798 -2843 0
2799 -2843 0
-2801 -2803 2845 0
2801 -2845 0
2803 -2845 0
-2805 -2807 2847 0
2805 -2847 0
2807 -2847 0
-2809 -2811 2849 0
2809 -2849 0
2811 -2849 0
-2813 -2815 2851 0
2813 -2851 0
2815 -2851 0
-2817 -2819 2853 0
2817 -2853 0
2819 -2853 0
-2765 -2820 2855 0
2765 -2855 0
2820 -2855 0
-2822 -2824 2857 0
2822 -2857 0
2824 -2857 0
-2826 -2828 2859 0
2826 -2859 0
2828 -2859 0
-2830 -2832 2861 0
2830 -2861 0
2832 -2861 0
-2834 -2836 2863 0
2834 -2863 0
2836 -2863 0
-2838 -2840 2865 0
2838 -2865 0
2840 -2865 0
-2842 -2844 2867 0
2842 -2867 0
2844 -2867 0
-2846 -2848 2869 0
2846 -2869 0
2848 -2869 0
-2850 -2852 2871 0
2850 -2871 0
2852 -2871 0
-2854 -2856 2873 0
2854 -2873 0
2856 -2873 0
-2858 -2860 2875 0
2858 -2875 0
2860 -2875 0
-2862 -2864 2877 0
2862 -2877 0
2864 -2877 0
-2866 -2868 2879 0
2866 -2879 0
2868 -2879 0
-2870 -2872 2881 0
2870 -2881 0
2872 -2881 0
-2874 -2876 2883 0
2874 -2883 0
2876 -2883 0
-2878 -2880 2884 0
2878 -2884 0
2880 -2884 0
-2774 -2776 3000 0
2774 -3000 0
2776 -3000 0
-2782 -2784 2890 0
2782 -2890 0
2784 -2890 0
-2786 -2788 2892 0
2786 -2892 0
2788 -2892 0
-2790 -2792 3002 0
2790 -3002 0
2792 -3002 0
-2800 -2802 2898 0
2800 -2898 0
2802 -2898 0
-2804 -2806 2900 0
2804 -2900 0
2806 -2900 0
-2808 -2810 2902 0
2808 -2902 0
2810 -2902 0
-2812 -2814 2904 0
2812 -2904 0
2814 -2904 0
-2816 -2818 3006 0
2816 -3006 0
2818 -3006 0
-2821 -2823 2908 0
2821 -2908 0
2823 -2908 0
-2825 -2827 2910 0
2825 -2910 0
2827 -2910 0
-2829 -2831 2912 0
2829 -2912 0
2831 -2912 0
-2833 -2835 2914 0
2833 -2914 0
2835 -2914 0
-2837 -2839 2916 0
2837 -2916 0
2839 -2916 0
-2841 -2843 2918 0
2841 -2918 0
2843 -2918 0
-2845 -2847 2920 0
2845 -2920 0
2847 -2920 0
-2849 -2851 2922 0
2849 -2922 0
2851 -2922 0
-2853 -2855 2924 0
2853 -2924 0
2855 -2924 0
-2857 -2859 2926 0
2857 -2926 0
2859 -2926 0
-2861 -2863 2928 0
2861 -2928 0
2863 -2928 0
-2865 -2867 2930 0
2865 -2930 0
2867 -2930 0
-2869 -2871 2932 0
2869 -2932 0
2871 -2932 0
-2873 -2875 2934 0
2873 -2934 0
2875 -2934 0
-2877 -2879 2936 0
2877 -2936 0
2879 -2936 0
-2881 -2883 2938 0
2881 -2938 0
2883 -2938 0
-2882 -2884 3021 0
2884 -3021 0
2882 -3021 0
-2885 -2886 2940 0
2885 -2940 0
2886 -2940 0
-2887 -2888 2942 0
2887 -2942 0
2888 -2942 0
-2889 -2891 2944 0
2889 -2944 0
2891 -2944 0
-2893 -2894 2946 0
2893 -2946 0
2894 -2946 0
-2895 -2896 2948 0
2895 -2948 0
2896 -2948 0
-2897 -2899 2950 0
2897 -2950 0
2899 -2950 0
-2901 -2903 2952 0
2901 -2952 0
2903 -2952 0
-2905 -2906 2954 0
2905 -2954 0
2906 -2954 0
-2907 -2909 2956 0
2907 -2956 0
2909 -2956 0
-2911 -2913 2958 0
2911 -2958 0
2913 -2958 0
-2915 -2917 2960 0
2915 -2960 0
2917 -2960 0
-2919 -2921 2962 0
2919 -2962 0
2921 -2962 0
-2923 -2925 2964 0
2923 -2964 0
2925 -2964 0
-2927 -2929 2966 0
2927 -2966 0
2929 -2966 0
-2931 -2933 2968 0
2931 -2968 0
2933 -2968 0
-2935 -2937 2970 0
2935 -2970 0
2937 -2970 0
-2939 -2941 3038 0
2939 -3038 0
2941 -3038 0
-2943 -2945 2974 0
2943 -2974 0
2945 -2974 0
-2947 -2949 2976 0
2947 -2976 0
2949 -2976 0
-2951 -2953 2978 0
2951 -2978 0
2953 -2978 0
-2955 -2957 2980 0
2955 -2980 0
2957 -2980 0
-2959 -2961 2982 0
2959 -2982 0
2961 -2982 0
-2963 -2965 2984 0
2963 -2984 0
2965 -2984 0
-2967 -2969 2986 0
2967 -2986 0
2969 -2986 0
-2971 -2972 2988 0
2971 -2988 0
2972 -2988 0
-2973 -2975 2990 0
2973 -2990 0
2975 -2990 0
-2977 -2979 2992 0
2977 -2992 0
2979 -2992 0
-2981 -2983 2994 0
2981 -2994 0
2983 -2994 0
-2985 -2987 2996 0
2985 -2996 0
2987 -2996 0
-2989 -2991 2998 0
2989 -2998 0
2991 -2998 0
-2993 -2995 2999 0
2993 -2999 0
2995 -2999 0
-2890 -2892 3111 0
2890 -3111 0
2892 -3111 0
-2898 -2900 3003 0
2898 -3003 0
2900 -3003 0
-2902 -2904 3005 0
2902 -3005 0
2904 -3005 0
-2908 -2910 3112 0
2908 -3112 0
2910 -3112 0
-2912 -2914 3009 0
2912 -3009 0
2914 -3009 0
-2916 -2918 3011 0
2916 -3011 0
2918 -3011 0
-2920 -2922 3013 0
2920 -3013 0
2922 -3013 0
-2924 -2926 3015 0
2924 -3015 0
2926 -3015 0
-2928 -2930 3017 0
2928 -3017 0
2930 -3017 0
-2932 -2934 3019 0
2932 -3019 0
2934 -3019 0
-2936 -2938 3118 0
2936 -3118 0
2938 -3118 0
-2940 -2942 3023 0
2940 -3023 0
2942 -3023 0
-2944 -2946 3025 0
2944 -3025 0
2946 -3025 0
-2948 -2950 3027 0
2948 -3027 0
2950 -3027 0
-2952 -2954 3029 0
2952 -3029 0
2954 -3029 0
-2956 -2958 3031 0
2956 -3031 0
2958 -3031 0
-2960 -2962 3033 0
2960 -3033 0
2962 -3033 0
-2964 -2966 3035 0
2964 -3035 0
2966 -3035 0
-2968 -2970 3037 0
2968 -3037 0
2970 -3037 0
-2974 -2976 3125 0
2974 -3125 0
2976 -3125 0
-2978 -2980 3041 0
2978 -3041 0
2980 -3041 0
-2982 -2984 3043 0
2982 -3043 0
2984 -3043 0
-2986 -2988 3045 0
2986 -3045 0
2988 -3045 0
-2990 -2992 3047 0
2990 -3047 0
2992 -3047 0
-2994 -2996 3049 0
2994 -3049 0
2996 -3049 0
-2998 -2999 3051 0
2998 -3051 0
2999 -3051 0
-3001 -3002 3130 0
3001 -3130 0
3002 -3130 0
-3004 -3006 3055 0
3004 -3055 0
3006 -3055 0
-3007 -3008 3057 0
3007 -3057 0
3008 -3057 0
-3010 -3012 3059 0
3010 -3059 0
3012 -3059 0
-3014 -3016 3061 0
3014 -3061 0
3016 -3061 0
-3018 -3020 3063 0
3018 -3063 0
3020 -3063 0
-3021 -3022 3065 0
3021 -3065 0
3022 -3065 0
-3024 -3026 3067 0
3024 -3067 0
3026 -3067 0
-3028 -3030 3069 0
3028 -3069 0
3030 -3069 0
-3032 -3034 3071 0
3032 -3071 0
3034 -3071 0
-3036 -3038 3073 0
3036 -3073 0
3038 -3073 0
-3039 -3040 3075 0
3039 -3075 0
3040 -3075 0
-3042 -3044 3077 0
3042 -3077 0
3044 -3077 0
-3046 -3048 3079 0
3046 -3079 0
3048 -3079 0
-2997 -3050 3081 0
3050 -3081 0
2997 -3081 0
-3000 -3052 3083 0
3000 -3083 0
3052 -3083 0
-3053 -3054 3085 0
3053 -3085 0
3054 -3085 0
-3056 -3058 3087 0
3056 -3087 0
3058 -3087 0
-3060 -3062 3089 0
3060 -3089 0
3062 -3089 0
-3064 -3066 3091 0
3064 -3091 0
3066 -3091 0
-3068 -3070 3093 0
3068 -3093 0
3070 -3093 0
-3072 -3074 3095 0
3072 -3095 0
3074 -3095 0
-3076 -3078 3097 0
3076 -3097 0
3078 -3097 0
-3080 -3082 3099 0
3080 -3099 0
3082 -3099 0
-3084 -3086 3101 0
3084 -3101 0
3086 -3101 0
-3088 -3090 3103 0
3088 -3103 0
3090 -3103 0
-3092 -3094 3105 0
3092 -3105 0
3094 -3105 0
-3096 -3098 3107 0
3096 -3107 0
3098 -3107 0
-3100 -3102 3109 0
3100 -3109 0
3102 -3109 0
-3104 -3106 3110 0
3104 -3110 0
3106 -3110 0
-3003 -3005 3218 0
3003 -3218 0
3005 -3218 0
-3009 -3011 3219 0
3009 -3219 0
3011 -3219 0
-3013 -3015 3115 0
3013 -3115 0
3015 -3115 0
-3017 -3019 3117 0
3017 -3117 0
3019 -3117 0
-3023 -3025 3221 0
3023 -3221 0
3025 -3221 0
-3027 -3029 3121 0
3027 -3121 0
3029 -3121 0
-3031 -3033 3123 0
3031 -3123 0
3033 -3123 0
-3035 -3037 3223 0
3035 -3223 0
3037 -3223 0
-3041 -3043 3127 0
3041 -3127 0
3043 -3127 0
-3045 -3047 3129 0
3045 -3129 0
3047 -3129 0
-3049 -3051 3225 0
3049 -3225 0
3051 -3225 0
-3055 -3057 3226 0
3055 -3226 0
3057 -3226 0
-3059 -3061 3133 0
3059 -3133 0
3061 -3133 0
-3063 -3065 3135 0
3063 -3135 0
3065 -3135 0
-3067 -3069 3137 0
3067 -3137 0
3069 -3137 0
-3071 -3073 3139 0
3071 -3139 0
3073 -3139 0
-3075 -3077 3141 0
3075 -3141 0
3077 -3141 0
-3079 -3081 3143 0
3079 -3143 0
3081 -3143 0
-3083 -3085 3145 0
3083 -3145 0
3085 -3145 0
-3087 -3089 3147 0
3087 -3147 0
3089 -3147 0
-3091 -3093 3149 0
3091 -3149 0
3093 -3149 0
-3095 -3097 3151 0
3095 -3151 0
3097 -3151 0
-3099 -3101 3153 0
3099 -3153 0
3101 -3153 0
-3103 -3105 3155 0
3103 -3155 0
3105 -3155 0
-3107 -3109 3157 0
3107 -3157 0
3109 -3157 0
-3108 -3110 3159 0
3110 -3159 0
3108 -3159 0
-3112 -3113 3162 0
3112 -3162 0
3113 -3162 0
-3114 -3116 3164 0
3114 -3164 0
3116 -3164 0
-3118 -3119 3166 0
3118 -3166 0
3119 -3166 0
-3120 -3122 3168 0
3120 -3168 0
3122 -3168 0
-3124 -3125 3170 0
3124 -3170 0
3125 -3170 0
-3126 -3128 3172 0
3126 -3172 0
3128 -3172 0
-3130 -3131 3244 0
3130 -3244 0
3131 -3244 0
-3132 -3134 3176 0
3132 -3176 0
3134 -3176 0
-3136 -3138 3178 0
3136 -3178 0
3138 -3178 0
-3140 -3142 3180 0
3140 -3180 0
3142 -3180 0
-3144 -3146 3182 0
3144 -3182 0
3146 -3182 0
-3148 -3150 3184 0
3148 -3184 0
3150 -3184 0
-3152 -3154 3186 0
3152 -3186 0
3154 -3186 0
-3156 -3158 3188 0
3156 -3188 0
3158 -3188 0
-3111 -3160 3190 0
3111 -3190 0
3160 -3190 0
-3161 -3163 3192 0
3161 -3192 0
3163 -3192 0
-3165 -3167 3194 0
3165 -3194 0
3167 -3194 0
-3169 -3171 3196 0
3169 -3196 0
3171 -3196 0
-3173 -3174 3198 0
3173 -3198 0
3174 -3198 0
-3175 -3177 3200 0
3175 -3200 0
3177 -3200 0
-3179 -3181 3202 0
3179 -3202 0
3181 -3202 0
-3183 -3185 3204 0
3183 -3204 0
3185 -3204 0
-3187 -3189 3206 0
3187 -3206 0
3189 -3206 0
-3191 -3193 3208 0
3191 -3208 0
3193 -3208 0
-3195 -3197 3210 0
3195 -3210 0
3197 -3210 0
-3199 -3201 3212 0
3199 -3212 0
3201 -3212 0
-3203 -3205 3214 0
3203 -3214 0
3205 -3214 0
-3207 -3209 3216 0
3207 -3216 0
3209 -3216 0
-3211 -3213 3217 0
3211 -3217 0
3213 -3217 0
-3115 -3117 3325 0
3115 -3325 0
3117 -3325 0
-3121 -3123 3326 0
3121 -3326 0
3123 -3326 0
-3127 -3129 3327 0
3127 -3327 0
3129 -3327 0
-3133 -3135 3228 0
3133 -3228 0
3135 -3228 0
-3137 -3139 3230 0
3137 -3230 0
3139 -3230 0
-3141 -3143 3232 0
3141 -3232 0
3143 -3232 0
-3145 -3147 3234 0
3145 -3234 0
3147 -3234 0
-3149 -3151 3236 0
3149 -3236 0
3151 -3236 0
-3153 -3155 3238 0
3153 -3238 0
3155 -3238 0
-3157 -3159 3332 0
3157 -3332 0
3159 -3332 0
-3162 -3164 3240 0
3162 -3240 0
3164 -3240 0
-3166 -3168 3242 0
3166 -3242 0
3168 -3242 0
-3170 -3172 3334 0
3170 -3334 0
3172 -3334 0
-3176 -3178 3246 0
3176 -3246 0
3178 -3246 0
-3180 -3182 3248 0
3180 -3248 0
3182 -3248 0
-3184 -3186 3250 0
3184 -3250 0
3186 -3250 0
-3188 -3190 3252 0
3188 -3252 0
3190 -3252 0
-3192 -3194 3254 0
3192 -3254 0
3194 -3254 0
-3196 -3198 3256 0
3196 -3256 0
3198 -3256 0
-3200 -3202 3258 0
3200 -3258 0
3202 -3258 0
-3204 -3206 3260 0
3204 -3260 0
3206 -3260 0
-3208 -3210 3262 0
3208 -3262 0
3210 -3262 0
-3212 -3214 3264 0
3212 -3264 0
3214 -3264 0
-3216 -3217 3344 0
3216 -3344 0
3217 -3344 0
-3218 -3219 3267 0
3218 -3267 0
3219 -3267 0
-3220 -3221 3269 0
3220 -3269 0
3221 -3269 0
-3222 -3223 3271 0
3222 -3271 0
3223 -3271 0
-3224 -3225 3273 0
3224 -3273 0
3225 -3273 0
-3226 -3227 3275 0
3226 -3275 0
3227 -3275 0
-3229 -3231 3277 0
3229 -3277 0
3231 -3277 0
-3233 -3235 3279 0
3233 -3279 0
3235 -3279 0
-3237 -3239 3281 0
3237 -3281 0
3239 -3281 0
-3241 -3243 3351 0
3241 -3351 0
3243 -3351 0
-3244 -3245 3285 0
3244 -3285 0
3245 -3285 0
-3247 -3249 3287 0
3247 -3287 0
3249 -3287 0
-3251 -3253 3289 0
3251 -3289 0
3253 -3289 0
-3255 -3257 3291 0
3255 -3291 0
3257 -3291 0
-3259 -3261 3293 0
3259 -3293 0
3261 -3293 0
-3263 -3265 3295 0
3263 -3295 0
3265 -3295 0
-3215 -3266 3297 0
3215 -3297 0
3266 -3297 0
-3268 -3270 3299 0
3268 -3299 0
3270 -3299 0
-3272 -3274 3301 0
3272 -3301 0
3274 -3301 0
-3276 -3278 3303 0
3276 -3303 0
3278 -3303 0
-3280 -3282 3305 0
3280 -3305 0
3282 -3305 0
-3283 -3284 3307 0
3283 -3307 0
3284 -3307 0
-3286 -3288 3309 0
3286 -3309 0
3288 -3309 0
-3290 -3292 3311 0
3290 -3311 0
3292 -3311 0
-3294 -3296 3313 0
3294 -3313 0
3296 -3313 0
-3298 -3300 3315 0
3298 -3315 0
3300 -3315 0
-3302 -3304 3317 0
3302 -3317 0
3304 -3317 0
-3306 -3308 3319 0
3306 -3319 0
3308 -3319 0
-3310 -3312 3321 0
3310 -3321 0
3312 -3321 0
-3314 -3316 3323 0
3314 -3323 0
3316 -3323 0
-3318 -3320 3324 0
3318 -3324 0
3320 -3324 0
-3228 -3230 3430 0
3228 -3430 0
3230 -3430 0
-3232 -3234 3329 0
3232 -3329 0
3234 -3329 0
-3236 -3238 3331 0
3236 -3331 0
3238 -3331 0
-3240 -3242 3432 0
3240 -3432 0
3242 -3432 0
-3246 -3248 3433 0
3246 -3433 0
3248 -3433 0
-3250 -3252 3337 0
3250 -3337 0
3252 -3337 0
-3254 -3256 3339 0
3254 -3339 0
3256 -3339 0
-3258 -3260 3341 0
3258 -3341 0
3260 -3341 0
-3262 -3264 3343 0
3262 -3343 0
3264 -3343 0
-3267 -3269 3438 0
3267 -3438 0
3269 -3438 0
-3271 -3273 3347 0
3271 -3347 0
3273 -3347 0
-3275 -3277 3349 0
3275 -3349 0
3277 -3349 0
-3279 -3281 3440 0
3279 -3440 0
3281 -3440 0
-3285 -3287 3353 0
3285 -3353 0
3287 -3353 0
-3289 -3291 3355 0
3289 -3355 0
3291 -3355 0
-3293 -3295 3357 0
3293 -3357 0
3295 -3357 0
-3297 -3299 3359 0
3297 -3359 0
3299 -3359 0
-3301 -3303 3361 0
3301 -3361 0
3303 -3361 0
-3305 -3307 3363 0
3305 -3363 0
3307 -3363 0
-3309 -3311 3365 0
3309 -3365 0
3311 -3365 0
-3313 -3315 3367 0
3313 -3367 0
3315 -3367 0
-3317 -3319 3369 0
3317 -3369 0
3319 -3369 0
-3321 -3323 3371 0
3321 -3371 0
3323 -3371 0
-3322 -3324 3450 0
3324 -3450 0
3322 -3450 0
-3326 -3327 3451 0
3326 -3451 0
3327 -3451 0
-3328 -3330 3376 0
3328 -3376 0
3330 -3376 0
-3332 -3333 3378 0
3332 -3378 0
3333 -3378 0
-3334 -3335 3380 0
3334 -3380 0
3335 -3380 0
-3336 -3338 3382 0
3336 -3382 0
3338 -3382 0
-3340 -3342 3384 0
3340 -3384 0
3342 -3384 0
-3344 -3345 3386 0
3344 -3386 0
3345 -3386 0
-3346 -3348 3388 0
3346 -3388 0
3348 -3388 0
-3350 -3351 3390 0
3350 -3390 0
3351 -3390 0
-3352 -3354 3392 0
3352 -3392 0
3354 -3392 0
-3356 -3358 3394 0
3356 -3394 0
3358 -3394 0
-3360 -3362 3396 0
3360 -3396 0
3362 -3396 0
-3364 -3366 3398 0
3364 -3398 0
3366 -3398 0
-3368 -3370 3400 0
3368 -3400 0
3370 -3400 0
-3325 -3372 3402 0
3372 -3402 0
3325 -3402 0
-3373 -3374 3404 0
3373 -3404 0
3374 -3404 0
-3375 -3377 3406 0
3375 -3406 0
3377 -3406 0
-3379 -3381 3408 0
3379 -3408 0
3381 -3408 0
-3383 -3385 3410 0
3383 -3410 0
3385 -3410 0
-3387 -3389 3412 0
3387 -3412 0
3389 -3412 0
-3391 -3393 3414 0
3391 -3414 0
3393 -3414 0
-3395 -3397 3416 0
3395 -3416 0
3397 -3416 0
-3399 -3401 3418 0
3399 -3418 0
3401 -3418 0
-3403 -3405 3420 0
3403 -3420 0
3405 -3420 0
-3407 -3409 3422 0
3407 -3422 0
3409 -3422 0
-3411 -3413 3424 0
3411 -3424 0
3413 -3424 0
-3415 -3417 3426 0
3415 -3426 0
3417 -3426 0
-3419 -3421 3428 0
3419 -3428 0
3421 -3428 0
-3423 -3425 3429 0
3423 -3429 0
3425 -3429 0
-3329 -3331 3537 0
3329 -3537 0
3331 -3537 0
-3337 -3339 3435 0
3337 -3435 0
3339 -3435 0
-3341 -3343 3437 0
3341 -3437 0
3343 -3437 0
-3347 -3349 3538 0
3347 -3538 0
3349 -3538 0
-3353 -3355 3539 0
3353 -3539 0
3355 -3539 0
-3357 -3359 3443 0
3357 -3443 0
3359 -3443 0
-3361 -3363 3445 0
3361 -3445 0
3363 -3445 0
-3365 -3367 3447 0
3365 -3447 0
3367 -3447 0
-3369 -3371 3449 0
3369 -3449 0
3371 -3449 0
-3376 -3378 3453 0
3376 -3453 0
3378 -3453 0
-3380 -3382 3455 0
3380 -3455 0
3382 -3455 0
-3384 -3386 3457 0
3384 -3457 0
3386 -3457 0
-3388 -3390 3459 0
3388 -3459 0
3390 -3459 0
-3392 -3394 3461 0
3392 -3461 0
3394 -3461 0
-3396 -3398 3463 0
3396 -3463 0
3398 -3463 0
-3400 -3402 3465 0
3400 -3465 0
3402 -3465 0
-3404 -3406 3467 0
3404 -3467 0
3406 -3467 0
-3408 -3410 3469 0
3408 -3469 0
3410 -3469 0
-3412 -3414 3471 0
3412 -3471 0
3414 -3471 0
-3416 -3418 3473 0
3416 -3473 0
3418 -3473 0
-3420 -3422 3475 0
3420 -3475 0
3422 -3475 0
-3424 -3426 3477 0
3424 -3477 0
3426 -3477 0
-3428 -3429 3479 0
3428 -3479 0
3429 -3479 0
-3431 -3432 3481 0
3431 -3481 0
3432 -3481 0
-3433 -3434 3483 0
3433 -3483 0
3434 -3483 0
-3436 -3438 3485 0
3436 -3485 0
3438 -3485 0
-3439 -3440 3487 0
3439 -3487 0
3440 -3487 0
-3441 -3442 3489 0
3441 -3489 0
3442 -3489 0
-3444 -3446 3491 0
3444 -3491 0
3446 -3491 0
-3448 -3450 3493 0
3448 -3493 0
3450 -3493 0
-3451 -3452 3495 0
3451 -3495 0
3452 -3495 0
-3454 -3456 3497 0
3454 -3497 0
3456 -3497 0
-3458 -3460 3499 0
3458 -3499 0
3460 -3499 0
-3462 -3464 3501 0
3462 -3501 0
3464 -3501 0
-3466 -3468 3503 0
3466 -3503 0
3468 -3503 0
-3470 -3472 3505 0
3470 -3505 0
3472 -3505 0
-3474 -3476 3507 0
3474 -3507 0
3476 -3507 0
-3427 -3478 3509 0
3478 -3509 0
3427 -3509 0
-3430 -3480 3511 0
3430 -3511 0
3480 -3511 0
-3482 -3484 3513 0
3482 -3513 0
3484 -3513 0
-3486 -3488 3515 0
3486 -3515 0
3488 -3515 0
-3490 -3492 3517 0
3490 -3517 0
3492 -3517 0
-3494 -3496 3519 0
3494 -3519 0
3496 -3519 0
-3498 -3500 3521 0
3498 -3521 0
3500 -3521 0
-3502 -3504 3523 0
3502 -3523 0
3504 -3523 0
-3506 -3508 3525 0
3506 -3525 0
3508 -3525 0
-3510 -3512 3527 0
3510 -3527 0
3512 -3527 0
-3514 -3516 3529 0
3514 -3529 0
3516 -3529 0
-3518 -3520 3531 0
3518 -3531 0
3520 -3531 0
-3522 -3524 3533 0
3522 -3533 0
3524 -3533 0
-3526 -3528 3535 0
3526 -3535 0
3528 -3535 0
-3530 -3532 3536 0
3530 -3536 0
3532 -3536 0
-3435 -3437 3636 0
3435 -3636 0
3437 -3636 0
-3443 -3445 3541 0
3443 -3541 0
3445 -3541 0
-3447 -3449 3543 0
3447 -3543 0
3449 -3543 0
-3453 -3455 3638 0
3453 -3638 0
3455 -3638 0
-3457 -3459 3545 0
3457 -3545 0
3459 -3545 0
-3461 -3463 3547 0
3461 -3547 0
3463 -3547 0
-3465 -3467 3549 0
3465 -3549 0
3467 -3549 0
-3469 -3471 3551 0
3469 -3551 0
3471 -3551 0
-3473 -3475 3553 0
3473 -3553 0
3475 -3553 0
-3477 -3479 3555 0
3477 -3555 0
3479 -3555 0
-3481 -3483 3644 0
3481 -3644 0
3483 -3644 0
-3485 -3487 3557 0
3485 -3557 0
3487 -3557 0
-3489 -3491 3559 0
3489 -3559 0
3491 -3559 0
-3493 -3495 3561 0
3493 -3561 0
3495 -3561 0
-3497 -3499 3563 0
3497 -3563 0
3499 -3563 0
-3501 -3503 3565 0
3501 -3565 0
3503 -3565 0
-3505 -3507 3567 0
3505 -3567 0
3507 -3567 0
-3509 -3511 3569 0
3509 -3569 0
3511 -3569 0
-3513 -3515 3571 0
3513 -3571 0
3515 -3571 0
-3517 -3519 3573 0
3517 -3573 0
3519 -3573 0
-3521 -3523 3575 0
3521 -3575 0
3523 -3575 0
-3525 -3527 3577 0
3525 -3577 0
3527 -3577 0
-3529 -3531 3579 0
3529 -3579 0
3531 -3579 0
-3533 -3535 3581 0
3533 -3581 0
3535 -3581 0
-3534 -3536 3583 0
3536 -3583 0
3534 -3583 0
-3538 -3539 3586 0
3538 -3586 0
3539 -3586 0
-3540 -3542 3588 0
3540 -3588 0
3542 -3588 0
-3544 -3546 3658 0
3544 -3658 0
3546 -3658 0
-3548 -3550 3592 0
3548 -3592 0
3550 -3592 0
-3552 -3554 3594 0
3552 -3594 0
3554 -3594 0
-3556 -3558 3660 0
3556 -3660 0
3558 -3660 0
-3560 -3562 3598 0
3560 -3598 0
3562 -3598 0
-3564 -3566 3600 0
3564 -3600 0
3566 -3600 0
-3568 -3570 3602 0
3568 -3602 0
3570 -3602 0
-3572 -3574 3604 0
3572 -3604 0
3574 -3604 0
-3576 -3578 3606 0
3576 -3606 0
3578 -3606 0
-3580 -3582 3608 0
3580 -3608 0
3582 -3608 0
-3537 -3584 3610 0
3537 -3610 0
3584 -3610 0
-3585 -3587 3612 0
3585 -3612 0
3587 -3612 0
-3589 -3590 3614 0
3589 -3614 0
3590 -3614 0
-3591 -3593 3616 0
3591 -3616 0
3593 -3616 0
-3595 -3596 3618 0
3595 -3618 0
3596 -3618 0
-3597 -3599 3620 0
3597 -3620 0
3599 -3620 0
-3601 -3603 3622 0
3601 -3622 0
3603 -3622 0
-3605 -3607 3624 0
3605 -3624 0
3607 -3624 0
-3609 -3611 3626 0
3609 -3626 0
3611 -3626 0
-3613 -3615 3628 0
3613 -3628 0
3615 -3628 0
-3617 -3619 3630 0
3617 -3630 0
3619 -3630 0
-3621 -3623 3632 0
3621 -3632 0
3623 -3632 0
-3625 -3627 3634 0
3625 -3634 0
3627 -3634 0
-3629 -3631 3635 0
3629 -3635 0
3631 -3635 0
-3541 -3543 3731 0
3541 -3731 0
3543 -3731 0
-3545 -3547 3732 0
3545 -3732 0
3547 -3732 0
-3549 -3551 3641 0
3549 -3641 0
3551 -3641 0
-3553 -3555 3643 0
3553 -3643 0
3555 -3643 0
-3557 -3559 3734 0
3557 -3734 0
3559 -3734 0
-3561 -3563 3647 0
3561 -3647 0
3563 -3647 0
-3565 -3567 3649 0
3565 -3649 0
3567 -3649 0
-3569 -3571 3651 0
3569 -3651 0
3571 -3651 0
-3573 -3575 3653 0
3573 -3653 0
3575 -3653 0
-3577 -3579 3655 0
3577 -3655 0
3579 -3655 0
-3581 -3583 3656 0
3581 -3656 0
3583 -3656 0
-3586 -3588 3740 0
3586 -3740 0
3588 -3740 0
-3592 -3594 3741 0
3592 -3741 0
3594 -3741 0
-3598 -3600 3742 0
3598 -3742 0
3600 -3742 0
-3602 -3604 3663 0
3602 -3663 0
3604 -3663 0
-3606 -3608 3665 0
3606 -3665 0
3608 -3665 0
-3610 -3612 3667 0
3610 -3667 0
3612 -3667 0
-3614 -3616 3669 0
3614 -3669 0
3616 -3669 0
-3618 -3620 3671 0
3618 -3671 0
3620 -3671 0
-3622 -3624 3673 0
3622 -3673 0
3624 -3673 0
-3626 -3628 3675 0
3626 -3675 0
3628 -3675 0
-3630 -3632 3677 0
3630 -3677 0
3632 -3677 0
-3634 -3635 3749 0
3634 -3749 0
3635 -3749 0
-3637 -3638 3750 0
3637 -3750 0
3638 -3750 0
-3639 -3640 3681 0
3639 -3681 0
3640 -3681 0
-3642 -3644 3683 0
3642 -3683 0
3644 -3683 0
-3645 -3646 3685 0
3645 -3685 0
3646 -3685 0
-3648 -3650 3687 0
3648 -3687 0
3650 -3687 0
-3652 -3654 3753 0
3652 -3753 0
3654 -3753 0
-3657 -3658 3691 0
3657 -3691 0
3658 -3691 0
-3659 -3660 3693 0
3659 -3693 0
3660 -3693 0
-3661 -3662 3695 0
3661 -3695 0
3662 -3695 0
-3664 -3666 3697 0
3664 -3697 0
3666 -3697 0
-3668 -3670 3699 0
3668 -3699 0
3670 -3699 0
-3672 -3674 3701 0
3672 -3701 0
3674 -3701 0
-3676 -3678 3703 0
3676 -3703 0
3678 -3703 0
-3633 -3636 3705 0
3633 -3705 0
3636 -3705 0
-3679 -3680 3707 0
3679 -3707 0
3680 -3707 0
-3682 -3684 3709 0
3682 -3709 0
3684 -3709 0
-3686 -3688 3711 0
3686 -3711 0
3688 -3711 0
-3689 -3690 3713 0
3689 -3713 0
3690 -3713 0
-3692 -3694 3715 0
3692 -3715 0
3694 -3715 0
-3696 -3698 3717 0
3696 -3717 0
3698 -3717 0
-3700 -3702 3719 0
3700 -3719 0
3702 -3719 0
-3704 -3706 3721 0
3704 -3721 0
3706 -3721 0
-3708 -3710 3723 0
3708 -3723 0
3710 -3723 0
-3712 -3714 3725 0
3712 -3725 0
3714 -3725 0
-3716 -3718 3727 0
3716 -3727 0
3718 -3727 0
-3720 -3722 3729 0
3720 -3729 0
3722 -3729 0
-3724 -3726 3730 0
3724 -3730 0
3726 -3730 0
-3641 -3643 3830 0
3641 -3830 0
3643 -3830 0
-3647 -3649 3831 0
3647 -3831 0
3649 -3831 0
-3651 -3653 3737 0
3651 -3737 0
3653 -3737 0
-3655 -3656 3739 0
3655 -3739 0
3656 -3739 0
-3663 -3665 3832 0
3663 -3832 0
3665 -3832 0
-3667 -3669 3745 0
3667 -3745 0
3669 -3745 0
-3671 -3673 3747 0
3671 -3747 0
3673 -3747 0
-3675 -3677 3834 0
3675 -3834 0
3677 -3834 0
-3681 -3683 3835 0
3681 -3835 0
3683 -3835 0
-3685 -3687 3836 0
3685 -3836 0
3687 -3836 0
-3691 -3693 3755 0
3691 -3755 0
3693 -3755 0
-3695 -3697 3757 0
3695 -3757 0
3697 -3757 0
-3699 -3701 3759 0
3699 -3759 0
3701 -3759 0
-3703 -3705 3761 0
3703 -3761 0
3705 -3761 0
-3707 -3709 3763 0
3707 -3763 0
3709 -3763 0
-3711 -3713 3765 0
3711 -3765 0
3713 -3765 0
-3715 -3717 3767 0
3715 -3767 0
3717 -3767 0
-3719 -3721 3769 0
3719 -3769 0
3721 -3769 0
-3723 -3725 3771 0
3723 -3771 0
3725 -3771 0
-3727 -3729 3773 0
3727 -3773 0
3729 -3773 0
-3728 -3730 3846 0
3730 -3846 0
3728 -3846 0
-3732 -3733 3776 0
3732 -3776 0
3733 -3776 0
-3734 -3735 3778 0
3734 -3778 0
3735 -3778 0
-3736 -3738 3780 0
3736 -3780 0
3738 -3780 0
-3740 -3741 3782 0
3740 -3782 0
3741 -3782 0
-3742 -3743 3784 0
3742 -3784 0
3743 -3784 0
-3744 -3746 3786 0
3744 -3786 0
3746 -3786 0
-3748 -3749 3788 0
3748 -3788 0
3749 -3788 0
-3750 -3751 3790 0
3750 -3790 0
3751 -3790 0
-3752 -3753 3792 0
3752 -3792 0
3753 -3792 0
-3754 -3756 3794 0
3754 -3794 0
3756 -3794 0
-3758 -3760 3796 0
3758 -3796 0
3760 -3796 0
-3762 -3764 3798 0
3762 -3798 0
3764 -3798 0
-3766 -3768 3800 0
3766 -3800 0
3768 -3800 0
-3770 -3772 3802 0
3770 -3802 0
3772 -3802 0
-3731 -3774 3804 0
3774 -3804 0
3731 -3804 0
-3775 -3777 3806 0
3775 -3806 0
3777 -3806 0
-3779 -3781 3808 0
3779 -3808 0
3781 -3808 0
-3783 -3785 3810 0
3783 -3810 0
3785 -3810 0
-3787 -3789 3812 0
3787 -3812 0
3789 -3812 0
-3791 -3793 3814 0
3791 -3814 0
3793 -3814 0
-3795 -3797 3816 0
3795 -3816 0
3797 -3816 0
-3799 -3801 3818 0
3799 -3818 0
3801 -3818 0
-3803 -3805 3820 0
3803 -3820 0
3805 -3820 0
-3807 -3809 3822 0
3807 -3822 0
3809 -3822 0
-3811 -3813 3824 0
3811 -3824 0
3813 -3824 0
-3815 -3817 3826 0
3815 -3826 0
3817 -3826 0
-3819 -3821 3828 0
3819 -3828 0
3821 -3828 0
-3823 -3825 3829 0
3823 -3829 0
3825 -3829 0
-3737 -3739 3927 0
3737 -3927 0
3739 -3927 0
-3745 -3747 3928 0
3745 -3928 0
3747 -3928 0
-3755 -3757 3838 0
3755 -3838 0
3757 -3838 0
-3759 -3761 3840 0
3759 -3840 0
3761 -3840 0
-3763 -3765 3842 0
3763 -3842 0
3765 -3842 0
-3767 -3769 3844 0
3767 -3844 0
3769 -3844 0
-3771 -3773 3930 0
3771 -3930 0
3773 -3930 0
-3776 -3778 3848 0
3776 -3848 0
3778 -3848 0
-3780 -3782 3850 0
3780 -3850 0
3782 -3850 0
-3784 -3786 3852 0
3784 -3852 0
3786 -3852 0
-3788 -3790 3854 0
3788 -3854 0
3790 -3854 0
-3792 -3794 3856 0
3792 -3856 0
3794 -3856 0
-3796 -3798 3858 0
3796 -3858 0
3798 -3858 0
-3800 -3802 3860 0
3800 -3860 0
3802 -3860 0
-3804 -3806 3862 0
3804 -3862 0
3806 -3862 0
-3808 -3810 3864 0
3808 -3864 0
3810 -3864 0
-3812 -3814 3866 0
3812 -3866 0
3814 -3866 0
-3816 -3818 3868 0
3816 -3868 0
3818 -3868 0
-3820 -3822 3870 0
3820 -3870 0
3822 -3870 0
-3824 -3826 3872 0
3824 -3872 0
3826 -3872 0
-3828 -3829 3874 0
3828 -3874 0
3829 -3874 0
-3830 -3831 3944 0
3830 -3944 0
3831 -3944 0
-3832 -3833 3945 0
3832 -3945 0
3833 -3945 0
-3834 -3835 3879 0
3834 -3879 0
3835 -3879 0
-3836 -3837 3881 0
3836 -3881 0
3837 -3881 0
-3839 -3841 3883 0
3839 -3883 0
3841 -3883 0
-3843 -3845 3885 0
3843 -3885 0
3845 -3885 0
-3846 -3847 3887 0
3846 -3887 0
3847 -3887 0
-3849 -3851 3889 0
3849 -3889 0
3851 -3889 0
-3853 -3855 3891 0
3853 -3891 0
3855 -3891 0
-3857 -3859 3893 0
3857 -3893 0
3859 -3893 0
-3861 -3863 3895 0
3861 -3895 0
3863 -3895 0
-3865 -3867 3897 0
3865 -3897 0
3867 -3897 0
-3869 -3871 3899 0
3869 -3899 0
3871 -3899 0
-3827 -3873 3901 0
3873 -3901 0
3827 -3901 0
-3875 -3876 3903 0
3875 -3903 0
3876 -3903 0
-3877 -3878 3905 0
3877 -3905 0
3878 -3905 0
-3880 -3882 3907 0
3880 -3907 0
3882 -3907 0
-3884 -3886 3909 0
3884 -3909 0
3886 -3909 0
-3888 -3890 3911 0
3888 -3911 0
3890 -3911 0
-3892 -3894 3913 0
3892 -3913 0
3894 -3913 0
-3896 -3898 3915 0
3896 -3915 0
3898 -3915 0
-3900 -3902 3917 0
3900 -3917 0
3902 -3917 0
-3904 -3906 3919 0
3904 -3919 0
3906 -3919 0
-3908 -3910 3921 0
3908 -3921 0
3910 -3921 0
-3912 -3914 3923 0
3912 -3923 0
3914 -3923 0
-3916 -3918 3925 0
3916 -3925 0
3918 -3925 0
-3920 -3922 3926 0
3920 -3926 0
3922 -3926 0
-3838 -3840 4060 0
3838 -4060 0
3840 -4060 0
-3842 -3844 4020 0
3842 -4020 0
3844 -4020 0
-3848 -3850 3932 0
3848 -3932 0
3850 -3932 0
-3852 -3854 3934 0
3852 -3934 0
3854 -3934 0
-3856 -3858 3936 0
3856 -3936 0
3858 -3936 0
-3860 -3862 3938 0
3860 -3938 0
3862 -3938 0
-3864 -3866 3940 0
3864 -3940 0
3866 -3940 0
-3868 -3870 3942 0
3868 -3942 0
3870 -3942 0
-3872 -3874 4026 0
3872 -4026 0
3874 -4026 0
-3879 -3881 4027 0
3879 -4027 0
3881 -4027 0
-3883 -3885 3948 0
3883 -3948 0
3885 -3948 0
-3887 -3889 3950 0
3887 -3950 0
3889 -3950 0
-3891 -3893 3952 0
3891 -3952 0
3893 -3952 0
-3895 -3897 3954 0
3895 -3954 0
3897 -3954 0
-3899 -3901 3956 0
3899 -3956 0
3901 -3956 0
-3903 -3905 3958 0
3903 -3958 0
3905 -3958 0
-3907 -3909 3960 0
3907 -3960 0
3909 -3960 0
-3911 -3913 3962 0
3911 -3962 0
3913 -3962 0
-3915 -3917 3964 0
3915 -3964 0
3917 -3964 0
-3919 -3921 3966 0
3919 -3966 0
3921 -3966 0
-3923 -3925 3968 0
3923 -3968 0
3925 -3968 0
-3924 -3926 3970 0
3926 -3970 0
3924 -3970 0
-3929 -3930 4071 0
3929 -4071 0
3930 -4071 0
-3931 -3933 3974 0
3931 -3974 0
3933 -3974 0
-3935 -3937 3976 0
3935 -3976 0
3937 -3976 0
-3939 -3941 3978 0
3939 -3978 0
3941 -3978 0
-3943 -3944 3980 0
3943 -3980 0
3944 -3980 0
-3945 -3946 3982 0
3945 -3982 0
3946 -3982 0
-3947 -3949 3984 0
3947 -3984 0
3949 -3984 0
-3951 -3953 3986 0
3951 -3986 0
3953 -3986 0
-3955 -3957 3988 0
3955 -3988 0
3957 -3988 0
-3959 -3961 3990 0
3959 -3990 0
3961 -3990 0
-3963 -3965 3992 0
3963 -3992 0
3965 -3992 0
-3967 -3969 3994 0
3967 -3994 0
3969 -3994 0
-3927 -3928 3996 0
3927 -3996 0
3928 -3996 0
-3971 -3972 3998 0
3971 -3998 0
3972 -3998 0
-3973 -3975 4000 0
3973 -4000 0
3975 -4000 0
-3977 -3979 4002 0
3977 -4002 0
3979 -4002 0
-3981 -3983 4004 0
3981 -4004 0
3983 -4004 0
-3985 -3987 4006 0
3985 -4006 0
3987 -4006 0
-3989 -3991 4008 0
3989 -4008 0
3991 -4008 0
-3993 -3995 4010 0
3993 -4010 0
3995 -4010 0
-3997 -3999 4012 0
3997 -4012 0
3999 -4012 0
-4001 -4003 4014 0
4001 -4014 0
4003 -4014 0
-4005 -4007 4016 0
4005 -4016 0
4007 -4016 0
-4009 -4011 4018 0
4009 -4018 0
4011 -4018 0
-4013 -4015 4019 0
4013 -4019 0
4015 -4019 0
-3932 -3934 4022 0
3932 -4022 0
3934 -4022 0
-3936 -3938 4024 0
3936 -4024 0
3938 -4024 0
-3940 -3942 4110 0
3940 -4110 0
3942 -4110 0
-3948 -3950 4111 0
3948 -4111 0
3950 -4111 0
-3952 -3954 4030 0
3952 -4030 0
3954 -4030 0
-3956 -3958 4032 0
3956 -4032 0
3958 -4032 0
-3960 -3962 4034 0
3960 -4034 0
3962 -4034 0
-3964 -3966 4036 0
3964 -4036 0
3966 -4036 0
-3968 -3970 4114 0
3968 -4114 0
3970 -4114 0
-3974 -3976 4115 0
3974 -4115 0
3976 -4115 0
-3978 -3980 4040 0
3978 -4040 0
3980 -4040 0
-3982 -3984 4042 0
3982 -4042 0
3984 -4042 0
-3986 -3988 4044 0
3986 -4044 0
3988 -4044 0
-3990 -3992 4046 0
3990 -4046 0
3992 -4046 0
-3994 -3996 4048 0
3994 -4048 0
3996 -4048 0
-3998 -4000 4050 0
3998 -4050 0
4000 -4050 0
-4002 -4004 4052 0
4002 -4052 0
4004 -4052 0
-4006 -4008 4054 0
4006 -4054 0
4008 -4054 0
-4010 -4012 4056 0
4010 -4056 0
4012 -4056 0
-4014 -4016 4058 0
4014 -4058 0
4016 -4058 0
-4018 -4019 4125 0
4018 -4125 0
4019 -4125 0
-4020 -4021 4126 0
4020 -4126 0
4021 -4126 0
-4023 -4025 4063 0
4023 -4063 0
4025 -4063 0
-4026 -4027 4065 0
4026 -4065 0
4027 -4065 0
-4028 -4029 4067 0
4028 -4067 0
4029 -4067 0
-4031 -4033 4069 0
4031 -4069 0
4033 -4069 0
-4035 -4037 4131 0
4035 -4131 0
4037 -4131 0
-4038 -4039 4073 0
4038 -4073 0
4039 -4073 0
-4041 -4043 4075 0
4041 -4075 0
4043 -4075 0
-4045 -4047 4077 0
4045 -4077 0
4047 -4077 0
-4049 -4051 4079 0
4049 -4079 0
4051 -4079 0
-4053 -4055 4081 0
4053 -4081 0
4055 -4081 0
-4057 -4059 4083 0
4057 -4083 0
4059 -4083 0
-4017 -4060 4085 0
4017 -4085 0
4060 -4085 0
-4061 -4062 4087 0
4061 -4087 0
4062 -4087 0
-4064 -4066 4089 0
4064 -4089 0
4066 -4089 0
-4068 -4070 4091 0
4068 -4091 0
4070 -4091 0
-4071 -4072 4093 0
4071 -4093 0
4072 -4093 0
-4074 -4076 4095 0
4074 -4095 0
4076 -4095 0
-4078 -4080 4097 0
4078 -4097 0
4080 -4097 0
-4082 -4084 4099 0
4082 -4099 0
4084 -4099 0
-4086 -4088 4101 0
4086 -4101 0
4088 -4101 0
-4090 -4092 4103 0
4090 -4103 0
4092 -4103 0
-4094 -4096 4105 0
4094 -4105 0
4096 -4105 0
-4098 -4100 4107 0
4098 -4107 0
4100 -4107 0
-4102 -4104 4108 0
4102 -4108 0
4104 -4108 0
-4022 -4024 4198 0
4022 -4198 0
4024 -4198 0
-4030 -4032 4199 0
4030 -4199 0
4032 -4199 0
-4034 -4036 4200 0
4034 -4200 0
4036 -4200 0
-4040 -4042 4201 0
4040 -4201 0
4042 -4201 0
-4044 -4046 4118 0
4044 -4118 0
4046 -4118 0
-4048 -4050 4120 0
4048 -4120 0
4050 -4120 0
-4052 -4054 4122 0
4052 -4122 0
4054 -4122 0
-4056 -4058 4124 0
4056 -4124 0
4058 -4124 0
-4063 -4065 4128 0
4063 -4128 0
4065 -4128 0
-4067 -4069 4130 0
4067 -4130 0
4069 -4130 0
-4073 -4075 4204 0
4073 -4204 0
4075 -4204 0
-4077 -4079 4134 0
4077 -4134 0
4079 -4134 0
-4081 -4083 4136 0
4081 -4136 0
4083 -4136 0
-4085 -4087 4138 0
4085 -4138 0
4087 -4138 0
-4089 -4091 4140 0
4089 -4140 0
4091 -4140 0
-4093 -4095 4142 0
4093 -4142 0
4095 -4142 0
-4097 -4099 4144 0
4097 -4144 0
4099 -4144 0
-4101 -4103 4146 0
4101 -4146 0
4103 -4146 0
-4105 -4107 4148 0
4105 -4148 0
4107 -4148 0
-4106 -4108 4213 0
4108 -4213 0
4106 -4213 0
-4109 -4110 4150 0
4109 -4150 0
4110 -4150 0
-4111 -4112 4152 0
4111 -4152 0
4112 -4152 0
-4113 -4114 4154 0
4113 -4154 0
4114 -4154 0
-4115 -4116 4156 0
4115 -4156 0
4116 -4156 0
-4117 -4119 4158 0
4117 -4158 0
4119 -4158 0
-4121 -4123 4160 0
4121 -4160 0
4123 -4160 0
-4125 -4126 4162 0
4125 -4162 0
4126 -4162 0
-4127 -4129 4164 0
4127 -4164 0
4129 -4164 0
-4131 -4132 4166 0
4131 -4166 0
4132 -4166 0
-4133 -4135 4168 0
4133 -4168 0
4135 -4168 0
-4137 -4139 4170 0
4137 -4170 0
4139 -4170 0
-4141 -4143 4172 0
4141 -4172 0
4143 -4172 0
-4145 -4147 4224 0
4145 -4224 0
4147 -4224 0
-4149 -4151 4176 0
4149 -4176 0
4151 -4176 0
-4153 -4155 4178 0
4153 -4178 0
4155 -4178 0
-4157 -4159 4180 0
4157 -4180 0
4159 -4180 0
-4161 -4163 4182 0
4161 -4182 0
4163 -4182 0
-4165 -4167 4184 0
4165 -4184 0
4167 -4184 0
-4169 -4171 4186 0
4169 -4186 0
4171 -4186 0
-4173 -4174 4188 0
4173 -4188 0
4174 -4188 0
-4175 -4177 4190 0
4175 -4190 0
4177 -4190 0
-4179 -4181 4192 0
4179 -4192 0
4181 -4192 0
-4183 -4185 4194 0
4183 -4194 0
4185 -4194 0
-4187 -4189 4196 0
4187 -4196 0
4189 -4196 0
-4191 -4193 4197 0
4191 -4197 0
4193 -4197 0
-4118 -4120 4285 0
4118 -4285 0
4120 -4285 0
-4122 -4124 4286 0
4122 -4286 0
4124 -4286 0
-4128 -4130 4287 0
4128 -4287 0
4130 -4287 0
-4134 -4136 4206 0
4134 -4206 0
4136 -4206 0
-4138 -4140 4208 0
4138 -4208 0
4140 -4208 0
-4142 -4144 4210 0
4142 -4210 0
4144 -4210 0
-4146 -4148 4212 0
4146 -4212 0
4148 -4212 0
-4150 -4152 4290 0
4150 -4290 0
4152 -4290 0
-4154 -4156 4216 0
4154 -4216 0
4156 -4216 0
-4158 -4160 4218 0
4158 -4218 0
4160 -4218 0
-4162 -4164 4220 0
4162 -4220 0
4164 -4220 0
-4166 -4168 4222 0
4166 -4222 0
4168 -4222 0
-4170 -4172 4295 0
4170 -4295 0
4172 -4295 0
-4176 -4178 4226 0
4176 -4226 0
4178 -4226 0
-4180 -4182 4228 0
4180 -4228 0
4182 -4228 0
-4184 -4186 4230 0
4184 -4230 0
4186 -4230 0
-4188 -4190 4232 0
4188 -4232 0
4190 -4232 0
-4192 -4194 4234 0
4192 -4234 0
4194 -4234 0
-4196 -4197 4236 0
4196 -4236 0
4197 -4236 0
-4198 -4199 4301 0
4198 -4301 0
4199 -4301 0
-4200 -4201 4239 0
4200 -4239 0
4201 -4239 0
-4202 -4203 4241 0
4202 -4241 0
4203 -4241 0
-4204 -4205 4303 0
4204 -4303 0
4205 -4303 0
-4207 -4209 4245 0
4207 -4245 0
4209 -4245 0
-4211 -4213 4247 0
4211 -4247 0
4213 -4247 0
-4214 -4215 4249 0
4214 -4249 0
4215 -4249 0
-4217 -4219 4251 0
4217 -4251 0
4219 -4251 0
-4221 -4223 4253 0
4221 -4253 0
4223 -4253 0
-4224 -4225 4255 0
4224 -4255 0
4225 -4255 0
-4227 -4229 4257 0
4227 -4257 0
4229 -4257 0
-4231 -4233 4259 0
4231 -4259 0
4233 -4259 0
-4195 -4235 4261 0
4235 -4261 0
4195 -4261 0
-4237 -4238 4263 0
4237 -4263 0
4238 -4263 0
-4240 -4242 4265 0
4240 -4265 0
4242 -4265 0
-4243 -4244 4267 0
4243 -4267 0
4244 -4267 0
-4246 -4248 4269 0
4246 -4269 0
4248 -4269 0
-4250 -4252 4271 0
4250 -4271 0
4252 -4271 0
-4254 -4256 4273 0
4254 -4273 0
4256 -4273 0
-4258 -4260 4275 0
4258 -4275 0
4260 -4275 0
-4262 -4264 4277 0
4262 -4277 0
4264 -4277 0
-4266 -4268 4279 0
4266 -4279 0
4268 -4279 0
-4270 -4272 4281 0
4270 -4281 0
4272 -4281 0
-4274 -4276 4283 0
4274 -4283 0
4276 -4283 0
-4278 -4280 4284 0
4278 -4284 0
4280 -4284 0
-4206 -4208 4370 0
4206 -4370 0
4208 -4370 0
-4210 -4212 4371 0
4210 -4371 0
4212 -4371 0
-4216 -4218 4292 0
4216 -4292 0
4218 -4292 0
-4220 -4222 4294 0
4220 -4294 0
4222 -4294 0
-4226 -4228 4373 0
4226 -4373 0
4228 -4373 0
-4230 -4232 4298 0
4230 -4298 0
4232 -4298 0
-4234 -4236 4300 0
4234 -4300 0
4236 -4300 0
-4239 -4241 4375 0
4239 -4375 0
4241 -4375 0
-4245 -4247 4376 0
4245 -4376 0
4247 -4376 0
-4249 -4251 4306 0
4249 -4306 0
4251 -4306 0
-4253 -4255 4308 0
4253 -4308 0
4255 -4308 0
-4257 -4259 4310 0
4257 -4310 0
4259 -4310 0
-4261 -4263 4312 0
4261 -4312 0
4263 -4312 0
-4265 -4267 4314 0
4265 -4314 0
4267 -4314 0
-4269 -4271 4316 0
4269 -4316 0
4271 -4316 0
-4273 -4275 4318 0
4273 -4318 0
4275 -4318 0
-4277 -4279 4320 0
4277 -4320 0
4279 -4320 0
-4281 -4283 4322 0
4281 -4322 0
4283 -4322 0
-4282 -4284 4324 0
4284 -4324 0
4282 -4324 0
-4285 -4286 4386 0
4285 -4386 0
4286 -4386 0
-4287 -4288 4326 0
4287 -4326 0
4288 -4326 0
-4289 -4290 4328 0
4289 -4328 0
4290 -4328 0
-4291 -4293 4330 0
4291 -4330 0
4293 -4330 0
-4295 -4296 4332 0
4295 -4332 0
4296 -4332 0
-4297 -4299 4334 0
4297 -4334 0
4299 -4334 0
-4301 -4302 4336 0
4301 -4336 0
4302 -4336 0
-4303 -4304 4338 0
4303 -4338 0
4304 -4338 0
-4305 -4307 4340 0
4305 -4340 0
4307 -4340 0
-4309 -4311 4342 0
4309 -4342 0
4311 -4342 0
-4313 -4315 4344 0
4313 -4344 0
4315 -4344 0
-4317 -4319 4346 0
4317 -4346 0
4319 -4346 0
-4321 -4323 4348 0
4321 -4348 0
4323 -4348 0
-4325 -4327 4397 0
4325 -4397 0
4327 -4397 0
-4329 -4331 4352 0
4329 -4352 0
4331 -4352 0
-4333 -4335 4354 0
4333 -4354 0
4335 -4354 0
-4337 -4339 4356 0
4337 -4356 0
4339 -4356 0
-4341 -4343 4358 0
4341 -4358 0
4343 -4358 0
-4345 -4347 4360 0
4345 -4360 0
4347 -4360 0
-4349 -4350 4362 0
4349 -4362 0
4350 -4362 0
-4351 -4353 4364 0
4351 -4364 0
4353 -4364 0
-4355 -4357 4366 0
4355 -4366 0
4357 -4366 0
-4359 -4361 4368 0
4359 -4368 0
4361 -4368 0
-4363 -4365 4369 0
4363 -4369 0
4365 -4369 0
-4292 -4294 4453 0
4292 -4453 0
4294 -4453 0
-4298 -4300 4454 0
4298 -4454 0
4300 -4454 0
-4306 -4308 4455 0
4306 -4455 0
4308 -4455 0
-4310 -4312 4379 0
4310 -4379 0
4312 -4379 0
-4314 -4316 4381 0
4314 -4381 0
4316 -4381 0
-4318 -4320 4383 0
4318 -4383 0
4320 -4383 0
-4322 -4324 4385 0
4322 -4385 0
4324 -4385 0
-4326 -4328 4458 0
4326 -4458 0
4328 -4458 0
-4330 -4332 4389 0
4330 -4389 0
4332 -4389 0
-4334 -4336 4391 0
4334 -4391 0
4336 -4391 0
-4338 -4340 4393 0
4338 -4393 0
4340 -4393 0
-4342 -4344 4395 0
4342 -4395 0
4344 -4395 0
-4346 -4348 4463 0
4346 -4463 0
4348 -4463 0
-4352 -4354 4399 0
4352 -4399 0
4354 -4399 0
-4356 -4358 4401 0
4356 -4401 0
4358 -4401 0
-4360 -4362 4403 0
4360 -4403 0
4362 -4403 0
-4364 -4366 4405 0
4364 -4405 0
4366 -4405 0
-4368 -4369 4466 0
4368 -4466 0
4369 -4466 0
-4371 -4372 4467 0
4371 -4467 0
4372 -4467 0
-4373 -4374 4409 0
4373 -4409 0
4374 -4409 0
-4375 -4376 4411 0
4375 -4411 0
4376 -4411 0
-4377 -4378 4413 0
4377 -4413 0
4378 -4413 0
-4380 -4382 4415 0
4380 -4415 0
4382 -4415 0
-4384 -4386 4417 0
4384 -4417 0
4386 -4417 0
-4387 -4388 4419 0
4387 -4419 0
4388 -4419 0
-4390 -4392 4421 0
4390 -4421 0
4392 -4421 0
-4394 -4396 4423 0
4394 -4423 0
4396 -4423 0
-4397 -4398 4425 0
4397 -4425 0
4398 -4425 0
-4400 -4402 4427 0
4400 -4427 0
4402 -4427 0
-4404 -4406 4429 0
4404 -4429 0
4406 -4429 0
-4367 -4370 4431 0
4367 -4431 0
4370 -4431 0
-4407 -4408 4433 0
4407 -4433 0
4408 -4433 0
-4410 -4412 4435 0
4410 -4435 0
4412 -4435 0
-4414 -4416 4437 0
4414 -4437 0
4416 -4437 0
-4418 -4420 4439 0
4418 -4439 0
4420 -4439 0
-4422 -4424 4441 0
4422 -4441 0
4424 -4441 0
-4426 -4428 4443 0
4426 -4443 0
4428 -4443 0
-4430 -4432 4445 0
4430 -4445 0
4432 -4445 0
-4434 -4436 4447 0
4434 -4447 0
4436 -4447 0
-4438 -4440 4449 0
4438 -4449 0
4440 -4449 0
-4442 -4444 4451 0
4442 -4451 0
4444 -4451 0
-4446 -4448 4452 0
4446 -4452 0
4448 -4452 0
-4379 -4381 4534 0
4379 -4534 0
4381 -4534 0
-4383 -4385 4535 0
4383 -4535 0
4385 -4535 0
-4389 -4391 4460 0
4389 -4460 0
4391 -4460 0
-4393 -4395 4462 0
4393 -4462 0
4395 -4462 0
-4399 -4401 4537 0
4399 -4537 0
4401 -4537 0
-4403 -4405 4538 0
4403 -4538 0
4405 -4538 0
-4409 -4411 4539 0
4409 -4539 0
4411 -4539 0
-4413 -4415 4470 0
4413 -4470 0
4415 -4470 0
-4417 -4419 4472 0
4417 -4472 0
4419 -4472 0
-4421 -4423 4474 0
4421 -4474 0
4423 -4474 0
-4425 -4427 4476 0
4425 -4476 0
4427 -4476 0
-4429 -4431 4478 0
4429 -4478 0
4431 -4478 0
-4433 -4435 4480 0
4433 -4480 0
4435 -4480 0
-4437 -4439 4482 0
4437 -4482 0
4439 -4482 0
-4441 -4443 4484 0
4441 -4484 0
4443 -4484 0
-4445 -4447 4486 0
4445 -4486 0
4447 -4486 0
-4449 -4451 4488 0
4449 -4488 0
4451 -4488 0
-4450 -4452 4549 0
4452 -4549 0
4450 -4549 0
-4453 -4454 4490 0
4453 -4490 0
4454 -4490 0
-4455 -4456 4492 0
4455 -4492 0
4456 -4492 0
-4457 -4458 4494 0
4457 -4494 0
4458 -4494 0
-4459 -4461 4496 0
4459 -4496 0
4461 -4496 0
-4463 -4464 4498 0
4463 -4498 0
4464 -4498 0
-4465 -4466 4500 0
4465 -4500 0
4466 -4500 0
-4467 -4468 4502 0
4467 -4502 0
4468 -4502 0
-4469 -4471 4504 0
4469 -4504 0
4471 -4504 0
-4473 -4475 4506 0
4473 -4506 0
4475 -4506 0
-4477 -4479 4508 0
4477 -4508 0
4479 -4508 0
-4481 -4483 4510 0
4481 -4510 0
4483 -4510 0
-4485 -4487 4512 0
4485 -4512 0
4487 -4512 0
-4489 -4491 4562 0
4489 -4562 0
4491 -4562 0
-4493 -4495 4516 0
4493 -4516 0
4495 -4516 0
-4497 -4499 4518 0
4497 -4518 0
4499 -4518 0
-4501 -4503 4520 0
4501 -4520 0
4503 -4520 0
-4505 -4507 4522 0
4505 -4522 0
4507 -4522 0
-4509 -4511 4524 0
4509 -4524 0
4511 -4524 0
-4513 -4514 4526 0
4513 -4526 0
4514 -4526 0
-4515 -4517 4528 0
4515 -4528 0
4517 -4528 0
-4519 -4521 4530 0
4519 -4530 0
4521 -4530 0
-4523 -4525 4532 0
4523 -4532 0
4525 -4532 0
-4527 -4529 4533 0
4527 -4533 0
4529 -4533 0
-4460 -4462 4672 0
4460 -4672 0
4462 -4672 0
-4470 -4472 4541 0
4470 -4541 0
4472 -4541 0
-4474 -4476 4543 0
4474 -4543 0
4476 -4543 0
-4478 -4480 4545 0
4478 -4545 0
4480 -4545 0
-4482 -4484 4547 0
4482 -4547 0
4484 -4547 0
-4486 -4488 4621 0
4486 -4621 0
4488 -4621 0
-4490 -4492 4551 0
4490 -4551 0
4492 -4551 0
-4494 -4496 4553 0
4494 -4553 0
4496 -4553 0
-4498 -4500 4555 0
4498 -4555 0
4500 -4555 0
-4502 -4504 4557 0
4502 -4557 0
4504 -4557 0
-4506 -4508 4559 0
4506 -4559 0
4508 -4559 0
-4510 -4512 4561 0
4510 -4561 0
4512 -4561 0
-4516 -4518 4627 0
4516 -4627 0
4518 -4627 0
-4520 -4522 4565 0
4520 -4565 0
4522 -4565 0
-4524 -4526 4567 0
4524 -4567 0
4526 -4567 0
-4528 -4530 4569 0
4528 -4569 0
4530 -4569 0
-4532 -4533 4571 0
4532 -4571 0
4533 -4571 0
-4535 -4536 4573 0
4535 -4573 0
4536 -4573 0
-4537 -4538 4575 0
4537 -4575 0
4538 -4575 0
-4539 -4540 4577 0
4539 -4577 0
4540 -4577 0
-4542 -4544 4579 0
4542 -4579 0
4544 -4579 0
-4546 -4548 4581 0
4546 -4581 0
4548 -4581 0
-4549 -4550 4583 0
4549 -4583 0
4550 -4583 0
-4552 -4554 4585 0
4552 -4585 0
4554 -4585 0
-4556 -4558 4587 0
4556 -4587 0
4558 -4587 0
-4560 -4562 4589 0
4560 -4589 0
4562 -4589 0
-4563 -4564 4591 0
4563 -4591 0
4564 -4591 0
-4566 -4568 4593 0
4566 -4593 0
4568 -4593 0
-4531 -4570 4595 0
4570 -4595 0
4531 -4595 0
-4534 -4572 4597 0
4534 -4597 0
4572 -4597 0
-4574 -4576 4599 0
4574 -4599 0
4576 -4599 0
-4578 -4580 4601 0
4578 -4601 0
4580 -4601 0
-4582 -4584 4603 0
4582 -4603 0
4584 -4603 0
-4586 -4588 4605 0
4586 -4605 0
4588 -4605 0
-4590 -4592 4607 0
4590 -4607 0
4592 -4607 0
-4594 -4596 4609 0
4594 -4609 0
4596 -4609 0
-4598 -4600 4611 0
4598 -4611 0
4600 -4611 0
-4602 -4604 4613 0
4602 -4613 0
4604 -4613 0
-4606 -4608 4615 0
4606 -4615 0
4608 -4615 0
-4610 -4612 4616 0
4610 -4616 0
4612 -4616 0
-4541 -4543 4618 0
4541 -4618 0
4543 -4618 0
-4545 -4547 4620 0
4545 -4620 0
4547 -4620 0
-4551 -4553 4692 0
4551 -4692 0
4553 -4692 0
-4555 -4557 4624 0
4555 -4624 0
4557 -4624 0
-4559 -4561 4626 0
4559 -4626 0
4561 -4626 0
-4565 -4567 4694 0
4565 -4694 0
4567 -4694 0
-4569 -4571 4695 0
4569 -4695 0
4571 -4695 0
-4573 -4575 4630 0
4573 -4630 0
4575 -4630 0
-4577 -4579 4632 0
4577 -4632 0
4579 -4632 0
-4581 -4583 4634 0
4581 -4634 0
4583 -4634 0
-4585 -4587 4636 0
4585 -4636 0
4587 -4636 0
-4589 -4591 4638 0
4589 -4638 0
4591 -4638 0
-4593 -4595 4640 0
4593 -4640 0
4595 -4640 0
-4597 -4599 4642 0
4597 -4642 0
4599 -4642 0
-4601 -4603 4644 0
4601 -4644 0
4603 -4644 0
-4605 -4607 4646 0
4605 -4646 0
4607 -4646 0
-4609 -4611 4648 0
4609 -4648 0
4611 -4648 0
-4613 -4615 4650 0
4613 -4650 0
4615 -4650 0
-4614 -4616 4652 0
4616 -4652 0
4614 -4652 0
-4617 -4619 4654 0
4617 -4654 0
4619 -4654 0
-4621 -4622 4656 0
4621 -4656 0
4622 -4656 0
-4623 -4625 4658 0
4623 -4658 0
4625 -4658 0
-4627 -4628 4660 0
4627 -4660 0
4628 -4660 0
-4629 -4631 4709 0
4629 -4709 0
4631 -4709 0
-4633 -4635 4664 0
4633 -4664 0
4635 -4664 0
-4637 -4639 4666 0
4637 -4666 0
4639 -4666 0
-4641 -4643 4668 0
4641 -4668 0
4643 -4668 0
-4645 -4647 4670 0
4645 -4670 0
4647 -4670 0
-4649 -4651 4712 0
4649 -4712 0
4651 -4712 0
-4653 -4655 4674 0
4653 -4674 0
4655 -4674 0
-4657 -4659 4676 0
4657 -4676 0
4659 -4676 0
-4661 -4662 4678 0
4661 -4678 0
4662 -4678 0
-4663 -4665 4680 0
4663 -4680 0
4665 -4680 0
-4667 -4669 4682 0
4667 -4682 0
4669 -4682 0
-4671 -4672 4684 0
4671 -4684 0
4672 -4684 0
-4673 -4675 4686 0
4673 -4686 0
4675 -4686 0
-4677 -4679 4688 0
4677 -4688 0
4679 -4688 0
-4681 -4683 4690 0
4681 -4690 0
4683 -4690 0
-4685 -4687 4691 0
4685 -4691 0
4687 -4691 0
-4618 -4620 4763 0
4618 -4763 0
4620 -4763 0
-4624 -4626 4764 0
4624 -4764 0
4626 -4764 0
-4630 -4632 4765 0
4630 -4765 0
4632 -4765 0
-4634 -4636 4698 0
4634 -4698 0
4636 -4698 0
-4638 -4640 4700 0
4638 -4700 0
4640 -4700 0
-4642 -4644 4702 0
4642 -4702 0
4644 -4702 0
-4646 -4648 4704 0
4646 -4704 0
4648 -4704 0
-4650 -4652 4770 0
4650 -4770 0
4652 -4770 0
-4654 -4656 4706 0
4654 -4706 0
4656 -4706 0
-4658 -4660 4708 0
4658 -4708 0
4660 -4708 0
-4664 -4666 4772 0
4664 -4772 0
4666 -4772 0
-4668 -4670 4773 0
4668 -4773 0
4670 -4773 0
-4674 -4676 4714 0
4674 -4714 0
4676 -4714 0
-4678 -4680 4716 0
4678 -4716 0
4680 -4716 0
-4682 -4684 4718 0
4682 -4718 0
4684 -4718 0
-4686 -4688 4720 0
4686 -4720 0
4688 -4720 0
-4690 -4691 4778 0
4690 -4778 0
4691 -4778 0
-4692 -4693 4779 0
4692 -4779 0
4693 -4779 0
-4694 -4695 4725 0
4694 -4725 0
4695 -4725 0
-4696 -4697 4727 0
4696 -4727 0
4697 -4727 0
-4699 -4701 4729 0
4699 -4729 0
4701 -4729 0
-4703 -4705 4731 0
4703 -4731 0
4705 -4731 0
-4707 -4709 4784 0
4707 -4784 0
4709 -4784 0
-4710 -4711 4735 0
4710 -4735 0
4711 -4735 0
-4712 -4713 4737 0
4712 -4737 0
4713 -4737 0
-4715 -4717 4739 0
4715 -4739 0
4717 -4739 0
-4719 -4721 4741 0
4719 -4741 0
4721 -4741 0
-4689 -4722 4743 0
4689 -4743 0
4722 -4743 0
-4723 -4724 4745 0
4723 -4745 0
4724 -4745 0
-4726 -4728 4747 0
4726 -4747 0
4728 -4747 0
-4730 -4732 4749 0
4730 -4749 0
4732 -4749 0
-4733 -4734 4751 0
4733 -4751 0
4734 -4751 0
-4736 -4738 4753 0
4736 -4753 0
4738 -4753 0
-4740 -4742 4755 0
4740 -4755 0
4742 -4755 0
-4744 -4746 4757 0
4744 -4757 0
4746 -4757 0
-4748 -4750 4759 0
4748 -4759 0
4750 -4759 0
-4752 -4754 4761 0
4752 -4761 0
4754 -4761 0
-4756 -4758 4762 0
4756 -4762 0
4758 -4762 0
-4698 -4700 4767 0
4698 -4767 0
4700 -4767 0
-4702 -4704 4769 0
4702 -4769 0
4704 -4769 0
-4706 -4708 4842 0
4706 -4842 0
4708 -4842 0
-4714 -4716 4775 0
4714 -4775 0
4716 -4775 0
-4718 -4720 4777 0
4718 -4777 0
4720 -4777 0
-4725 -4727 4781 0
4725 -4781 0
4727 -4781 0
-4729 -4731 4783 0
4729 -4783 0
4731 -4783 0
-4735 -4737 4844 0
4735 -4844 0
4737 -4844 0
-4739 -4741 4787 0
4739 -4787 0
4741 -4787 0
-4743 -4745 4789 0
4743 -4789 0
4745 -4789 0
-4747 -4749 4791 0
4747 -4791 0
4749 -4791 0
-4751 -4753 4793 0
4751 -4793 0
4753 -4793 0
-4755 -4757 4795 0
4755 -4795 0
4757 -4795 0
-4759 -4761 4797 0
4759 -4797 0
4761 -4797 0
-4760 -4762 4850 0
4762 -4850 0
4760 -4850 0
-4764 -4765 4800 0
4764 -4800 0
4765 -4800 0
-4766 -4768 4802 0
4766 -4802 0
4768 -4802 0
-4770 -4771 4804 0
4770 -4804 0
4771 -4804 0
-4772 -4773 4806 0
4772 -4806 0
4773 -4806 0
-4774 -4776 4808 0
4774 -4808 0
4776 -4808 0
-4778 -4779 4810 0
4778 -4810 0
4779 -4810 0
-4780 -4782 4812 0
4780 -4812 0
4782 -4812 0
-4784 -4785 4814 0
4784 -4814 0
4785 -4814 0
-4786 -4788 4816 0
4786 -4816 0
4788 -4816 0
-4790 -4792 4818 0
4790 -4818 0
4792 -4818 0
-4794 -4796 4820 0
4794 -4820 0
4796 -4820 0
-4763 -4798 4822 0
4798 -4822 0
4763 -4822 0
-4799 -4801 4824 0
4799 -4824 0
4801 -4824 0
-4803 -4805 4826 0
4803 -4826 0
4805 -4826 0
-4807 -4809 4828 0
4807 -4828 0
4809 -4828 0
-4811 -4813 4830 0
4811 -4830 0
4813 -4830 0
-4815 -4817 4832 0
4815 -4832 0
4817 -4832 0
-4819 -4821 4834 0
4819 -4834 0
4821 -4834 0
-4823 -4825 4836 0
4823 -4836 0
4825 -4836 0
-4827 -4829 4838 0
4827 -4838 0
4829 -4838 0
-4831 -4833 4840 0
4831 -4840 0
4833 -4840 0
-4835 -4837 4841 0
4835 -4841 0
4837 -4841 0
-4767 -4769 4911 0
4767 -4911 0
4769 -4911 0
-4775 -4777 4912 0
4775 -4912 0
4777 -4912 0
-4781 -4783 4913 0
4781 -4913 0
4783 -4913 0
-4787 -4789 4914 0
4787 -4914 0
4789 -4914 0
-4791 -4793 4847 0
4791 -4847 0
4793 -4847 0
-4795 -4797 4849 0
4795 -4849 0
4797 -4849 0
-4800 -4802 4916 0
4800 -4916 0
4802 -4916 0
-4804 -4806 4853 0
4804 -4853 0
4806 -4853 0
-4808 -4810 4855 0
4808 -4855 0
4810 -4855 0
-4812 -4814 4857 0
4812 -4857 0
4814 -4857 0
-4816 -4818 4859 0
4816 -4859 0
4818 -4859 0
-4820 -4822 4861 0
4820 -4861 0
4822 -4861 0
-4824 -4826 4863 0
4824 -4863 0
4826 -4863 0
-4828 -4830 4865 0
4828 -4865 0
4830 -4865 0
-4832 -4834 4867 0
4832 -4867 0
4834 -4867 0
-4836 -4838 4869 0
4836 -4869 0
4838 -4869 0
-4840 -4841 4871 0
4840 -4871 0
4841 -4871 0
-4843 -4844 4875 0
4843 -4875 0
4844 -4875 0
-4845 -4846 4877 0
4845 -4877 0
4846 -4877 0
-4848 -4850 4879 0
4848 -4879 0
4850 -4879 0
-4851 -4852 4881 0
4851 -4881 0
4852 -4881 0
-4854 -4856 4883 0
4854 -4883 0
4856 -4883 0
-4858 -4860 4885 0
4858 -4885 0
4860 -4885 0
-4862 -4864 4887 0
4862 -4887 0
4864 -4887 0
-4866 -4868 4889 0
4866 -4889 0
4868 -4889 0
-4839 -4870 4891 0
4870 -4891 0
4839 -4891 0
-4842 -4872 4893 0
4872 -4893 0
4842 -4893 0
-4873 -4874 4895 0
4873 -4895 0
4874 -4895 0
-4876 -4878 4897 0
4876 -4897 0
4878 -4897 0
-4880 -4882 4899 0
4880 -4899 0
4882 -4899 0
-4884 -4886 4901 0
4884 -4901 0
4886 -4901 0
-4888 -4890 4903 0
4888 -4903 0
4890 -4903 0
-4892 -4894 4905 0
4892 -4905 0
4894 -4905 0
-4896 -4898 4907 0
4896 -4907 0
4898 -4907 0
-4900 -4902 4909 0
4900 -4909 0
4902 -4909 0
-4904 -4906 4910 0
4904 -4910 0
4906 -4910 0
-4847 -4849 5008 0
4847 -5008 0
4849 -5008 0
-4853 -4855 4980 0
4853 -4980 0
4855 -4980 0
-4857 -4859 4919 0
4857 -4919 0
4859 -4919 0
-4861 -4863 4921 0
4861 -4921 0
4863 -4921 0
-4865 -4867 4923 0
4865 -4923 0
4867 -4923 0
-4869 -4871 4925 0
4869 -4925 0
4871 -4925 0
-4875 -4877 4927 0
4875 -4927 0
4877 -4927 0
-4879 -4881 4929 0
4879 -4929 0
4881 -4929 0
-4883 -4885 4931 0
4883 -4931 0
4885 -4931 0
-4887 -4889 4933 0
4887 -4933 0
4889 -4933 0
-4891 -4893 4935 0
4891 -4935 0
4893 -4935 0
-4895 -4897 4937 0
4895 -4937 0
4897 -4937 0
-4899 -4901 4939 0
4899 -4939 0
4901 -4939 0
-4903 -4905 4941 0
4903 -4941 0
4905 -4941 0
-4907 -4909 4943 0
4907 -4943 0
4909 -4943 0
-4908 -4910 4945 0
4910 -4945 0
4908 -4945 0
-4912 -4913 4993 0
4912 -4993 0
4913 -4993 0
-4914 -4915 4948 0
4914 -4948 0
4915 -4948 0
-4916 -4917 4950 0
4916 -4950 0
4917 -4950 0
-4918 -4920 4952 0
4918 -4952 0
4920 -4952 0
-4922 -4924 4954 0
4922 -4954 0
4924 -4954 0
-4926 -4928 4996 0
4926 -4996 0
4928 -4996 0
-4930 -4932 4956 0
4930 -4956 0
4932 -4956 0
-4934 -4936 4958 0
4934 -4958 0
4936 -4958 0
-4938 -4940 4960 0
4938 -4960 0
4940 -4960 0
-4942 -4944 4962 0
4942 -4962 0
4944 -4962 0
-4911 -4946 4964 0
4911 -4964 0
4946 -4964 0
-4947 -4949 4966 0
4947 -4966 0
4949 -4966 0
-4951 -4953 5002 0
4951 -5002 0
4953 -5002 0
-4955 -4957 4970 0
4955 -4970 0
4957 -4970 0
-4959 -4961 4972 0
4959 -4972 0
4961 -4972 0
-4963 -4965 4974 0
4963 -4974 0
4965 -4974 0
-4967 -4968 4976 0
4967 -4976 0
4968 -4976 0
-4969 -4971 4978 0
4969 -4978 0
4971 -4978 0
-4973 -4975 4979 0
4973 -4979 0
4975 -4979 0
-4919 -4921 4982 0
4919 -4982 0
4921 -4982 0
-4923 -4925 4983 0
4923 -4983 0
4925 -4983 0
-4927 -4929 5046 0
4927 -5046 0
4929 -5046 0
-4931 -4933 4986 0
4931 -4986 0
4933 -4986 0
-4935 -4937 4988 0
4935 -4988 0
4937 -4988 0
-4939 -4941 4990 0
4939 -4990 0
4941 -4990 0
-4943 -4945 4992 0
4943 -4992 0
4945 -4992 0
-4948 -4950 5051 0
4948 -5051 0
4950 -5051 0
-4952 -4954 5052 0
4952 -5052 0
4954 -5052 0
-4956 -4958 4998 0
4956 -4998 0
4958 -4998 0
-4960 -4962 5000 0
4960 -5000 0
4962 -5000 0
-4964 -4966 5054 0
4964 -5054 0
4966 -5054 0
-4970 -4972 5004 0
4970 -5004 0
4972 -5004 0
-4974 -4976 5006 0
4974 -5006 0
4976 -5006 0
-4978 -4979 5056 0
4978 -5056 0
4979 -5056 0
-4980 -4981 5057 0
4980 -5057 0
4981 -5057 0
-4984 -4985 5058 0
4984 -5058 0
4985 -5058 0
-4987 -4989 5013 0
4987 -5013 0
4989 -5013 0
-4991 -4993 5015 0
4991 -5015 0
4993 -5015 0
-4994 -4995 5017 0
4994 -5017 0
4995 -5017 0
-4996 -4997 5019 0
4996 -5019 0
4997 -5019 0
-4999 -5001 5021 0
4999 -5021 0
5001 -5021 0
-5002 -5003 5023 0
5002 -5023 0
5003 -5023 0
-5005 -5007 5025 0
5005 -5025 0
5007 -5025 0
-4977 -5008 5027 0
4977 -5027 0
5008 -5027 0
-5009 -5010 5029 0
5009 -5029 0
5010 -5029 0
-5011 -5012 5031 0
5011 -5031 0
5012 -5031 0
-5014 -5016 5033 0
5014 -5033 0
5016 -5033 0
-5018 -5020 5035 0
5018 -5035 0
5020 -5035 0
-5022 -5024 5037 0
5022 -5037 0
5024 -5037 0
-5026 -5028 5039 0
5026 -5039 0
5028 -5039 0
-5030 -5032 5041 0
5030 -5041 0
5032 -5041 0
-5034 -5036 5043 0
5034 -5043 0
5036 -5043 0
-5038 -5040 5044 0
5038 -5044 0
5040 -5044 0
-4982 -4983 5112 0
4982 -5112 0
4983 -5112 0
-4986 -4988 5048 0
4986 -5048 0
4988 -5048 0
-4990 -4992 5050 0
4990 -5050 0
4992 -5050 0
-4998 -5000 5141 0
4998 -5141 0
5000 -5141 0
-5004 -5006 5114 0
5004 -5114 0
5006 -5114 0
-5013 -5015 5060 0
5013 -5060 0
5015 -5060 0
-5017 -5019 5062 0
5017 -5062 0
5019 -5062 0
-5021 -5023 5064 0
5021 -5064 0
5023 -5064 0
-5025 -5027 5066 0
5025 -5066 0
5027 -5066 0
-5029 -5031 5068 0
5029 -5068 0
5031 -5068 0
-5033 -5035 5070 0
5033 -5070 0
5035 -5070 0
-5037 -5039 5072 0
5037 -5072 0
5039 -5072 0
-5041 -5043 5074 0
5041 -5074 0
5043 -5074 0
-5042 -5044 5121 0
5044 -5121 0
5042 -5121 0
-5045 -5046 5076 0
5045 -5076 0
5046 -5076 0
-5047 -5049 5078 0
5047 -5078 0
5049 -5078 0
-5051 -5052 5080 0
5051 -5080 0
5052 -5080 0
-5053 -5054 5082 0
5053 -5082 0
5054 -5082 0
-5055 -5056 5084 0
5055 -5084 0
5056 -5084 0
-5057 -5058 5086 0
5057 -5086 0
5058 -5086 0
-5059 -5061 5088 0
5059 -5088 0
5061 -5088 0
-5063 -5065 5090 0
5063 -5090 0
5065 -5090 0
-5067 -5069 5092 0
5067 -5092 0
5069 -5092 0
-5071 -5073 5094 0
5071 -5094 0
5073 -5094 0
-5075 -5077 5131 0
5075 -5131 0
5077 -5131 0
-5079 -5081 5098 0
5079 -5098 0
5081 -5098 0
-5083 -5085 5100 0
5083 -5100 0
5085 -5100 0
-5087 -5089 5102 0
5087 -5102 0
5089 -5102 0
-5091 -5093 5104 0
5091 -5104 0
5093 -5104 0
-5095 -5096 5106 0
5095 -5106 0
5096 -5106 0
-5097 -5099 5108 0
5097 -5108 0
5099 -5108 0
-5101 -5103 5110 0
5101 -5110 0
5103 -5110 0
-5105 -5107 5111 0
5105 -5111 0
5107 -5111 0
-5048 -5050 5175 0
5048 -5175 0
5050 -5175 0
-5060 -5062 5176 0
5060 -5176 0
5062 -5176 0
-5064 -5066 5117 0
5064 -5117 0
5066 -5117 0
-5068 -5070 5119 0
5068 -5119 0
5070 -5119 0
-5072 -5074 5178 0
5072 -5178 0
5074 -5178 0
-5076 -5078 5123 0
5076 -5123 0
5078 -5123 0
-5080 -5082 5125 0
5080 -5125 0
5082 -5125 0
-5084 -5086 5127 0
5084 -5127 0
5086 -5127 0
-5088 -5090 5129 0
5088 -5129 0
5090 -5129 0
-5092 -5094 5183 0
5092 -5183 0
5094 -5183 0
-5098 -5100 5133 0
5098 -5133 0
5100 -5133 0
-5102 -5104 5135 0
5102 -5135 0
5104 -5135 0
-5106 -5108 5137 0
5106 -5137 0
5108 -5137 0
-5110 -5111 5139 0
5110 -5139 0
5111 -5139 0
-5112 -5113 5186 0
5112 -5186 0
5113 -5186 0
-5115 -5116 5143 0
5115 -5143 0
5116 -5143 0
-5118 -5120 5145 0
5118 -5145 0
5120 -5145 0
-5121 -5122 5147 0
5121 -5147 0
5122 -5147 0
-5124 -5126 5149 0
5124 -5149 0
5126 -5149 0
-5128 -5130 5151 0
5128 -5151 0
5130 -5151 0
-5131 -5132 5153 0
5131 -5153 0
5132 -5153 0
-5134 -5136 5155 0
5134 -5155 0
5136 -5155 0
-5109 -5138 5157 0
5138 -5157 0
5109 -5157 0
-5140 -5141 5159 0
5140 -5159 0
5141 -5159 0
-5114 -5142 5161 0
5114 -5161 0
5142 -5161 0
-5144 -5146 5163 0
5144 -5163 0
5146 -5163 0
-5148 -5150 5165 0
5148 -5165 0
5150 -5165 0
-5152 -5154 5167 0
5152 -5167 0
5154 -5167 0
-5156 -5158 5169 0
5156 -5169 0
5158 -5169 0
-5160 -5162 5171 0
5160 -5171 0
5162 -5171 0
-5164 -5166 5173 0
5164 -5173 0
5166 -5173 0
-5168 -5170 5174 0
5168 -5174 0
5170 -5174 0
-5117 -5119 5236 0
5117 -5236 0
5119 -5236 0
-5123 -5125 5180 0
5123 -5180 0
5125 -5180 0
-5127 -5129 5182 0
5127 -5182 0
5129 -5182 0
-5133 -5135 5238 0
5133 -5238 0
5135 -5238 0
-5137 -5139 5239 0
5137 -5239 0
5139 -5239 0
-5143 -5145 5240 0
5143 -5240 0
5145 -5240 0
-5147 -5149 5188 0
5147 -5188 0
5149 -5188 0
-5151 -5153 5190 0
5151 -5190 0
5153 -5190 0
-5155 -5157 5192 0
5155 -5192 0
5157 -5192 0
-5159 -5161 5194 0
5159 -5194 0
5161 -5194 0
-5163 -5165 5196 0
5163 -5196 0
5165 -5196 0
-5167 -5169 5198 0
5167 -5198 0
5169 -5198 0
-5171 -5173 5200 0
5171 -5200 0
5173 -5200 0
-5172 -5174 5202 0
5174 -5202 0
5172 -5202 0
-5177 -5178 5204 0
5177 -5204 0
5178 -5204 0
-5179 -5181 5206 0
5179 -5206 0
5181 -5206 0
-5183 -5184 5208 0
5183 -5208 0
5184 -5208 0
-5185 -5186 5210 0
5185 -5210 0
5186 -5210 0
-5187 -5189 5250 0
5187 -5250 0
5189 -5250 0
-5191 -5193 5214 0
5191 -5214 0
5193 -5214 0
-5195 -5197 5216 0
5195 -5216 0
5197 -5216 0
-5199 -5201 5218 0
5199 -5218 0
5201 -5218 0
-5175 -5176 5220 0
5175 -5220 0
5176 -5220 0
-5203 -5205 5222 0
5203 -5222 0
5205 -5222 0
-5207 -5209 5224 0
5207 -5224 0
5209 -5224 0
-5211 -5212 5226 0
5211 -5226 0
5212 -5226 0
-5213 -5215 5228 0
5213 -5228 0
5215 -5228 0
-5217 -5219 5230 0
5217 -5230 0
5219 -5230 0
-5221 -5223 5232 0
5221 -5232 0
5223 -5232 0
-5225 -5227 5234 0
5225 -5234 0
5227 -5234 0
-5229 -5231 5235 0
5229 -5235 0
5231 -5235 0
-5180 -5182 5293 0
5180 -5293 0
5182 -5293 0
-5188 -5190 5294 0
5188 -5294 0
5190 -5294 0
-5192 -5194 5243 0
5192 -5243 0
5194 -5243 0
-5196 -5198 5245 0
5196 -5245 0
5198 -5245 0
-5200 -5202 5296 0
5200 -5296 0
5202 -5296 0
-5204 -5206 5247 0
5204 -5247 0
5206 -5247 0
-5208 -5210 5249 0
5208 -5249 0
5210 -5249 0
-5214 -5216 5298 0
5214 -5298 0
5216 -5298 0
-5218 -5220 5253 0
5218 -5253 0
5220 -5253 0
-5222 -5224 5255 0
5222 -5255 0
5224 -5255 0
-5226 -5228 5257 0
5226 -5257 0
5228 -5257 0
-5230 -5232 5259 0
5230 -5259 0
5232 -5259 0
-5234 -5235 5303 0
5234 -5303 0
5235 -5303 0
-5237 -5238 5304 0
5237 -5304 0
5238 -5304 0
-5239 -5240 5263 0
5239 -5263 0
5240 -5263 0
-5241 -5242 5265 0
5241 -5265 0
5242 -5265 0
-5244 -5246 5306 0
5244 -5306 0
5246 -5306 0
-5248 -5250 5269 0
5248 -5269 0
5250 -5269 0
-5251 -5252 5271 0
5251 -5271 0
5252 -5271 0
-5254 -5256 5273 0
5254 -5273 0
5256 -5273 0
-5258 -5260 5275 0
5258 -5275 0
5260 -5275 0
-5233 -5236 5277 0
5233 -5277 0
5236 -5277 0
-5261 -5262 5279 0
5261 -5279 0
5262 -5279 0
-5264 -5266 5281 0
5264 -5281 0
5266 -5281 0
-5267 -5268 5283 0
5267 -5283 0
5268 -5283 0
-5270 -5272 5285 0
5270 -5285 0
5272 -5285 0
-5274 -5276 5287 0
5274 -5287 0
5276 -5287 0
-5278 -5280 5289 0
5278 -5289 0
5280 -5289 0
-5282 -5284 5291 0
5282 -5291 0
5284 -5291 0
-5286 -5288 5292 0
5286 -5292 0
5288 -5292 0
-5243 -5245 5352 0
5243 -5352 0
5245 -5352 0
-5247 -5249 5353 0
5247 -5353 0
5249 -5353 0
-5253 -5255 5300 0
5253 -5300 0
5255 -5300 0
-5257 -5259 5302 0
5257 -5302 0
5259 -5302 0
-5263 -5265 5379 0
5263 -5379 0
5265 -5379 0
-5269 -5271 5308 0
5269 -5308 0
5271 -5308 0
-5273 -5275 5310 0
5273 -5310 0
5275 -5310 0
-5277 -5279 5312 0
5277 -5312 0
5279 -5312 0
-5281 -5283 5314 0
5281 -5314 0
5283 -5314 0
-5285 -5287 5316 0
5285 -5316 0
5287 -5316 0
-5289 -5291 5318 0
5289 -5318 0
5291 -5318 0
-5290 -5292 5360 0
5292 -5360 0
5290 -5360 0
-5295 -5296 5361 0
5295 -5361 0
5296 -5361 0
-5297 -5298 5322 0
5297 -5322 0
5298 -5322 0
-5299 -5301 5324 0
5299 -5324 0
5301 -5324 0
-5303 -5304 5326 0
5303 -5326 0
5304 -5326 0
-5305 -5306 5328 0
5305 -5328 0
5306 -5328 0
-5307 -5309 5330 0
5307 -5330 0
5309 -5330 0
-5311 -5313 5332 0
5311 -5332 0
5313 -5332 0
-5315 -5317 5334 0
5315 -5334 0
5317 -5334 0
-5293 -5319 5336 0
5319 -5336 0
5293 -5336 0
-5294 -5320 5338 0
5294 -5338 0
5320 -5338 0
-5321 -5323 5340 0
5321 -5340 0
5323 -5340 0
-5325 -5327 5342 0
5325 -5342 0
5327 -5342 0
-5329 -5331 5344 0
5329 -5344 0
5331 -5344 0
-5333 -5335 5346 0
5333 -5346 0
5335 -5346 0
-5337 -5339 5348 0
5337 -5348 0
5339 -5348 0
-5341 -5343 5350 0
5341 -5350 0
5343 -5350 0
-5345 -5347 5351 0
5345 -5351 0
5347 -5351 0
-5300 -5302 5409 0
5300 -5409 0
5302 -5409 0
-5308 -5310 5410 0
5308 -5410 0
5310 -5410 0
-5312 -5314 5357 0
5312 -5357 0
5314 -5357 0
-5316 -5318 5359 0
5316 -5359 0
5318 -5359 0
-5322 -5324 5363 0
5322 -5363 0
5324 -5363 0
-5326 -5328 5365 0
5326 -5365 0
5328 -5365 0
-5330 -5332 5367 0
5330 -5367 0
5332 -5367 0
-5334 -5336 5369 0
5334 -5369 0
5336 -5369 0
-5338 -5340 5371 0
5338 -5371 0
5340 -5371 0
-5342 -5344 5373 0
5342 -5373 0
5344 -5373 0
-5346 -5348 5375 0
5346 -5375 0
5348 -5375 0
-5350 -5351 5377 0
5350 -5377 0
5351 -5377 0
-5353 -5354 5419 0
5353 -5419 0
5354 -5419 0
-5355 -5356 5381 0
5355 -5381 0
5356 -5381 0
-5358 -5360 5383 0
5358 -5383 0
5360 -5383 0
-5361 -5362 5385 0
5361 -5385 0
5362 -5385 0
-5364 -5366 5387 0
5364 -5387 0
5366 -5387 0
-5368 -5370 5389 0
5368 -5389 0
5370 -5389 0
-5372 -5374 5391 0
5372 -5391 0
5374 -5391 0
-5349 -5376 5393 0
5376 -5393 0
5349 -5393 0
-5352 -5378 5395 0
5352 -5395 0
5378 -5395 0
-5379 -5380 5397 0
5379 -5397 0
5380 -5397 0
-5382 -5384 5399 0
5382 -5399 0
5384 -5399 0
-5386 -5388 5401 0
5386 -5401 0
5388 -5401 0
-5390 -5392 5403 0
5390 -5403 0
5392 -5403 0
-5394 -5396 5405 0
5394 -5405 0
5396 -5405 0
-5398 -5400 5407 0
5398 -5407 0
5400 -5407 0
-5402 -5404 5408 0
5402 -5408 0
5404 -5408 0
-5357 -5359 5460 0
5357 -5460 0
5359 -5460 0
-5363 -5365 5412 0
5363 -5412 0
5365 -5412 0
-5367 -5369 5414 0
5367 -5414 0
5369 -5414 0
-5371 -5373 5416 0
5371 -5416 0
5373 -5416 0
-5375 -5377 5418 0
5375 -5418 0
5377 -5418 0
-5381 -5383 5421 0
5381 -5421 0
5383 -5421 0
-5385 -5387 5423 0
5385 -5423 0
5387 -5423 0
-5389 -5391 5425 0
5389 -5425 0
5391 -5425 0
-5393 -5395 5427 0
5393 -5427 0
5395 -5427 0
-5397 -5399 5429 0
5397 -5429 0
5399 -5429 0
-5401 -5403 5431 0
5401 -5431 0
5403 -5431 0
-5405 -5407 5433 0
5405 -5433 0
5407 -5433 0
-5406 -5408 5435 0
5408 -5435 0
5406 -5435 0
-5409 -5410 5470 0
5409 -5470 0
5410 -5470 0
-5411 -5413 5471 0
5411 -5471 0
5413 -5471 0
-5415 -5417 5472 0
5415 -5472 0
5417 -5472 0
-5420 -5422 5440 0
5420 -5440 0
5422 -5440 0
-5424 -5426 5442 0
5424 -5442 0
5426 -5442 0
-5428 -5430 5444 0
5428 -5444 0
5430 -5444 0
-5432 -5434 5446 0
5432 -5446 0
5434 -5446 0
-5436 -5437 5475 0
5436 -5475 0
5437 -5475 0
-5419 -5438 5450 0
5438 -5450 0
5419 -5450 0
-5439 -5441 5452 0
5439 -5452 0
5441 -5452 0
-5443 -5445 5454 0
5443 -5454 0
5445 -5454 0
-5447 -5448 5456 0
5447 -5456 0
5448 -5456 0
-5449 -5451 5458 0
5449 -5458 0
5451 -5458 0
-5453 -5455 5459 0
5453 -5459 0
5455 -5459 0
-5412 -5414 5509 0
5412 -5509 0
5414 -5509 0
-5416 -5418 5510 0
5416 -5510 0
5418 -5510 0
-5421 -5423 5463 0
5421 -5463 0
5423 -5463 0
-5425 -5427 5465 0
5425 -5465 0
5427 -5465 0
-5429 -5431 5467 0
5429 -5467 0
5431 -5467 0
-5433 -5435 5469 0
5433 -5469 0
5435 -5469 0
-5440 -5442 5512 0
5440 -5512 0
5442 -5512 0
-5444 -5446 5513 0
5444 -5513 0
5446 -5513 0
-5450 -5452 5477 0
5450 -5477 0
5452 -5477 0
-5454 -5456 5479 0
5454 -5479 0
5456 -5479 0
-5458 -5459 5515 0
5458 -5515 0
5459 -5515 0
-5461 -5462 5516 0
5461 -5516 0
5462 -5516 0
-5464 -5466 5517 0
5464 -5517 0
5466 -5517 0
-5468 -5470 5485 0
5468 -5485 0
5470 -5485 0
-5471 -5472 5487 0
5471 -5487 0
5472 -5487 0
-5473 -5474 5489 0
5473 -5489 0
5474 -5489 0
-5475 -5476 5491 0
5475 -5491 0
5476 -5491 0
-5478 -5480 5493 0
5478 -5493 0
5480 -5493 0
-5457 -5460 5495 0
5457 -5495 0
5460 -5495 0
-5481 -5482 5497 0
5481 -5497 0
5482 -5497 0
-5483 -5484 5499 0
5483 -5499 0
5484 -5499 0
-5486 -5488 5501 0
5486 -5501 0
5488 -5501 0
-5490 -5492 5503 0
5490 -5503 0
5492 -5503 0
-5494 -5496 5505 0
5494 -5505 0
5496 -5505 0
-5498 -5500 5507 0
5498 -5507 0
5500 -5507 0
-5502 -5504 5508 0
5502 -5508 0
5504 -5508 0
-5463 -5465 5560 0
5463 -5560 0
5465 -5560 0
-5467 -5469 5561 0
5467 -5561 0
5469 -5561 0
-5477 -5479 5562 0
5477 -5562 0
5479 -5562 0
-5485 -5487 5519 0
5485 -5519 0
5487 -5519 0
-5489 -5491 5521 0
5489 -5521 0
5491 -5521 0
-5493 -5495 5523 0
5493 -5523 0
5495 -5523 0
-5497 -5499 5525 0
5497 -5525 0
5499 -5525 0
-5501 -5503 5527 0
5501 -5527 0
5503 -5527 0
-5505 -5507 5529 0
5505 -5529 0
5507 -5529 0
-5506 -5508 5567 0
5508 -5567 0
5506 -5567 0
-5510 -5511 5568 0
5510 -5568 0
5511 -5568 0
-5512 -5513 5534 0
5512 -5534 0
5513 -5534 0
-5514 -5515 5536 0
5514 -5536 0
5515 -5536 0
-5516 -5517 5538 0
5516 -5538 0
5517 -5538 0
-5518 -5520 5540 0
5518 -5540 0
5520 -5540 0
-5522 -5524 5542 0
5522 -5542 0
5524 -5542 0
-5526 -5528 5544 0
5526 -5544 0
5528 -5544 0
-5509 -5530 5546 0
5530 -5546 0
5509 -5546 0
-5531 -5532 5548 0
5531 -5548 0
5532 -5548 0
-5533 -5535 5550 0
5533 -5550 0
5535 -5550 0
-5537 -5539 5552 0
5537 -5552 0
5539 -5552 0
-5541 -5543 5554 0
5541 -5554 0
5543 -5554 0
-5545 -5547 5556 0
5545 -5556 0
5547 -5556 0
-5549 -5551 5558 0
5549 -5558 0
5551 -5558 0
-5553 -5555 5559 0
5553 -5559 0
5555 -5559 0
-5519 -5521 5563 0
5519 -5563 0
5521 -5563 0
-5523 -5525 5565 0
5523 -5565 0
5525 -5565 0
-5527 -5529 5609 0
5527 -5609 0
5529 -5609 0
-5534 -5536 5610 0
5534 -5610 0
5536 -5610 0
-5538 -5540 5571 0
5538 -5571 0
5540 -5571 0
-5542 -5544 5573 0
5542 -5573 0
5544 -5573 0
-5546 -5548 5575 0
5546 -5575 0
5548 -5575 0
-5550 -5552 5577 0
5550 -5577 0
5552 -5577 0
-5554 -5556 5579 0
5554 -5579 0
5556 -5579 0
-5558 -5559 5581 0
5558 -5581 0
5559 -5581 0
-5560 -5561 5616 0
5560 -5616 0
5561 -5616 0
-5564 -5566 5585 0
5564 -5585 0
5566 -5585 0
-5567 -5568 5587 0
5567 -5587 0
5568 -5587 0
-5569 -5570 5589 0
5569 -5589 0
5570 -5589 0
-5572 -5574 5591 0
5572 -5591 0
5574 -5591 0
-5576 -5578 5593 0
5576 -5593 0
5578 -5593 0
-5557 -5580 5595 0
5580 -5595 0
5557 -5595 0
-5562 -5582 5597 0
5582 -5597 0
5562 -5597 0
-5583 -5584 5599 0
5583 -5599 0
5584 -5599 0
-5586 -5588 5601 0
5586 -5601 0
5588 -5601 0
-5590 -5592 5603 0
5590 -5603 0
5592 -5603 0
-5594 -5596 5605 0
5594 -5605 0
5596 -5605 0
-5598 -5600 5607 0
5598 -5607 0
5600 -5607 0
-5602 -5604 5608 0
5602 -5608 0
5604 -5608 0
-5563 -5565 5652 0
5563 -5652 0
5565 -5652 0
-5571 -5573 5612 0
5571 -5612 0
5573 -5612 0
-5575 -5577 5614 0
5575 -5614 0
5577 -5614 0
-5579 -5581 5654 0
5579 -5654 0
5581 -5654 0
-5585 -5587 5655 0
5585 -5655 0
5587 -5655 0
-5589 -5591 5618 0
5589 -5618 0
5591 -5618 0
-5593 -5595 5620 0
5593 -5620 0
5595 -5620 0
-5597 -5599 5622 0
5597 -5622 0
5599 -5622 0
-5601 -5603 5624 0
5601 -5624 0
5603 -5624 0
-5605 -5607 5626 0
5605 -5626 0
5607 -5626 0
-5606 -5608 5628 0
5608 -5628 0
5606 -5628 0
-5609 -5610 5631 0
5609 -5631 0
5610 -5631 0
-5611 -5613 5633 0
5611 -5633 0
5613 -5633 0
-5615 -5616 5661 0
5615 -5661 0
5616 -5661 0
-5617 -5619 5637 0
5617 -5637 0
5619 -5637 0
-5621 -5623 5639 0
5621 -5639 0
5623 -5639 0
-5625 -5627 5663 0
5625 -5663 0
5627 -5663 0
-5630 -5632 5642 0
5630 -5642 0
5632 -5642 0
-5634 -5635 5644 0
5634 -5644 0
5635 -5644 0
-5636 -5638 5646 0
5636 -5646 0
5638 -5646 0
-5629 -5640 5648 0
5640 -5648 0
5629 -5648 0
-5641 -5643 5650 0
5641 -5650 0
5643 -5650 0
-5645 -5647 5651 0
5645 -5651 0
5647 -5651 0
-5612 -5614 5693 0
5612 -5693 0
5614 -5693 0
-5618 -5620 5657 0
5618 -5657 0
5620 -5657 0
-5622 -5624 5659 0
5622 -5659 0
5624 -5659 0
-5626 -5628 5694 0
5626 -5694 0
5628 -5694 0
-5631 -5633 5695 0
5631 -5695 0
5633 -5695 0
-5637 -5639 5696 0
5637 -5696 0
5639 -5696 0
-5642 -5644 5665 0
5642 -5665 0
5644 -5665 0
-5646 -5648 5667 0
5646 -5667 0
5648 -5667 0
-5650 -5651 5698 0
5650 -5698 0
5651 -5698 0
-5653 -5654 5699 0
5653 -5699 0
5654 -5699 0
-5655 -5656 5671 0
5655 -5671 0
5656 -5671 0
-5658 -5660 5673 0
5658 -5673 0
5660 -5673 0
-5661 -5662 5701 0
5661 -5701 0
5662 -5701 0
-5663 -5664 5677 0
5663 -5677 0
5664 -5677 0
-5666 -5668 5679 0
5666 -5679 0
5668 -5679 0
-5649 -5652 5681 0
5649 -5681 0
5652 -5681 0
-5669 -5670 5683 0
5669 -5683 0
5670 -5683 0
-5672 -5674 5685 0
5672 -5685 0
5674 -5685 0
-5675 -5676 5687 0
5675 -5687 0
5676 -5687 0
-5678 -5680 5689 0
5678 -5689 0
5680 -5689 0
-5682 -5684 5691 0
5682 -5691 0
5684 -5691 0
-5686 -5688 5692 0
5686 -5692 0
5688 -5692 0
-5657 -5659 5736 0
5657 -5736 0
5659 -5736 0
-5665 -5667 5737 0
5665 -5737 0
5667 -5737 0
-5671 -5673 5738 0
5671 -5738 0
5673 -5738 0
-5677 -5679 5703 0
5677 -5703 0
5679 -5703 0
-5681 -5683 5705 0
5681 -5705 0
5683 -5705 0
-5685 -5687 5707 0
5685 -5707 0
5687 -5707 0
-5689 -5691 5709 0
5689 -5709 0
5691 -5709 0
-5690 -5692 5743 0
5692 -5743 0
5690 -5743 0
-5694 -5695 5744 0
5694 -5744 0
5695 -5744 0
-5696 -5697 5714 0
5696 -5714 0
5697 -5714 0
-5698 -5699 5716 0
5698 -5716 0
5699 -5716 0
-5700 -5701 5718 0
5700 -5718 0
5701 -5718 0
-5702 -5704 5720 0
5702 -5720 0
5704 -5720 0
-5706 -5708 5722 0
5706 -5722 0
5708 -5722 0
-5693 -5710 5724 0
5710 -5724 0
5693 -5724 0
-5711 -5712 5726 0
5711 -5726 0
5712 -5726 0
-5713 -5715 5728 0
5713 -5728 0
5715 -5728 0
-5717 -5719 5730 0
5717 -5730 0
5719 -5730 0
-5721 -5723 5732 0
5721 -5732 0
5723 -5732 0
-5725 -5727 5734 0
5725 -5734 0
5727 -5734 0
-5729 -5731 5735 0
5729 -5735 0
5731 -5735 0
-5703 -5705 5740 0
5703 -5740 0
5705 -5740 0
-5707 -5709 5742 0
5707 -5742 0
5709 -5742 0
-5714 -5716 5746 0
5714 -5746 0
5716 -5746 0
-5718 -5720 5748 0
5718 -5748 0
5720 -5748 0
-5722 -5724 5750 0
5722 -5750 0
5724 -5750 0
-5726 -5728 5752 0
5726 -5752 0
5728 -5752 0
-5730 -5732 5754 0
5730 -5754 0
5732 -5754 0
-5734 -5735 5756 0
5734 -5756 0
5735 -5756 0
-5738 -5739 5783 0
5738 -5783 0
5739 -5783 0
-5741 -5743 5759 0
5741 -5759 0
5743 -5759 0
-5744 -5745 5761 0
5744 -5761 0
5745 -5761 0
-5747 -5749 5763 0
5747 -5763 0
5749 -5763 0
-5751 -5753 5765 0
5751 -5765 0
5753 -5765 0
-5733 -5755 5767 0
5755 -5767 0
5733 -5767 0
-5736 -5737 5769 0
5736 -5769 0
5737 -5769 0
-5757 -5758 5771 0
5757 -5771 0
5758 -5771 0
-5760 -5762 5773 0
5760 -5773 0
5762 -5773 0
-5764 -5766 5775 0
5764 -5775 0
5766 -5775 0
-5768 -5770 5777 0
5768 -5777 0
5770 -5777 0
-5772 -5774 5778 0
5772 -5778 0
5774 -5778 0
-5740 -5742 5812 0
5740 -5812 0
5742 -5812 0
-5746 -5748 5813 0
5746 -5813 0
5748 -5813 0
-5750 -5752 5780 0
5750 -5780 0
5752 -5780 0
-5754 -5756 5782 0
5754 -5782 0
5756 -5782 0
-5759 -5761 5785 0
5759 -5785 0
5761 -5785 0
-5763 -5765 5787 0
5763 -5787 0
5765 -5787 0
-5767 -5769 5789 0
5767 -5789 0
5769 -5789 0
-5771 -5773 5791 0
5771 -5791 0
5773 -5791 0
-5775 -5777 5793 0
5775 -5793 0
5777 -5793 0
-5776 -5778 5795 0
5778 -5795 0
5776 -5795 0
-5779 -5781 5818 0
5779 -5818 0
5781 -5818 0
-5784 -5786 5819 0
5784 -5819 0
5786 -5819 0
-5788 -5790 5801 0
5788 -5801 0
5790 -5801 0
-5792 -5794 5803 0
5792 -5803 0
5794 -5803 0
-5797 -5798 5821 0
5797 -5821 0
5798 -5821 0
-5783 -5799 5806 0
5783 -5806 0
5799 -5806 0
-5800 -5802 5808 0
5800 -5808 0
5802 -5808 0
-5796 -5804 5810 0
5796 -5810 0
5804 -5810 0
-5805 -5807 5811 0
5805 -5811 0
5807 -5811 0
-5780 -5782 5845 0
5780 -5845 0
5782 -5845 0
-5785 -5787 5846 0
5785 -5846 0
5787 -5846 0
-5789 -5791 5816 0
5789 -5816 0
5791 -5816 0
-5793 -5795 5817 0
5793 -5817 0
5795 -5817 0
-5801 -5803 5862 0
5801 -5862 0
5803 -5862 0
-5806 -5808 5848 0
5806 -5848 0
5808 -5848 0
-5810 -5811 5849 0
5810 -5849 0
5811 -5849 0
-5812 -5813 5850 0
5812 -5850 0
5813 -5850 0
-5814 -5815 5851 0
5814 -5851 0
5815 -5851 0
-5818 -5819 5829 0
5818 -5829 0
5819 -5829 0
-5820 -5821 5831 0
5820 -5831 0
5821 -5831 0
-5822 -5823 5833 0
5822 -5833 0
5823 -5833 0
-5809 -5824 5835 0
5809 -5835 0
5824 -5835 0
-5825 -5826 5837 0
5825 -5837 0
5826 -5837 0
-5827 -5828 5839 0
5827 -5839 0
5828 -5839 0
-5830 -5832 5841 0
5830 -5841 0
5832 -5841 0
-5834 -5836 5843 0
5834 -5843 0
5836 -5843 0
-5838 -5840 5844 0
5838 -5844 0
5840 -5844 0
-5816 -5817 5904 0
5816 -5904 0
5817 -5904 0
-5829 -5831 5853 0
5829 -5853 0
5831 -5853 0
-5833 -5835 5855 0
5833 -5855 0
5835 -5855 0
-5837 -5839 5857 0
5837 -5857 0
5839 -5857 0
-5841 -5843 5859 0
5841 -5859 0
5843 -5859 0
-5842 -5844 5884 0
5844 -5884 0
5842 -5884 0
-5846 -5847 5885 0
5846 -5885 0
5847 -5885 0
-5848 -5849 5864 0
5848 -5864 0
5849 -5864 0
-5850 -5851 5866 0
5850 -5866 0
5851 -5866 0
-5852 -5854 5868 0
5852 -5868 0
5854 -5868 0
-5856 -5858 5870 0
5856 -5870 0
5858 -5870 0
-5845 -5860 5872 0
5860 -5872 0
5845 -5872 0
-5861 -5862 5874 0
5861 -5874 0
5862 -5874 0
-5863 -5865 5876 0
5863 -5876 0
5865 -5876 0
-5867 -5869 5878 0
5867 -5878 0
5869 -5878 0
-5871 -5873 5880 0
5871 -5880 0
5873 -5880 0
-5875 -5877 5881 0
5875 -5881 0
5877 -5881 0
-5853 -5855 5911 0
5853 -5911 0
5855 -5911 0
-5857 -5859 5912 0
5857 -5912 0
5859 -5912 0
-5864 -5866 5913 0
5864 -5913 0
5866 -5913 0
-5868 -5870 5888 0
5868 -5888 0
5870 -5888 0
-5872 -5874 5890 0
5872 -5890 0
5874 -5890 0
-5876 -5878 5892 0
5876 -5892 0
5878 -5892 0
-5880 -5881 5894 0
5880 -5894 0
5881 -5894 0
-5882 -5883 5915 0
5882 -5915 0
5883 -5915 0
-5884 -5885 5897 0
5884 -5897 0
5885 -5897 0
-5886 -5887 5899 0
5886 -5899 0
5887 -5899 0
-5889 -5891 5901 0
5889 -5901 0
5891 -5901 0
-5879 -5893 5903 0
5893 -5903 0
5879 -5903 0
-5895 -5896 5918 0
5895 -5918 0
5896 -5918 0
-5898 -5900 5907 0
5898 -5907 0
5900 -5907 0
-5902 -5904 5909 0
5902 -5909 0
5904 -5909 0
-5905 -5906 5910 0
5905 -5910 0
5906 -5910 0
-5888 -5890 5948 0
5888 -5948 0
5890 -5948 0
-5892 -5894 5938 0
5892 -5938 0
5894 -5938 0
-5897 -5899 5939 0
5897 -5939 0
5899 -5939 0
-5901 -5903 5940 0
5901 -5940 0
5903 -5940 0
-5907 -5909 5920 0
5907 -5920 0
5909 -5920 0
-5908 -5910 5922 0
5910 -5922 0
5908 -5922 0
-5911 -5912 5942 0
5911 -5942 0
5912 -5942 0
-5913 -5914 5943 0
5913 -5943 0
5914 -5943 0
-5915 -5916 5926 0
5915 -5926 0
5916 -5926 0
-5917 -5918 5928 0
5917 -5928 0
5918 -5928 0
-5919 -5921 5945 0
5919 -5945 0
5921 -5945 0
-5923 -5924 5932 0
5923 -5932 0
5924 -5932 0
-5925 -5927 5934 0
5925 -5934 0
5927 -5934 0
-5929 -5930 5936 0
5929 -5936 0
5930 -5936 0
-5931 -5933 5937 0
5931 -5937 0
5933 -5937 0
-5920 -5922 5967 0
5920 -5967 0
5922 -5967 0
-5926 -5928 5968 0
5926 -5968 0
5928 -5968 0
-5932 -5934 5969 0
5932 -5969 0
5934 -5969 0
-5936 -5937 5970 0
5936 -5970 0
5937 -5970 0
-5938 -5939 5971 0
5938 -5971 0
5939 -5971 0
-5940 -5941 5951 0
5940 -5951 0
5941 -5951 0
-5942 -5943 5953 0
5942 -5953 0
5943 -5953 0
-5944 -5945 5955 0
5944 -5955 0
5945 -5955 0
-5946 -5947 5957 0
5946 -5957 0
5947 -5957 0
-5935 -5948 5959 0
5935 -5959 0
5948 -5959 0
-5949 -5950 5961 0
5949 -5961 0
5950 -5961 0
-5952 -5954 5963 0
5952 -5963 0
5954 -5963 0
-5956 -5958 5965 0
5956 -5965 0
5958 -5965 0
-5960 -5962 5966 0
5960 -5966 0
5962 -5966 0
-5951 -5953 5973 0
5951 -5973 0
5953 -5973 0
-5955 -5957 5975 0
5955 -5975 0
5957 -5975 0
-5959 -5961 5977 0
5959 -5977 0
5961 -5977 0
-5963 -5965 5979 0
5963 -5979 0
5965 -5979 0
-5964 -5966 5997 0
5966 -5997 0
5964 -5997 0
-5968 -5969 5998 0
5968 -5998 0
5969 -5998 0
-5970 -5971 5982 0
5970 -5982 0
5971 -5982 0
-5972 -5974 5984 0
5972 -5984 0
5974 -5984 0
-5976 -5978 6000 0
5976 -6000 0
5978 -6000 0
-5967 -5980 5988 0
5967 -5988 0
5980 -5988 0
-5981 -5983 5990 0
5981 -5990 0
5983 -5990 0
-5985 -5986 5992 0
5985 -5992 0
5986 -5992 0
-5987 -5989 5993 0
5987 -5993 0
5989 -5993 0
-5973 -5975 5994 0
5973 -5994 0
5975 -5994 0
-5977 -5979 5996 0
5977 -5996 0
5979 -5996 0
-5982 -5984 6017 0
5982 -6017 0
5984 -6017 0
-5988 -5990 6002 0
5988 -6002 0
5990 -6002 0
-5992 -5993 6004 0
5992 -6004 0
5993 -6004 0
-5995 -5997 6019 0
5995 -6019 0
5997 -6019 0
-5998 -5999 6008 0
5998 -6008 0
5999 -6008 0
-6000 -6001 6010 0
6000 -6010 0
6001 -6010 0
-5991 -6003 6021 0
6003 -6021 0
5991 -6021 0
-6006 -6007 6013 0
6006 -6013 0
6007 -6013 0
-6009 -6011 6015 0
6009 -6015 0
6011 -6015 0
-6005 -6012 6016 0
6005 -6016 0
6012 -6016 0
-5994 -5996 6036 0
5994 -6036 0
5996 -6036 0
-6002 -6004 6037 0
6002 -6037 0
6004 -6037 0
-6008 -6010 6043 0
6008 -6043 0
6010 -6043 0
-6013 -6015 6023 0
6013 -6023 0
6015 -6023 0
-6014 -6016 6025 0
6016 -6025 0
6014 -6025 0
-6017 -6018 6038 0
6017 -6038 0
6018 -6038 0
-6020 -6021 6028 0
6020 -6028 0
6021 -6028 0
-6022 -6024 6030 0
6022 -6030 0
6024 -6030 0
-6019 -6026 6040 0
6026 -6040 0
6019 -6040 0
-6027 -6029 6034 0
6027 -6034 0
6029 -6034 0
-6031 -6032 6035 0
6031 -6035 0
6032 -6035 0
-6023 -6025 6063 0
6023 -6063 0
6025 -6063 0
-6028 -6030 6055 0
6028 -6055 0
6030 -6055 0
-6034 -6035 6056 0
6034 -6056 0
6035 -6056 0
-6036 -6037 6057 0
6036 -6057 0
6037 -6057 0
-6038 -6039 6058 0
6038 -6058 0
6039 -6058 0
-6040 -6041 6047 0
6040 -6047 0
6041 -6047 0
-6033 -6042 6049 0
6033 -6049 0
6042 -6049 0
-6043 -6044 6051 0
6043 -6051 0
6044 -6051 0
-6045 -6046 6053 0
6045 -6053 0
6046 -6053 0
-6048 -6050 6054 0
6048 -6054 0
6050 -6054 0
-6047 -6049 6060 0
6047 -6060 0
6049 -6060 0
-6051 -6053 6062 0
6051 -6062 0
6053 -6062 0
-6052 -6054 6074 0
6054 -6074 0
6052 -6074 0
-6055 -6056 6075 0
6055 -6075 0
6056 -6075 0
-6057 -6058 6066 0
6057 -6066 0
6058 -6066 0
-6059 -6061 6068 0
6059 -6068 0
6061 -6068 0
-6063 -6064 6077 0
6063 -6077 0
6064 -6077 0
-6065 -6067 6072 0
6065 -6072 0
6067 -6072 0
-6069 -6070 6073 0
6069 -6073 0
6070 -6073 0
-6060 -6062 6087 0
6060 -6087 0
6062 -6087 0
-6066 -6068 6088 0
6066 -6088 0
6068 -6088 0
-6072 -6073 6093 0
6072 -6093 0
6073 -6093 0
-6074 -6075 6089 0
6074 -6089 0
6075 -6089 0
-6076 -6077 6082 0
6076 -6082 0
6077 -6082 0
-6071 -6078 6084 0
6078 -6084 0
6071 -6084 0
-6080 -6081 6091 0
6080 -6091 0
6081 -6091 0
-6079 -6083 6086 0
6083 -6086 0
6079 -6086 0
-6082 -6084 6100 0
6082 -6100 0
6084 -6100 0
-6085 -6086 6101 0
6086 -6101 0
6085 -6101 0
-6087 -6088 6102 0
6087 -6102 0
6088 -6102 0
-6089 -6090 6103 0
6089 -6103 0
6090 -6103 0
-6091 -6092 6104 0
6091 -6104 0
6092 -6104 0
-6093 -6094 6098 0
6093 -6098 0
6094 -6098 0
-6095 -6096 6099 0
6095 -6099 0
6096 -6099 0
-6098 -6099 6113 0
6098 -6113 0
6099 -6113 0
-6100 -6101 6114 0
6100 -6114 0
6101 -6114 0
-6102 -6103 6108 0
6102 -6108 0
6103 -6108 0
-6104 -6105 6110 0
6104 -6110 0
6105 -6110 0
-6106 -6107 6116 0
6106 -6116 0
6107 -6116 0
-6097 -6109 6112 0
6109 -6112 0
6097 -6112 0
-6108 -6110 6120 0
6108 -6120 0
6110 -6120 0
-6111 -6112 6121 0
6112 -6121 0
6111 -6121 0
-6113 -6114 6122 0
6113 -6122 0
6114 -6122 0
-6115 -6116 6123 0
6115 -6123 0
6116 -6123 0
-6117 -6118 6124 0
6117 -6124 0
6118 -6124 0
-6120 -6121 6125 0
6120 -6125 0
6121 -6125 0
-6122 -6123 6127 0
6122 -6127 0
6123 -6127 0
-6119 -6124 6131 0
6124 -6131 0
6119 -6131 0
-6126 -6128 6130 0
6126 -6130 0
6128 -6130 0
-6125 -6127 6137 0
-6129 -6130 6133 0
6130 -6133 0
6129 -6133 0
-6131 -6132 6134 0
6131 -6134 0
6132 -6134 0
-6134 -6135 0
-6133 -6136 6137 0
-6137 0
-1 -2 -98 0
1 2 -98 0
1 -2 98 0
-1 2 98 0
-1 -18 -98 0
1 18 -98 0
1 -18 98 0
-1 18 98 0
-3 -10 -101 0
3 10 -101 0
-3 10 101 0
3 -10 101 0
-19 -28 -103 0
19 28 -103 0
-19 28 103 0
19 -28 103 0
-99 -100 -105 0
99 100 -105 0
-99 100 105 0
99 -100 105 0
-98 -101 -107 0
98 101 -107 0
-98 101 107 0
98 -101 107 0
-103 -105 -107 0
103 105 -107 0
-103 105 107 0
103 -105 107 0
-4 -11 -110 0
4 11 -110 0
-4 11 110 0
4 -11 110 0
-20 -29 -112 0
20 29 -112 0
-20 29 112 0
20 -29 112 0
-38 -102 -114 0
38 102 -114 0
-38 102 114 0
38 -102 114 0
-104 -106 -116 0
104 106 -116 0
-104 106 116 0
104 -106 116 0
-108 -109 -118 0
108 109 -118 0
-108 109 118 0
108 -109 118 0
-107 -110 -120 0
107 110 -120 0
-107 110 120 0
107 -110 120 0
-112 -114 -122 0
112 114 -122 0
-112 114 122 0
112 -114 122 0
-116 -118 -124 0
116 118 -124 0
-116 118 124 0
116 -118 124 0
-120 -122 124 0
120 122 124 0
-120 122 -124 0
120 -122 -124 0
-5 -12 -126 0
5 12 -126 0
-5 12 126 0
5 -12 126 0
-21 -30 -128 0
21 30 -128 0
-21 30 128 0
21 -30 128 0
-39 -48 -130 0
39 48 -130 0
-39 48 130 0
39 -48 130 0
-111 -113 -132 0
111 113 -132 0
-111 113 132 0
111 -113 132 0
-115 -117 -134 0
115 117 -134 0
-115 117 134 0
115 -117 134 0
-119 -121 -136 0
119 121 -136 0
-119 121 136 0
119 -121 136 0
-123 -125 -138 0
123 125 -138 0
-123 125 138 0
123 -125 138 0
-126 -128 -141 0
126 128 -141 0
-126 128 141 0
126 -128 141 0
-130 -132 -142 0
130 132 -142 0
-130 132 142 0
130 -132 142 0
-134 -136 -144 0
134 136 -144 0
-134 136 144 0
134 -136 144 0
-138 -140 -146 0
138 140 -146 0
-138 140 146 0
138 -140 146 0
-141 -142 -148 0
141 142 -148 0
-141 142 148 0
141 -142 148 0
-144 -146 -148 0
144 146 -148 0
-144 146 148 0
144 -146 148 0
-6 -13 -151 0
6 13 -151 0
-6 13 151 0
6 -13 151 0
-22 -31 -153 0
22 31 -153 0
-22 31 153 0
22 -31 153 0
-40 -49 -155 0
40 49 -155 0
-40 49 155 0
40 -49 155 0
-58 -127 -157 0
58 127 -157 0
-58 127 157 0
58 -127 157 0
-129 -131 -159 0
129 131 -159 0
-129 131 159 0
129 -131 159 0
-133 -135 -161 0
133 135 -161 0
-133 135 161 0
133 -135 161 0
-137 -139 -163 0
137 139 -163 0
-137 139 163 0
137 -139 163 0
-143 -145 -165 0
143 145 -165 0
-143 145 165 0
143 -145 165 0
-147 -149 -167 0
147 149 -167 0
-147 149 167 0
147 -149 167 0
-148 -150 -169 0
148 150 -169 0
148 -150 169 0
-148 150 169 0
-151 -153 -171 0
151 153 -171 0
-151 153 171 0
151 -153 171 0
-155 -157 -173 0
155 157 -173 0
-155 157 173 0
155 -157 173 0
-159 -161 -175 0
159 161 -175 0
-159 161 175 0
159 -161 175 0
-163 -164 -177 0
163 164 -177 0
-163 164 177 0
163 -164 177 0
-165 -167 -179 0
165 167 -179 0
-165 167 179 0
165 -167 179 0
-169 -171 -181 0
169 171 -181 0
-169 171 181 0
169 -171 181 0
-173 -175 -183 0
173 175 -183 0
-173 175 183 0
173 -175 183 0
-177 -179 -185 0
177 179 -185 0
-177 179 185 0
177 -179 185 0
-181 -183 185 0
181 183 185 0
-181 183 -185 0
181 -183 -185 0
-7 -14 -212 0
7 14 -212 0
-7 14 212 0
7 -14 212 0
-23 -32 -189 0
23 32 -189 0
-23 32 189 0
23 -32 189 0
-41 -50 -191 0
41 50 -191 0
-41 50 191 0
41 -50 191 0
-59 -68 -193 0
59 68 -193 0
-59 68 193 0
59 -68 193 0
-152 -154 -195 0
152 154 -195 0
-152 154 195 0
152 -154 195 0
-156 -158 -197 0
156 158 -197 0
-156 158 197 0
156 -158 197 0
-160 -162 -199 0
160 162 -199 0
-160 162 199 0
160 -162 199 0
-166 -168 -202 0
166 168 -202 0
-166 168 202 0
166 -168 202 0
-170 -172 -203 0
170 172 -203 0
-170 172 203 0
170 -172 203 0
-174 -176 -205 0
174 176 -205 0
-174 176 205 0
174 -176 205 0
-178 -180 -207 0
178 180 -207 0
-178 180 207 0
178 -180 207 0
-182 -184 -209 0
182 184 -209 0
-182 184 209 0
182 -184 209 0
-186 -187 -211 0
186 187 -211 0
-186 187 211 0
186 -187 211 0
-189 -191 -213 0
189 191 -213 0
-189 191 213 0
189 -191 213 0
-193 -195 -215 0
193 195 -215 0
-193 195 215 0
193 -195 215 0
-197 -199 -217 0
197 199 -217 0
-197 199 217 0
197 -199 217 0
-201 -202 -219 0
201 202 -219 0
-201 202 219 0
201 -202 219 0
-203 -205 -221 0
203 205 -221 0
-203 205 221 0
203 -205 221 0
-207 -209 -223 0
207 209 -223 0
-207 209 223 0
207 -209 223 0
-211 -212 -225 0
211 212 -225 0
-211 212 225 0
211 -212 225 0
-213 -215 -227 0
213 215 -227 0
-213 215 227 0
213 -215 227 0
-217 -219 -229 0
217 219 -229 0
-217 219 229 0
217 -219 229 0
-221 -223 -231 0
221 223 -231 0
-221 223 231 0
221 -223 231 0
-225 -227 -233 0
225 227 -233 0
-225 227 233 0
225 -227 233 0
-229 -231 233 0
229 231 233 0
-229 231 -233 0
229 -231 -233 0
-8 -15 -267 0
8 15 -267 0
-8 15 267 0
8 -15 267 0
-24 -33 -237 0
24 33 -237 0
-24 33 237 0
24 -33 237 0
-42 -51 -239 0
42 51 -239 0
-42 51 239 0
42 -51 239 0
-60 -69 -241 0
60 69 -241 0
-60 69 241 0
60 -69 241 0
-78 -188 -243 0
78 188 -243 0
-78 188 243 0
78 -188 243 0
-190 -192 -245 0
190 192 -245 0
-190 192 245 0
190 -192 245 0
-194 -196 -247 0
194 196 -247 0
-194 196 247 0
194 -196 247 0
-198 -200 -249 0
198 200 -249 0
-198 200 249 0
198 -200 249 0
-204 -206 -252 0
204 206 -252 0
-204 206 252 0
204 -206 252 0
-208 -210 -253 0
208 210 -253 0
-208 210 253 0
208 -210 253 0
-214 -216 -255 0
214 216 -255 0
-214 216 255 0
214 -216 255 0
-218 -220 -257 0
218 220 -257 0
-218 220 257 0
218 -220 257 0
-222 -224 -259 0
222 224 -259 0
-222 224 259 0
222 -224 259 0
-226 -228 -261 0
226 228 -261 0
-226 228 261 0
226 -228 261 0
-230 -232 -263 0
230 232 -263 0
-230 232 263 0
230 -232 263 0
-234 -235 -265 0
234 235 -265 0
-234 235 265 0
234 -235 265 0
-237 -239 -268 0
237 239 -268 0
-237 239 268 0
237 -239 268 0
-241 -243 -269 0
241 243 -269 0
-241 243 269 0
241 -243 269 0
-245 -247 -271 0
245 247 -271 0
-245 247 271 0
245 -247 271 0
-249 -251 -273 0
249 251 -273 0
-249 251 273 0
249 -251 273 0
-252 -253 -275 0
252 253 -275 0
-252 253 275 0
252 -253 275 0
-254 -255 -277 0
254 255 -277 0
-254 255 277 0
254 -255 277 0
-257 -259 -279 0
257 259 -279 0
-257 259 279 0
257 -259 279 0
-261 -263 -281 0
261 263 -281 0
-261 263 281 0
261 -263 281 0
-265 -267 -283 0
265 267 -283 0
-265 267 283 0
265 -267 283 0
-268 -269 -285 0
268 269 -285 0
-268 269 285 0
268 -269 285 0
-271 -273 -287 0
271 273 -287 0
-271 273 287 0
271 -273 287 0
-275 -277 -289 0
275 277 -289 0
-275 277 289 0
275 -277 289 0
-279 -281 -291 0
279 281 -291 0
-279 281 291 0
279 -281 291 0
-283 -285 -293 0
283 285 -293 0
-283 285 293 0
283 -285 293 0
-287 -289 -295 0
287 289 -295 0
-287 289 295 0
287 -289 295 0
-291 -293 295 0
291 293 295 0
-291 293 -295 0
291 -293 -295 0
-9 -16 -297 0
9 16 -297 0
-9 16 297 0
9 -16 297 0
-25 -34 -299 0
25 34 -299 0
-25 34 299 0
25 -34 299 0
-43 -52 -301 0
43 52 -301 0
-43 52 301 0
43 -52 301 0
-61 -70 -303 0
61 70 -303 0
-61 70 303 0
61 -70 303 0
-79 -88 -305 0
79 88 -305 0
-79 88 305 0
79 -88 305 0
-236 -238 -307 0
236 238 -307 0
-236 238 307 0
236 -238 307 0
-240 -242 -309 0
240 242 -309 0
-240 242 309 0
240 -242 309 0
-244 -246 -311 0
244 246 -311 0
-244 246 311 0
244 -246 311 0
-248 -250 -313 0
248 250 -313 0
-248 250 313 0
248 -250 313 0
-256 -258 -317 0
256 258 -317 0
-256 258 317 0
256 -258 317 0
-260 -262 -319 0
260 262 -319 0
-260 262 319 0
260 -262 319 0
-264 -266 -321 0
264 266 -321 0
-264 266 321 0
264 -266 321 0
-270 -272 -323 0
270 272 -323 0
-270 272 323 0
270 -272 323 0
-274 -276 -325 0
274 276 -325 0
-274 276 325 0
274 -276 325 0
-278 -280 -327 0
278 280 -327 0
-278 280 327 0
278 -280 327 0
-282 -284 -329 0
282 284 -329 0
-282 284 329 0
282 -284 329 0
-286 -288 -331 0
286 288 -331 0
-286 288 331 0
286 -288 331 0
-290 -292 -333 0
290 292 -333 0
-290 292 333 0
290 -292 333 0
-294 -296 -335 0
294 296 -335 0
-294 296 335 0
294 -296 335 0
-297 -299 -337 0
297 299 -337 0
-297 299 337 0
297 -299 337 0
-301 -303 -339 0
301 303 -339 0
-301 303 339 0
301 -303 339 0
-305 -307 -341 0
305 307 -341 0
-305 307 341 0
305 -307 341 0
-309 -311 -343 0
309 311 -343 0
-309 311 343 0
309 -311 343 0
-313 -315 -345 0
313 315 -345 0
-313 315 345 0
313 -315 345 0
-316 -317 -347 0
316 317 -347 0
-316 317 347 0
316 -317 347 0
-319 -321 -349 0
319 321 -349 0
-319 321 349 0
319 -321 349 0
-322 -323 -351 0
322 323 -351 0
-322 323 351 0
322 -323 351 0
-325 -327 -353 0
325 327 -353 0
-325 327 353 0
325 -327 353 0
-329 -331 -355 0
329 331 -355 0
-329 331 355 0
329 -331 355 0
-333 -335 -357 0
333 335 -357 0
-333 335 357 0
333 -335 357 0
-336 -337 -359 0
336 337 -359 0
-336 337 359 0
336 -337 359 0
-339 -341 -361 0
339 341 -361 0
-339 341 361 0
339 -341 361 0
-343 -345 -363 0
343 345 -363 0
-343 345 363 0
343 -345 363 0
-347 -349 -365 0
347 349 -365 0
-347 349 365 0
347 -349 365 0
-351 -353 -367 0
351 353 -367 0
-351 353 367 0
351 -353 367 0
-355 -357 -369 0
355 357 -369 0
-355 357 369 0
355 -357 369 0
-359 -361 -371 0
359 361 -371 0
-359 361 371 0
359 -361 371 0
-363 -365 -373 0
363 365 -373 0
-363 365 373 0
363 -365 373 0
-367 -369 -375 0
367 369 -375 0
-367 369 375 0
367 -369 375 0
-371 -373 -375 0
371 373 -375 0
-371 373 375 0
371 -373 375 0
-17 -26 -378 0
17 26 -378 0
-17 26 378 0
17 -26 378 0
-35 -44 -380 0
35 44 -380 0
-35 44 380 0
35 -44 380 0
-53 -62 -382 0
53 62 -382 0
-53 62 382 0
53 -62 382 0
-71 -80 -384 0
71 80 -384 0
-71 80 384 0
71 -80 384 0
-89 -298 -386 0
89 298 -386 0
-89 298 386 0
89 -298 386 0
-300 -302 -388 0
300 302 -388 0
-300 302 388 0
300 -302 388 0
-304 -306 -390 0
304 306 -390 0
-304 306 390 0
304 -306 390 0
-308 -310 -392 0
308 310 -392 0
-308 310 392 0
308 -310 392 0
-312 -314 -431 0
312 314 -431 0
-312 314 431 0
312 -314 431 0
-318 -320 -394 0
318 320 -394 0
-318 320 394 0
318 -320 394 0
-324 -326 -396 0
324 326 -396 0
-324 326 396 0
324 -326 396 0
-328 -330 -398 0
328 330 -398 0
-328 330 398 0
328 -330 398 0
-332 -334 -400 0
332 334 -400 0
-332 334 400 0
332 -334 400 0
-338 -340 -402 0
338 340 -402 0
-338 340 402 0
338 -340 402 0
-342 -344 -404 0
342 344 -404 0
-342 344 404 0
342 -344 404 0
-346 -348 -406 0
346 348 -406 0
-346 348 406 0
346 -348 406 0
-350 -352 -408 0
350 352 -408 0
-350 352 408 0
350 -352 408 0
-354 -356 -410 0
354 356 -410 0
-354 356 410 0
354 -356 410 0
-358 -360 -412 0
358 360 -412 0
-358 360 412 0
358 -360 412 0
-362 -364 -414 0
362 364 -414 0
-362 364 414 0
362 -364 414 0
-366 -368 -416 0
366 368 -416 0
-366 368 416 0
366 -368 416 0
-370 -372 -418 0
370 372 -418 0
-370 372 418 0
370 -372 418 0
-374 -376 -420 0
374 376 -420 0
-374 376 420 0
374 -376 420 0
-375 -377 -422 0
375 377 -422 0
375 -377 422 0
-375 377 422 0
-378 -380 -424 0
378 380 -424 0
-378 380 424 0
378 -380 424 0
-382 -384 -426 0
382 384 -426 0
-382 384 426 0
382 -384 426 0
-386 -388 -428 0
386 388 -428 0
-386 388 428 0
386 -388 428 0
-390 -392 -430 0
390 392 -430 0
-390 392 430 0
390 -392 430 0
-394 -395 -432 0
394 395 -432 0
-394 395 432 0
394 -395 432 0
-396 -398 -434 0
396 398 -434 0
-396 398 434 0
396 -398 434 0
-400 -401 -436 0
400 401 -436 0
-400 401 436 0
400 -401 436 0
-402 -404 -438 0
402 404 -438 0
-402 404 438 0
402 -404 438 0
-406 -408 -440 0
406 408 -440 0
-406 408 440 0
406 -408 440 0
-410 -412 -442 0
410 412 -442 0
-410 412 442 0
410 -412 442 0
-414 -416 -444 0
414 416 -444 0
-414 416 444 0
414 -416 444 0
-418 -420 -446 0
418 420 -446 0
-418 420 446 0
418 -420 446 0
-422 -424 -448 0
422 424 -448 0
-422 424 448 0
422 -424 448 0
-426 -428 -450 0
426 428 -450 0
-426 428 450 0
426 -428 450 0
-430 -431 -452 0
430 431 -452 0
-430 431 452 0
430 -431 452 0
-432 -434 -454 0
432 434 -454 0
-432 434 454 0
432 -434 454 0
-436 -438 -456 0
436 438 -456 0
-436 438 456 0
436 -438 456 0
-440 -442 -458 0
440 442 -458 0
-440 442 458 0
440 -442 458 0
-444 -446 -460 0
444 446 -460 0
-444 446 460 0
444 -446 460 0
-448 -450 -462 0
448 450 -462 0
-448 450 462 0
448 -450 462 0
-452 -454 -464 0
452 454 -464 0
-452 454 464 0
452 -454 464 0
-456 -458 -466 0
456 458 -466 0
-456 458 466 0
456 -458 466 0
-460 -462 -468 0
460 462 -468 0
-460 462 468 0
460 -462 468 0
-464 -466 468 0
464 466 468 0
-464 466 -468 0
464 -466 -468 0
-27 -36 -521 0
27 36 -521 0
-27 36 521 0
27 -36 521 0
-45 -54 -472 0
45 54 -472 0
-45 54 472 0
45 -54 472 0
-63 -72 -474 0
63 72 -474 0
-63 72 474 0
63 -72 474 0
-81 -90 -476 0
81 90 -476 0
-81 90 476 0
81 -90 476 0
-379 -381 -478 0
379 381 -478 0
-379 381 478 0
379 -381 478 0
-383 -385 -480 0
383 385 -480 0
-383 385 480 0
383 -385 480 0
-387 -389 -482 0
387 389 -482 0
-387 389 482 0
387 -389 482 0
-391 -393 -484 0
391 393 -484 0
-391 393 484 0
391 -393 484 0
-397 -399 -487 0
397 399 -487 0
-397 399 487 0
397 -399 487 0
-403 -405 -489 0
403 405 -489 0
-403 405 489 0
403 -405 489 0
-407 -409 -490 0
407 409 -490 0
-407 409 490 0
407 -409 490 0
-411 -413 -492 0
411 413 -492 0
-411 413 492 0
411 -413 492 0
-415 -417 -494 0
415 417 -494 0
-415 417 494 0
415 -417 494 0
-419 -421 -496 0
419 421 -496 0
-419 421 496 0
419 -421 496 0
-423 -425 -498 0
423 425 -498 0
-423 425 498 0
423 -425 498 0
-427 -429 -500 0
427 429 -500 0
-427 429 500 0
427 -429 500 0
-433 -435 -503 0
433 435 -503 0
-433 435 503 0
433 -435 503 0
-437 -439 -504 0
437 439 -504 0
-437 439 504 0
437 -439 504 0
-441 -443 -506 0
441 443 -506 0
-441 443 506 0
441 -443 506 0
-445 -447 -508 0
445 447 -508 0
-445 447 508 0
445 -447 508 0
-449 -451 -510 0
449 451 -510 0
-449 451 510 0
449 -451 510 0
-453 -455 -512 0
453 455 -512 0
-453 455 512 0
453 -455 512 0
-457 -459 -514 0
457 459 -514 0
-457 459 514 0
457 -459 514 0
-461 -463 -516 0
461 463 -516 0
-461 463 516 0
461 -463 516 0
-465 -467 -518 0
465 467 -518 0
-465 467 518 0
465 -467 518 0
-469 -470 -520 0
469 470 -520 0
-469 470 520 0
469 -470 520 0
-472 -474 -522 0
472 474 -522 0
-472 474 522 0
472 -474 522 0
-476 -478 -524 0
476 478 -524 0
-476 478 524 0
476 -478 524 0
-480 -482 -526 0
480 482 -526 0
-480 482 526 0
480 -482 526 0
-484 -485 -528 0
484 485 -528 0
-484 485 528 0
484 -485 528 0
-486 -487 -530 0
486 487 -530 0
-486 487 530 0
486 -487 530 0
-488 -489 -532 0
488 489 -532 0
-488 489 532 0
488 -489 532 0
-490 -492 -534 0
490 492 -534 0
-490 492 534 0
490 -492 534 0
-494 -496 -536 0
494 496 -536 0
-494 496 536 0
494 -496 536 0
-498 -500 -538 0
498 500 -538 0
-498 500 538 0
498 -500 538 0
-502 -503 -540 0
502 503 -540 0
-502 503 540 0
502 -503 540 0
-504 -506 -542 0
504 506 -542 0
-504 506 542 0
504 -506 542 0
-508 -510 -544 0
508 510 -544 0
-508 510 544 0
508 -510 544 0
-512 -514 -546 0
512 514 -546 0
-512 514 546 0
512 -514 546 0
-516 -518 -548 0
516 518 -548 0
-516 518 548 0
516 -518 548 0
-520 -521 -550 0
520 521 -550 0
-520 521 550 0
520 -521 550 0
-522 -524 -552 0
522 524 -552 0
-522 524 552 0
522 -524 552 0
-526 -528 -554 0
526 528 -554 0
-526 528 554 0
526 -528 554 0
-530 -532 -556 0
530 532 -556 0
-530 532 556 0
530 -532 556 0
-534 -536 -558 0
534 536 -558 0
-534 536 558 0
534 -536 558 0
-538 -540 -560 0
538 540 -560 0
-538 540 560 0
538 -540 560 0
-542 -544 -562 0
542 544 -562 0
-542 544 562 0
542 -544 562 0
-546 -548 -564 0
546 548 -564 0
-546 548 564 0
546 -548 564 0
-550 -552 -566 0
550 552 -566 0
-550 552 566 0
550 -552 566 0
-554 -556 -568 0
554 556 -568 0
-554 556 568 0
554 -556 568 0
-558 -560 -570 0
558 560 -570 0
-558 560 570 0
558 -560 570 0
-562 -564 -572 0
562 564 -572 0
-562 564 572 0
562 -564 572 0
-566 -568 -574 0
566 568 -574 0
-566 568 574 0
566 -568 574 0
-570 -572 574 0
570 572 574 0
-570 572 -574 0
570 -572 -574 0
-37 -46 -633 0
37 46 -633 0
-37 46 633 0
37 -46 633 0
-55 -64 -578 0
55 64 -578 0
-55 64 578 0
55 -64 578 0
-73 -82 -580 0
73 82 -580 0
-73 82 580 0
73 -82 580 0
-91 -471 -582 0
91 471 -582 0
-91 471 582 0
91 -471 582 0
-473 -475 -584 0
473 475 -584 0
-473 475 584 0
473 -475 584 0
-477 -479 -586 0
477 479 -586 0
-477 479 586 0
477 -479 586 0
-481 -483 -588 0
481 483 -588 0
-481 483 588 0
481 -483 588 0
-491 -493 -592 0
491 493 -592 0
-491 493 592 0
491 -493 592 0
-495 -497 -594 0
495 497 -594 0
-495 497 594 0
495 -497 594 0
-499 -501 -596 0
499 501 -596 0
-499 501 596 0
499 -501 596 0
-505 -507 -598 0
505 507 -598 0
-505 507 598 0
505 -507 598 0
-509 -511 -600 0
509 511 -600 0
-509 511 600 0
509 -511 600 0
-513 -515 -602 0
513 515 -602 0
-513 515 602 0
513 -515 602 0
-517 -519 -604 0
517 519 -604 0
-517 519 604 0
517 -519 604 0
-523 -525 -607 0
523 525 -607 0
-523 525 607 0
523 -525 607 0
-527 -529 -608 0
527 529 -608 0
-527 529 608 0
527 -529 608 0
-531 -533 -610 0
531 533 -610 0
-531 533 610 0
531 -533 610 0
-535 -537 -612 0
535 537 -612 0
-535 537 612 0
535 -537 612 0
-539 -541 -614 0
539 541 -614 0
-539 541 614 0
539 -541 614 0
-543 -545 -616 0
543 545 -616 0
-543 545 616 0
543 -545 616 0
-547 -549 -618 0
547 549 -618 0
-547 549 618 0
547 -549 618 0
-551 -553 -620 0
551 553 -620 0
-551 553 620 0
551 -553 620 0
-555 -557 -622 0
555 557 -622 0
-555 557 622 0
555 -557 622 0
-559 -561 -624 0
559 561 -624 0
-559 561 624 0
559 -561 624 0
-563 -565 -626 0
563 565 -626 0
-563 565 626 0
563 -565 626 0
-567 -569 -628 0
567 569 -628 0
-567 569 628 0
567 -569 628 0
-571 -573 -630 0
571 573 -630 0
-571 573 630 0
571 -573 630 0
-575 -576 -632 0
575 576 -632 0
-575 576 632 0
575 -576 632 0
-578 -580 -634 0
578 580 -634 0
-578 580 634 0
578 -580 634 0
-582 -584 -636 0
582 584 -636 0
-582 584 636 0
582 -584 636 0
-586 -588 -638 0
586 588 -638 0
-586 588 638 0
586 -588 638 0
-589 -590 -640 0
589 590 -640 0
-589 590 640 0
589 -590 640 0
-591 -592 -642 0
591 592 -642 0
-591 592 642 0
591 -592 642 0
-594 -596 -644 0
594 596 -644 0
-594 596 644 0
594 -596 644 0
-597 -598 -646 0
597 598 -646 0
-597 598 646 0
597 -598 646 0
-600 -602 -648 0
600 602 -648 0
-600 602 648 0
600 -602 648 0
-604 -606 -650 0
604 606 -650 0
-604 606 650 0
604 -606 650 0
-607 -608 -652 0
607 608 -652 0
-607 608 652 0
607 -608 652 0
-610 -612 -654 0
610 612 -654 0
-610 612 654 0
610 -612 654 0
-614 -616 -656 0
614 616 -656 0
-614 616 656 0
614 -616 656 0
-618 -620 -658 0
618 620 -658 0
-618 620 658 0
618 -620 658 0
-622 -624 -660 0
622 624 -660 0
-622 624 660 0
622 -624 660 0
-626 -628 -662 0
626 628 -662 0
-626 628 662 0
626 -628 662 0
-630 -632 -664 0
630 632 -664 0
-630 632 664 0
630 -632 664 0
-633 -634 -666 0
633 634 -666 0
-633 634 666 0
633 -634 666 0
-636 -638 -668 0
636 638 -668 0
-636 638 668 0
636 -638 668 0
-640 -642 -670 0
640 642 -670 0
-640 642 670 0
640 -642 670 0
-644 -646 -672 0
644 646 -672 0
-644 646 672 0
644 -646 672 0
-648 -650 -674 0
648 650 -674 0
-648 650 674 0
648 -650 674 0
-652 -654 -676 0
652 654 -676 0
-652 654 676 0
652 -654 676 0
-656 -658 -678 0
656 658 -678 0
-656 658 678 0
656 -658 678 0
-660 -662 -680 0
660 662 -680 0
-660 662 680 0
660 -662 680 0
-664 -666 -682 0
664 666 -682 0
-664 666 682 0
664 -666 682 0
-668 -670 -684 0
668 670 -684 0
-668 670 684 0
668 -670 684 0
-672 -674 -686 0
672 674 -686 0
-672 674 686 0
672 -674 686 0
-676 -678 -688 0
676 678 -688 0
-676 678 688 0
676 -678 688 0
-680 -682 -690 0
680 682 -690 0
-680 682 690 0
680 -682 690 0
-684 -686 -692 0
684 686 -692 0
-684 686 692 0
684 -686 692 0
-688 -690 692 0
688 690 692 0
-688 690 -692 0
688 -690 -692 0
-47 -56 -694 0
47 56 -694 0
-47 56 694 0
47 -56 694 0
-65 -74 -696 0
65 74 -696 0
-65 74 696 0
65 -74 696 0
-83 -92 -698 0
83 92 -698 0
-83 92 698 0
83 -92 698 0
-577 -579 -700 0
577 579 -700 0
-577 579 700 0
577 -579 700 0
-581 -583 -702 0
581 583 -702 0
-581 583 702 0
581 -583 702 0
-585 -587 -704 0
585 587 -704 0
-585 587 704 0
585 -587 704 0
-593 -595 -706 0
593 595 -706 0
-593 595 706 0
593 -595 706 0
-599 -601 -708 0
599 601 -708 0
-599 601 708 0
599 -601 708 0
-603 -605 -709 0
603 605 -709 0
-603 605 709 0
603 -605 709 0
-609 -611 -711 0
609 611 -711 0
-609 611 711 0
609 -611 711 0
-613 -615 -713 0
613 615 -713 0
-613 615 713 0
613 -615 713 0
-617 -619 -715 0
617 619 -715 0
-617 619 715 0
617 -619 715 0
-621 -623 -717 0
621 623 -717 0
-621 623 717 0
621 -623 717 0
-625 -627 -719 0
625 627 -719 0
-625 627 719 0
625 -627 719 0
-629 -631 -721 0
629 631 -721 0
-629 631 721 0
629 -631 721 0
-635 -637 -724 0
635 637 -724 0
-635 637 724 0
635 -637 724 0
-639 -641 -725 0
639 641 -725 0
-639 641 725 0
639 -641 725 0
-643 -645 -727 0
643 645 -727 0
-643 645 727 0
643 -645 727 0
-647 -649 -729 0
647 649 -729 0
-647 649 729 0
647 -649 729 0
-651 -653 -731 0
651 653 -731 0
-651 653 731 0
651 -653 731 0
-655 -657 -733 0
655 657 -733 0
-655 657 733 0
655 -657 733 0
-659 -661 -735 0
659 661 -735 0
-659 661 735 0
659 -661 735 0
-663 -665 -737 0
663 665 -737 0
-663 665 737 0
663 -665 737 0
-667 -669 -739 0
667 669 -739 0
-667 669 739 0
667 -669 739 0
-671 -673 -741 0
671 673 -741 0
-671 673 741 0
671 -673 741 0
-675 -677 -743 0
675 677 -743 0
-675 677 743 0
675 -677 743 0
-679 -681 -745 0
679 681 -745 0
-679 681 745 0
679 -681 745 0
-683 -685 -747 0
683 685 -747 0
-683 685 747 0
683 -685 747 0
-687 -689 -749 0
687 689 -749 0
-687 689 749 0
687 -689 749 0
-691 -693 -751 0
691 693 -751 0
-691 693 751 0
691 -693 751 0
-694 -696 -754 0
694 696 -754 0
-694 696 754 0
694 -696 754 0
-698 -700 -755 0
698 700 -755 0
-698 700 755 0
698 -700 755 0
-702 -704 -757 0
702 704 -757 0
-702 704 757 0
702 -704 757 0
-706 -707 -759 0
706 707 -759 0
-706 707 759 0
706 -707 759 0
-708 -709 -760 0
708 709 -760 0
-708 709 760 0
708 -709 760 0
-710 -711 -762 0
710 711 -762 0
-710 711 762 0
710 -711 762 0
-713 -715 -764 0
713 715 -764 0
-713 715 764 0
713 -715 764 0
-717 -719 -766 0
717 719 -766 0
-717 719 766 0
717 -719 766 0
-721 -723 -768 0
721 723 -768 0
-721 723 768 0
721 -723 768 0
-724 -725 -770 0
724 725 -770 0
-724 725 770 0
724 -725 770 0
-727 -729 -772 0
727 729 -772 0
-727 729 772 0
727 -729 772 0
-731 -733 -774 0
731 733 -774 0
-731 733 774 0
731 -733 774 0
-735 -737 -776 0
735 737 -776 0
-735 737 776 0
735 -737 776 0
-739 -741 -778 0
739 741 -778 0
-739 741 778 0
739 -741 778 0
-743 -745 -780 0
743 745 -780 0
-743 745 780 0
743 -745 780 0
-747 -749 -782 0
747 749 -782 0
-747 749 782 0
747 -749 782 0
-751 -753 -784 0
751 753 -784 0
-751 753 784 0
751 -753 784 0
-754 -755 -786 0
754 755 -786 0
-754 755 786 0
754 -755 786 0
-705 -757 -788 0
705 757 -788 0
705 -757 788 0
-705 757 788 0
-759 -760 -790 0
759 760 -790 0
-759 760 790 0
759 -760 790 0
-762 -764 -792 0
762 764 -792 0
-762 764 792 0
762 -764 792 0
-766 -768 -794 0
766 768 -794 0
-766 768 794 0
766 -768 794 0
-770 -772 -796 0
770 772 -796 0
-770 772 796 0
770 -772 796 0
-774 -776 -798 0
774 776 -798 0
-774 776 798 0
774 -776 798 0
-778 -780 -800 0
778 780 -800 0
-778 780 800 0
778 -780 800 0
-782 -784 -802 0
782 784 -802 0
-782 784 802 0
782 -784 802 0
-786 -788 -804 0
786 788 -804 0
-786 788 804 0
786 -788 804 0
-790 -792 -806 0
790 792 -806 0
-790 792 806 0
790 -792 806 0
-794 -796 -808 0
794 796 -808 0
-794 796 808 0
794 -796 808 0
-798 -800 -810 0
798 800 -810 0
-798 800 810 0
798 -800 810 0
-802 -804 -812 0
802 804 -812 0
-802 804 812 0
802 -804 812 0
-806 -808 -814 0
806 808 -814 0
-806 808 814 0
806 -808 814 0
-810 -812 -814 0
810 812 -814 0
-810 812 814 0
810 -812 814 0
-57 -66 -817 0
57 66 -817 0
-57 66 817 0
57 -66 817 0
-75 -84 -819 0
75 84 -819 0
-75 84 819 0
75 -84 819 0
-93 -695 -821 0
93 695 -821 0
-93 695 821 0
93 -695 821 0
-697 -699 -823 0
697 699 -823 0
-697 699 823 0
697 -699 823 0
-701 -703 -825 0
701 703 -825 0
-701 703 825 0
701 -703 825 0
-712 -714 -830 0
712 714 -830 0
-712 714 830 0
712 -714 830 0
-716 -718 -831 0
716 718 -831 0
-716 718 831 0
716 -718 831 0
-720 -722 -833 0
720 722 -833 0
-720 722 833 0
720 -722 833 0
-726 -728 -836 0
726 728 -836 0
-726 728 836 0
726 -728 836 0
-730 -732 -837 0
730 732 -837 0
-730 732 837 0
730 -732 837 0
-734 -736 -839 0
734 736 -839 0
-734 736 839 0
734 -736 839 0
-738 -740 -841 0
738 740 -841 0
-738 740 841 0
738 -740 841 0
-742 -744 -843 0
742 744 -843 0
-742 744 843 0
742 -744 843 0
-746 -748 -845 0
746 748 -845 0
-746 748 845 0
746 -748 845 0
-750 -752 -847 0
750 752 -847 0
-750 752 847 0
750 -752 847 0
-756 -758 -850 0
756 758 -850 0
-756 758 850 0
756 -758 850 0
-761 -763 -852 0
761 763 -852 0
-761 763 852 0
761 -763 852 0
-765 -767 -853 0
765 767 -853 0
-765 767 853 0
765 -767 853 0
-769 -771 -855 0
769 771 -855 0
-769 771 855 0
769 -771 855 0
-773 -775 -857 0
773 775 -857 0
-773 775 857 0
773 -775 857 0
-777 -779 -859 0
777 779 -859 0
-777 779 859 0
777 -779 859 0
-781 -783 -861 0
781 783 -861 0
-781 783 861 0
781 -783 861 0
-785 -787 -863 0
785 787 -863 0
-785 787 863 0
785 -787 863 0
-789 -791 -865 0
789 791 -865 0
-789 791 865 0
789 -791 865 0
-793 -795 -867 0
793 795 -867 0
-793 795 867 0
793 -795 867 0
-797 -799 -869 0
797 799 -869 0
-797 799 869 0
797 -799 869 0
-801 -803 -871 0
801 803 -871 0
-801 803 871 0
801 -803 871 0
-805 -807 -873 0
805 807 -873 0
-805 807 873 0
805 -807 873 0
-809 -811 -875 0
809 811 -875 0
-809 811 875 0
809 -811 875 0
-813 -815 -877 0
813 815 -877 0
-813 815 877 0
813 -815 877 0
-814 -816 -879 0
814 816 -879 0
814 -816 879 0
-814 816 879 0
-817 -819 -881 0
817 819 -881 0
-817 819 881 0
817 -819 881 0
-821 -823 -883 0
821 823 -883 0
-821 823 883 0
821 -823 883 0
-825 -826 -885 0
825 826 -885 0
-825 826 885 0
825 -826 885 0
-827 -828 -887 0
827 828 -887 0
-827 828 887 0
827 -828 887 0
-829 -830 -889 0
829 830 -889 0
-829 830 889 0
829 -830 889 0
-831 -833 -891 0
831 833 -891 0
-831 833 891 0
831 -833 891 0
-835 -836 -893 0
835 836 -893 0
-835 836 893 0
835 -836 893 0
-837 -839 -895 0
837 839 -895 0
-837 839 895 0
837 -839 895 0
-841 -843 -897 0
841 843 -897 0
-841 843 897 0
841 -843 897 0
-845 -847 -899 0
845 847 -899 0
-845 847 899 0
845 -847 899 0
-849 -850 -901 0
849 850 -901 0
-849 850 901 0
849 -850 901 0
-851 -852 -903 0
851 852 -903 0
-851 852 903 0
851 -852 903 0
-853 -855 -905 0
853 855 -905 0
-853 855 905 0
853 -855 905 0
-857 -859 -907 0
857 859 -907 0
-857 859 907 0
857 -859 907 0
-861 -863 -909 0
861 863 -909 0
-861 863 909 0
861 -863 909 0
-865 -867 -911 0
865 867 -911 0
-865 867 911 0
865 -867 911 0
-869 -871 -913 0
869 871 -913 0
-869 871 913 0
869 -871 913 0
-873 -875 -915 0
873 875 -915 0
-873 875 915 0
873 -875 915 0
-877 -879 -917 0
877 879 -917 0
-877 879 917 0
877 -879 917 0
-881 -883 -919 0
881 883 -919 0
-881 883 919 0
881 -883 919 0
-885 -887 -921 0
885 887 -921 0
-885 887 921 0
885 -887 921 0
-889 -891 -923 0
889 891 -923 0
-889 891 923 0
889 -891 923 0
-893 -895 -925 0
893 895 -925 0
-893 895 925 0
893 -895 925 0
-897 -899 -927 0
897 899 -927 0
-897 899 927 0
897 -899 927 0
-901 -903 -929 0
901 903 -929 0
-901 903 929 0
901 -903 929 0
-905 -907 -931 0
905 907 -931 0
-905 907 931 0
905 -907 931 0
-909 -911 -933 0
909 911 -933 0
-909 911 933 0
909 -911 933 0
-913 -915 -935 0
913 915 -935 0
-913 915 935 0
913 -915 935 0
-917 -919 -937 0
917 919 -937 0
-917 919 937 0
917 -919 937 0
-921 -923 -939 0
921 923 -939 0
-921 923 939 0
921 -923 939 0
-925 -927 -941 0
925 927 -941 0
-925 927 941 0
925 -927 941 0
-929 -931 -943 0
929 931 -943 0
-929 931 943 0
929 -931 943 0
-933 -935 -945 0
933 935 -945 0
-933 935 945 0
933 -935 945 0
-937 -939 -947 0
937 939 -947 0
-937 939 947 0
937 -939 947 0
-941 -943 -949 0
941 943 -949 0
-941 943 949 0
941 -943 949 0
-945 -947 -949 0
945 947 -949 0
-945 947 949 0
945 -947 949 0
-67 -76 -952 0
67 76 -952 0
-67 76 952 0
67 -76 952 0
-85 -94 -954 0
85 94 -954 0
-85 94 954 0
85 -94 954 0
-818 -820 -956 0
818 820 -956 0
-818 820 956 0
818 -820 956 0
-822 -824 -958 0
822 824 -958 0
-822 824 958 0
822 -824 958 0
-832 -834 -961 0
832 834 -961 0
-832 834 961 0
832 -834 961 0
-838 -840 -963 0
838 840 -963 0
-838 840 963 0
838 -840 963 0
-842 -844 -965 0
842 844 -965 0
-842 844 965 0
842 -844 965 0
-846 -848 -967 0
846 848 -967 0
-846 848 967 0
846 -848 967 0
-854 -856 -970 0
854 856 -970 0
-854 856 970 0
854 -856 970 0
-858 -860 -971 0
858 860 -971 0
-858 860 971 0
858 -860 971 0
-862 -864 -973 0
862 864 -973 0
-862 864 973 0
862 -864 973 0
-866 -868 -975 0
866 868 -975 0
-866 868 975 0
866 -868 975 0
-870 -872 -977 0
870 872 -977 0
-870 872 977 0
870 -872 977 0
-874 -876 -979 0
874 876 -979 0
-874 876 979 0
874 -876 979 0
-878 -880 -981 0
878 880 -981 0
-878 880 981 0
878 -880 981 0
-882 -884 -983 0
882 884 -983 0
-882 884 983 0
882 -884 983 0
-886 -888 -985 0
886 888 -985 0
-886 888 985 0
886 -888 985 0
-890 -892 -987 0
890 892 -987 0
-890 892 987 0
890 -892 987 0
-894 -896 -989 0
894 896 -989 0
-894 896 989 0
894 -896 989 0
-898 -900 -991 0
898 900 -991 0
-898 900 991 0
898 -900 991 0
-902 -904 -993 0
902 904 -993 0
-902 904 993 0
902 -904 993 0
-906 -908 -995 0
906 908 -995 0
-906 908 995 0
906 -908 995 0
-910 -912 -997 0
910 912 -997 0
-910 912 997 0
910 -912 997 0
-914 -916 -999 0
914 916 -999 0
-914 916 999 0
914 -916 999 0
-918 -920 -1001 0
918 920 -1001 0
-918 920 1001 0
918 -920 1001 0
-922 -924 -1003 0
922 924 -1003 0
-922 924 1003 0
922 -924 1003 0
-926 -928 -1005 0
926 928 -1005 0
-926 928 1005 0
926 -928 1005 0
-930 -932 -1007 0
930 932 -1007 0
-930 932 1007 0
930 -932 1007 0
-934 -936 -1009 0
934 936 -1009 0
-934 936 1009 0
934 -936 1009 0
-938 -940 -1011 0
938 940 -1011 0
-938 940 1011 0
938 -940 1011 0
-942 -944 -1013 0
942 944 -1013 0
-942 944 1013 0
942 -944 1013 0
-946 -948 -1015 0
946 948 -1015 0
-946 948 1015 0
946 -948 1015 0
-950 -951 -1017 0
950 951 -1017 0
-950 951 1017 0
950 -951 1017 0
-949 -952 -1019 0
949 952 -1019 0
-949 952 1019 0
949 -952 1019 0
-954 -956 -1021 0
954 956 -1021 0
-954 956 1021 0
954 -956 1021 0
-958 -959 -1023 0
958 959 -1023 0
-958 959 1023 0
958 -959 1023 0
-961 -962 -1024 0
961 962 -1024 0
-961 962 1024 0
961 -962 1024 0
-963 -965 -1026 0
963 965 -1026 0
-963 965 1026 0
963 -965 1026 0
-967 -968 -1028 0
967 968 -1028 0
-967 968 1028 0
967 -968 1028 0
-969 -970 -1030 0
969 970 -1030 0
-969 970 1030 0
969 -970 1030 0
-971 -973 -1032 0
971 973 -1032 0
-971 973 1032 0
971 -973 1032 0
-975 -977 -1034 0
975 977 -1034 0
-975 977 1034 0
975 -977 1034 0
-979 -981 -1036 0
979 981 -1036 0
-979 981 1036 0
979 -981 1036 0
-983 -985 -1038 0
983 985 -1038 0
-983 985 1038 0
983 -985 1038 0
-987 -989 -1040 0
987 989 -1040 0
-987 989 1040 0
987 -989 1040 0
-991 -993 -1042 0
991 993 -1042 0
-991 993 1042 0
991 -993 1042 0
-995 -997 -1044 0
995 997 -1044 0
-995 997 1044 0
995 -997 1044 0
-999 -1001 -1046 0
999 1001 -1046 0
-999 1001 1046 0
999 -1001 1046 0
-1003 -1005 -1048 0
1003 1005 -1048 0
-1003 1005 1048 0
1003 -1005 1048 0
-1007 -1009 -1050 0
1007 1009 -1050 0
-1007 1009 1050 0
1007 -1009 1050 0
-1011 -1013 -1052 0
1011 1013 -1052 0
-1011 1013 1052 0
1011 -1013 1052 0
-1015 -1017 -1054 0
1015 1017 -1054 0
-1015 1017 1054 0
1015 -1017 1054 0
-1019 -1021 -1056 0
1019 1021 -1056 0
-1019 1021 1056 0
1019 -1021 1056 0
-960 -1023 -1058 0
960 1023 -1058 0
960 -1023 1058 0
-960 1023 1058 0
-1024 -1026 -1060 0
1024 1026 -1060 0
-1024 1026 1060 0
1024 -1026 1060 0
-1028 -1030 -1062 0
1028 1030 -1062 0
-1028 1030 1062 0
1028 -1030 1062 0
-1032 -1034 -1064 0
1032 1034 -1064 0
-1032 1034 1064 0
1032 -1034 1064 0
-1036 -1038 -1066 0
1036 1038 -1066 0
-1036 1038 1066 0
1036 -1038 1066 0
-1040 -1042 -1068 0
1040 1042 -1068 0
-1040 1042 1068 0
1040 -1042 1068 0
-1044 -1046 -1070 0
1044 1046 -1070 0
-1044 1046 1070 0
1044 -1046 1070 0
-1048 -1050 -1072 0
1048 1050 -1072 0
-1048 1050 1072 0
1048 -1050 1072 0
-1052 -1054 -1074 0
1052 1054 -1074 0
-1052 1054 1074 0
1052 -1054 1074 0
-1056 -1058 -1076 0
1056 1058 -1076 0
-1056 1058 1076 0
1056 -1058 1076 0
-1060 -1062 -1078 0
1060 1062 -1078 0
-1060 1062 1078 0
1060 -1062 1078 0
-1064 -1066 -1080 0
1064 1066 -1080 0
-1064 1066 1080 0
1064 -1066 1080 0
-1068 -1070 -1082 0
1068 1070 -1082 0
-1068 1070 1082 0
1068 -1070 1082 0
-1072 -1074 -1084 0
1072 1074 -1084 0
-1072 1074 1084 0
1072 -1074 1084 0
-1076 -1078 -1086 0
1076 1078 -1086 0
-1076 1078 1086 0
1076 -1078 1086 0
-1080 -1082 -1088 0
1080 1082 -1088 0
-1080 1082 1088 0
1080 -1082 1088 0
-1084 -1086 1088 0
1084 1086 1088 0
-1084 1086 -1088 0
1084 -1086 -1088 0
-77 -86 -1159 0
77 86 -1159 0
-77 86 1159 0
77 -86 1159 0
-95 -953 -1092 0
95 953 -1092 0
-95 953 1092 0
95 -953 1092 0
-955 -957 -1094 0
955 957 -1094 0
-955 957 1094 0
955 -957 1094 0
-964 -966 -1097 0
964 966 -1097 0
-964 966 1097 0
964 -966 1097 0
-972 -974 -1100 0
972 974 -1100 0
-972 974 1100 0
972 -974 1100 0
-976 -978 -1101 0
976 978 -1101 0
-976 978 1101 0
976 -978 1101 0
-980 -982 -1103 0
980 982 -1103 0
-980 982 1103 0
980 -982 1103 0
-984 -986 -1105 0
984 986 -1105 0
-984 986 1105 0
984 -986 1105 0
-988 -990 -1107 0
988 990 -1107 0
-988 990 1107 0
988 -990 1107 0
-992 -994 -1109 0
992 994 -1109 0
-992 994 1109 0
992 -994 1109 0
-996 -998 -1111 0
996 998 -1111 0
-996 998 1111 0
996 -998 1111 0
-1000 -1002 -1113 0
1000 1002 -1113 0
-1000 1002 1113 0
1000 -1002 1113 0
-1004 -1006 -1115 0
1004 1006 -1115 0
-1004 1006 1115 0
1004 -1006 1115 0
-1008 -1010 -1117 0
1008 1010 -1117 0
-1008 1010 1117 0
1008 -1010 1117 0
-1012 -1014 -1119 0
1012 1014 -1119 0
-1012 1014 1119 0
1012 -1014 1119 0
-1016 -1018 -1121 0
1016 1018 -1121 0
-1016 1018 1121 0
1016 -1018 1121 0
-1020 -1022 -1123 0
1020 1022 -1123 0
-1020 1022 1123 0
1020 -1022 1123 0
-1025 -1027 -1126 0
1025 1027 -1126 0
-1025 1027 1126 0
1025 -1027 1126 0
-1029 -1031 -1127 0
1029 1031 -1127 0
-1029 1031 1127 0
1029 -1031 1127 0
-1033 -1035 -1129 0
1033 1035 -1129 0
-1033 1035 1129 0
1033 -1035 1129 0
-1037 -1039 -1131 0
1037 1039 -1131 0
-1037 1039 1131 0
1037 -1039 1131 0
-1041 -1043 -1133 0
1041 1043 -1133 0
-1041 1043 1133 0
1041 -1043 1133 0
-1045 -1047 -1135 0
1045 1047 -1135 0
-1045 1047 1135 0
1045 -1047 1135 0
-1049 -1051 -1137 0
1049 1051 -1137 0
-1049 1051 1137 0
1049 -1051 1137 0
-1053 -1055 -1139 0
1053 1055 -1139 0
-1053 1055 1139 0
1053 -1055 1139 0
-1057 -1059 -1141 0
1057 1059 -1141 0
-1057 1059 1141 0
1057 -1059 1141 0
-1061 -1063 -1143 0
1061 1063 -1143 0
-1061 1063 1143 0
1061 -1063 1143 0
-1065 -1067 -1145 0
1065 1067 -1145 0
-1065 1067 1145 0
1065 -1067 1145 0
-1069 -1071 -1147 0
1069 1071 -1147 0
-1069 1071 1147 0
1069 -1071 1147 0
-1073 -1075 -1149 0
1073 1075 -1149 0
-1073 1075 1149 0
1073 -1075 1149 0
-1077 -1079 -1151 0
1077 1079 -1151 0
-1077 1079 1151 0
1077 -1079 1151 0
-1081 -1083 -1153 0
1081 1083 -1153 0
-1081 1083 1153 0
1081 -1083 1153 0
-1085 -1087 -1155 0
1085 1087 -1155 0
-1085 1087 1155 0
1085 -1087 1155 0
-1089 -1090 -1157 0
1089 1090 -1157 0
-1089 1090 1157 0
1089 -1090 1157 0
-1092 -1094 -1160 0
1092 1094 -1160 0
-1092 1094 1160 0
1092 -1094 1160 0
-1096 -1097 -1161 0
1096 1097 -1161 0
-1096 1097 1161 0
1096 -1097 1161 0
-1098 -1099 -1162 0
1098 1099 -1162 0
-1098 1099 1162 0
1098 -1099 1162 0
-1100 -1101 -1164 0
1100 1101 -1164 0
-1100 1101 1164 0
1100 -1101 1164 0
-1103 -1105 -1166 0
1103 1105 -1166 0
-1103 1105 1166 0
1103 -1105 1166 0
-1107 -1109 -1168 0
1107 1109 -1168 0
-1107 1109 1168 0
1107 -1109 1168 0
-1111 -1113 -1170 0
1111 1113 -1170 0
-1111 1113 1170 0
1111 -1113 1170 0
-1115 -1117 -1172 0
1115 1117 -1172 0
-1115 1117 1172 0
1115 -1117 1172 0
-1119 -1121 -1174 0
1119 1121 -1174 0
-1119 1121 1174 0
1119 -1121 1174 0
-1123 -1125 -1176 0
1123 1125 -1176 0
-1123 1125 1176 0
1123 -1125 1176 0
-1126 -1127 -1178 0
1126 1127 -1178 0
-1126 1127 1178 0
1126 -1127 1178 0
-1129 -1131 -1180 0
1129 1131 -1180 0
-1129 1131 1180 0
1129 -1131 1180 0
-1133 -1135 -1182 0
1133 1135 -1182 0
-1133 1135 1182 0
1133 -1135 1182 0
-1137 -1139 -1184 0
1137 1139 -1184 0
-1137 1139 1184 0
1137 -1139 1184 0
-1141 -1143 -1186 0
1141 1143 -1186 0
-1141 1143 1186 0
1141 -1143 1186 0
-1145 -1147 -1188 0
1145 1147 -1188 0
-1145 1147 1188 0
1145 -1147 1188 0
-1149 -1151 -1190 0
1149 1151 -1190 0
-1149 1151 1190 0
1149 -1151 1190 0
-1153 -1155 -1192 0
1153 1155 -1192 0
-1153 1155 1192 0
1153 -1155 1192 0
-1157 -1159 -1194 0
1157 1159 -1194 0
-1157 1159 1194 0
1157 -1159 1194 0
-1095 -1160 -1196 0
1095 1160 -1196 0
1095 -1160 1196 0
-1095 1160 1196 0
-1161 -1162 -1198 0
1161 1162 -1198 0
-1161 1162 1198 0
1161 -1162 1198 0
-1164 -1166 -1200 0
1164 1166 -1200 0
-1164 1166 1200 0
1164 -1166 1200 0
-1168 -1170 -1202 0
1168 1170 -1202 0
-1168 1170 1202 0
1168 -1170 1202 0
-1172 -1174 -1204 0
1172 1174 -1204 0
-1172 1174 1204 0
1172 -1174 1204 0
-1176 -1178 -1206 0
1176 1178 -1206 0
-1176 1178 1206 0
1176 -1178 1206 0
-1180 -1182 -1208 0
1180 1182 -1208 0
-1180 1182 1208 0
1180 -1182 1208 0
-1184 -1186 -1210 0
1184 1186 -1210 0
-1184 1186 1210 0
1184 -1186 1210 0
-1188 -1190 -1212 0
1188 1190 -1212 0
-1188 1190 1212 0
1188 -1190 1212 0
-1192 -1194 -1214 0
1192 1194 -1214 0
-1192 1194 1214 0
1192 -1194 1214 0
-1196 -1198 -1216 0
1196 1198 -1216 0
-1196 1198 1216 0
1196 -1198 1216 0
-1200 -1202 -1218 0
1200 1202 -1218 0
-1200 1202 1218 0
1200 -1202 1218 0
-1204 -1206 -1220 0
1204 1206 -1220 0
-1204 1206 1220 0
1204 -1206 1220 0
-1208 -1210 -1222 0
1208 1210 -1222 0
-1208 1210 1222 0
1208 -1210 1222 0
-1212 -1214 -1224 0
1212 1214 -1224 0
-1212 1214 1224 0
1212 -1214 1224 0
-1216 -1218 -1226 0
1216 1218 -1226 0
-1216 1218 1226 0
1216 -1218 1226 0
-1220 -1222 -1228 0
1220 1222 -1228 0
-1220 1222 1228 0
1220 -1222 1228 0
-1224 -1226 1228 0
1224 1226 1228 0
-1224 1226 -1228 0
1224 -1226 -1228 0
-87 -96 -1230 0
87 96 -1230 0
-87 96 1230 0
87 -96 1230 0
-1091 -1093 -1232 0
1091 1093 -1232 0
-1091 1093 1232 0
1091 -1093 1232 0
-1102 -1104 -1236 0
1102 1104 -1236 0
-1102 1104 1236 0
1102 -1104 1236 0
-1106 -1108 -1237 0
1106 1108 -1237 0
-1106 1108 1237 0
1106 -1108 1237 0
-1110 -1112 -1239 0
1110 1112 -1239 0
-1110 1112 1239 0
1110 -1112 1239 0
-1114 -1116 -1241 0
1114 1116 -1241 0
-1114 1116 1241 0
1114 -1116 1241 0
-1118 -1120 -1243 0
1118 1120 -1243 0
-1118 1120 1243 0
1118 -1120 1243 0
-1122 -1124 -1245 0
1122 1124 -1245 0
-1122 1124 1245 0
1122 -1124 1245 0
-1128 -1130 -1247 0
1128 1130 -1247 0
-1128 1130 1247 0
1128 -1130 1247 0
-1132 -1134 -1249 0
1132 1134 -1249 0
-1132 1134 1249 0
1132 -1134 1249 0
-1136 -1138 -1251 0
1136 1138 -1251 0
-1136 1138 1251 0
1136 -1138 1251 0
-1140 -1142 -1253 0
1140 1142 -1253 0
-1140 1142 1253 0
1140 -1142 1253 0
-1144 -1146 -1255 0
1144 1146 -1255 0
-1144 1146 1255 0
1144 -1146 1255 0
-1148 -1150 -1257 0
1148 1150 -1257 0
-1148 1150 1257 0
1148 -1150 1257 0
-1152 -1154 -1259 0
1152 1154 -1259 0
-1152 1154 1259 0
1152 -1154 1259 0
-1156 -1158 -1261 0
1156 1158 -1261 0
-1156 1158 1261 0
1156 -1158 1261 0
-1163 -1165 -1265 0
1163 1165 -1265 0
-1163 1165 1265 0
1163 -1165 1265 0
-1167 -1169 -1267 0
1167 1169 -1267 0
-1167 1169 1267 0
1167 -1169 1267 0
-1171 -1173 -1269 0
1171 1173 -1269 0
-1171 1173 1269 0
1171 -1173 1269 0
-1175 -1177 -1271 0
1175 1177 -1271 0
-1175 1177 1271 0
1175 -1177 1271 0
-1179 -1181 -1273 0
1179 1181 -1273 0
-1179 1181 1273 0
1179 -1181 1273 0
-1183 -1185 -1275 0
1183 1185 -1275 0
-1183 1185 1275 0
1183 -1185 1275 0
-1187 -1189 -1277 0
1187 1189 -1277 0
-1187 1189 1277 0
1187 -1189 1277 0
-1191 -1193 -1279 0
1191 1193 -1279 0
-1191 1193 1279 0
1191 -1193 1279 0
-1195 -1197 -1281 0
1195 1197 -1281 0
-1195 1197 1281 0
1195 -1197 1281 0
-1199 -1201 -1283 0
1199 1201 -1283 0
-1199 1201 1283 0
1199 -1201 1283 0
-1203 -1205 -1285 0
1203 1205 -1285 0
-1203 1205 1285 0
1203 -1205 1285 0
-1207 -1209 -1287 0
1207 1209 -1287 0
-1207 1209 1287 0
1207 -1209 1287 0
-1211 -1213 -1289 0
1211 1213 -1289 0
-1211 1213 1289 0
1211 -1213 1289 0
-1215 -1217 -1291 0
1215 1217 -1291 0
-1215 1217 1291 0
1215 -1217 1291 0
-1219 -1221 -1293 0
1219 1221 -1293 0
-1219 1221 1293 0
1219 -1221 1293 0
-1223 -1225 -1295 0
1223 1225 -1295 0
-1223 1225 1295 0
1223 -1225 1295 0
-1227 -1229 -1297 0
1227 1229 -1297 0
-1227 1229 1297 0
1227 -1229 1297 0
-1230 -1232 -1299 0
1230 1232 -1299 0
-1230 1232 1299 0
1230 -1232 1299 0
-1234 -1235 -1300 0
1234 1235 -1300 0
-1234 1235 1300 0
1234 -1235 1300 0
-1236 -1237 -1302 0
1236 1237 -1302 0
-1236 1237 1302 0
1236 -1237 1302 0
-1239 -1241 -1304 0
1239 1241 -1304 0
-1239 1241 1304 0
1239 -1241 1304 0
-1243 -1245 -1306 0
1243 1245 -1306 0
-1243 1245 1306 0
1243 -1245 1306 0
-1246 -1247 -1308 0
1246 1247 -1308 0
-1246 1247 1308 0
1246 -1247 1308 0
-1249 -1251 -1310 0
1249 1251 -1310 0
-1249 1251 1310 0
1249 -1251 1310 0
-1253 -1255 -1312 0
1253 1255 -1312 0
-1253 1255 1312 0
1253 -1255 1312 0
-1257 -1259 -1314 0
1257 1259 -1314 0
-1257 1259 1314 0
1257 -1259 1314 0
-1261 -1263 -1316 0
1261 1263 -1316 0
-1261 1263 1316 0
1261 -1263 1316 0
-1264 -1265 -1318 0
1264 1265 -1318 0
-1264 1265 1318 0
1264 -1265 1318 0
-1267 -1269 -1320 0
1267 1269 -1320 0
-1267 1269 1320 0
1267 -1269 1320 0
-1271 -1273 -1322 0
1271 1273 -1322 0
-1271 1273 1322 0
1271 -1273 1322 0
-1275 -1277 -1324 0
1275 1277 -1324 0
-1275 1277 1324 0
1275 -1277 1324 0
-1279 -1281 -1326 0
1279 1281 -1326 0
-1279 1281 1326 0
1279 -1281 1326 0
-1283 -1285 -1328 0
1283 1285 -1328 0
-1283 1285 1328 0
1283 -1285 1328 0
-1287 -1289 -1330 0
1287 1289 -1330 0
-1287 1289 1330 0
1287 -1289 1330 0
-1291 -1293 -1332 0
1291 1293 -1332 0
-1291 1293 1332 0
1291 -1293 1332 0
-1295 -1297 -1334 0
1295 1297 -1334 0
-1295 1297 1334 0
1295 -1297 1334 0
-1298 -1299 -1336 0
1298 1299 -1336 0
-1298 1299 1336 0
1298 -1299 1336 0
-1233 -1300 -1338 0
1233 1300 -1338 0
-1233 1300 1338 0
1233 -1300 1338 0
-1302 -1304 -1340 0
1302 1304 -1340 0
-1302 1304 1340 0
1302 -1304 1340 0
-1306 -1308 -1342 0
1306 1308 -1342 0
-1306 1308 1342 0
1306 -1308 1342 0
-1310 -1312 -1344 0
1310 1312 -1344 0
-1310 1312 1344 0
1310 -1312 1344 0
-1314 -1316 -1346 0
1314 1316 -1346 0
-1314 1316 1346 0
1314 -1316 1346 0
-1318 -1320 -1348 0
1318 1320 -1348 0
-1318 1320 1348 0
1318 -1320 1348 0
-1322 -1324 -1350 0
1322 1324 -1350 0
-1322 1324 1350 0
1322 -1324 1350 0
-1326 -1328 -1352 0
1326 1328 -1352 0
-1326 1328 1352 0
1326 -1328 1352 0
-1330 -1332 -1354 0
1330 1332 -1354 0
-1330 1332 1354 0
1330 -1332 1354 0
-1334 -1336 -1356 0
1334 1336 -1356 0
-1334 1336 1356 0
1334 -1336 1356 0
-1338 -1340 -1358 0
1338 1340 -1358 0
-1338 1340 1358 0
1338 -1340 1358 0
-1342 -1344 -1360 0
1342 1344 -1360 0
-1342 1344 1360 0
1342 -1344 1360 0
-1346 -1348 -1362 0
1346 1348 -1362 0
-1346 1348 1362 0
1346 -1348 1362 0
-1350 -1352 -1364 0
1350 1352 -1364 0
-1350 1352 1364 0
1350 -1352 1364 0
-1354 -1356 -1366 0
1354 1356 -1366 0
-1354 1356 1366 0
1354 -1356 1366 0
-1358 -1360 -1368 0
1358 1360 -1368 0
-1358 1360 1368 0
1358 -1360 1368 0
-1362 -1364 -1370 0
1362 1364 -1370 0
-1362 1364 1370 0
1362 -1364 1370 0
-1366 -1368 1370 0
1366 1368 1370 0
-1366 1368 -1370 0
1366 -1368 -1370 0
-97 -1231 -1372 0
97 1231 -1372 0
-97 1231 1372 0
97 -1231 1372 0
-1238 -1240 -1374 0
1238 1240 -1374 0
-1238 1240 1374 0
1238 -1240 1374 0
-1242 -1244 -1376 0
1242 1244 -1376 0
-1242 1244 1376 0
1242 -1244 1376 0
-1248 -1250 -1379 0
1248 1250 -1379 0
-1248 1250 1379 0
1248 -1250 1379 0
-1252 -1254 -1380 0
1252 1254 -1380 0
-1252 1254 1380 0
1252 -1254 1380 0
-1256 -1258 -1382 0
1256 1258 -1382 0
-1256 1258 1382 0
1256 -1258 1382 0
-1260 -1262 -1446 0
1260 1262 -1446 0
-1260 1262 1446 0
1260 -1262 1446 0
-1266 -1268 -1384 0
1266 1268 -1384 0
-1266 1268 1384 0
1266 -1268 1384 0
-1270 -1272 -1386 0
1270 1272 -1386 0
-1270 1272 1386 0
1270 -1272 1386 0
-1274 -1276 -1388 0
1274 1276 -1388 0
-1274 1276 1388 0
1274 -1276 1388 0
-1278 -1280 -1390 0
1278 1280 -1390 0
-1278 1280 1390 0
1278 -1280 1390 0
-1282 -1284 -1392 0
1282 1284 -1392 0
-1282 1284 1392 0
1282 -1284 1392 0
-1286 -1288 -1394 0
1286 1288 -1394 0
-1286 1288 1394 0
1286 -1288 1394 0
-1290 -1292 -1396 0
1290 1292 -1396 0
-1290 1292 1396 0
1290 -1292 1396 0
-1294 -1296 -1398 0
1294 1296 -1398 0
-1294 1296 1398 0
1294 -1296 1398 0
-1301 -1303 -1402 0
1301 1303 -1402 0
-1301 1303 1402 0
1301 -1303 1402 0
-1305 -1307 -1404 0
1305 1307 -1404 0
-1305 1307 1404 0
1305 -1307 1404 0
-1309 -1311 -1406 0
1309 1311 -1406 0
-1309 1311 1406 0
1309 -1311 1406 0
-1313 -1315 -1408 0
1313 1315 -1408 0
-1313 1315 1408 0
1313 -1315 1408 0
-1317 -1319 -1410 0
1317 1319 -1410 0
-1317 1319 1410 0
1317 -1319 1410 0
-1321 -1323 -1412 0
1321 1323 -1412 0
-1321 1323 1412 0
1321 -1323 1412 0
-1325 -1327 -1414 0
1325 1327 -1414 0
-1325 1327 1414 0
1325 -1327 1414 0
-1329 -1331 -1416 0
1329 1331 -1416 0
-1329 1331 1416 0
1329 -1331 1416 0
-1333 -1335 -1418 0
1333 1335 -1418 0
-1333 1335 1418 0
1333 -1335 1418 0
-1337 -1339 -1420 0
1337 1339 -1420 0
-1337 1339 1420 0
1337 -1339 1420 0
-1341 -1343 -1422 0
1341 1343 -1422 0
-1341 1343 1422 0
1341 -1343 1422 0
-1345 -1347 -1424 0
1345 1347 -1424 0
-1345 1347 1424 0
1345 -1347 1424 0
-1349 -1351 -1426 0
1349 1351 -1426 0
-1349 1351 1426 0
1349 -1351 1426 0
-1353 -1355 -1428 0
1353 1355 -1428 0
-1353 1355 1428 0
1353 -1355 1428 0
-1357 -1359 -1430 0
1357 1359 -1430 0
-1357 1359 1430 0
1357 -1359 1430 0
-1361 -1363 -1432 0
1361 1363 -1432 0
-1361 1363 1432 0
1361 -1363 1432 0
-1365 -1367 -1434 0
1365 1367 -1434 0
-1365 1367 1434 0
1365 -1367 1434 0
-1369 -1371 -1436 0
1369 1371 -1436 0
-1369 1371 1436 0
1369 -1371 1436 0
-1372 -1373 -1439 0
1372 1373 -1439 0
-1372 1373 1439 0
1372 -1373 1439 0
-1374 -1376 -1441 0
1374 1376 -1441 0
-1374 1376 1441 0
1374 -1376 1441 0
-1378 -1379 -1442 0
1378 1379 -1442 0
-1378 1379 1442 0
1378 -1379 1442 0
-1380 -1382 -1444 0
1380 1382 -1444 0
-1380 1382 1444 0
1380 -1382 1444 0
-1384 -1386 -1447 0
1384 1386 -1447 0
-1384 1386 1447 0
1384 -1386 1447 0
-1388 -1390 -1448 0
1388 1390 -1448 0
-1388 1390 1448 0
1388 -1390 1448 0
-1392 -1394 -1450 0
1392 1394 -1450 0
-1392 1394 1450 0
1392 -1394 1450 0
-1396 -1398 -1452 0
1396 1398 -1452 0
-1396 1398 1452 0
1396 -1398 1452 0
-1400 -1401 -1454 0
1400 1401 -1454 0
-1400 1401 1454 0
1400 -1401 1454 0
-1402 -1404 -1456 0
1402 1404 -1456 0
-1402 1404 1456 0
1402 -1404 1456 0
-1406 -1408 -1458 0
1406 1408 -1458 0
-1406 1408 1458 0
1406 -1408 1458 0
-1410 -1412 -1460 0
1410 1412 -1460 0
-1410 1412 1460 0
1410 -1412 1460 0
-1414 -1416 -1462 0
1414 1416 -1462 0
-1414 1416 1462 0
1414 -1416 1462 0
-1418 -1420 -1464 0
1418 1420 -1464 0
-1418 1420 1464 0
1418 -1420 1464 0
-1422 -1424 -1466 0
1422 1424 -1466 0
-1422 1424 1466 0
1422 -1424 1466 0
-1426 -1428 -1468 0
1426 1428 -1468 0
-1426 1428 1468 0
1426 -1428 1468 0
-1430 -1432 -1470 0
1430 1432 -1470 0
-1430 1432 1470 0
1430 -1432 1470 0
-1434 -1436 -1472 0
1434 1436 -1472 0
-1434 1436 1472 0
1434 -1436 1472 0
-1438 -1439 -1474 0
1438 1439 -1474 0
-1438 1439 1474 0
1438 -1439 1474 0
-1440 -1441 -1476 0
1440 1441 -1476 0
-1440 1441 1476 0
1440 -1441 1476 0
-1442 -1444 -1478 0
1442 1444 -1478 0
-1442 1444 1478 0
1442 -1444 1478 0
-1446 -1447 -1480 0
1446 1447 -1480 0
-1446 1447 1480 0
1446 -1447 1480 0
-1448 -1450 -1482 0
1448 1450 -1482 0
-1448 1450 1482 0
1448 -1450 1482 0
-1452 -1454 -1484 0
1452 1454 -1484 0
-1452 1454 1484 0
1452 -1454 1484 0
-1456 -1458 -1486 0
1456 1458 -1486 0
-1456 1458 1486 0
1456 -1458 1486 0
-1460 -1462 -1488 0
1460 1462 -1488 0
-1460 1462 1488 0
1460 -1462 1488 0
-1464 -1466 -1490 0
1464 1466 -1490 0
-1464 1466 1490 0
1464 -1466 1490 0
-1468 -1470 -1492 0
1468 1470 -1492 0
-1468 1470 1492 0
1468 -1470 1492 0
-1472 -1474 -1494 0
1472 1474 -1494 0
-1472 1474 1494 0
1472 -1474 1494 0
-1476 -1478 -1496 0
1476 1478 -1496 0
-1476 1478 1496 0
1476 -1478 1496 0
-1480 -1482 -1498 0
1480 1482 -1498 0
-1480 1482 1498 0
1480 -1482 1498 0
-1484 -1486 -1500 0
1484 1486 -1500 0
-1484 1486 1500 0
1484 -1486 1500 0
-1488 -1490 -1502 0
1488 1490 -1502 0
-1488 1490 1502 0
1488 -1490 1502 0
-1492 -1494 -1504 0
1492 1494 -1504 0
-1492 1494 1504 0
1492 -1494 1504 0
-1496 -1498 -1506 0
1496 1498 -1506 0
-1496 1498 1506 0
1496 -1498 1506 0
-1500 -1502 -1508 0
1500 1502 -1508 0
-1500 1502 1508 0
1500 -1502 1508 0
-1504 -1506 1508 0
1504 1506 1508 0
-1504 1506 -1508 0
1504 -1506 -1508 0
-1375 -1377 -1575 0
1375 1377 -1575 0
-1375 1377 1575 0
1375 -1377 1575 0
-1381 -1383 -1513 0
1381 1383 -1513 0
-1381 1383 1513 0
1381 -1383 1513 0
-1385 -1387 -1515 0
1385 1387 -1515 0
-1385 1387 1515 0
1385 -1387 1515 0
-1389 -1391 -1517 0
1389 1391 -1517 0
-1389 1391 1517 0
1389 -1391 1517 0
-1393 -1395 -1519 0
1393 1395 -1519 0
-1393 1395 1519 0
1393 -1395 1519 0
-1397 -1399 -1581 0
1397 1399 -1581 0
-1397 1399 1581 0
1397 -1399 1581 0
-1403 -1405 -1522 0
1403 1405 -1522 0
-1403 1405 1522 0
1403 -1405 1522 0
-1407 -1409 -1523 0
1407 1409 -1523 0
-1407 1409 1523 0
1407 -1409 1523 0
-1411 -1413 -1525 0
1411 1413 -1525 0
-1411 1413 1525 0
1411 -1413 1525 0
-1415 -1417 -1527 0
1415 1417 -1527 0
-1415 1417 1527 0
1415 -1417 1527 0
-1419 -1421 -1529 0
1419 1421 -1529 0
-1419 1421 1529 0
1419 -1421 1529 0
-1423 -1425 -1531 0
1423 1425 -1531 0
-1423 1425 1531 0
1423 -1425 1531 0
-1427 -1429 -1533 0
1427 1429 -1533 0
-1427 1429 1533 0
1427 -1429 1533 0
-1431 -1433 -1535 0
1431 1433 -1535 0
-1431 1433 1535 0
1431 -1433 1535 0
-1435 -1437 -1537 0
1435 1437 -1537 0
-1435 1437 1537 0
1435 -1437 1537 0
-1443 -1445 -1541 0
1443 1445 -1541 0
-1443 1445 1541 0
1443 -1445 1541 0
-1449 -1451 -1543 0
1449 1451 -1543 0
-1449 1451 1543 0
1449 -1451 1543 0
-1453 -1455 -1545 0
1453 1455 -1545 0
-1453 1455 1545 0
1453 -1455 1545 0
-1457 -1459 -1547 0
1457 1459 -1547 0
-1457 1459 1547 0
1457 -1459 1547 0
-1461 -1463 -1549 0
1461 1463 -1549 0
-1461 1463 1549 0
1461 -1463 1549 0
-1465 -1467 -1551 0
1465 1467 -1551 0
-1465 1467 1551 0
1465 -1467 1551 0
-1469 -1471 -1553 0
1469 1471 -1553 0
-1469 1471 1553 0
1469 -1471 1553 0
-1473 -1475 -1555 0
1473 1475 -1555 0
-1473 1475 1555 0
1473 -1475 1555 0
-1477 -1479 -1557 0
1477 1479 -1557 0
-1477 1479 1557 0
1477 -1479 1557 0
-1481 -1483 -1559 0
1481 1483 -1559 0
-1481 1483 1559 0
1481 -1483 1559 0
-1485 -1487 -1561 0
1485 1487 -1561 0
-1485 1487 1561 0
1485 -1487 1561 0
-1489 -1491 -1563 0
1489 1491 -1563 0
-1489 1491 1563 0
1489 -1491 1563 0
-1493 -1495 -1565 0
1493 1495 -1565 0
-1493 1495 1565 0
1493 -1495 1565 0
-1497 -1499 -1567 0
1497 1499 -1567 0
-1497 1499 1567 0
1497 -1499 1567 0
-1501 -1503 -1569 0
1501 1503 -1569 0
-1501 1503 1569 0
1501 -1503 1569 0
-1505 -1507 -1571 0
1505 1507 -1571 0
-1505 1507 1571 0
1505 -1507 1571 0
-1509 -1510 -1573 0
1509 1510 -1573 0
-1509 1510 1573 0
1509 -1510 1573 0
-1512 -1513 -1576 0
1512 1513 -1576 0
-1512 1513 1576 0
1512 -1513 1576 0
-1514 -1515 -1578 0
1514 1515 -1578 0
-1514 1515 1578 0
1514 -1515 1578 0
-1517 -1519 -1580 0
1517 1519 -1580 0
-1517 1519 1580 0
1517 -1519 1580 0
-1522 -1523 -1582 0
1522 1523 -1582 0
-1522 1523 1582 0
1522 -1523 1582 0
-1525 -1527 -1584 0
1525 1527 -1584 0
-1525 1527 1584 0
1525 -1527 1584 0
-1529 -1531 -1586 0
1529 1531 -1586 0
-1529 1531 1586 0
1529 -1531 1586 0
-1533 -1535 -1588 0
1533 1535 -1588 0
-1533 1535 1588 0
1533 -1535 1588 0
-1537 -1539 -1590 0
1537 1539 -1590 0
-1537 1539 1590 0
1537 -1539 1590 0
-1540 -1541 -1592 0
1540 1541 -1592 0
-1540 1541 1592 0
1540 -1541 1592 0
-1542 -1543 -1594 0
1542 1543 -1594 0
-1542 1543 1594 0
1542 -1543 1594 0
-1545 -1547 -1596 0
1545 1547 -1596 0
-1545 1547 1596 0
1545 -1547 1596 0
-1549 -1551 -1598 0
1549 1551 -1598 0
-1549 1551 1598 0
1549 -1551 1598 0
-1553 -1555 -1600 0
1553 1555 -1600 0
-1553 1555 1600 0
1553 -1555 1600 0
-1557 -1559 -1602 0
1557 1559 -1602 0
-1557 1559 1602 0
1557 -1559 1602 0
-1561 -1563 -1604 0
1561 1563 -1604 0
-1561 1563 1604 0
1561 -1563 1604 0
-1565 -1567 -1606 0
1565 1567 -1606 0
-1565 1567 1606 0
1565 -1567 1606 0
-1569 -1571 -1608 0
1569 1571 -1608 0
-1569 1571 1608 0
1569 -1571 1608 0
-1511 -1573 -1610 0
1511 1573 -1610 0
1511 -1573 1610 0
-1511 1573 1610 0
-1575 -1576 -1612 0
1575 1576 -1612 0
-1575 1576 1612 0
1575 -1576 1612 0
-1578 -1580 -1614 0
1578 1580 -1614 0
-1578 1580 1614 0
1578 -1580 1614 0
-1581 -1582 -1616 0
1581 1582 -1616 0
-1581 1582 1616 0
1581 -1582 1616 0
-1584 -1586 -1618 0
1584 1586 -1618 0
-1584 1586 1618 0
1584 -1586 1618 0
-1588 -1590 -1620 0
1588 1590 -1620 0
-1588 1590 1620 0
1588 -1590 1620 0
-1592 -1594 -1622 0
1592 1594 -1622 0
-1592 1594 1622 0
1592 -1594 1622 0
-1596 -1598 -1624 0
1596 1598 -1624 0
-1596 1598 1624 0
1596 -1598 1624 0
-1600 -1602 -1626 0
1600 1602 -1626 0
-1600 1602 1626 0
1600 -1602 1626 0
-1604 -1606 -1628 0
1604 1606 -1628 0
-1604 1606 1628 0
1604 -1606 1628 0
-1608 -1610 -1630 0
1608 1610 -1630 0
-1608 1610 1630 0
1608 -1610 1630 0
-1612 -1614 -1632 0
1612 1614 -1632 0
-1612 1614 1632 0
1612 -1614 1632 0
-1616 -1618 -1634 0
1616 1618 -1634 0
-1616 1618 1634 0
1616 -1618 1634 0
-1620 -1622 -1636 0
1620 1622 -1636 0
-1620 1622 1636 0
1620 -1622 1636 0
-1624 -1626 -1638 0
1624 1626 -1638 0
-1624 1626 1638 0
1624 -1626 1638 0
-1628 -1630 -1640 0
1628 1630 -1640 0
-1628 1630 1640 0
1628 -1630 1640 0
-1632 -1634 -1642 0
1632 1634 -1642 0
-1632 1634 1642 0
1632 -1634 1642 0
-1636 -1638 -1644 0
1636 1638 -1644 0
-1636 1638 1644 0
1636 -1638 1644 0
-1640 -1642 -1644 0
1640 1642 -1644 0
-1640 1642 1644 0
1640 -1642 1644 0
-1516 -1518 -1648 0
1516 1518 -1648 0
-1516 1518 1648 0
1516 -1518 1648 0
-1520 -1521 -1649 0
1520 1521 -1649 0
-1520 1521 1649 0
1520 -1521 1649 0
-1524 -1526 -1651 0
1524 1526 -1651 0
-1524 1526 1651 0
1524 -1526 1651 0
-1528 -1530 -1653 0
1528 1530 -1653 0
-1528 1530 1653 0
1528 -1530 1653 0
-1532 -1534 -1655 0
1532 1534 -1655 0
-1532 1534 1655 0
1532 -1534 1655 0
-1536 -1538 -1657 0
1536 1538 -1657 0
-1536 1538 1657 0
1536 -1538 1657 0
-1544 -1546 -1660 0
1544 1546 -1660 0
-1544 1546 1660 0
1544 -1546 1660 0
-1548 -1550 -1662 0
1548 1550 -1662 0
-1548 1550 1662 0
1548 -1550 1662 0
-1552 -1554 -1664 0
1552 1554 -1664 0
-1552 1554 1664 0
1552 -1554 1664 0
-1556 -1558 -1666 0
1556 1558 -1666 0
-1556 1558 1666 0
1556 -1558 1666 0
-1560 -1562 -1668 0
1560 1562 -1668 0
-1560 1562 1668 0
1560 -1562 1668 0
-1564 -1566 -1670 0
1564 1566 -1670 0
-1564 1566 1670 0
1564 -1566 1670 0
-1568 -1570 -1672 0
1568 1570 -1672 0
-1568 1570 1672 0
1568 -1570 1672 0
-1572 -1574 -1674 0
1572 1574 -1674 0
-1572 1574 1674 0
1572 -1574 1674 0
-1577 -1579 -1725 0
1577 1579 -1725 0
-1577 1579 1725 0
1577 -1579 1725 0
-1583 -1585 -1677 0
1583 1585 -1677 0
-1583 1585 1677 0
1583 -1585 1677 0
-1587 -1589 -1678 0
1587 1589 -1678 0
-1587 1589 1678 0
1587 -1589 1678 0
-1591 -1593 -1680 0
1591 1593 -1680 0
-1591 1593 1680 0
1591 -1593 1680 0
-1595 -1597 -1682 0
1595 1597 -1682 0
-1595 1597 1682 0
1595 -1597 1682 0
-1599 -1601 -1684 0
1599 1601 -1684 0
-1599 1601 1684 0
1599 -1601 1684 0
-1603 -1605 -1686 0
1603 1605 -1686 0
-1603 1605 1686 0
1603 -1605 1686 0
-1607 -1609 -1688 0
1607 1609 -1688 0
-1607 1609 1688 0
1607 -1609 1688 0
-1611 -1613 -1690 0
1611 1613 -1690 0
-1611 1613 1690 0
1611 -1613 1690 0
-1615 -1617 -1692 0
1615 1617 -1692 0
-1615 1617 1692 0
1615 -1617 1692 0
-1619 -1621 -1694 0
1619 1621 -1694 0
-1619 1621 1694 0
1619 -1621 1694 0
-1623 -1625 -1696 0
1623 1625 -1696 0
-1623 1625 1696 0
1623 -1625 1696 0
-1627 -1629 -1698 0
1627 1629 -1698 0
-1627 1629 1698 0
1627 -1629 1698 0
-1631 -1633 -1700 0
1631 1633 -1700 0
-1631 1633 1700 0
1631 -1633 1700 0
-1635 -1637 -1702 0
1635 1637 -1702 0
-1635 1637 1702 0
1635 -1637 1702 0
-1639 -1641 -1704 0
1639 1641 -1704 0
-1639 1641 1704 0
1639 -1641 1704 0
-1643 -1645 -1706 0
1643 1645 -1706 0
-1643 1645 1706 0
1643 -1645 1706 0
-1644 -1646 -1708 0
1644 1646 -1708 0
1644 -1646 1708 0
-1644 1646 1708 0
-1647 -1648 -1711 0
1647 1648 -1711 0
-1647 1648 1711 0
1647 -1648 1711 0
-1649 -1650 -1712 0
1649 1650 -1712 0
-1649 1650 1712 0
1649 -1650 1712 0
-1651 -1653 -1714 0
1651 1653 -1714 0
-1651 1653 1714 0
1651 -1653 1714 0
-1655 -1657 -1716 0
1655 1657 -1716 0
-1655 1657 1716 0
1655 -1657 1716 0
-1660 -1662 -1717 0
1660 1662 -1717 0
-1660 1662 1717 0
1660 -1662 1717 0
-1664 -1666 -1719 0
1664 1666 -1719 0
-1664 1666 1719 0
1664 -1666 1719 0
-1668 -1670 -1721 0
1668 1670 -1721 0
-1668 1670 1721 0
1668 -1670 1721 0
-1672 -1674 -1723 0
1672 1674 -1723 0
-1672 1674 1723 0
1672 -1674 1723 0
-1676 -1677 -1726 0
1676 1677 -1726 0
-1676 1677 1726 0
1676 -1677 1726 0
-1678 -1680 -1727 0
1678 1680 -1727 0
-1678 1680 1727 0
1678 -1680 1727 0
-1682 -1684 -1729 0
1682 1684 -1729 0
-1682 1684 1729 0
1682 -1684 1729 0
-1686 -1688 -1731 0
1686 1688 -1731 0
-1686 1688 1731 0
1686 -1688 1731 0
-1690 -1692 -1733 0
1690 1692 -1733 0
-1690 1692 1733 0
1690 -1692 1733 0
-1694 -1696 -1735 0
1694 1696 -1735 0
-1694 1696 1735 0
1694 -1696 1735 0
-1698 -1700 -1737 0
1698 1700 -1737 0
-1698 1700 1737 0
1698 -1700 1737 0
-1702 -1704 -1739 0
1702 1704 -1739 0
-1702 1704 1739 0
1702 -1704 1739 0
-1706 -1708 -1741 0
1706 1708 -1741 0
-1706 1708 1741 0
1706 -1708 1741 0
-1710 -1711 -1743 0
1710 1711 -1743 0
-1710 1711 1743 0
1710 -1711 1743 0
-1712 -1714 -1745 0
1712 1714 -1745 0
-1712 1714 1745 0
1712 -1714 1745 0
-1659 -1716 -1747 0
1659 1716 -1747 0
1659 -1716 1747 0
-1659 1716 1747 0
-1717 -1719 -1749 0
1717 1719 -1749 0
-1717 1719 1749 0
1717 -1719 1749 0
-1721 -1723 -1751 0
1721 1723 -1751 0
-1721 1723 1751 0
1721 -1723 1751 0
-1725 -1726 -1753 0
1725 1726 -1753 0
-1725 1726 1753 0
1725 -1726 1753 0
-1727 -1729 -1755 0
1727 1729 -1755 0
-1727 1729 1755 0
1727 -1729 1755 0
-1731 -1733 -1757 0
1731 1733 -1757 0
-1731 1733 1757 0
1731 -1733 1757 0
-1735 -1737 -1759 0
1735 1737 -1759 0
-1735 1737 1759 0
1735 -1737 1759 0
-1739 -1741 -1761 0
1739 1741 -1761 0
-1739 1741 1761 0
1739 -1741 1761 0
-1743 -1745 -1763 0
1743 1745 -1763 0
-1743 1745 1763 0
1743 -1745 1763 0
-1747 -1749 -1765 0
1747 1749 -1765 0
-1747 1749 1765 0
1747 -1749 1765 0
-1751 -1753 -1767 0
1751 1753 -1767 0
-1751 1753 1767 0
1751 -1753 1767 0
-1755 -1757 -1769 0
1755 1757 -1769 0
-1755 1757 1769 0
1755 -1757 1769 0
-1759 -1761 -1771 0
1759 1761 -1771 0
-1759 1761 1771 0
1759 -1761 1771 0
-1763 -1765 -1773 0
1763 1765 -1773 0
-1763 1765 1773 0
1763 -1765 1773 0
-1767 -1769 -1775 0
1767 1769 -1775 0
-1767 1769 1775 0
1767 -1769 1775 0
-1771 -1773 -1775 0
1771 1773 -1775 0
-1771 1773 1775 0
1771 -1773 1775 0
-1652 -1654 -1780 0
1652 1654 -1780 0
-1652 1654 1780 0
1652 -1654 1780 0
-1656 -1658 -1781 0
1656 1658 -1781 0
-1656 1658 1781 0
1656 -1658 1781 0
-1661 -1663 -1842 0
1661 1663 -1842 0
-1661 1663 1842 0
1661 -1663 1842 0
-1665 -1667 -1783 0
1665 1667 -1783 0
-1665 1667 1783 0
1665 -1667 1783 0
-1669 -1671 -1785 0
1669 1671 -1785 0
-1669 1671 1785 0
1669 -1671 1785 0
-1673 -1675 -1787 0
1673 1675 -1787 0
-1673 1675 1787 0
1673 -1675 1787 0
-1679 -1681 -1791 0
1679 1681 -1791 0
-1679 1681 1791 0
1679 -1681 1791 0
-1683 -1685 -1793 0
1683 1685 -1793 0
-1683 1685 1793 0
1683 -1685 1793 0
-1687 -1689 -1795 0
1687 1689 -1795 0
-1687 1689 1795 0
1687 -1689 1795 0
-1691 -1693 -1797 0
1691 1693 -1797 0
-1691 1693 1797 0
1691 -1693 1797 0
-1695 -1697 -1799 0
1695 1697 -1799 0
-1695 1697 1799 0
1695 -1697 1799 0
-1699 -1701 -1801 0
1699 1701 -1801 0
-1699 1701 1801 0
1699 -1701 1801 0
-1703 -1705 -1803 0
1703 1705 -1803 0
-1703 1705 1803 0
1703 -1705 1803 0
-1707 -1709 -1805 0
1707 1709 -1805 0
-1707 1709 1805 0
1707 -1709 1805 0
-1713 -1715 -1808 0
1713 1715 -1808 0
-1713 1715 1808 0
1713 -1715 1808 0
-1718 -1720 -1810 0
1718 1720 -1810 0
-1718 1720 1810 0
1718 -1720 1810 0
-1722 -1724 -1811 0
1722 1724 -1811 0
-1722 1724 1811 0
1722 -1724 1811 0
-1728 -1730 -1813 0
1728 1730 -1813 0
-1728 1730 1813 0
1728 -1730 1813 0
-1732 -1734 -1815 0
1732 1734 -1815 0
-1732 1734 1815 0
1732 -1734 1815 0
-1736 -1738 -1817 0
1736 1738 -1817 0
-1736 1738 1817 0
1736 -1738 1817 0
-1740 -1742 -1819 0
1740 1742 -1819 0
-1740 1742 1819 0
1740 -1742 1819 0
-1744 -1746 -1821 0
1744 1746 -1821 0
-1744 1746 1821 0
1744 -1746 1821 0
-1748 -1750 -1823 0
1748 1750 -1823 0
-1748 1750 1823 0
1748 -1750 1823 0
-1752 -1754 -1825 0
1752 1754 -1825 0
-1752 1754 1825 0
1752 -1754 1825 0
-1756 -1758 -1827 0
1756 1758 -1827 0
-1756 1758 1827 0
1756 -1758 1827 0
-1760 -1762 -1829 0
1760 1762 -1829 0
-1760 1762 1829 0
1760 -1762 1829 0
-1764 -1766 -1831 0
1764 1766 -1831 0
-1764 1766 1831 0
1764 -1766 1831 0
-1768 -1770 -1833 0
1768 1770 -1833 0
-1768 1770 1833 0
1768 -1770 1833 0
-1772 -1774 -1835 0
1772 1774 -1835 0
-1772 1774 1835 0
1772 -1774 1835 0
-1776 -1777 -1837 0
1776 1777 -1837 0
-1776 1777 1837 0
1776 -1777 1837 0
-1778 -1779 -1838 0
1778 1779 -1838 0
-1778 1779 1838 0
1778 -1779 1838 0
-1780 -1781 -1840 0
1780 1781 -1840 0
-1780 1781 1840 0
1780 -1781 1840 0
-1783 -1785 -1843 0
1783 1785 -1843 0
-1783 1785 1843 0
1783 -1785 1843 0
-1787 -1789 -1844 0
1787 1789 -1844 0
-1787 1789 1844 0
1787 -1789 1844 0
-1790 -1791 -1846 0
1790 1791 -1846 0
-1790 1791 1846 0
1790 -1791 1846 0
-1793 -1795 -1848 0
1793 1795 -1848 0
-1793 1795 1848 0
1793 -1795 1848 0
-1797 -1799 -1850 0
1797 1799 -1850 0
-1797 1799 1850 0
1797 -1799 1850 0
-1801 -1803 -1852 0
1801 1803 -1852 0
-1801 1803 1852 0
1801 -1803 1852 0
-1805 -1807 -1854 0
1805 1807 -1854 0
-1805 1807 1854 0
1805 -1807 1854 0
-1808 -1809 -1856 0
1808 1809 -1856 0
-1808 1809 1856 0
1808 -1809 1856 0
-1810 -1811 -1858 0
1810 1811 -1858 0
-1810 1811 1858 0
1810 -1811 1858 0
-1812 -1813 -1860 0
1812 1813 -1860 0
-1812 1813 1860 0
1812 -1813 1860 0
-1815 -1817 -1862 0
1815 1817 -1862 0
-1815 1817 1862 0
1815 -1817 1862 0
-1819 -1821 -1864 0
1819 1821 -1864 0
-1819 1821 1864 0
1819 -1821 1864 0
-1823 -1825 -1866 0
1823 1825 -1866 0
-1823 1825 1866 0
1823 -1825 1866 0
-1827 -1829 -1868 0
1827 1829 -1868 0
-1827 1829 1868 0
1827 -1829 1868 0
-1831 -1833 -1870 0
1831 1833 -1870 0
-1831 1833 1870 0
1831 -1833 1870 0
-1835 -1837 -1872 0
1835 1837 -1872 0
-1835 1837 1872 0
1835 -1837 1872 0
-1775 -1838 -1874 0
1775 1838 -1874 0
-1775 1838 1874 0
1775 -1838 1874 0
-1840 -1842 -1876 0
1840 1842 -1876 0
-1840 1842 1876 0
1840 -1842 1876 0
-1843 -1844 -1878 0
1843 1844 -1878 0
-1843 1844 1878 0
1843 -1844 1878 0
-1846 -1848 -1880 0
1846 1848 -1880 0
-1846 1848 1880 0
1846 -1848 1880 0
-1850 -1852 -1882 0
1850 1852 -1882 0
-1850 1852 1882 0
1850 -1852 1882 0
-1854 -1856 -1884 0
1854 1856 -1884 0
-1854 1856 1884 0
1854 -1856 1884 0
-1858 -1860 -1886 0
1858 1860 -1886 0
-1858 1860 1886 0
1858 -1860 1886 0
-1862 -1864 -1888 0
1862 1864 -1888 0
-1862 1864 1888 0
1862 -1864 1888 0
-1866 -1868 -1890 0
1866 1868 -1890 0
-1866 1868 1890 0
1866 -1868 1890 0
-1870 -1872 -1892 0
1870 1872 -1892 0
-1870 1872 1892 0
1870 -1872 1892 0
-1874 -1876 -1894 0
1874 1876 -1894 0
-1874 1876 1894 0
1874 -1876 1894 0
-1878 -1880 -1896 0
1878 1880 -1896 0
-1878 1880 1896 0
1878 -1880 1896 0
-1882 -1884 -1898 0
1882 1884 -1898 0
-1882 1884 1898 0
1882 -1884 1898 0
-1886 -1888 -1900 0
1886 1888 -1900 0
-1886 1888 1900 0
1886 -1888 1900 0
-1890 -1892 -1902 0
1890 1892 -1902 0
-1890 1892 1902 0
1890 -1892 1902 0
-1894 -1896 -1904 0
1894 1896 -1904 0
-1894 1896 1904 0
1894 -1896 1904 0
-1898 -1900 -1906 0
1898 1900 -1906 0
-1898 1900 1906 0
1898 -1900 1906 0
-1902 -1904 -1906 0
1902 1904 -1906 0
-1902 1904 1906 0
1902 -1904 1906 0
-1782 -1784 -1911 0
1782 1784 -1911 0
-1782 1784 1911 0
1782 -1784 1911 0
-1786 -1788 -1970 0
1786 1788 -1970 0
-1786 1788 1970 0
1786 -1788 1970 0
-1792 -1794 -1912 0
1792 1794 -1912 0
-1792 1794 1912 0
1792 -1794 1912 0
-1796 -1798 -1914 0
1796 1798 -1914 0
-1796 1798 1914 0
1796 -1798 1914 0
-1800 -1802 -1916 0
1800 1802 -1916 0
-1800 1802 1916 0
1800 -1802 1916 0
-1804 -1806 -1918 0
1804 1806 -1918 0
-1804 1806 1918 0
1804 -1806 1918 0
-1814 -1816 -1923 0
1814 1816 -1923 0
-1814 1816 1923 0
1814 -1816 1923 0
-1818 -1820 -1924 0
1818 1820 -1924 0
-1818 1820 1924 0
1818 -1820 1924 0
-1822 -1824 -1926 0
1822 1824 -1926 0
-1822 1824 1926 0
1822 -1824 1926 0
-1826 -1828 -1928 0
1826 1828 -1928 0
-1826 1828 1928 0
1826 -1828 1928 0
-1830 -1832 -1930 0
1830 1832 -1930 0
-1830 1832 1930 0
1830 -1832 1930 0
-1834 -1836 -1932 0
1834 1836 -1932 0
-1834 1836 1932 0
1834 -1836 1932 0
-1839 -1841 -1934 0
1839 1841 -1934 0
-1839 1841 1934 0
1839 -1841 1934 0
-1845 -1847 -1936 0
1845 1847 -1936 0
-1845 1847 1936 0
1845 -1847 1936 0
-1849 -1851 -1938 0
1849 1851 -1938 0
-1849 1851 1938 0
1849 -1851 1938 0
-1853 -1855 -1940 0
1853 1855 -1940 0
-1853 1855 1940 0
1853 -1855 1940 0
-1857 -1859 -1942 0
1857 1859 -1942 0
-1857 1859 1942 0
1857 -1859 1942 0
-1861 -1863 -1944 0
1861 1863 -1944 0
-1861 1863 1944 0
1861 -1863 1944 0
-1865 -1867 -1946 0
1865 1867 -1946 0
-1865 1867 1946 0
1865 -1867 1946 0
-1869 -1871 -1948 0
1869 1871 -1948 0
-1869 1871 1948 0
1869 -1871 1948 0
-1873 -1875 -1950 0
1873 1875 -1950 0
-1873 1875 1950 0
1873 -1875 1950 0
-1877 -1879 -1952 0
1877 1879 -1952 0
-1877 1879 1952 0
1877 -1879 1952 0
-1881 -1883 -1954 0
1881 1883 -1954 0
-1881 1883 1954 0
1881 -1883 1954 0
-1885 -1887 -1956 0
1885 1887 -1956 0
-1885 1887 1956 0
1885 -1887 1956 0
-1889 -1891 -1958 0
1889 1891 -1958 0
-1889 1891 1958 0
1889 -1891 1958 0
-1893 -1895 -1960 0
1893 1895 -1960 0
-1893 1895 1960 0
1893 -1895 1960 0
-1897 -1899 -1962 0
1897 1899 -1962 0
-1897 1899 1962 0
1897 -1899 1962 0
-1901 -1903 -1964 0
1901 1903 -1964 0
-1901 1903 1964 0
1901 -1903 1964 0
-1905 -1907 -1966 0
1905 1907 -1966 0
-1905 1907 1966 0
1905 -1907 1966 0
-1906 -1908 -1968 0
1906 1908 -1968 0
1906 -1908 1968 0
-1906 1908 1968 0
-1910 -1911 -1969 0
1910 1911 -1969 0
-1910 1911 1969 0
1910 -1911 1969 0
-1912 -1914 -1971 0
1912 1914 -1971 0
-1912 1914 1971 0
1912 -1914 1971 0
-1916 -1918 -1973 0
1916 1918 -1973 0
-1916 1918 1973 0
1916 -1918 1973 0
-1920 -1921 -1975 0
1920 1921 -1975 0
-1920 1921 1975 0
1920 -1921 1975 0
-1922 -1923 -1977 0
1922 1923 -1977 0
-1922 1923 1977 0
1922 -1923 1977 0
-1924 -1926 -1979 0
1924 1926 -1979 0
-1924 1926 1979 0
1924 -1926 1979 0
-1928 -1930 -1981 0
1928 1930 -1981 0
-1928 1930 1981 0
1928 -1930 1981 0
-1932 -1933 -1983 0
1932 1933 -1983 0
-1932 1933 1983 0
1932 -1933 1983 0
-1934 -1935 -1985 0
1934 1935 -1985 0
-1934 1935 1985 0
1934 -1935 1985 0
-1936 -1938 -1987 0
1936 1938 -1987 0
-1936 1938 1987 0
1936 -1938 1987 0
-1940 -1942 -1989 0
1940 1942 -1989 0
-1940 1942 1989 0
1940 -1942 1989 0
-1944 -1946 -1991 0
1944 1946 -1991 0
-1944 1946 1991 0
1944 -1946 1991 0
-1948 -1950 -1993 0
1948 1950 -1993 0
-1948 1950 1993 0
1948 -1950 1993 0
-1952 -1954 -1995 0
1952 1954 -1995 0
-1952 1954 1995 0
1952 -1954 1995 0
-1956 -1958 -1997 0
1956 1958 -1997 0
-1956 1958 1997 0
1956 -1958 1997 0
-1960 -1962 -1999 0
1960 1962 -1999 0
-1960 1962 1999 0
1960 -1962 1999 0
-1964 -1966 -2001 0
1964 1966 -2001 0
-1964 1966 2001 0
1964 -1966 2001 0
-1909 -1968 -2003 0
1909 1968 -2003 0
1909 -1968 2003 0
-1909 1968 2003 0
-1969 -1970 -2005 0
1969 1970 -2005 0
-1969 1970 2005 0
1969 -1970 2005 0
-1971 -1973 -2007 0
1971 1973 -2007 0
-1971 1973 2007 0
1971 -1973 2007 0
-1975 -1977 -2009 0
1975 1977 -2009 0
-1975 1977 2009 0
1975 -1977 2009 0
-1979 -1981 -2011 0
1979 1981 -2011 0
-1979 1981 2011 0
1979 -1981 2011 0
-1983 -1985 -2013 0
1983 1985 -2013 0
-1983 1985 2013 0
1983 -1985 2013 0
-1987 -1989 -2015 0
1987 1989 -2015 0
-1987 1989 2015 0
1987 -1989 2015 0
-1991 -1993 -2017 0
1991 1993 -2017 0
-1991 1993 2017 0
1991 -1993 2017 0
-1995 -1997 -2019 0
1995 1997 -2019 0
-1995 1997 2019 0
1995 -1997 2019 0
-1999 -2001 -2021 0
1999 2001 -2021 0
-1999 2001 2021 0
1999 -2001 2021 0
-2003 -2005 -2023 0
2003 2005 -2023 0
-2003 2005 2023 0
2003 -2005 2023 0
-2007 -2009 -2025 0
2007 2009 -2025 0
-2007 2009 2025 0
2007 -2009 2025 0
-2011 -2013 -2027 0
2011 2013 -2027 0
-2011 2013 2027 0
2011 -2013 2027 0
-2015 -2017 -2029 0
2015 2017 -2029 0
-2015 2017 2029 0
2015 -2017 2029 0
-2019 -2021 -2031 0
2019 2021 -2031 0
-2019 2021 2031 0
2019 -2021 2031 0
-2023 -2025 -2033 0
2023 2025 -2033 0
-2023 2025 2033 0
2023 -2025 2033 0
-2027 -2029 -2035 0
2027 2029 -2035 0
-2027 2029 2035 0
2027 -2029 2035 0
-2031 -2033 -2035 0
2031 2033 -2035 0
-2031 2033 2035 0
2031 -2033 2035 0
-1913 -1915 -2040 0
1913 1915 -2040 0
-1913 1915 2040 0
1913 -1915 2040 0
-1917 -1919 -2041 0
1917 1919 -2041 0
-1917 1919 2041 0
1917 -1919 2041 0
-1925 -1927 -2043 0
1925 1927 -2043 0
-1925 1927 2043 0
1925 -1927 2043 0
-1929 -1931 -2044 0
1929 1931 -2044 0
-1929 1931 2044 0
1929 -1931 2044 0
-1937 -1939 -2047 0
1937 1939 -2047 0
-1937 1939 2047 0
1937 -1939 2047 0
-1941 -1943 -2048 0
1941 1943 -2048 0
-1941 1943 2048 0
1941 -1943 2048 0
-1945 -1947 -2050 0
1945 1947 -2050 0
-1945 1947 2050 0
1945 -1947 2050 0
-1949 -1951 -2052 0
1949 1951 -2052 0
-1949 1951 2052 0
1949 -1951 2052 0
-1953 -1955 -2054 0
1953 1955 -2054 0
-1953 1955 2054 0
1953 -1955 2054 0
-1957 -1959 -2056 0
1957 1959 -2056 0
-1957 1959 2056 0
1957 -1959 2056 0
-1961 -1963 -2058 0
1961 1963 -2058 0
-1961 1963 2058 0
1961 -1963 2058 0
-1965 -1967 -2060 0
1965 1967 -2060 0
-1965 1967 2060 0
1965 -1967 2060 0
-1972 -1974 -2063 0
1972 1974 -2063 0
-1972 1974 2063 0
1972 -1974 2063 0
-1976 -1978 -2064 0
1976 1978 -2064 0
-1976 1978 2064 0
1976 -1978 2064 0
-1980 -1982 -2066 0
1980 1982 -2066 0
-1980 1982 2066 0
1980 -1982 2066 0
-1984 -1986 -2068 0
1984 1986 -2068 0
-1984 1986 2068 0
1984 -1986 2068 0
-1988 -1990 -2070 0
1988 1990 -2070 0
-1988 1990 2070 0
1988 -1990 2070 0
-1992 -1994 -2072 0
1992 1994 -2072 0
-1992 1994 2072 0
1992 -1994 2072 0
-1996 -1998 -2074 0
1996 1998 -2074 0
-1996 1998 2074 0
1996 -1998 2074 0
-2000 -2002 -2076 0
2000 2002 -2076 0
-2000 2002 2076 0
2000 -2002 2076 0
-2004 -2006 -2078 0
2004 2006 -2078 0
-2004 2006 2078 0
2004 -2006 2078 0
-2008 -2010 -2080 0
2008 2010 -2080 0
-2008 2010 2080 0
2008 -2010 2080 0
-2012 -2014 -2082 0
2012 2014 -2082 0
-2012 2014 2082 0
2012 -2014 2082 0
-2016 -2018 -2084 0
2016 2018 -2084 0
-2016 2018 2084 0
2016 -2018 2084 0
-2020 -2022 -2086 0
2020 2022 -2086 0
-2020 2022 2086 0
2020 -2022 2086 0
-2024 -2026 -2088 0
2024 2026 -2088 0
-2024 2026 2088 0
2024 -2026 2088 0
-2028 -2030 -2090 0
2028 2030 -2090 0
-2028 2030 2090 0
2028 -2030 2090 0
-2032 -2034 -2092 0
2032 2034 -2092 0
-2032 2034 2092 0
2032 -2034 2092 0
-2036 -2037 -2094 0
2036 2037 -2094 0
-2036 2037 2094 0
2036 -2037 2094 0
-2038 -2039 -2096 0
2038 2039 -2096 0
-2038 2039 2096 0
2038 -2039 2096 0
-2040 -2041 -2097 0
2040 2041 -2097 0
-2040 2041 2097 0
2040 -2041 2097 0
-2043 -2044 -2098 0
2043 2044 -2098 0
-2043 2044 2098 0
2043 -2044 2098 0
-2045 -2046 -2100 0
2045 2046 -2100 0
-2045 2046 2100 0
2045 -2046 2100 0
-2047 -2048 -2102 0
2047 2048 -2102 0
-2047 2048 2102 0
2047 -2048 2102 0
-2050 -2052 -2104 0
2050 2052 -2104 0
-2050 2052 2104 0
2050 -2052 2104 0
-2054 -2056 -2106 0
2054 2056 -2106 0
-2054 2056 2106 0
2054 -2056 2106 0
-2058 -2060 -2108 0
2058 2060 -2108 0
-2058 2060 2108 0
2058 -2060 2108 0
-2061 -2062 -2110 0
2061 2062 -2110 0
-2061 2062 2110 0
2061 -2062 2110 0
-2063 -2064 -2112 0
2063 2064 -2112 0
-2063 2064 2112 0
2063 -2064 2112 0
-2066 -2068 -2114 0
2066 2068 -2114 0
-2066 2068 2114 0
2066 -2068 2114 0
-2070 -2072 -2116 0
2070 2072 -2116 0
-2070 2072 2116 0
2070 -2072 2116 0
-2074 -2076 -2118 0
2074 2076 -2118 0
-2074 2076 2118 0
2074 -2076 2118 0
-2078 -2080 -2120 0
2078 2080 -2120 0
-2078 2080 2120 0
2078 -2080 2120 0
-2082 -2084 -2122 0
2082 2084 -2122 0
-2082 2084 2122 0
2082 -2084 2122 0
-2086 -2088 -2124 0
2086 2088 -2124 0
-2086 2088 2124 0
2086 -2088 2124 0
-2090 -2092 -2126 0
2090 2092 -2126 0
-2090 2092 2126 0
2090 -2092 2126 0
-2035 -2094 -2128 0
2035 2094 -2128 0
2035 -2094 2128 0
-2035 2094 2128 0
-2096 -2097 -2130 0
2096 2097 -2130 0
-2096 2097 2130 0
2096 -2097 2130 0
-2042 -2098 -2132 0
2042 2098 -2132 0
-2042 2098 2132 0
2042 -2098 2132 0
-2100 -2102 -2134 0
2100 2102 -2134 0
-2100 2102 2134 0
2100 -2102 2134 0
-2104 -2106 -2136 0
2104 2106 -2136 0
-2104 2106 2136 0
2104 -2106 2136 0
-2108 -2110 -2138 0
2108 2110 -2138 0
-2108 2110 2138 0
2108 -2110 2138 0
-2112 -2114 -2140 0
2112 2114 -2140 0
-2112 2114 2140 0
2112 -2114 2140 0
-2116 -2118 -2142 0
2116 2118 -2142 0
-2116 2118 2142 0
2116 -2118 2142 0
-2120 -2122 -2144 0
2120 2122 -2144 0
-2120 2122 2144 0
2120 -2122 2144 0
-2124 -2126 -2146 0
2124 2126 -2146 0
-2124 2126 2146 0
2124 -2126 2146 0
-2128 -2130 -2148 0
2128 2130 -2148 0
-2128 2130 2148 0
2128 -2130 2148 0
-2132 -2134 -2150 0
2132 2134 -2150 0
-2132 2134 2150 0
2132 -2134 2150 0
-2136 -2138 -2152 0
2136 2138 -2152 0
-2136 2138 2152 0
2136 -2138 2152 0
-2140 -2142 -2154 0
2140 2142 -2154 0
-2140 2142 2154 0
2140 -2142 2154 0
-2144 -2146 -2156 0
2144 2146 -2156 0
-2144 2146 2156 0
2144 -2146 2156 0
-2148 -2150 -2158 0
2148 2150 -2158 0
-2148 2150 2158 0
2148 -2150 2158 0
-2152 -2154 -2160 0
2152 2154 -2160 0
-2152 2154 2160 0
2152 -2154 2160 0
-2156 -2158 -2160 0
2156 2158 -2160 0
-2156 2158 2160 0
2156 -2158 2160 0
-2049 -2051 -2168 0
2049 2051 -2168 0
-2049 2051 2168 0
2049 -2051 2168 0
-2053 -2055 -2170 0
2053 2055 -2170 0
-2053 2055 2170 0
2053 -2055 2170 0
-2057 -2059 -2172 0
2057 2059 -2172 0
-2057 2059 2172 0
2057 -2059 2172 0
-2065 -2067 -2175 0
2065 2067 -2175 0
-2065 2067 2175 0
2065 -2067 2175 0
-2069 -2071 -2176 0
2069 2071 -2176 0
-2069 2071 2176 0
2069 -2071 2176 0
-2073 -2075 -2178 0
2073 2075 -2178 0
-2073 2075 2178 0
2073 -2075 2178 0
-2077 -2079 -2180 0
2077 2079 -2180 0
-2077 2079 2180 0
2077 -2079 2180 0
-2081 -2083 -2182 0
2081 2083 -2182 0
-2081 2083 2182 0
2081 -2083 2182 0
-2085 -2087 -2184 0
2085 2087 -2184 0
-2085 2087 2184 0
2085 -2087 2184 0
-2089 -2091 -2186 0
2089 2091 -2186 0
-2089 2091 2186 0
2089 -2091 2186 0
-2093 -2095 -2188 0
2093 2095 -2188 0
-2093 2095 2188 0
2093 -2095 2188 0
-2099 -2101 -2191 0
2099 2101 -2191 0
-2099 2101 2191 0
2099 -2101 2191 0
-2103 -2105 -2192 0
2103 2105 -2192 0
-2103 2105 2192 0
2103 -2105 2192 0
-2107 -2109 -2194 0
2107 2109 -2194 0
-2107 2109 2194 0
2107 -2109 2194 0
-2111 -2113 -2196 0
2111 2113 -2196 0
-2111 2113 2196 0
2111 -2113 2196 0
-2115 -2117 -2198 0
2115 2117 -2198 0
-2115 2117 2198 0
2115 -2117 2198 0
-2119 -2121 -2200 0
2119 2121 -2200 0
-2119 2121 2200 0
2119 -2121 2200 0
-2123 -2125 -2202 0
2123 2125 -2202 0
-2123 2125 2202 0
2123 -2125 2202 0
-2127 -2129 -2204 0
2127 2129 -2204 0
-2127 2129 2204 0
2127 -2129 2204 0
-2131 -2133 -2206 0
2131 2133 -2206 0
-2131 2133 2206 0
2131 -2133 2206 0
-2135 -2137 -2208 0
2135 2137 -2208 0
-2135 2137 2208 0
2135 -2137 2208 0
-2139 -2141 -2210 0
2139 2141 -2210 0
-2139 2141 2210 0
2139 -2141 2210 0
-2143 -2145 -2212 0
2143 2145 -2212 0
-2143 2145 2212 0
2143 -2145 2212 0
-2147 -2149 -2214 0
2147 2149 -2214 0
-2147 2149 2214 0
2147 -2149 2214 0
-2151 -2153 -2216 0
2151 2153 -2216 0
-2151 2153 2216 0
2151 -2153 2216 0
-2155 -2157 -2218 0
2155 2157 -2218 0
-2155 2157 2218 0
2155 -2157 2218 0
-2159 -2161 -2220 0
2159 2161 -2220 0
-2159 2161 2220 0
2159 -2161 2220 0
-2160 -2162 -2222 0
2160 2162 -2222 0
2160 -2162 2222 0
-2160 2162 2222 0
-2164 -2165 -2224 0
2164 2165 -2224 0
-2164 2165 2224 0
2164 -2165 2224 0
-2166 -2167 -2225 0
2166 2167 -2225 0
-2166 2167 2225 0
2166 -2167 2225 0
-2168 -2170 -2227 0
2168 2170 -2227 0
-2168 2170 2227 0
2168 -2170 2227 0
-2172 -2173 -2229 0
2172 2173 -2229 0
-2172 2173 2229 0
2172 -2173 2229 0
-2174 -2175 -2231 0
2174 2175 -2231 0
-2174 2175 2231 0
2174 -2175 2231 0
-2176 -2178 -2233 0
2176 2178 -2233 0
-2176 2178 2233 0
2176 -2178 2233 0
-2180 -2182 -2235 0
2180 2182 -2235 0
-2180 2182 2235 0
2180 -2182 2235 0
-2184 -2186 -2237 0
2184 2186 -2237 0
-2184 2186 2237 0
2184 -2186 2237 0
-2188 -2189 -2239 0
2188 2189 -2239 0
-2188 2189 2239 0
2188 -2189 2239 0
-2190 -2191 -2241 0
2190 2191 -2241 0
-2190 2191 2241 0
2190 -2191 2241 0
-2192 -2194 -2243 0
2192 2194 -2243 0
-2192 2194 2243 0
2192 -2194 2243 0
-2196 -2198 -2245 0
2196 2198 -2245 0
-2196 2198 2245 0
2196 -2198 2245 0
-2200 -2202 -2247 0
2200 2202 -2247 0
-2200 2202 2247 0
2200 -2202 2247 0
-2204 -2206 -2249 0
2204 2206 -2249 0
-2204 2206 2249 0
2204 -2206 2249 0
-2208 -2210 -2251 0
2208 2210 -2251 0
-2208 2210 2251 0
2208 -2210 2251 0
-2212 -2214 -2253 0
2212 2214 -2253 0
-2212 2214 2253 0
2212 -2214 2253 0
-2216 -2218 -2255 0
2216 2218 -2255 0
-2216 2218 2255 0
2216 -2218 2255 0
-2220 -2222 -2257 0
2220 2222 -2257 0
-2220 2222 2257 0
2220 -2222 2257 0
-2163 -2224 -2259 0
2163 2224 -2259 0
-2163 2224 2259 0
2163 -2224 2259 0
-2225 -2227 -2261 0
2225 2227 -2261 0
-2225 2227 2261 0
2225 -2227 2261 0
-2229 -2231 -2263 0
2229 2231 -2263 0
-2229 2231 2263 0
2229 -2231 2263 0
-2233 -2235 -2265 0
2233 2235 -2265 0
-2233 2235 2265 0
2233 -2235 2265 0
-2237 -2239 -2267 0
2237 2239 -2267 0
-2237 2239 2267 0
2237 -2239 2267 0
-2241 -2243 -2269 0
2241 2243 -2269 0
-2241 2243 2269 0
2241 -2243 2269 0
-2245 -2247 -2271 0
2245 2247 -2271 0
-2245 2247 2271 0
2245 -2247 2271 0
-2249 -2251 -2273 0
2249 2251 -2273 0
-2249 2251 2273 0
2249 -2251 2273 0
-2253 -2255 -2275 0
2253 2255 -2275 0
-2253 2255 2275 0
2253 -2255 2275 0
-2257 -2259 -2277 0
2257 2259 -2277 0
-2257 2259 2277 0
2257 -2259 2277 0
-2261 -2263 -2279 0
2261 2263 -2279 0
-2261 2263 2279 0
2261 -2263 2279 0
-2265 -2267 -2281 0
2265 2267 -2281 0
-2265 2267 2281 0
2265 -2267 2281 0
-2269 -2271 -2283 0
2269 2271 -2283 0
-2269 2271 2283 0
2269 -2271 2283 0
-2273 -2275 -2285 0
2273 2275 -2285 0
-2273 2275 2285 0
2273 -2275 2285 0
-2277 -2279 -2287 0
2277 2279 -2287 0
-2277 2279 2287 0
2277 -2279 2287 0
-2281 -2283 -2289 0
2281 2283 -2289 0
-2281 2283 2289 0
2281 -2283 2289 0
-2285 -2287 -2289 0
2285 2287 -2289 0
-2285 2287 2289 0
2285 -2287 2289 0
-2169 -2171 -2292 0
2169 2171 -2292 0
-2169 2171 2292 0
2169 -2171 2292 0
-2177 -2179 -2295 0
2177 2179 -2295 0
-2177 2179 2295 0
2177 -2179 2295 0
-2181 -2183 -2297 0
2181 2183 -2297 0
-2181 2183 2297 0
2181 -2183 2297 0
-2185 -2187 -2299 0
2185 2187 -2299 0
-2185 2187 2299 0
2185 -2187 2299 0
-2193 -2195 -2302 0
2193 2195 -2302 0
-2193 2195 2302 0
2193 -2195 2302 0
-2197 -2199 -2303 0
2197 2199 -2303 0
-2197 2199 2303 0
2197 -2199 2303 0
-2201 -2203 -2305 0
2201 2203 -2305 0
-2201 2203 2305 0
2201 -2203 2305 0
-2205 -2207 -2307 0
2205 2207 -2307 0
-2205 2207 2307 0
2205 -2207 2307 0
-2209 -2211 -2309 0
2209 2211 -2309 0
-2209 2211 2309 0
2209 -2211 2309 0
-2213 -2215 -2311 0
2213 2215 -2311 0
-2213 2215 2311 0
2213 -2215 2311 0
-2217 -2219 -2313 0
2217 2219 -2313 0
-2217 2219 2313 0
2217 -2219 2313 0
-2221 -2223 -2315 0
2221 2223 -2315 0
-2221 2223 2315 0
2221 -2223 2315 0
-2226 -2228 -2317 0
2226 2228 -2317 0
-2226 2228 2317 0
2226 -2228 2317 0
-2230 -2232 -2319 0
2230 2232 -2319 0
-2230 2232 2319 0
2230 -2232 2319 0
-2234 -2236 -2321 0
2234 2236 -2321 0
-2234 2236 2321 0
2234 -2236 2321 0
-2238 -2240 -2323 0
2238 2240 -2323 0
-2238 2240 2323 0
2238 -2240 2323 0
-2242 -2244 -2325 0
2242 2244 -2325 0
-2242 2244 2325 0
2242 -2244 2325 0
-2246 -2248 -2327 0
2246 2248 -2327 0
-2246 2248 2327 0
2246 -2248 2327 0
-2250 -2252 -2329 0
2250 2252 -2329 0
-2250 2252 2329 0
2250 -2252 2329 0
-2254 -2256 -2331 0
2254 2256 -2331 0
-2254 2256 2331 0
2254 -2256 2331 0
-2258 -2260 -2333 0
2258 2260 -2333 0
-2258 2260 2333 0
2258 -2260 2333 0
-2262 -2264 -2335 0
2262 2264 -2335 0
-2262 2264 2335 0
2262 -2264 2335 0
-2266 -2268 -2337 0
2266 2268 -2337 0
-2266 2268 2337 0
2266 -2268 2337 0
-2270 -2272 -2339 0
2270 2272 -2339 0
-2270 2272 2339 0
2270 -2272 2339 0
-2274 -2276 -2341 0
2274 2276 -2341 0
-2274 2276 2341 0
2274 -2276 2341 0
-2278 -2280 -2343 0
2278 2280 -2343 0
-2278 2280 2343 0
2278 -2280 2343 0
-2282 -2284 -2345 0
2282 2284 -2345 0
-2282 2284 2345 0
2282 -2284 2345 0
-2286 -2288 -2347 0
2286 2288 -2347 0
-2286 2288 2347 0
2286 -2288 2347 0
-2290 -2291 -2349 0
2290 2291 -2349 0
-2290 2291 2349 0
2290 -2291 2349 0
-2292 -2293 -2350 0
2292 2293 -2350 0
-2292 2293 2350 0
2292 -2293 2350 0
-2294 -2295 -2351 0
2294 2295 -2351 0
-2294 2295 2351 0
2294 -2295 2351 0
-2297 -2299 -2353 0
2297 2299 -2353 0
-2297 2299 2353 0
2297 -2299 2353 0
-2300 -2301 -2355 0
2300 2301 -2355 0
-2300 2301 2355 0
2300 -2301 2355 0
-2302 -2303 -2357 0
2302 2303 -2357 0
-2302 2303 2357 0
2302 -2303 2357 0
-2305 -2307 -2359 0
2305 2307 -2359 0
-2305 2307 2359 0
2305 -2307 2359 0
-2309 -2311 -2361 0
2309 2311 -2361 0
-2309 2311 2361 0
2309 -2311 2361 0
-2313 -2315 -2363 0
2313 2315 -2363 0
-2313 2315 2363 0
2313 -2315 2363 0
-2316 -2317 -2365 0
2316 2317 -2365 0
-2316 2317 2365 0
2316 -2317 2365 0
-2319 -2321 -2367 0
2319 2321 -2367 0
-2319 2321 2367 0
2319 -2321 2367 0
-2323 -2325 -2369 0
2323 2325 -2369 0
-2323 2325 2369 0
2323 -2325 2369 0
-2327 -2329 -2371 0
2327 2329 -2371 0
-2327 2329 2371 0
2327 -2329 2371 0
-2331 -2333 -2373 0
2331 2333 -2373 0
-2331 2333 2373 0
2331 -2333 2373 0
-2335 -2337 -2375 0
2335 2337 -2375 0
-2335 2337 2375 0
2335 -2337 2375 0
-2339 -2341 -2377 0
2339 2341 -2377 0
-2339 2341 2377 0
2339 -2341 2377 0
-2343 -2345 -2379 0
2343 2345 -2379 0
-2343 2345 2379 0
2343 -2345 2379 0
-2347 -2349 -2381 0
2347 2349 -2381 0
-2347 2349 2381 0
2347 -2349 2381 0
-2350 -2351 -2383 0
2350 2351 -2383 0
-2350 2351 2383 0
2350 -2351 2383 0
-2353 -2355 -2384 0
2353 2355 -2384 0
-2353 2355 2384 0
2353 -2355 2384 0
-2357 -2359 -2386 0
2357 2359 -2386 0
-2357 2359 2386 0
2357 -2359 2386 0
-2361 -2363 -2388 0
2361 2363 -2388 0
-2361 2363 2388 0
2361 -2363 2388 0
-2365 -2367 -2390 0
2365 2367 -2390 0
-2365 2367 2390 0
2365 -2367 2390 0
-2369 -2371 -2392 0
2369 2371 -2392 0
-2369 2371 2392 0
2369 -2371 2392 0
-2373 -2375 -2394 0
2373 2375 -2394 0
-2373 2375 2394 0
2373 -2375 2394 0
-2377 -2379 -2396 0
2377 2379 -2396 0
-2377 2379 2396 0
2377 -2379 2396 0
-2289 -2381 -2398 0
2289 2381 -2398 0
2289 -2381 2398 0
-2289 2381 2398 0
-2383 -2384 -2400 0
2383 2384 -2400 0
-2383 2384 2400 0
2383 -2384 2400 0
-2386 -2388 -2402 0
2386 2388 -2402 0
-2386 2388 2402 0
2386 -2388 2402 0
-2390 -2392 -2404 0
2390 2392 -2404 0
-2390 2392 2404 0
2390 -2392 2404 0
-2394 -2396 -2406 0
2394 2396 -2406 0
-2394 2396 2406 0
2394 -2396 2406 0
-2398 -2400 -2408 0
2398 2400 -2408 0
-2398 2400 2408 0
2398 -2400 2408 0
-2402 -2404 -2410 0
2402 2404 -2410 0
-2402 2404 2410 0
2402 -2404 2410 0
-2406 -2408 -2410 0
2406 2408 -2410 0
-2406 2408 2410 0
2406 -2408 2410 0
-2296 -2298 -2471 0
2296 2298 -2471 0
-2296 2298 2471 0
2296 -2298 2471 0
-2304 -2306 -2416 0
2304 2306 -2416 0
-2304 2306 2416 0
2304 -2306 2416 0
-2308 -2310 -2418 0
2308 2310 -2418 0
-2308 2310 2418 0
2308 -2310 2418 0
-2312 -2314 -2420 0
2312 2314 -2420 0
-2312 2314 2420 0
2312 -2314 2420 0
-2318 -2320 -2422 0
2318 2320 -2422 0
-2318 2320 2422 0
2318 -2320 2422 0
-2322 -2324 -2424 0
2322 2324 -2424 0
-2322 2324 2424 0
2322 -2324 2424 0
-2326 -2328 -2426 0
2326 2328 -2426 0
-2326 2328 2426 0
2326 -2328 2426 0
-2330 -2332 -2428 0
2330 2332 -2428 0
-2330 2332 2428 0
2330 -2332 2428 0
-2334 -2336 -2430 0
2334 2336 -2430 0
-2334 2336 2430 0
2334 -2336 2430 0
-2338 -2340 -2432 0
2338 2340 -2432 0
-2338 2340 2432 0
2338 -2340 2432 0
-2342 -2344 -2434 0
2342 2344 -2434 0
-2342 2344 2434 0
2342 -2344 2434 0
-2346 -2348 -2436 0
2346 2348 -2436 0
-2346 2348 2436 0
2346 -2348 2436 0
-2352 -2354 -2440 0
2352 2354 -2440 0
-2352 2354 2440 0
2352 -2354 2440 0
-2356 -2358 -2442 0
2356 2358 -2442 0
-2356 2358 2442 0
2356 -2358 2442 0
-2360 -2362 -2444 0
2360 2362 -2444 0
-2360 2362 2444 0
2360 -2362 2444 0
-2364 -2366 -2446 0
2364 2366 -2446 0
-2364 2366 2446 0
2364 -2366 2446 0
-2368 -2370 -2448 0
2368 2370 -2448 0
-2368 2370 2448 0
2368 -2370 2448 0
-2372 -2374 -2450 0
2372 2374 -2450 0
-2372 2374 2450 0
2372 -2374 2450 0
-2376 -2378 -2452 0
2376 2378 -2452 0
-2376 2378 2452 0
2376 -2378 2452 0
-2380 -2382 -2454 0
2380 2382 -2454 0
-2380 2382 2454 0
2380 -2382 2454 0
-2385 -2387 -2457 0
2385 2387 -2457 0
-2385 2387 2457 0
2385 -2387 2457 0
-2389 -2391 -2458 0
2389 2391 -2458 0
-2389 2391 2458 0
2389 -2391 2458 0
-2393 -2395 -2460 0
2393 2395 -2460 0
-2393 2395 2460 0
2393 -2395 2460 0
-2397 -2399 -2462 0
2397 2399 -2462 0
-2397 2399 2462 0
2397 -2399 2462 0
-2401 -2403 -2464 0
2401 2403 -2464 0
-2401 2403 2464 0
2401 -2403 2464 0
-2405 -2407 -2466 0
2405 2407 -2466 0
-2405 2407 2466 0
2405 -2407 2466 0
-2409 -2411 -2468 0
2409 2411 -2468 0
-2409 2411 2468 0
2409 -2411 2468 0
-2410 -2412 -2470 0
2410 2412 -2470 0
2410 -2412 2470 0
-2410 2412 2470 0
-2414 -2415 -2472 0
2414 2415 -2472 0
-2414 2415 2472 0
2414 -2415 2472 0
-2416 -2418 -2473 0
2416 2418 -2473 0
-2416 2418 2473 0
2416 -2418 2473 0
-2420 -2421 -2475 0
2420 2421 -2475 0
-2420 2421 2475 0
2420 -2421 2475 0
-2422 -2424 -2477 0
2422 2424 -2477 0
-2422 2424 2477 0
2422 -2424 2477 0
-2426 -2428 -2479 0
2426 2428 -2479 0
-2426 2428 2479 0
2426 -2428 2479 0
-2430 -2432 -2481 0
2430 2432 -2481 0
-2430 2432 2481 0
2430 -2432 2481 0
-2434 -2436 -2483 0
2434 2436 -2483 0
-2434 2436 2483 0
2434 -2436 2483 0
-2438 -2439 -2485 0
2438 2439 -2485 0
-2438 2439 2485 0
2438 -2439 2485 0
-2440 -2442 -2487 0
2440 2442 -2487 0
-2440 2442 2487 0
2440 -2442 2487 0
-2444 -2446 -2489 0
2444 2446 -2489 0
-2444 2446 2489 0
2444 -2446 2489 0
-2448 -2450 -2491 0
2448 2450 -2491 0
-2448 2450 2491 0
2448 -2450 2491 0
-2452 -2454 -2493 0
2452 2454 -2493 0
-2452 2454 2493 0
2452 -2454 2493 0
-2456 -2457 -2495 0
2456 2457 -2495 0
-2456 2457 2495 0
2456 -2457 2495 0
-2458 -2460 -2497 0
2458 2460 -2497 0
-2458 2460 2497 0
2458 -2460 2497 0
-2462 -2464 -2499 0
2462 2464 -2499 0
-2462 2464 2499 0
2462 -2464 2499 0
-2466 -2468 -2501 0
2466 2468 -2501 0
-2466 2468 2501 0
2466 -2468 2501 0
-2413 -2470 -2503 0
2413 2470 -2503 0
2413 -2470 2503 0
-2413 2470 2503 0
-2471 -2472 -2505 0
2471 2472 -2505 0
-2471 2472 2505 0
2471 -2472 2505 0
-2473 -2475 -2507 0
2473 2475 -2507 0
-2473 2475 2507 0
2473 -2475 2507 0
-2477 -2479 -2509 0
2477 2479 -2509 0
-2477 2479 2509 0
2477 -2479 2509 0
-2481 -2483 -2511 0
2481 2483 -2511 0
-2481 2483 2511 0
2481 -2483 2511 0
-2485 -2487 -2513 0
2485 2487 -2513 0
-2485 2487 2513 0
2485 -2487 2513 0
-2489 -2491 -2515 0
2489 2491 -2515 0
-2489 2491 2515 0
2489 -2491 2515 0
-2493 -2495 -2517 0
2493 2495 -2517 0
-2493 2495 2517 0
2493 -2495 2517 0
-2497 -2499 -2519 0
2497 2499 -2519 0
-2497 2499 2519 0
2497 -2499 2519 0
-2501 -2503 -2521 0
2501 2503 -2521 0
-2501 2503 2521 0
2501 -2503 2521 0
-2505 -2507 -2523 0
2505 2507 -2523 0
-2505 2507 2523 0
2505 -2507 2523 0
-2509 -2511 -2525 0
2509 2511 -2525 0
-2509 2511 2525 0
2509 -2511 2525 0
-2513 -2515 -2527 0
2513 2515 -2527 0
-2513 2515 2527 0
2513 -2515 2527 0
-2517 -2519 -2529 0
2517 2519 -2529 0
-2517 2519 2529 0
2517 -2519 2529 0
-2521 -2523 -2531 0
2521 2523 -2531 0
-2521 2523 2531 0
2521 -2523 2531 0
-2525 -2527 -2533 0
2525 2527 -2533 0
-2525 2527 2533 0
2525 -2527 2533 0
-2529 -2531 -2533 0
2529 2531 -2533 0
-2529 2531 2533 0
2529 -2531 2533 0
-2417 -2419 -2537 0
2417 2419 -2537 0
-2417 2419 2537 0
2417 -2419 2537 0
-2423 -2425 -2539 0
2423 2425 -2539 0
-2423 2425 2539 0
2423 -2425 2539 0
-2427 -2429 -2540 0
2427 2429 -2540 0
-2427 2429 2540 0
2427 -2429 2540 0
-2431 -2433 -2542 0
2431 2433 -2542 0
-2431 2433 2542 0
2431 -2433 2542 0
-2435 -2437 -2544 0
2435 2437 -2544 0
-2435 2437 2544 0
2435 -2437 2544 0
-2441 -2443 -2597 0
2441 2443 -2597 0
-2441 2443 2597 0
2441 -2443 2597 0
-2445 -2447 -2546 0
2445 2447 -2546 0
-2445 2447 2546 0
2445 -2447 2546 0
-2449 -2451 -2548 0
2449 2451 -2548 0
-2449 2451 2548 0
2449 -2451 2548 0
-2453 -2455 -2550 0
2453 2455 -2550 0
-2453 2455 2550 0
2453 -2455 2550 0
-2459 -2461 -2553 0
2459 2461 -2553 0
-2459 2461 2553 0
2459 -2461 2553 0
-2463 -2465 -2554 0
2463 2465 -2554 0
-2463 2465 2554 0
2463 -2465 2554 0
-2467 -2469 -2556 0
2467 2469 -2556 0
-2467 2469 2556 0
2467 -2469 2556 0
-2474 -2476 -2560 0
2474 2476 -2560 0
-2474 2476 2560 0
2474 -2476 2560 0
-2478 -2480 -2562 0
2478 2480 -2562 0
-2478 2480 2562 0
2478 -2480 2562 0
-2482 -2484 -2564 0
2482 2484 -2564 0
-2482 2484 2564 0
2482 -2484 2564 0
-2486 -2488 -2566 0
2486 2488 -2566 0
-2486 2488 2566 0
2486 -2488 2566 0
-2490 -2492 -2568 0
2490 2492 -2568 0
-2490 2492 2568 0
2490 -2492 2568 0
-2494 -2496 -2570 0
2494 2496 -2570 0
-2494 2496 2570 0
2494 -2496 2570 0
-2498 -2500 -2572 0
2498 2500 -2572 0
-2498 2500 2572 0
2498 -2500 2572 0
-2502 -2504 -2574 0
2502 2504 -2574 0
-2502 2504 2574 0
2502 -2504 2574 0
-2506 -2508 -2576 0
2506 2508 -2576 0
-2506 2508 2576 0
2506 -2508 2576 0
-2510 -2512 -2578 0
2510 2512 -2578 0
-2510 2512 2578 0
2510 -2512 2578 0
-2514 -2516 -2580 0
2514 2516 -2580 0
-2514 2516 2580 0
2514 -2516 2580 0
-2518 -2520 -2582 0
2518 2520 -2582 0
-2518 2520 2582 0
2518 -2520 2582 0
-2522 -2524 -2584 0
2522 2524 -2584 0
-2522 2524 2584 0
2522 -2524 2584 0
-2526 -2528 -2586 0
2526 2528 -2586 0
-2526 2528 2586 0
2526 -2528 2586 0
-2530 -2532 -2588 0
2530 2532 -2588 0
-2530 2532 2588 0
2530 -2532 2588 0
-2534 -2535 -2590 0
2534 2535 -2590 0
-2534 2535 2590 0
2534 -2535 2590 0
-2537 -2538 -2592 0
2537 2538 -2592 0
-2537 2538 2592 0
2537 -2538 2592 0
-2539 -2540 -2594 0
2539 2540 -2594 0
-2539 2540 2594 0
2539 -2540 2594 0
-2542 -2544 -2596 0
2542 2544 -2596 0
-2542 2544 2596 0
2542 -2544 2596 0
-2546 -2548 -2598 0
2546 2548 -2598 0
-2546 2548 2598 0
2546 -2548 2598 0
-2550 -2552 -2600 0
2550 2552 -2600 0
-2550 2552 2600 0
2550 -2552 2600 0
-2553 -2554 -2602 0
2553 2554 -2602 0
-2553 2554 2602 0
2553 -2554 2602 0
-2556 -2558 -2604 0
2556 2558 -2604 0
-2556 2558 2604 0
2556 -2558 2604 0
-2559 -2560 -2606 0
2559 2560 -2606 0
-2559 2560 2606 0
2559 -2560 2606 0
-2562 -2564 -2608 0
2562 2564 -2608 0
-2562 2564 2608 0
2562 -2564 2608 0
-2566 -2568 -2610 0
2566 2568 -2610 0
-2566 2568 2610 0
2566 -2568 2610 0
-2570 -2572 -2612 0
2570 2572 -2612 0
-2570 2572 2612 0
2570 -2572 2612 0
-2574 -2576 -2614 0
2574 2576 -2614 0
-2574 2576 2614 0
2574 -2576 2614 0
-2578 -2580 -2616 0
2578 2580 -2616 0
-2578 2580 2616 0
2578 -2580 2616 0
-2582 -2584 -2618 0
2582 2584 -2618 0
-2582 2584 2618 0
2582 -2584 2618 0
-2586 -2588 -2620 0
2586 2588 -2620 0
-2586 2588 2620 0
2586 -2588 2620 0
-2533 -2590 -2622 0
2533 2590 -2622 0
2533 -2590 2622 0
-2533 2590 2622 0
-2536 -2592 -2624 0
2536 2592 -2624 0
-2536 2592 2624 0
2536 -2592 2624 0
-2594 -2596 -2626 0
2594 2596 -2626 0
-2594 2596 2626 0
2594 -2596 2626 0
-2597 -2598 -2628 0
2597 2598 -2628 0
-2597 2598 2628 0
2597 -2598 2628 0
-2600 -2602 -2630 0
2600 2602 -2630 0
-2600 2602 2630 0
2600 -2602 2630 0
-2604 -2606 -2632 0
2604 2606 -2632 0
-2604 2606 2632 0
2604 -2606 2632 0
-2608 -2610 -2634 0
2608 2610 -2634 0
-2608 2610 2634 0
2608 -2610 2634 0
-2612 -2614 -2636 0
2612 2614 -2636 0
-2612 2614 2636 0
2612 -2614 2636 0
-2616 -2618 -2638 0
2616 2618 -2638 0
-2616 2618 2638 0
2616 -2618 2638 0
-2620 -2622 -2640 0
2620 2622 -2640 0
-2620 2622 2640 0
2620 -2622 2640 0
-2624 -2626 -2642 0
2624 2626 -2642 0
-2624 2626 2642 0
2624 -2626 2642 0
-2628 -2630 -2644 0
2628 2630 -2644 0
-2628 2630 2644 0
2628 -2630 2644 0
-2632 -2634 -2646 0
2632 2634 -2646 0
-2632 2634 2646 0
2632 -2634 2646 0
-2636 -2638 -2648 0
2636 2638 -2648 0
-2636 2638 2648 0
2636 -2638 2648 0
-2640 -2642 -2650 0
2640 2642 -2650 0
-2640 2642 2650 0
2640 -2642 2650 0
-2644 -2646 -2652 0
2644 2646 -2652 0
-2644 2646 2652 0
2644 -2646 2652 0
-2648 -2650 -2652 0
2648 2650 -2652 0
-2648 2650 2652 0
2648 -2650 2652 0
-2541 -2543 -2657 0
2541 2543 -2657 0
-2541 2543 2657 0
2541 -2543 2657 0
-2545 -2547 -2659 0
2545 2547 -2659 0
-2545 2547 2659 0
2545 -2547 2659 0
-2549 -2551 -2660 0
2549 2551 -2660 0
-2549 2551 2660 0
2549 -2551 2660 0
-2555 -2557 -2713 0
2555 2557 -2713 0
-2555 2557 2713 0
2555 -2557 2713 0
-2561 -2563 -2662 0
2561 2563 -2662 0
-2561 2563 2662 0
2561 -2563 2662 0
-2565 -2567 -2664 0
2565 2567 -2664 0
-2565 2567 2664 0
2565 -2567 2664 0
-2569 -2571 -2666 0
2569 2571 -2666 0
-2569 2571 2666 0
2569 -2571 2666 0
-2573 -2575 -2668 0
2573 2575 -2668 0
-2573 2575 2668 0
2573 -2575 2668 0
-2577 -2579 -2670 0
2577 2579 -2670 0
-2577 2579 2670 0
2577 -2579 2670 0
-2581 -2583 -2672 0
2581 2583 -2672 0
-2581 2583 2672 0
2581 -2583 2672 0
-2585 -2587 -2674 0
2585 2587 -2674 0
-2585 2587 2674 0
2585 -2587 2674 0
-2589 -2591 -2676 0
2589 2591 -2676 0
-2589 2591 2676 0
2589 -2591 2676 0
-2593 -2595 -2720 0
2593 2595 -2720 0
-2593 2595 2720 0
2593 -2595 2720 0
-2599 -2601 -2679 0
2599 2601 -2679 0
-2599 2601 2679 0
2599 -2601 2679 0
-2603 -2605 -2680 0
2603 2605 -2680 0
-2603 2605 2680 0
2603 -2605 2680 0
-2607 -2609 -2682 0
2607 2609 -2682 0
-2607 2609 2682 0
2607 -2609 2682 0
-2611 -2613 -2684 0
2611 2613 -2684 0
-2611 2613 2684 0
2611 -2613 2684 0
-2615 -2617 -2686 0
2615 2617 -2686 0
-2615 2617 2686 0
2615 -2617 2686 0
-2619 -2621 -2688 0
2619 2621 -2688 0
-2619 2621 2688 0
2619 -2621 2688 0
-2623 -2625 -2690 0
2623 2625 -2690 0
-2623 2625 2690 0
2623 -2625 2690 0
-2627 -2629 -2692 0
2627 2629 -2692 0
-2627 2629 2692 0
2627 -2629 2692 0
-2631 -2633 -2694 0
2631 2633 -2694 0
-2631 2633 2694 0
2631 -2633 2694 0
-2635 -2637 -2696 0
2635 2637 -2696 0
-2635 2637 2696 0
2635 -2637 2696 0
-2639 -2641 -2698 0
2639 2641 -2698 0
-2639 2641 2698 0
2639 -2641 2698 0
-2643 -2645 -2700 0
2643 2645 -2700 0
-2643 2645 2700 0
2643 -2645 2700 0
-2647 -2649 -2702 0
2647 2649 -2702 0
-2647 2649 2702 0
2647 -2649 2702 0
-2651 -2653 -2704 0
2651 2653 -2704 0
-2651 2653 2704 0
2651 -2653 2704 0
-2652 -2654 -2706 0
2652 2654 -2706 0
2652 -2654 2706 0
-2652 2654 2706 0
-2656 -2657 -2708 0
2656 2657 -2708 0
-2656 2657 2708 0
2656 -2657 2708 0
-2658 -2659 -2709 0
2658 2659 -2709 0
-2658 2659 2709 0
2658 -2659 2709 0
-2660 -2661 -2711 0
2660 2661 -2711 0
-2660 2661 2711 0
2660 -2661 2711 0
-2662 -2664 -2714 0
2662 2664 -2714 0
-2662 2664 2714 0
2662 -2664 2714 0
-2666 -2668 -2715 0
2666 2668 -2715 0
-2666 2668 2715 0
2666 -2668 2715 0
-2670 -2672 -2717 0
2670 2672 -2717 0
-2670 2672 2717 0
2670 -2672 2717 0
-2674 -2676 -2719 0
2674 2676 -2719 0
-2674 2676 2719 0
2674 -2676 2719 0
-2678 -2679 -2721 0
2678 2679 -2721 0
-2678 2679 2721 0
2678 -2679 2721 0
-2680 -2682 -2723 0
2680 2682 -2723 0
-2680 2682 2723 0
2680 -2682 2723 0
-2684 -2686 -2725 0
2684 2686 -2725 0
-2684 2686 2725 0
2684 -2686 2725 0
-2688 -2690 -2727 0
2688 2690 -2727 0
-2688 2690 2727 0
2688 -2690 2727 0
-2692 -2694 -2729 0
2692 2694 -2729 0
-2692 2694 2729 0
2692 -2694 2729 0
-2696 -2698 -2731 0
2696 2698 -2731 0
-2696 2698 2731 0
2696 -2698 2731 0
-2700 -2702 -2733 0
2700 2702 -2733 0
-2700 2702 2733 0
2700 -2702 2733 0
-2704 -2706 -2735 0
2704 2706 -2735 0
-2704 2706 2735 0
2704 -2706 2735 0
-2655 -2708 -2737 0
2655 2708 -2737 0
-2655 2708 2737 0
2655 -2708 2737 0
-2709 -2711 -2739 0
2709 2711 -2739 0
-2709 2711 2739 0
2709 -2711 2739 0
-2713 -2714 -2741 0
2713 2714 -2741 0
-2713 2714 2741 0
2713 -2714 2741 0
-2715 -2717 -2743 0
2715 2717 -2743 0
-2715 2717 2743 0
2715 -2717 2743 0
-2719 -2720 -2745 0
2719 2720 -2745 0
-2719 2720 2745 0
2719 -2720 2745 0
-2721 -2723 -2747 0
2721 2723 -2747 0
-2721 2723 2747 0
2721 -2723 2747 0
-2725 -2727 -2749 0
2725 2727 -2749 0
-2725 2727 2749 0
2725 -2727 2749 0
-2729 -2731 -2751 0
2729 2731 -2751 0
-2729 2731 2751 0
2729 -2731 2751 0
-2733 -2735 -2753 0
2733 2735 -2753 0
-2733 2735 2753 0
2733 -2735 2753 0
-2737 -2739 -2755 0
2737 2739 -2755 0
-2737 2739 2755 0
2737 -2739 2755 0
-2741 -2743 -2757 0
2741 2743 -2757 0
-2741 2743 2757 0
2741 -2743 2757 0
-2745 -2747 -2759 0
2745 2747 -2759 0
-2745 2747 2759 0
2745 -2747 2759 0
-2749 -2751 -2761 0
2749 2751 -2761 0
-2749 2751 2761 0
2749 -2751 2761 0
-2753 -2755 -2763 0
2753 2755 -2763 0
-2753 2755 2763 0
2753 -2755 2763 0
-2757 -2759 -2765 0
2757 2759 -2765 0
-2757 2759 2765 0
2757 -2759 2765 0
-2761 -2763 -2765 0
2761 2763 -2765 0
-2761 2763 2765 0
2761 -2763 2765 0
-2663 -2665 -2772 0
2663 2665 -2772 0
-2663 2665 2772 0
2663 -2665 2772 0
-2667 -2669 -2773 0
2667 2669 -2773 0
-2667 2669 2773 0
2667 -2669 2773 0
-2671 -2673 -2775 0
2671 2673 -2775 0
-2671 2673 2775 0
2671 -2673 2775 0
-2675 -2677 -2777 0
2675 2677 -2777 0
-2675 2677 2777 0
2675 -2677 2777 0
-2681 -2683 -2780 0
2681 2683 -2780 0
-2681 2683 2780 0
2681 -2683 2780 0
-2685 -2687 -2781 0
2685 2687 -2781 0
-2685 2687 2781 0
2685 -2687 2781 0
-2689 -2691 -2783 0
2689 2691 -2783 0
-2689 2691 2783 0
2689 -2691 2783 0
-2693 -2695 -2785 0
2693 2695 -2785 0
-2693 2695 2785 0
2693 -2695 2785 0
-2697 -2699 -2787 0
2697 2699 -2787 0
-2697 2699 2787 0
2697 -2699 2787 0
-2701 -2703 -2789 0
2701 2703 -2789 0
-2701 2703 2789 0
2701 -2703 2789 0
-2705 -2707 -2791 0
2705 2707 -2791 0
-2705 2707 2791 0
2705 -2707 2791 0
-2710 -2712 -2794 0
2710 2712 -2794 0
-2710 2712 2794 0
2710 -2712 2794 0
-2716 -2718 -2796 0
2716 2718 -2796 0
-2716 2718 2796 0
2716 -2718 2796 0
-2722 -2724 -2798 0
2722 2724 -2798 0
-2722 2724 2798 0
2722 -2724 2798 0
-2726 -2728 -2799 0
2726 2728 -2799 0
-2726 2728 2799 0
2726 -2728 2799 0
-2730 -2732 -2801 0
2730 2732 -2801 0
-2730 2732 2801 0
2730 -2732 2801 0
-2734 -2736 -2803 0
2734 2736 -2803 0
-2734 2736 2803 0
2734 -2736 2803 0
-2738 -2740 -2805 0
2738 2740 -2805 0
-2738 2740 2805 0
2738 -2740 2805 0
-2742 -2744 -2807 0
2742 2744 -2807 0
-2742 2744 2807 0
2742 -2744 2807 0
-2746 -2748 -2809 0
2746 2748 -2809 0
-2746 2748 2809 0
2746 -2748 2809 0
-2750 -2752 -2811 0
2750 2752 -2811 0
-2750 2752 2811 0
2750 -2752 2811 0
-2754 -2756 -2813 0
2754 2756 -2813 0
-2754 2756 2813 0
2754 -2756 2813 0
-2758 -2760 -2815 0
2758 2760 -2815 0
-2758 2760 2815 0
2758 -2760 2815 0
-2762 -2764 -2817 0
2762 2764 -2817 0
-2762 2764 2817 0
2762 -2764 2817 0
-2766 -2767 -2819 0
2766 2767 -2819 0
-2766 2767 2819 0
2766 -2767 2819 0
-2768 -2769 -2820 0
2768 2769 -2820 0
-2768 2769 2820 0
2768 -2769 2820 0
-2770 -2771 -2822 0
2770 2771 -2822 0
-2770 2771 2822 0
2770 -2771 2822 0
-2772 -2773 -2824 0
2772 2773 -2824 0
-2772 2773 2824 0
2772 -2773 2824 0
-2775 -2777 -2826 0
2775 2777 -2826 0
-2775 2777 2826 0
2775 -2777 2826 0
-2778 -2779 -2828 0
2778 2779 -2828 0
-2778 2779 2828 0
2778 -2779 2828 0
-2780 -2781 -2830 0
2780 2781 -2830 0
-2780 2781 2830 0
2780 -2781 2830 0
-2783 -2785 -2832 0
2783 2785 -2832 0
-2783 2785 2832 0
2783 -2785 2832 0
-2787 -2789 -2834 0
2787 2789 -2834 0
-2787 2789 2834 0
2787 -2789 2834 0
-2791 -2793 -2836 0
2791 2793 -2836 0
-2791 2793 2836 0
2791 -2793 2836 0
-2794 -2795 -2838 0
2794 2795 -2838 0
-2794 2795 2838 0
2794 -2795 2838 0
-2796 -2797 -2840 0
2796 2797 -2840 0
-2796 2797 2840 0
2796 -2797 2840 0
-2798 -2799 -2842 0
2798 2799 -2842 0
-2798 2799 2842 0
2798 -2799 2842 0
-2801 -2803 -2844 0
2801 2803 -2844 0
-2801 2803 2844 0
2801 -2803 2844 0
-2805 -2807 -2846 0
2805 2807 -2846 0
-2805 2807 2846 0
2805 -2807 2846 0
-2809 -2811 -2848 0
2809 2811 -2848 0
-2809 2811 2848 0
2809 -2811 2848 0
-2813 -2815 -2850 0
2813 2815 -2850 0
-2813 2815 2850 0
2813 -2815 2850 0
-2817 -2819 -2852 0
2817 2819 -2852 0
-2817 2819 2852 0
2817 -2819 2852 0
-2765 -2820 -2854 0
2765 2820 -2854 0
-2765 2820 2854 0
2765 -2820 2854 0
-2822 -2824 -2856 0
2822 2824 -2856 0
-2822 2824 2856 0
2822 -2824 2856 0
-2826 -2828 -2858 0
2826 2828 -2858 0
-2826 2828 2858 0
2826 -2828 2858 0
-2830 -2832 -2860 0
2830 2832 -2860 0
-2830 2832 2860 0
2830 -2832 2860 0
-2834 -2836 -2862 0
2834 2836 -2862 0
-2834 2836 2862 0
2834 -2836 2862 0
-2838 -2840 -2864 0
2838 2840 -2864 0
-2838 2840 2864 0
2838 -2840 2864 0
-2842 -2844 -2866 0
2842 2844 -2866 0
-2842 2844 2866 0
2842 -2844 2866 0
-2846 -2848 -2868 0
2846 2848 -2868 0
-2846 2848 2868 0
2846 -2848 2868 0
-2850 -2852 -2870 0
2850 2852 -2870 0
-2850 2852 2870 0
2850 -2852 2870 0
-2854 -2856 -2872 0
2854 2856 -2872 0
-2854 2856 2872 0
2854 -2856 2872 0
-2858 -2860 -2874 0
2858 2860 -2874 0
-2858 2860 2874 0
2858 -2860 2874 0
-2862 -2864 -2876 0
2862 2864 -2876 0
-2862 2864 2876 0
2862 -2864 2876 0
-2866 -2868 -2878 0
2866 2868 -2878 0
-2866 2868 2878 0
2866 -2868 2878 0
-2870 -2872 -2880 0
2870 2872 -2880 0
-2870 2872 2880 0
2870 -2872 2880 0
-2874 -2876 -2882 0
2874 2876 -2882 0
-2874 2876 2882 0
2874 -2876 2882 0
-2878 -2880 -2882 0
2878 2880 -2882 0
-2878 2880 2882 0
2878 -2880 2882 0
-2774 -2776 -2886 0
2774 2776 -2886 0
-2774 2776 2886 0
2774 -2776 2886 0
-2782 -2784 -2889 0
2782 2784 -2889 0
-2782 2784 2889 0
2782 -2784 2889 0
-2786 -2788 -2891 0
2786 2788 -2891 0
-2786 2788 2891 0
2786 -2788 2891 0
-2790 -2792 -2893 0
2790 2792 -2893 0
-2790 2792 2893 0
2790 -2792 2893 0
-2800 -2802 -2897 0
2800 2802 -2897 0
-2800 2802 2897 0
2800 -2802 2897 0
-2804 -2806 -2899 0
2804 2806 -2899 0
-2804 2806 2899 0
2804 -2806 2899 0
-2808 -2810 -2901 0
2808 2810 -2901 0
-2808 2810 2901 0
2808 -2810 2901 0
-2812 -2814 -2903 0
2812 2814 -2903 0
-2812 2814 2903 0
2812 -2814 2903 0
-2816 -2818 -2905 0
2816 2818 -2905 0
-2816 2818 2905 0
2816 -2818 2905 0
-2821 -2823 -2907 0
2821 2823 -2907 0
-2821 2823 2907 0
2821 -2823 2907 0
-2825 -2827 -2909 0
2825 2827 -2909 0
-2825 2827 2909 0
2825 -2827 2909 0
-2829 -2831 -2911 0
2829 2831 -2911 0
-2829 2831 2911 0
2829 -2831 2911 0
-2833 -2835 -2913 0
2833 2835 -2913 0
-2833 2835 2913 0
2833 -2835 2913 0
-2837 -2839 -2915 0
2837 2839 -2915 0
-2837 2839 2915 0
2837 -2839 2915 0
-2841 -2843 -2917 0
2841 2843 -2917 0
-2841 2843 2917 0
2841 -2843 2917 0
-2845 -2847 -2919 0
2845 2847 -2919 0
-2845 2847 2919 0
2845 -2847 2919 0
-2849 -2851 -2921 0
2849 2851 -2921 0
-2849 2851 2921 0
2849 -2851 2921 0
-2853 -2855 -2923 0
2853 2855 -2923 0
-2853 2855 2923 0
2853 -2855 2923 0
-2857 -2859 -2925 0
2857 2859 -2925 0
-2857 2859 2925 0
2857 -2859 2925 0
-2861 -2863 -2927 0
2861 2863 -2927 0
-2861 2863 2927 0
2861 -2863 2927 0
-2865 -2867 -2929 0
2865 2867 -2929 0
-2865 2867 2929 0
2865 -2867 2929 0
-2869 -2871 -2931 0
2869 2871 -2931 0
-2869 2871 2931 0
2869 -2871 2931 0
-2873 -2875 -2933 0
2873 2875 -2933 0
-2873 2875 2933 0
2873 -2875 2933 0
-2877 -2879 -2935 0
2877 2879 -2935 0
-2877 2879 2935 0
2877 -2879 2935 0
-2881 -2883 -2937 0
2881 2883 -2937 0
-2881 2883 2937 0
2881 -2883 2937 0
-2882 -2884 -2971 0
2882 2884 -2971 0
2882 -2884 2971 0
-2882 2884 2971 0
-2885 -2886 -2939 0
2885 2886 -2939 0
-2885 2886 2939 0
2885 -2886 2939 0
-2887 -2888 -2941 0
2887 2888 -2941 0
-2887 2888 2941 0
2887 -2888 2941 0
-2889 -2891 -2943 0
2889 2891 -2943 0
-2889 2891 2943 0
2889 -2891 2943 0
-2893 -2894 -2945 0
2893 2894 -2945 0
-2893 2894 2945 0
2893 -2894 2945 0
-2895 -2896 -2947 0
2895 2896 -2947 0
-2895 2896 2947 0
2895 -2896 2947 0
-2897 -2899 -2949 0
2897 2899 -2949 0
-2897 2899 2949 0
2897 -2899 2949 0
-2901 -2903 -2951 0
2901 2903 -2951 0
-2901 2903 2951 0
2901 -2903 2951 0
-2905 -2906 -2953 0
2905 2906 -2953 0
-2905 2906 2953 0
2905 -2906 2953 0
-2907 -2909 -2955 0
2907 2909 -2955 0
-2907 2909 2955 0
2907 -2909 2955 0
-2911 -2913 -2957 0
2911 2913 -2957 0
-2911 2913 2957 0
2911 -2913 2957 0
-2915 -2917 -2959 0
2915 2917 -2959 0
-2915 2917 2959 0
2915 -2917 2959 0
-2919 -2921 -2961 0
2919 2921 -2961 0
-2919 2921 2961 0
2919 -2921 2961 0
-2923 -2925 -2963 0
2923 2925 -2963 0
-2923 2925 2963 0
2923 -2925 2963 0
-2927 -2929 -2965 0
2927 2929 -2965 0
-2927 2929 2965 0
2927 -2929 2965 0
-2931 -2933 -2967 0
2931 2933 -2967 0
-2931 2933 2967 0
2931 -2933 2967 0
-2935 -2937 -2969 0
2935 2937 -2969 0
-2935 2937 2969 0
2935 -2937 2969 0
-2939 -2941 -2972 0
2939 2941 -2972 0
-2939 2941 2972 0
2939 -2941 2972 0
-2943 -2945 -2973 0
2943 2945 -2973 0
-2943 2945 2973 0
2943 -2945 2973 0
-2947 -2949 -2975 0
2947 2949 -2975 0
-2947 2949 2975 0
2947 -2949 2975 0
-2951 -2953 -2977 0
2951 2953 -2977 0
-2951 2953 2977 0
2951 -2953 2977 0
-2955 -2957 -2979 0
2955 2957 -2979 0
-2955 2957 2979 0
2955 -2957 2979 0
-2959 -2961 -2981 0
2959 2961 -2981 0
-2959 2961 2981 0
2959 -2961 2981 0
-2963 -2965 -2983 0
2963 2965 -2983 0
-2963 2965 2983 0
2963 -2965 2983 0
-2967 -2969 -2985 0
2967 2969 -2985 0
-2967 2969 2985 0
2967 -2969 2985 0
-2971 -2972 -2987 0
2971 2972 -2987 0
-2971 2972 2987 0
2971 -2972 2987 0
-2973 -2975 -2989 0
2973 2975 -2989 0
-2973 2975 2989 0
2973 -2975 2989 0
-2977 -2979 -2991 0
2977 2979 -2991 0
-2977 2979 2991 0
2977 -2979 2991 0
-2981 -2983 -2993 0
2981 2983 -2993 0
-2981 2983 2993 0
2981 -2983 2993 0
-2985 -2987 -2995 0
2985 2987 -2995 0
-2985 2987 2995 0
2985 -2987 2995 0
-2989 -2991 -2997 0
2989 2991 -2997 0
-2989 2991 2997 0
2989 -2991 2997 0
-2993 -2995 -2997 0
2993 2995 -2997 0
-2993 2995 2997 0
2993 -2995 2997 0
-2890 -2892 -3001 0
2890 2892 -3001 0
-2890 2892 3001 0
2890 -2892 3001 0
-2898 -2900 -3053 0
2898 2900 -3053 0
-2898 2900 3053 0
2898 -2900 3053 0
-2902 -2904 -3004 0
2902 2904 -3004 0
-2902 2904 3004 0
2902 -2904 3004 0
-2908 -2910 -3007 0
2908 2910 -3007 0
-2908 2910 3007 0
2908 -2910 3007 0
-2912 -2914 -3008 0
2912 2914 -3008 0
-2912 2914 3008 0
2912 -2914 3008 0
-2916 -2918 -3010 0
2916 2918 -3010 0
-2916 2918 3010 0
2916 -2918 3010 0
-2920 -2922 -3012 0
2920 2922 -3012 0
-2920 2922 3012 0
2920 -2922 3012 0
-2924 -2926 -3014 0
2924 2926 -3014 0
-2924 2926 3014 0
2924 -2926 3014 0
-2928 -2930 -3016 0
2928 2930 -3016 0
-2928 2930 3016 0
2928 -2930 3016 0
-2932 -2934 -3018 0
2932 2934 -3018 0
-2932 2934 3018 0
2932 -2934 3018 0
-2936 -2938 -3020 0
2936 2938 -3020 0
-2936 2938 3020 0
2936 -2938 3020 0
-2940 -2942 -3022 0
2940 2942 -3022 0
-2940 2942 3022 0
2940 -2942 3022 0
-2944 -2946 -3024 0
2944 2946 -3024 0
-2944 2946 3024 0
2944 -2946 3024 0
-2948 -2950 -3026 0
2948 2950 -3026 0
-2948 2950 3026 0
2948 -2950 3026 0
-2952 -2954 -3028 0
2952 2954 -3028 0
-2952 2954 3028 0
2952 -2954 3028 0
-2956 -2958 -3030 0
2956 2958 -3030 0
-2956 2958 3030 0
2956 -2958 3030 0
-2960 -2962 -3032 0
2960 2962 -3032 0
-2960 2962 3032 0
2960 -2962 3032 0
-2964 -2966 -3034 0
2964 2966 -3034 0
-2964 2966 3034 0
2964 -2966 3034 0
-2968 -2970 -3036 0
2968 2970 -3036 0
-2968 2970 3036 0
2968 -2970 3036 0
-2974 -2976 -3039 0
2974 2976 -3039 0
-2974 2976 3039 0
2974 -2976 3039 0
-2978 -2980 -3040 0
2978 2980 -3040 0
-2978 2980 3040 0
2978 -2980 3040 0
-2982 -2984 -3042 0
2982 2984 -3042 0
-2982 2984 3042 0
2982 -2984 3042 0
-2986 -2988 -3044 0
2986 2988 -3044 0
-2986 2988 3044 0
2986 -2988 3044 0
-2990 -2992 -3046 0
2990 2992 -3046 0
-2990 2992 3046 0
2990 -2992 3046 0
-2994 -2996 -3048 0
2994 2996 -3048 0
-2994 2996 3048 0
2994 -2996 3048 0
-2998 -2999 -3050 0
2998 2999 -3050 0
-2998 2999 3050 0
2998 -2999 3050 0
-3001 -3002 -3052 0
3001 3002 -3052 0
-3001 3002 3052 0
3001 -3002 3052 0
-3004 -3006 -3054 0
3004 3006 -3054 0
-3004 3006 3054 0
3004 -3006 3054 0
-3007 -3008 -3056 0
3007 3008 -3056 0
-3007 3008 3056 0
3007 -3008 3056 0
-3010 -3012 -3058 0
3010 3012 -3058 0
-3010 3012 3058 0
3010 -3012 3058 0
-3014 -3016 -3060 0
3014 3016 -3060 0
-3014 3016 3060 0
3014 -3016 3060 0
-3018 -3020 -3062 0
3018 3020 -3062 0
-3018 3020 3062 0
3018 -3020 3062 0
-3021 -3022 -3064 0
3021 3022 -3064 0
-3021 3022 3064 0
3021 -3022 3064 0
-3024 -3026 -3066 0
3024 3026 -3066 0
-3024 3026 3066 0
3024 -3026 3066 0
-3028 -3030 -3068 0
3028 3030 -3068 0
-3028 3030 3068 0
3028 -3030 3068 0
-3032 -3034 -3070 0
3032 3034 -3070 0
-3032 3034 3070 0
3032 -3034 3070 0
-3036 -3038 -3072 0
3036 3038 -3072 0
-3036 3038 3072 0
3036 -3038 3072 0
-3039 -3040 -3074 0
3039 3040 -3074 0
-3039 3040 3074 0
3039 -3040 3074 0
-3042 -3044 -3076 0
3042 3044 -3076 0
-3042 3044 3076 0
3042 -3044 3076 0
-3046 -3048 -3078 0
3046 3048 -3078 0
-3046 3048 3078 0
3046 -3048 3078 0
-2997 -3050 -3080 0
2997 3050 -3080 0
2997 -3050 3080 0
-2997 3050 3080 0
-3000 -3052 -3082 0
3000 3052 -3082 0
-3000 3052 3082 0
3000 -3052 3082 0
-3053 -3054 -3084 0
3053 3054 -3084 0
-3053 3054 3084 0
3053 -3054 3084 0
-3056 -3058 -3086 0
3056 3058 -3086 0
-3056 3058 3086 0
3056 -3058 3086 0
-3060 -3062 -3088 0
3060 3062 -3088 0
-3060 3062 3088 0
3060 -3062 3088 0
-3064 -3066 -3090 0
3064 3066 -3090 0
-3064 3066 3090 0
3064 -3066 3090 0
-3068 -3070 -3092 0
3068 3070 -3092 0
-3068 3070 3092 0
3068 -3070 3092 0
-3072 -3074 -3094 0
3072 3074 -3094 0
-3072 3074 3094 0
3072 -3074 3094 0
-3076 -3078 -3096 0
3076 3078 -3096 0
-3076 3078 3096 0
3076 -3078 3096 0
-3080 -3082 -3098 0
3080 3082 -3098 0
-3080 3082 3098 0
3080 -3082 3098 0
-3084 -3086 -3100 0
3084 3086 -3100 0
-3084 3086 3100 0
3084 -3086 3100 0
-3088 -3090 -3102 0
3088 3090 -3102 0
-3088 3090 3102 0
3088 -3090 3102 0
-3092 -3094 -3104 0
3092 3094 -3104 0
-3092 3094 3104 0
3092 -3094 3104 0
-3096 -3098 -3106 0
3096 3098 -3106 0
-3096 3098 3106 0
3096 -3098 3106 0
-3100 -3102 -3108 0
3100 3102 -3108 0
-3100 3102 3108 0
3100 -3102 3108 0
-3104 -3106 -3108 0
3104 3106 -3108 0
-3104 3106 3108 0
3104 -3106 3108 0
-3003 -3005 -3160 0
3003 3005 -3160 0
-3003 3005 3160 0
3003 -3005 3160 0
-3009 -3011 -3113 0
3009 3011 -3113 0
-3009 3011 3113 0
3009 -3011 3113 0
-3013 -3015 -3114 0
3013 3015 -3114 0
-3013 3015 3114 0
3013 -3015 3114 0
-3017 -3019 -3116 0
3017 3019 -3116 0
-3017 3019 3116 0
3017 -3019 3116 0
-3023 -3025 -3119 0
3023 3025 -3119 0
-3023 3025 3119 0
3023 -3025 3119 0
-3027 -3029 -3120 0
3027 3029 -3120 0
-3027 3029 3120 0
3027 -3029 3120 0
-3031 -3033 -3122 0
3031 3033 -3122 0
-3031 3033 3122 0
3031 -3033 3122 0
-3035 -3037 -3124 0
3035 3037 -3124 0
-3035 3037 3124 0
3035 -3037 3124 0
-3041 -3043 -3126 0
3041 3043 -3126 0
-3041 3043 3126 0
3041 -3043 3126 0
-3045 -3047 -3128 0
3045 3047 -3128 0
-3045 3047 3128 0
3045 -3047 3128 0
-3049 -3051 -3173 0
3049 3051 -3173 0
-3049 3051 3173 0
3049 -3051 3173 0
-3055 -3057 -3131 0
3055 3057 -3131 0
-3055 3057 3131 0
3055 -3057 3131 0
-3059 -3061 -3132 0
3059 3061 -3132 0
-3059 3061 3132 0
3059 -3061 3132 0
-3063 -3065 -3134 0
3063 3065 -3134 0
-3063 3065 3134 0
3063 -3065 3134 0
-3067 -3069 -3136 0
3067 3069 -3136 0
-3067 3069 3136 0
3067 -3069 3136 0
-3071 -3073 -3138 0
3071 3073 -3138 0
-3071 3073 3138 0
3071 -3073 3138 0
-3075 -3077 -3140 0
3075 3077 -3140 0
-3075 3077 3140 0
3075 -3077 3140 0
-3079 -3081 -3142 0
3079 3081 -3142 0
-3079 3081 3142 0
3079 -3081 3142 0
-3083 -3085 -3144 0
3083 3085 -3144 0
-3083 3085 3144 0
3083 -3085 3144 0
-3087 -3089 -3146 0
3087 3089 -3146 0
-3087 3089 3146 0
3087 -3089 3146 0
-3091 -3093 -3148 0
3091 3093 -3148 0
-3091 3093 3148 0
3091 -3093 3148 0
-3095 -3097 -3150 0
3095 3097 -3150 0
-3095 3097 3150 0
3095 -3097 3150 0
-3099 -3101 -3152 0
3099 3101 -3152 0
-3099 3101 3152 0
3099 -3101 3152 0
-3103 -3105 -3154 0
3103 3105 -3154 0
-3103 3105 3154 0
3103 -3105 3154 0
-3107 -3109 -3156 0
3107 3109 -3156 0
-3107 3109 3156 0
3107 -3109 3156 0
-3108 -3110 -3158 0
3108 3110 -3158 0
3108 -3110 3158 0
-3108 3110 3158 0
-3112 -3113 -3161 0
3112 3113 -3161 0
-3112 3113 3161 0
3112 -3113 3161 0
-3114 -3116 -3163 0
3114 3116 -3163 0
-3114 3116 3163 0
3114 -3116 3163 0
-3118 -3119 -3165 0
3118 3119 -3165 0
-3118 3119 3165 0
3118 -3119 3165 0
-3120 -3122 -3167 0
3120 3122 -3167 0
-3120 3122 3167 0
3120 -3122 3167 0
-3124 -3125 -3169 0
3124 3125 -3169 0
-3124 3125 3169 0
3124 -3125 3169 0
-3126 -3128 -3171 0
3126 3128 -3171 0
-3126 3128 3171 0
3126 -3128 3171 0
-3130 -3131 -3174 0
3130 3131 -3174 0
-3130 3131 3174 0
3130 -3131 3174 0
-3132 -3134 -3175 0
3132 3134 -3175 0
-3132 3134 3175 0
3132 -3134 3175 0
-3136 -3138 -3177 0
3136 3138 -3177 0
-3136 3138 3177 0
3136 -3138 3177 0
-3140 -3142 -3179 0
3140 3142 -3179 0
-3140 3142 3179 0
3140 -3142 3179 0
-3144 -3146 -3181 0
3144 3146 -3181 0
-3144 3146 3181 0
3144 -3146 3181 0
-3148 -3150 -3183 0
3148 3150 -3183 0
-3148 3150 3183 0
3148 -3150 3183 0
-3152 -3154 -3185 0
3152 3154 -3185 0
-3152 3154 3185 0
3152 -3154 3185 0
-3156 -3158 -3187 0
3156 3158 -3187 0
-3156 3158 3187 0
3156 -3158 3187 0
-3111 -3160 -3189 0
3111 3160 -3189 0
-3111 3160 3189 0
3111 -3160 3189 0
-3161 -3163 -3191 0
3161 3163 -3191 0
-3161 3163 3191 0
3161 -3163 3191 0
-3165 -3167 -3193 0
3165 3167 -3193 0
-3165 3167 3193 0
3165 -3167 3193 0
-3169 -3171 -3195 0
3169 3171 -3195 0
-3169 3171 3195 0
3169 -3171 3195 0
-3173 -3174 -3197 0
3173 3174 -3197 0
-3173 3174 3197 0
3173 -3174 3197 0
-3175 -3177 -3199 0
3175 3177 -3199 0
-3175 3177 3199 0
3175 -3177 3199 0
-3179 -3181 -3201 0
3179 3181 -3201 0
-3179 3181 3201 0
3179 -3181 3201 0
-3183 -3185 -3203 0
3183 3185 -3203 0
-3183 3185 3203 0
3183 -3185 3203 0
-3187 -3189 -3205 0
3187 3189 -3205 0
-3187 3189 3205 0
3187 -3189 3205 0
-3191 -3193 -3207 0
3191 3193 -3207 0
-3191 3193 3207 0
3191 -3193 3207 0
-3195 -3197 -3209 0
3195 3197 -3209 0
-3195 3197 3209 0
3195 -3197 3209 0
-3199 -3201 -3211 0
3199 3201 -3211 0
-3199 3201 3211 0
3199 -3201 3211 0
-3203 -3205 -3213 0
3203 3205 -3213 0
-3203 3205 3213 0
3203 -3205 3213 0
-3207 -3209 -3215 0
3207 3209 -3215 0
-3207 3209 3215 0
3207 -3209 3215 0
-3211 -3213 -3215 0
3211 3213 -3215 0
-3211 3213 3215 0
3211 -3213 3215 0
-3115 -3117 -3220 0
3115 3117 -3220 0
-3115 3117 3220 0
3115 -3117 3220 0
-3121 -3123 -3222 0
3121 3123 -3222 0
-3121 3123 3222 0
3121 -3123 3222 0
-3127 -3129 -3224 0
3127 3129 -3224 0
-3127 3129 3224 0
3127 -3129 3224 0
-3133 -3135 -3227 0
3133 3135 -3227 0
-3133 3135 3227 0
3133 -3135 3227 0
-3137 -3139 -3229 0
3137 3139 -3229 0
-3137 3139 3229 0
3137 -3139 3229 0
-3141 -3143 -3231 0
3141 3143 -3231 0
-3141 3143 3231 0
3141 -3143 3231 0
-3145 -3147 -3233 0
3145 3147 -3233 0
-3145 3147 3233 0
3145 -3147 3233 0
-3149 -3151 -3235 0
3149 3151 -3235 0
-3149 3151 3235 0
3149 -3151 3235 0
-3153 -3155 -3237 0
3153 3155 -3237 0
-3153 3155 3237 0
3153 -3155 3237 0
-3157 -3159 -3239 0
3157 3159 -3239 0
-3157 3159 3239 0
3157 -3159 3239 0
-3162 -3164 -3282 0
3162 3164 -3282 0
-3162 3164 3282 0
3162 -3164 3282 0
-3166 -3168 -3241 0
3166 3168 -3241 0
-3166 3168 3241 0
3166 -3168 3241 0
-3170 -3172 -3243 0
3170 3172 -3243 0
-3170 3172 3243 0
3170 -3172 3243 0
-3176 -3178 -3245 0
3176 3178 -3245 0
-3176 3178 3245 0
3176 -3178 3245 0
-3180 -3182 -3247 0
3180 3182 -3247 0
-3180 3182 3247 0
3180 -3182 3247 0
-3184 -3186 -3249 0
3184 3186 -3249 0
-3184 3186 3249 0
3184 -3186 3249 0
-3188 -3190 -3251 0
3188 3190 -3251 0
-3188 3190 3251 0
3188 -3190 3251 0
-3192 -3194 -3253 0
3192 3194 -3253 0
-3192 3194 3253 0
3192 -3194 3253 0
-3196 -3198 -3255 0
3196 3198 -3255 0
-3196 3198 3255 0
3196 -3198 3255 0
-3200 -3202 -3257 0
3200 3202 -3257 0
-3200 3202 3257 0
3200 -3202 3257 0
-3204 -3206 -3259 0
3204 3206 -3259 0
-3204 3206 3259 0
3204 -3206 3259 0
-3208 -3210 -3261 0
3208 3210 -3261 0
-3208 3210 3261 0
3208 -3210 3261 0
-3212 -3214 -3263 0
3212 3214 -3263 0
-3212 3214 3263 0
3212 -3214 3263 0
-3216 -3217 -3265 0
3216 3217 -3265 0
-3216 3217 3265 0
3216 -3217 3265 0
-3218 -3219 -3266 0
3218 3219 -3266 0
-3218 3219 3266 0
3218 -3219 3266 0
-3220 -3221 -3268 0
3220 3221 -3268 0
-3220 3221 3268 0
3220 -3221 3268 0
-3222 -3223 -3270 0
3222 3223 -3270 0
-3222 3223 3270 0
3222 -3223 3270 0
-3224 -3225 -3272 0
3224 3225 -3272 0
-3224 3225 3272 0
3224 -3225 3272 0
-3226 -3227 -3274 0
3226 3227 -3274 0
-3226 3227 3274 0
3226 -3227 3274 0
-3229 -3231 -3276 0
3229 3231 -3276 0
-3229 3231 3276 0
3229 -3231 3276 0
-3233 -3235 -3278 0
3233 3235 -3278 0
-3233 3235 3278 0
3233 -3235 3278 0
-3237 -3239 -3280 0
3237 3239 -3280 0
-3237 3239 3280 0
3237 -3239 3280 0
-3241 -3243 -3283 0
3241 3243 -3283 0
-3241 3243 3283 0
3241 -3243 3283 0
-3244 -3245 -3284 0
3244 3245 -3284 0
-3244 3245 3284 0
3244 -3245 3284 0
-3247 -3249 -3286 0
3247 3249 -3286 0
-3247 3249 3286 0
3247 -3249 3286 0
-3251 -3253 -3288 0
3251 3253 -3288 0
-3251 3253 3288 0
3251 -3253 3288 0
-3255 -3257 -3290 0
3255 3257 -3290 0
-3255 3257 3290 0
3255 -3257 3290 0
-3259 -3261 -3292 0
3259 3261 -3292 0
-3259 3261 3292 0
3259 -3261 3292 0
-3263 -3265 -3294 0
3263 3265 -3294 0
-3263 3265 3294 0
3263 -3265 3294 0
-3215 -3266 -3296 0
3215 3266 -3296 0
-3215 3266 3296 0
3215 -3266 3296 0
-3268 -3270 -3298 0
3268 3270 -3298 0
-3268 3270 3298 0
3268 -3270 3298 0
-3272 -3274 -3300 0
3272 3274 -3300 0
-3272 3274 3300 0
3272 -3274 3300 0
-3276 -3278 -3302 0
3276 3278 -3302 0
-3276 3278 3302 0
3276 -3278 3302 0
-3280 -3282 -3304 0
3280 3282 -3304 0
-3280 3282 3304 0
3280 -3282 3304 0
-3283 -3284 -3306 0
3283 3284 -3306 0
-3283 3284 3306 0
3283 -3284 3306 0
-3286 -3288 -3308 0
3286 3288 -3308 0
-3286 3288 3308 0
3286 -3288 3308 0
-3290 -3292 -3310 0
3290 3292 -3310 0
-3290 3292 3310 0
3290 -3292 3310 0
-3294 -3296 -3312 0
3294 3296 -3312 0
-3294 3296 3312 0
3294 -3296 3312 0
-3298 -3300 -3314 0
3298 3300 -3314 0
-3298 3300 3314 0
3298 -3300 3314 0
-3302 -3304 -3316 0
3302 3304 -3316 0
-3302 3304 3316 0
3302 -3304 3316 0
-3306 -3308 -3318 0
3306 3308 -3318 0
-3306 3308 3318 0
3306 -3308 3318 0
-3310 -3312 -3320 0
3310 3312 -3320 0
-3310 3312 3320 0
3310 -3312 3320 0
-3314 -3316 -3322 0
3314 3316 -3322 0
-3314 3316 3322 0
3314 -3316 3322 0
-3318 -3320 -3322 0
3318 3320 -3322 0
-3318 3320 3322 0
3318 -3320 3322 0
-3228 -3230 -3374 0
3228 3230 -3374 0
-3228 3230 3374 0
3228 -3230 3374 0
-3232 -3234 -3328 0
3232 3234 -3328 0
-3232 3234 3328 0
3232 -3234 3328 0
-3236 -3238 -3330 0
3236 3238 -3330 0
-3236 3238 3330 0
3236 -3238 3330 0
-3240 -3242 -3333 0
3240 3242 -3333 0
-3240 3242 3333 0
3240 -3242 3333 0
-3246 -3248 -3335 0
3246 3248 -3335 0
-3246 3248 3335 0
3246 -3248 3335 0
-3250 -3252 -3336 0
3250 3252 -3336 0
-3250 3252 3336 0
3250 -3252 3336 0
-3254 -3256 -3338 0
3254 3256 -3338 0
-3254 3256 3338 0
3254 -3256 3338 0
-3258 -3260 -3340 0
3258 3260 -3340 0
-3258 3260 3340 0
3258 -3260 3340 0
-3262 -3264 -3342 0
3262 3264 -3342 0
-3262 3264 3342 0
3262 -3264 3342 0
-3267 -3269 -3345 0
3267 3269 -3345 0
-3267 3269 3345 0
3267 -3269 3345 0
-3271 -3273 -3346 0
3271 3273 -3346 0
-3271 3273 3346 0
3271 -3273 3346 0
-3275 -3277 -3348 0
3275 3277 -3348 0
-3275 3277 3348 0
3275 -3277 3348 0
-3279 -3281 -3350 0
3279 3281 -3350 0
-3279 3281 3350 0
3279 -3281 3350 0
-3285 -3287 -3352 0
3285 3287 -3352 0
-3285 3287 3352 0
3285 -3287 3352 0
-3289 -3291 -3354 0
3289 3291 -3354 0
-3289 3291 3354 0
3289 -3291 3354 0
-3293 -3295 -3356 0
3293 3295 -3356 0
-3293 3295 3356 0
3293 -3295 3356 0
-3297 -3299 -3358 0
3297 3299 -3358 0
-3297 3299 3358 0
3297 -3299 3358 0
-3301 -3303 -3360 0
3301 3303 -3360 0
-3301 3303 3360 0
3301 -3303 3360 0
-3305 -3307 -3362 0
3305 3307 -3362 0
-3305 3307 3362 0
3305 -3307 3362 0
-3309 -3311 -3364 0
3309 3311 -3364 0
-3309 3311 3364 0
3309 -3311 3364 0
-3313 -3315 -3366 0
3313 3315 -3366 0
-3313 3315 3366 0
3313 -3315 3366 0
-3317 -3319 -3368 0
3317 3319 -3368 0
-3317 3319 3368 0
3317 -3319 3368 0
-3321 -3323 -3370 0
3321 3323 -3370 0
-3321 3323 3370 0
3321 -3323 3370 0
-3322 -3324 -3372 0
3322 3324 -3372 0
3322 -3324 3372 0
-3322 3324 3372 0
-3326 -3327 -3373 0
3326 3327 -3373 0
-3326 3327 3373 0
3326 -3327 3373 0
-3328 -3330 -3375 0
3328 3330 -3375 0
-3328 3330 3375 0
3328 -3330 3375 0
-3332 -3333 -3377 0
3332 3333 -3377 0
-3332 3333 3377 0
3332 -3333 3377 0
-3334 -3335 -3379 0
3334 3335 -3379 0
-3334 3335 3379 0
3334 -3335 3379 0
-3336 -3338 -3381 0
3336 3338 -3381 0
-3336 3338 3381 0
3336 -3338 3381 0
-3340 -3342 -3383 0
3340 3342 -3383 0
-3340 3342 3383 0
3340 -3342 3383 0
-3344 -3345 -3385 0
3344 3345 -3385 0
-3344 3345 3385 0
3344 -3345 3385 0
-3346 -3348 -3387 0
3346 3348 -3387 0
-3346 3348 3387 0
3346 -3348 3387 0
-3350 -3351 -3389 0
3350 3351 -3389 0
-3350 3351 3389 0
3350 -3351 3389 0
-3352 -3354 -3391 0
3352 3354 -3391 0
-3352 3354 3391 0
3352 -3354 3391 0
-3356 -3358 -3393 0
3356 3358 -3393 0
-3356 3358 3393 0
3356 -3358 3393 0
-3360 -3362 -3395 0
3360 3362 -3395 0
-3360 3362 3395 0
3360 -3362 3395 0
-3364 -3366 -3397 0
3364 3366 -3397 0
-3364 3366 3397 0
3364 -3366 3397 0
-3368 -3370 -3399 0
3368 3370 -3399 0
-3368 3370 3399 0
3368 -3370 3399 0
-3325 -3372 -3401 0
3325 3372 -3401 0
3325 -3372 3401 0
-3325 3372 3401 0
-3373 -3374 -3403 0
3373 3374 -3403 0
-3373 3374 3403 0
3373 -3374 3403 0
-3375 -3377 -3405 0
3375 3377 -3405 0
-3375 3377 3405 0
3375 -3377 3405 0
-3379 -3381 -3407 0
3379 3381 -3407 0
-3379 3381 3407 0
3379 -3381 3407 0
-3383 -3385 -3409 0
3383 3385 -3409 0
-3383 3385 3409 0
3383 -3385 3409 0
-3387 -3389 -3411 0
3387 3389 -3411 0
-3387 3389 3411 0
3387 -3389 3411 0
-3391 -3393 -3413 0
3391 3393 -3413 0
-3391 3393 3413 0
3391 -3393 3413 0
-3395 -3397 -3415 0
3395 3397 -3415 0
-3395 3397 3415 0
3395 -3397 3415 0
-3399 -3401 -3417 0
3399 3401 -3417 0
-3399 3401 3417 0
3399 -3401 3417 0
-3403 -3405 -3419 0
3403 3405 -3419 0
-3403 3405 3419 0
3403 -3405 3419 0
-3407 -3409 -3421 0
3407 3409 -3421 0
-3407 3409 3421 0
3407 -3409 3421 0
-3411 -3413 -3423 0
3411 3413 -3423 0
-3411 3413 3423 0
3411 -3413 3423 0
-3415 -3417 -3425 0
3415 3417 -3425 0
-3415 3417 3425 0
3415 -3417 3425 0
-3419 -3421 -3427 0
3419 3421 -3427 0
-3419 3421 3427 0
3419 -3421 3427 0
-3423 -3425 -3427 0
3423 3425 -3427 0
-3423 3425 3427 0
3423 -3425 3427 0
-3329 -3331 -3431 0
3329 3331 -3431 0
-3329 3331 3431 0
3329 -3331 3431 0
-3337 -3339 -3434 0
3337 3339 -3434 0
-3337 3339 3434 0
3337 -3339 3434 0
-3341 -3343 -3436 0
3341 3343 -3436 0
-3341 3343 3436 0
3341 -3343 3436 0
-3347 -3349 -3439 0
3347 3349 -3439 0
-3347 3349 3439 0
3347 -3349 3439 0
-3353 -3355 -3441 0
3353 3355 -3441 0
-3353 3355 3441 0
3353 -3355 3441 0
-3357 -3359 -3442 0
3357 3359 -3442 0
-3357 3359 3442 0
3357 -3359 3442 0
-3361 -3363 -3444 0
3361 3363 -3444 0
-3361 3363 3444 0
3361 -3363 3444 0
-3365 -3367 -3446 0
3365 3367 -3446 0
-3365 3367 3446 0
3365 -3367 3446 0
-3369 -3371 -3448 0
3369 3371 -3448 0
-3369 3371 3448 0
3369 -3371 3448 0
-3376 -3378 -3452 0
3376 3378 -3452 0
-3376 3378 3452 0
3376 -3378 3452 0
-3380 -3382 -3454 0
3380 3382 -3454 0
-3380 3382 3454 0
3380 -3382 3454 0
-3384 -3386 -3456 0
3384 3386 -3456 0
-3384 3386 3456 0
3384 -3386 3456 0
-3388 -3390 -3458 0
3388 3390 -3458 0
-3388 3390 3458 0
3388 -3390 3458 0
-3392 -3394 -3460 0
3392 3394 -3460 0
-3392 3394 3460 0
3392 -3394 3460 0
-3396 -3398 -3462 0
3396 3398 -3462 0
-3396 3398 3462 0
3396 -3398 3462 0
-3400 -3402 -3464 0
3400 3402 -3464 0
-3400 3402 3464 0
3400 -3402 3464 0
-3404 -3406 -3466 0
3404 3406 -3466 0
-3404 3406 3466 0
3404 -3406 3466 0
-3408 -3410 -3468 0
3408 3410 -3468 0
-3408 3410 3468 0
3408 -3410 3468 0
-3412 -3414 -3470 0
3412 3414 -3470 0
-3412 3414 3470 0
3412 -3414 3470 0
-3416 -3418 -3472 0
3416 3418 -3472 0
-3416 3418 3472 0
3416 -3418 3472 0
-3420 -3422 -3474 0
3420 3422 -3474 0
-3420 3422 3474 0
3420 -3422 3474 0
-3424 -3426 -3476 0
3424 3426 -3476 0
-3424 3426 3476 0
3424 -3426 3476 0
-3428 -3429 -3478 0
3428 3429 -3478 0
-3428 3429 3478 0
3428 -3429 3478 0
-3431 -3432 -3480 0
3431 3432 -3480 0
-3431 3432 3480 0
3431 -3432 3480 0
-3433 -3434 -3482 0
3433 3434 -3482 0
-3433 3434 3482 0
3433 -3434 3482 0
-3436 -3438 -3484 0
3436 3438 -3484 0
-3436 3438 3484 0
3436 -3438 3484 0
-3439 -3440 -3486 0
3439 3440 -3486 0
-3439 3440 3486 0
3439 -3440 3486 0
-3441 -3442 -3488 0
3441 3442 -3488 0
-3441 3442 3488 0
3441 -3442 3488 0
-3444 -3446 -3490 0
3444 3446 -3490 0
-3444 3446 3490 0
3444 -3446 3490 0
-3448 -3450 -3492 0
3448 3450 -3492 0
-3448 3450 3492 0
3448 -3450 3492 0
-3451 -3452 -3494 0
3451 3452 -3494 0
-3451 3452 3494 0
3451 -3452 3494 0
-3454 -3456 -3496 0
3454 3456 -3496 0
-3454 3456 3496 0
3454 -3456 3496 0
-3458 -3460 -3498 0
3458 3460 -3498 0
-3458 3460 3498 0
3458 -3460 3498 0
-3462 -3464 -3500 0
3462 3464 -3500 0
-3462 3464 3500 0
3462 -3464 3500 0
-3466 -3468 -3502 0
3466 3468 -3502 0
-3466 3468 3502 0
3466 -3468 3502 0
-3470 -3472 -3504 0
3470 3472 -3504 0
-3470 3472 3504 0
3470 -3472 3504 0
-3474 -3476 -3506 0
3474 3476 -3506 0
-3474 3476 3506 0
3474 -3476 3506 0
-3427 -3478 -3508 0
3427 3478 -3508 0
3427 -3478 3508 0
-3427 3478 3508 0
-3430 -3480 -3510 0
3430 3480 -3510 0
-3430 3480 3510 0
3430 -3480 3510 0
-3482 -3484 -3512 0
3482 3484 -3512 0
-3482 3484 3512 0
3482 -3484 3512 0
-3486 -3488 -3514 0
3486 3488 -3514 0
-3486 3488 3514 0
3486 -3488 3514 0
-3490 -3492 -3516 0
3490 3492 -3516 0
-3490 3492 3516 0
3490 -3492 3516 0
-3494 -3496 -3518 0
3494 3496 -3518 0
-3494 3496 3518 0
3494 -3496 3518 0
-3498 -3500 -3520 0
3498 3500 -3520 0
-3498 3500 3520 0
3498 -3500 3520 0
-3502 -3504 -3522 0
3502 3504 -3522 0
-3502 3504 3522 0
3502 -3504 3522 0
-3506 -3508 -3524 0
3506 3508 -3524 0
-3506 3508 3524 0
3506 -3508 3524 0
-3510 -3512 -3526 0
3510 3512 -3526 0
-3510 3512 3526 0
3510 -3512 3526 0
-3514 -3516 -3528 0
3514 3516 -3528 0
-3514 3516 3528 0
3514 -3516 3528 0
-3518 -3520 -3530 0
3518 3520 -3530 0
-3518 3520 3530 0
3518 -3520 3530 0
-3522 -3524 -3532 0
3522 3524 -3532 0
-3522 3524 3532 0
3522 -3524 3532 0
-3526 -3528 -3534 0
3526 3528 -3534 0
-3526 3528 3534 0
3526 -3528 3534 0
-3530 -3532 -3534 0
3530 3532 -3534 0
-3530 3532 3534 0
3530 -3532 3534 0
-3435 -3437 -3584 0
3435 3437 -3584 0
-3435 3437 3584 0
3435 -3437 3584 0
-3443 -3445 -3540 0
3443 3445 -3540 0
-3443 3445 3540 0
3443 -3445 3540 0
-3447 -3449 -3542 0
3447 3449 -3542 0
-3447 3449 3542 0
3447 -3449 3542 0
-3453 -3455 -3589 0
3453 3455 -3589 0
-3453 3455 3589 0
3453 -3455 3589 0
-3457 -3459 -3544 0
3457 3459 -3544 0
-3457 3459 3544 0
3457 -3459 3544 0
-3461 -3463 -3546 0
3461 3463 -3546 0
-3461 3463 3546 0
3461 -3463 3546 0
-3465 -3467 -3548 0
3465 3467 -3548 0
-3465 3467 3548 0
3465 -3467 3548 0
-3469 -3471 -3550 0
3469 3471 -3550 0
-3469 3471 3550 0
3469 -3471 3550 0
-3473 -3475 -3552 0
3473 3475 -3552 0
-3473 3475 3552 0
3473 -3475 3552 0
-3477 -3479 -3554 0
3477 3479 -3554 0
-3477 3479 3554 0
3477 -3479 3554 0
-3481 -3483 -3595 0
3481 3483 -3595 0
-3481 3483 3595 0
3481 -3483 3595 0
-3485 -3487 -3556 0
3485 3487 -3556 0
-3485 3487 3556 0
3485 -3487 3556 0
-3489 -3491 -3558 0
3489 3491 -3558 0
-3489 3491 3558 0
3489 -3491 3558 0
-3493 -3495 -3560 0
3493 3495 -3560 0
-3493 3495 3560 0
3493 -3495 3560 0
-3497 -3499 -3562 0
3497 3499 -3562 0
-3497 3499 3562 0
3497 -3499 3562 0
-3501 -3503 -3564 0
3501 3503 -3564 0
-3501 3503 3564 0
3501 -3503 3564 0
-3505 -3507 -3566 0
3505 3507 -3566 0
-3505 3507 3566 0
3505 -3507 3566 0
-3509 -3511 -3568 0
3509 3511 -3568 0
-3509 3511 3568 0
3509 -3511 3568 0
-3513 -3515 -3570 0
3513 3515 -3570 0
-3513 3515 3570 0
3513 -3515 3570 0
-3517 -3519 -3572 0
3517 3519 -3572 0
-3517 3519 3572 0
3517 -3519 3572 0
-3521 -3523 -3574 0
3521 3523 -3574 0
-3521 3523 3574 0
3521 -3523 3574 0
-3525 -3527 -3576 0
3525 3527 -3576 0
-3525 3527 3576 0
3525 -3527 3576 0
-3529 -3531 -3578 0
3529 3531 -3578 0
-3529 3531 3578 0
3529 -3531 3578 0
-3533 -3535 -3580 0
3533 3535 -3580 0
-3533 3535 3580 0
3533 -3535 3580 0
-3534 -3536 -3582 0
3534 3536 -3582 0
3534 -3536 3582 0
-3534 3536 3582 0
-3538 -3539 -3585 0
3538 3539 -3585 0
-3538 3539 3585 0
3538 -3539 3585 0
-3540 -3542 -3587 0
3540 3542 -3587 0
-3540 3542 3587 0
3540 -3542 3587 0
-3544 -3546 -3590 0
3544 3546 -3590 0
-3544 3546 3590 0
3544 -3546 3590 0
-3548 -3550 -3591 0
3548 3550 -3591 0
-3548 3550 3591 0
3548 -3550 3591 0
-3552 -3554 -3593 0
3552 3554 -3593 0
-3552 3554 3593 0
3552 -3554 3593 0
-3556 -3558 -3596 0
3556 3558 -3596 0
-3556 3558 3596 0
3556 -3558 3596 0
-3560 -3562 -3597 0
3560 3562 -3597 0
-3560 3562 3597 0
3560 -3562 3597 0
-3564 -3566 -3599 0
3564 3566 -3599 0
-3564 3566 3599 0
3564 -3566 3599 0
-3568 -3570 -3601 0
3568 3570 -3601 0
-3568 3570 3601 0
3568 -3570 3601 0
-3572 -3574 -3603 0
3572 3574 -3603 0
-3572 3574 3603 0
3572 -3574 3603 0
-3576 -3578 -3605 0
3576 3578 -3605 0
-3576 3578 3605 0
3576 -3578 3605 0
-3580 -3582 -3607 0
3580 3582 -3607 0
-3580 3582 3607 0
3580 -3582 3607 0
-3537 -3584 -3609 0
3537 3584 -3609 0
-3537 3584 3609 0
3537 -3584 3609 0
-3585 -3587 -3611 0
3585 3587 -3611 0
-3585 3587 3611 0
3585 -3587 3611 0
-3589 -3590 -3613 0
3589 3590 -3613 0
-3589 3590 3613 0
3589 -3590 3613 0
-3591 -3593 -3615 0
3591 3593 -3615 0
-3591 3593 3615 0
3591 -3593 3615 0
-3595 -3596 -3617 0
3595 3596 -3617 0
-3595 3596 3617 0
3595 -3596 3617 0
-3597 -3599 -3619 0
3597 3599 -3619 0
-3597 3599 3619 0
3597 -3599 3619 0
-3601 -3603 -3621 0
3601 3603 -3621 0
-3601 3603 3621 0
3601 -3603 3621 0
-3605 -3607 -3623 0
3605 3607 -3623 0
-3605 3607 3623 0
3605 -3607 3623 0
-3609 -3611 -3625 0
3609 3611 -3625 0
-3609 3611 3625 0
3609 -3611 3625 0
-3613 -3615 -3627 0
3613 3615 -3627 0
-3613 3615 3627 0
3613 -3615 3627 0
-3617 -3619 -3629 0
3617 3619 -3629 0
-3617 3619 3629 0
3617 -3619 3629 0
-3621 -3623 -3631 0
3621 3623 -3631 0
-3621 3623 3631 0
3621 -3623 3631 0
-3625 -3627 -3633 0
3625 3627 -3633 0
-3625 3627 3633 0
3625 -3627 3633 0
-3629 -3631 -3633 0
3629 3631 -3633 0
-3629 3631 3633 0
3629 -3631 3633 0
-3541 -3543 -3637 0
3541 3543 -3637 0
-3541 3543 3637 0
3541 -3543 3637 0
-3545 -3547 -3639 0
3545 3547 -3639 0
-3545 3547 3639 0
3545 -3547 3639 0
-3549 -3551 -3640 0
3549 3551 -3640 0
-3549 3551 3640 0
3549 -3551 3640 0
-3553 -3555 -3642 0
3553 3555 -3642 0
-3553 3555 3642 0
3553 -3555 3642 0
-3557 -3559 -3645 0
3557 3559 -3645 0
-3557 3559 3645 0
3557 -3559 3645 0
-3561 -3563 -3646 0
3561 3563 -3646 0
-3561 3563 3646 0
3561 -3563 3646 0
-3565 -3567 -3648 0
3565 3567 -3648 0
-3565 3567 3648 0
3565 -3567 3648 0
-3569 -3571 -3650 0
3569 3571 -3650 0
-3569 3571 3650 0
3569 -3571 3650 0
-3573 -3575 -3652 0
3573 3575 -3652 0
-3573 3575 3652 0
3573 -3575 3652 0
-3577 -3579 -3654 0
3577 3579 -3654 0
-3577 3579 3654 0
3577 -3579 3654 0
-3581 -3583 -3689 0
3581 3583 -3689 0
-3581 3583 3689 0
3581 -3583 3689 0
-3586 -3588 -3657 0
3586 3588 -3657 0
-3586 3588 3657 0
3586 -3588 3657 0
-3592 -3594 -3659 0
3592 3594 -3659 0
-3592 3594 3659 0
3592 -3594 3659 0
-3598 -3600 -3661 0
3598 3600 -3661 0
-3598 3600 3661 0
3598 -3600 3661 0
-3602 -3604 -3662 0
3602 3604 -3662 0
-3602 3604 3662 0
3602 -3604 3662 0
-3606 -3608 -3664 0
3606 3608 -3664 0
-3606 3608 3664 0
3606 -3608 3664 0
-3610 -3612 -3666 0
3610 3612 -3666 0
-3610 3612 3666 0
3610 -3612 3666 0
-3614 -3616 -3668 0
3614 3616 -3668 0
-3614 3616 3668 0
3614 -3616 3668 0
-3618 -3620 -3670 0
3618 3620 -3670 0
-3618 3620 3670 0
3618 -3620 3670 0
-3622 -3624 -3672 0
3622 3624 -3672 0
-3622 3624 3672 0
3622 -3624 3672 0
-3626 -3628 -3674 0
3626 3628 -3674 0
-3626 3628 3674 0
3626 -3628 3674 0
-3630 -3632 -3676 0
3630 3632 -3676 0
-3630 3632 3676 0
3630 -3632 3676 0
-3634 -3635 -3678 0
3634 3635 -3678 0
-3634 3635 3678 0
3634 -3635 3678 0
-3637 -3638 -3679 0
3637 3638 -3679 0
-3637 3638 3679 0
3637 -3638 3679 0
-3639 -3640 -3680 0
3639 3640 -3680 0
-3639 3640 3680 0
3639 -3640 3680 0
-3642 -3644 -3682 0
3642 3644 -3682 0
-3642 3644 3682 0
3642 -3644 3682 0
-3645 -3646 -3684 0
3645 3646 -3684 0
-3645 3646 3684 0
3645 -3646 3684 0
-3648 -3650 -3686 0
3648 3650 -3686 0
-3648 3650 3686 0
3648 -3650 3686 0
-3652 -3654 -3688 0
3652 3654 -3688 0
-3652 3654 3688 0
3652 -3654 3688 0
-3657 -3658 -3690 0
3657 3658 -3690 0
-3657 3658 3690 0
3657 -3658 3690 0
-3659 -3660 -3692 0
3659 3660 -3692 0
-3659 3660 3692 0
3659 -3660 3692 0
-3661 -3662 -3694 0
3661 3662 -3694 0
-3661 3662 3694 0
3661 -3662 3694 0
-3664 -3666 -3696 0
3664 3666 -3696 0
-3664 3666 3696 0
3664 -3666 3696 0
-3668 -3670 -3698 0
3668 3670 -3698 0
-3668 3670 3698 0
3668 -3670 3698 0
-3672 -3674 -3700 0
3672 3674 -3700 0
-3672 3674 3700 0
3672 -3674 3700 0
-3676 -3678 -3702 0
3676 3678 -3702 0
-3676 3678 3702 0
3676 -3678 3702 0
-3633 -3636 -3704 0
3633 3636 -3704 0
-3633 3636 3704 0
3633 -3636 3704 0
-3679 -3680 -3706 0
3679 3680 -3706 0
-3679 3680 3706 0
3679 -3680 3706 0
-3682 -3684 -3708 0
3682 3684 -3708 0
-3682 3684 3708 0
3682 -3684 3708 0
-3686 -3688 -3710 0
3686 3688 -3710 0
-3686 3688 3710 0
3686 -3688 3710 0
-3689 -3690 -3712 0
3689 3690 -3712 0
-3689 3690 3712 0
3689 -3690 3712 0
-3692 -3694 -3714 0
3692 3694 -3714 0
-3692 3694 3714 0
3692 -3694 3714 0
-3696 -3698 -3716 0
3696 3698 -3716 0
-3696 3698 3716 0
3696 -3698 3716 0
-3700 -3702 -3718 0
3700 3702 -3718 0
-3700 3702 3718 0
3700 -3702 3718 0
-3704 -3706 -3720 0
3704 3706 -3720 0
-3704 3706 3720 0
3704 -3706 3720 0
-3708 -3710 -3722 0
3708 3710 -3722 0
-3708 3710 3722 0
3708 -3710 3722 0
-3712 -3714 -3724 0
3712 3714 -3724 0
-3712 3714 3724 0
3712 -3714 3724 0
-3716 -3718 -3726 0
3716 3718 -3726 0
-3716 3718 3726 0
3716 -3718 3726 0
-3720 -3722 -3728 0
3720 3722 -3728 0
-3720 3722 3728 0
3720 -3722 3728 0
-3724 -3726 -3728 0
3724 3726 -3728 0
-3724 3726 3728 0
3724 -3726 3728 0
-3641 -3643 -3733 0
3641 3643 -3733 0
-3641 3643 3733 0
3641 -3643 3733 0
-3647 -3649 -3735 0
3647 3649 -3735 0
-3647 3649 3735 0
3647 -3649 3735 0
-3651 -3653 -3736 0
3651 3653 -3736 0
-3651 3653 3736 0
3651 -3653 3736 0
-3655 -3656 -3738 0
3655 3656 -3738 0
-3655 3656 3738 0
3655 -3656 3738 0
-3663 -3665 -3743 0
3663 3665 -3743 0
-3663 3665 3743 0
3663 -3665 3743 0
-3667 -3669 -3744 0
3667 3669 -3744 0
-3667 3669 3744 0
3667 -3669 3744 0
-3671 -3673 -3746 0
3671 3673 -3746 0
-3671 3673 3746 0
3671 -3673 3746 0
-3675 -3677 -3748 0
3675 3677 -3748 0
-3675 3677 3748 0
3675 -3677 3748 0
-3681 -3683 -3751 0
3681 3683 -3751 0
-3681 3683 3751 0
3681 -3683 3751 0
-3685 -3687 -3752 0
3685 3687 -3752 0
-3685 3687 3752 0
3685 -3687 3752 0
-3691 -3693 -3754 0
3691 3693 -3754 0
-3691 3693 3754 0
3691 -3693 3754 0
-3695 -3697 -3756 0
3695 3697 -3756 0
-3695 3697 3756 0
3695 -3697 3756 0
-3699 -3701 -3758 0
3699 3701 -3758 0
-3699 3701 3758 0
3699 -3701 3758 0
-3703 -3705 -3760 0
3703 3705 -3760 0
-3703 3705 3760 0
3703 -3705 3760 0
-3707 -3709 -3762 0
3707 3709 -3762 0
-3707 3709 3762 0
3707 -3709 3762 0
-3711 -3713 -3764 0
3711 3713 -3764 0
-3711 3713 3764 0
3711 -3713 3764 0
-3715 -3717 -3766 0
3715 3717 -3766 0
-3715 3717 3766 0
3715 -3717 3766 0
-3719 -3721 -3768 0
3719 3721 -3768 0
-3719 3721 3768 0
3719 -3721 3768 0
-3723 -3725 -3770 0
3723 3725 -3770 0
-3723 3725 3770 0
3723 -3725 3770 0
-3727 -3729 -3772 0
3727 3729 -3772 0
-3727 3729 3772 0
3727 -3729 3772 0
-3728 -3730 -3774 0
3728 3730 -3774 0
3728 -3730 3774 0
-3728 3730 3774 0
-3732 -3733 -3775 0
3732 3733 -3775 0
-3732 3733 3775 0
3732 -3733 3775 0
-3734 -3735 -3777 0
3734 3735 -3777 0
-3734 3735 3777 0
3734 -3735 3777 0
-3736 -3738 -3779 0
3736 3738 -3779 0
-3736 3738 3779 0
3736 -3738 3779 0
-3740 -3741 -3781 0
3740 3741 -3781 0
-3740 3741 3781 0
3740 -3741 3781 0
-3742 -3743 -3783 0
3742 3743 -3783 0
-3742 3743 3783 0
3742 -3743 3783 0
-3744 -3746 -3785 0
3744 3746 -3785 0
-3744 3746 3785 0
3744 -3746 3785 0
-3748 -3749 -3787 0
3748 3749 -3787 0
-3748 3749 3787 0
3748 -3749 3787 0
-3750 -3751 -3789 0
3750 3751 -3789 0
-3750 3751 3789 0
3750 -3751 3789 0
-3752 -3753 -3791 0
3752 3753 -3791 0
-3752 3753 3791 0
3752 -3753 3791 0
-3754 -3756 -3793 0
3754 3756 -3793 0
-3754 3756 3793 0
3754 -3756 3793 0
-3758 -3760 -3795 0
3758 3760 -3795 0
-3758 3760 3795 0
3758 -3760 3795 0
-3762 -3764 -3797 0
3762 3764 -3797 0
-3762 3764 3797 0
3762 -3764 3797 0
-3766 -3768 -3799 0
3766 3768 -3799 0
-3766 3768 3799 0
3766 -3768 3799 0
-3770 -3772 -3801 0
3770 3772 -3801 0
-3770 3772 3801 0
3770 -3772 3801 0
-3731 -3774 -3803 0
3731 3774 -3803 0
3731 -3774 3803 0
-3731 3774 3803 0
-3775 -3777 -3805 0
3775 3777 -3805 0
-3775 3777 3805 0
3775 -3777 3805 0
-3779 -3781 -3807 0
3779 3781 -3807 0
-3779 3781 3807 0
3779 -3781 3807 0
-3783 -3785 -3809 0
3783 3785 -3809 0
-3783 3785 3809 0
3783 -3785 3809 0
-3787 -3789 -3811 0
3787 3789 -3811 0
-3787 3789 3811 0
3787 -3789 3811 0
-3791 -3793 -3813 0
3791 3793 -3813 0
-3791 3793 3813 0
3791 -3793 3813 0
-3795 -3797 -3815 0
3795 3797 -3815 0
-3795 3797 3815 0
3795 -3797 3815 0
-3799 -3801 -3817 0
3799 3801 -3817 0
-3799 3801 3817 0
3799 -3801 3817 0
-3803 -3805 -3819 0
3803 3805 -3819 0
-3803 3805 3819 0
3803 -3805 3819 0
-3807 -3809 -3821 0
3807 3809 -3821 0
-3807 3809 3821 0
3807 -3809 3821 0
-3811 -3813 -3823 0
3811 3813 -3823 0
-3811 3813 3823 0
3811 -3813 3823 0
-3815 -3817 -3825 0
3815 3817 -3825 0
-3815 3817 3825 0
3815 -3817 3825 0
-3819 -3821 -3827 0
3819 3821 -3827 0
-3819 3821 3827 0
3819 -3821 3827 0
-3823 -3825 -3827 0
3823 3825 -3827 0
-3823 3825 3827 0
3823 -3825 3827 0
-3737 -3739 -3876 0
3737 3739 -3876 0
-3737 3739 3876 0
3737 -3739 3876 0
-3745 -3747 -3833 0
3745 3747 -3833 0
-3745 3747 3833 0
3745 -3747 3833 0
-3755 -3757 -3837 0
3755 3757 -3837 0
-3755 3757 3837 0
3755 -3757 3837 0
-3759 -3761 -3839 0
3759 3761 -3839 0
-3759 3761 3839 0
3759 -3761 3839 0
-3763 -3765 -3841 0
3763 3765 -3841 0
-3763 3765 3841 0
3763 -3765 3841 0
-3767 -3769 -3843 0
3767 3769 -3843 0
-3767 3769 3843 0
3767 -3769 3843 0
-3771 -3773 -3845 0
3771 3773 -3845 0
-3771 3773 3845 0
3771 -3773 3845 0
-3776 -3778 -3847 0
3776 3778 -3847 0
-3776 3778 3847 0
3776 -3778 3847 0
-3780 -3782 -3849 0
3780 3782 -3849 0
-3780 3782 3849 0
3780 -3782 3849 0
-3784 -3786 -3851 0
3784 3786 -3851 0
-3784 3786 3851 0
3784 -3786 3851 0
-3788 -3790 -3853 0
3788 3790 -3853 0
-3788 3790 3853 0
3788 -3790 3853 0
-3792 -3794 -3855 0
3792 3794 -3855 0
-3792 3794 3855 0
3792 -3794 3855 0
-3796 -3798 -3857 0
3796 3798 -3857 0
-3796 3798 3857 0
3796 -3798 3857 0
-3800 -3802 -3859 0
3800 3802 -3859 0
-3800 3802 3859 0
3800 -3802 3859 0
-3804 -3806 -3861 0
3804 3806 -3861 0
-3804 3806 3861 0
3804 -3806 3861 0
-3808 -3810 -3863 0
3808 3810 -3863 0
-3808 3810 3863 0
3808 -3810 3863 0
-3812 -3814 -3865 0
3812 3814 -3865 0
-3812 3814 3865 0
3812 -3814 3865 0
-3816 -3818 -3867 0
3816 3818 -3867 0
-3816 3818 3867 0
3816 -3818 3867 0
-3820 -3822 -3869 0
3820 3822 -3869 0
-3820 3822 3869 0
3820 -3822 3869 0
-3824 -3826 -3871 0
3824 3826 -3871 0
-3824 3826 3871 0
3824 -3826 3871 0
-3828 -3829 -3873 0
3828 3829 -3873 0
-3828 3829 3873 0
3828 -3829 3873 0
-3830 -3831 -3875 0
3830 3831 -3875 0
-3830 3831 3875 0
3830 -3831 3875 0
-3832 -3833 -3877 0
3832 3833 -3877 0
-3832 3833 3877 0
3832 -3833 3877 0
-3834 -3835 -3878 0
3834 3835 -3878 0
-3834 3835 3878 0
3834 -3835 3878 0
-3836 -3837 -3880 0
3836 3837 -3880 0
-3836 3837 3880 0
3836 -3837 3880 0
-3839 -3841 -3882 0
3839 3841 -3882 0
-3839 3841 3882 0
3839 -3841 3882 0
-3843 -3845 -3884 0
3843 3845 -3884 0
-3843 3845 3884 0
3843 -3845 3884 0
-3846 -3847 -3886 0
3846 3847 -3886 0
-3846 3847 3886 0
3846 -3847 3886 0
-3849 -3851 -3888 0
3849 3851 -3888 0
-3849 3851 3888 0
3849 -3851 3888 0
-3853 -3855 -3890 0
3853 3855 -3890 0
-3853 3855 3890 0
3853 -3855 3890 0
-3857 -3859 -3892 0
3857 3859 -3892 0
-3857 3859 3892 0
3857 -3859 3892 0
-3861 -3863 -3894 0
3861 3863 -3894 0
-3861 3863 3894 0
3861 -3863 3894 0
-3865 -3867 -3896 0
3865 3867 -3896 0
-3865 3867 3896 0
3865 -3867 3896 0
-3869 -3871 -3898 0
3869 3871 -3898 0
-3869 3871 3898 0
3869 -3871 3898 0
-3827 -3873 -3900 0
3827 3873 -3900 0
3827 -3873 3900 0
-3827 3873 3900 0
-3875 -3876 -3902 0
3875 3876 -3902 0
-3875 3876 3902 0
3875 -3876 3902 0
-3877 -3878 -3904 0
3877 3878 -3904 0
-3877 3878 3904 0
3877 -3878 3904 0
-3880 -3882 -3906 0
3880 3882 -3906 0
-3880 3882 3906 0
3880 -3882 3906 0
-3884 -3886 -3908 0
3884 3886 -3908 0
-3884 3886 3908 0
3884 -3886 3908 0
-3888 -3890 -3910 0
3888 3890 -3910 0
-3888 3890 3910 0
3888 -3890 3910 0
-3892 -3894 -3912 0
3892 3894 -3912 0
-3892 3894 3912 0
3892 -3894 3912 0
-3896 -3898 -3914 0
3896 3898 -3914 0
-3896 3898 3914 0
3896 -3898 3914 0
-3900 -3902 -3916 0
3900 3902 -3916 0
-3900 3902 3916 0
3900 -3902 3916 0
-3904 -3906 -3918 0
3904 3906 -3918 0
-3904 3906 3918 0
3904 -3906 3918 0
-3908 -3910 -3920 0
3908 3910 -3920 0
-3908 3910 3920 0
3908 -3910 3920 0
-3912 -3914 -3922 0
3912 3914 -3922 0
-3912 3914 3922 0
3912 -3914 3922 0
-3916 -3918 -3924 0
3916 3918 -3924 0
-3916 3918 3924 0
3916 -3918 3924 0
-3920 -3922 -3924 0
3920 3922 -3924 0
-3920 3922 3924 0
3920 -3922 3924 0
-3838 -3840 -3971 0
3838 3840 -3971 0
-3838 3840 3971 0
3838 -3840 3971 0
-3842 -3844 -3929 0
3842 3844 -3929 0
-3842 3844 3929 0
3842 -3844 3929 0
-3848 -3850 -3931 0
3848 3850 -3931 0
-3848 3850 3931 0
3848 -3850 3931 0
-3852 -3854 -3933 0
3852 3854 -3933 0
-3852 3854 3933 0
3852 -3854 3933 0
-3856 -3858 -3935 0
3856 3858 -3935 0
-3856 3858 3935 0
3856 -3858 3935 0
-3860 -3862 -3937 0
3860 3862 -3937 0
-3860 3862 3937 0
3860 -3862 3937 0
-3864 -3866 -3939 0
3864 3866 -3939 0
-3864 3866 3939 0
3864 -3866 3939 0
-3868 -3870 -3941 0
3868 3870 -3941 0
-3868 3870 3941 0
3868 -3870 3941 0
-3872 -3874 -3943 0
3872 3874 -3943 0
-3872 3874 3943 0
3872 -3874 3943 0
-3879 -3881 -3946 0
3879 3881 -3946 0
-3879 3881 3946 0
3879 -3881 3946 0
-3883 -3885 -3947 0
3883 3885 -3947 0
-3883 3885 3947 0
3883 -3885 3947 0
-3887 -3889 -3949 0
3887 3889 -3949 0
-3887 3889 3949 0
3887 -3889 3949 0
-3891 -3893 -3951 0
3891 3893 -3951 0
-3891 3893 3951 0
3891 -3893 3951 0
-3895 -3897 -3953 0
3895 3897 -3953 0
-3895 3897 3953 0
3895 -3897 3953 0
-3899 -3901 -3955 0
3899 3901 -3955 0
-3899 3901 3955 0
3899 -3901 3955 0
-3903 -3905 -3957 0
3903 3905 -3957 0
-3903 3905 3957 0
3903 -3905 3957 0
-3907 -3909 -3959 0
3907 3909 -3959 0
-3907 3909 3959 0
3907 -3909 3959 0
-3911 -3913 -3961 0
3911 3913 -3961 0
-3911 3913 3961 0
3911 -3913 3961 0
-3915 -3917 -3963 0
3915 3917 -3963 0
-3915 3917 3963 0
3915 -3917 3963 0
-3919 -3921 -3965 0
3919 3921 -3965 0
-3919 3921 3965 0
3919 -3921 3965 0
-3923 -3925 -3967 0
3923 3925 -3967 0
-3923 3925 3967 0
3923 -3925 3967 0
-3924 -3926 -3969 0
3924 3926 -3969 0
3924 -3926 3969 0
-3924 3926 3969 0
-3929 -3930 -3972 0
3929 3930 -3972 0
-3929 3930 3972 0
3929 -3930 3972 0
-3931 -3933 -3973 0
3931 3933 -3973 0
-3931 3933 3973 0
3931 -3933 3973 0
-3935 -3937 -3975 0
3935 3937 -3975 0
-3935 3937 3975 0
3935 -3937 3975 0
-3939 -3941 -3977 0
3939 3941 -3977 0
-3939 3941 3977 0
3939 -3941 3977 0
-3943 -3944 -3979 0
3943 3944 -3979 0
-3943 3944 3979 0
3943 -3944 3979 0
-3945 -3946 -3981 0
3945 3946 -3981 0
-3945 3946 3981 0
3945 -3946 3981 0
-3947 -3949 -3983 0
3947 3949 -3983 0
-3947 3949 3983 0
3947 -3949 3983 0
-3951 -3953 -3985 0
3951 3953 -3985 0
-3951 3953 3985 0
3951 -3953 3985 0
-3955 -3957 -3987 0
3955 3957 -3987 0
-3955 3957 3987 0
3955 -3957 3987 0
-3959 -3961 -3989 0
3959 3961 -3989 0
-3959 3961 3989 0
3959 -3961 3989 0
-3963 -3965 -3991 0
3963 3965 -3991 0
-3963 3965 3991 0
3963 -3965 3991 0
-3967 -3969 -3993 0
3967 3969 -3993 0
-3967 3969 3993 0
3967 -3969 3993 0
-3927 -3928 -3995 0
3927 3928 -3995 0
-3927 3928 3995 0
3927 -3928 3995 0
-3971 -3972 -3997 0
3971 3972 -3997 0
-3971 3972 3997 0
3971 -3972 3997 0
-3973 -3975 -3999 0
3973 3975 -3999 0
-3973 3975 3999 0
3973 -3975 3999 0
-3977 -3979 -4001 0
3977 3979 -4001 0
-3977 3979 4001 0
3977 -3979 4001 0
-3981 -3983 -4003 0
3981 3983 -4003 0
-3981 3983 4003 0
3981 -3983 4003 0
-3985 -3987 -4005 0
3985 3987 -4005 0
-3985 3987 4005 0
3985 -3987 4005 0
-3989 -3991 -4007 0
3989 3991 -4007 0
-3989 3991 4007 0
3989 -3991 4007 0
-3993 -3995 -4009 0
3993 3995 -4009 0
-3993 3995 4009 0
3993 -3995 4009 0
-3997 -3999 -4011 0
3997 3999 -4011 0
-3997 3999 4011 0
3997 -3999 4011 0
-4001 -4003 -4013 0
4001 4003 -4013 0
-4001 4003 4013 0
4001 -4003 4013 0
-4005 -4007 -4015 0
4005 4007 -4015 0
-4005 4007 4015 0
4005 -4007 4015 0
-4009 -4011 -4017 0
4009 4011 -4017 0
-4009 4011 4017 0
4009 -4011 4017 0
-4013 -4015 -4017 0
4013 4015 -4017 0
-4013 4015 4017 0
4013 -4015 4017 0
-3932 -3934 -4021 0
3932 3934 -4021 0
-3932 3934 4021 0
3932 -3934 4021 0
-3936 -3938 -4023 0
3936 3938 -4023 0
-3936 3938 4023 0
3936 -3938 4023 0
-3940 -3942 -4025 0
3940 3942 -4025 0
-3940 3942 4025 0
3940 -3942 4025 0
-3948 -3950 -4028 0
3948 3950 -4028 0
-3948 3950 4028 0
3948 -3950 4028 0
-3952 -3954 -4029 0
3952 3954 -4029 0
-3952 3954 4029 0
3952 -3954 4029 0
-3956 -3958 -4031 0
3956 3958 -4031 0
-3956 3958 4031 0
3956 -3958 4031 0
-3960 -3962 -4033 0
3960 3962 -4033 0
-3960 3962 4033 0
3960 -3962 4033 0
-3964 -3966 -4035 0
3964 3966 -4035 0
-3964 3966 4035 0
3964 -3966 4035 0
-3968 -3970 -4037 0
3968 3970 -4037 0
-3968 3970 4037 0
3968 -3970 4037 0
-3974 -3976 -4038 0
3974 3976 -4038 0
-3974 3976 4038 0
3974 -3976 4038 0
-3978 -3980 -4039 0
3978 3980 -4039 0
-3978 3980 4039 0
3978 -3980 4039 0
-3982 -3984 -4041 0
3982 3984 -4041 0
-3982 3984 4041 0
3982 -3984 4041 0
-3986 -3988 -4043 0
3986 3988 -4043 0
-3986 3988 4043 0
3986 -3988 4043 0
-3990 -3992 -4045 0
3990 3992 -4045 0
-3990 3992 4045 0
3990 -3992 4045 0
-3994 -3996 -4047 0
3994 3996 -4047 0
-3994 3996 4047 0
3994 -3996 4047 0
-3998 -4000 -4049 0
3998 4000 -4049 0
-3998 4000 4049 0
3998 -4000 4049 0
-4002 -4004 -4051 0
4002 4004 -4051 0
-4002 4004 4051 0
4002 -4004 4051 0
-4006 -4008 -4053 0
4006 4008 -4053 0
-4006 4008 4053 0
4006 -4008 4053 0
-4010 -4012 -4055 0
4010 4012 -4055 0
-4010 4012 4055 0
4010 -4012 4055 0
-4014 -4016 -4057 0
4014 4016 -4057 0
-4014 4016 4057 0
4014 -4016 4057 0
-4018 -4019 -4059 0
4018 4019 -4059 0
-4018 4019 4059 0
4018 -4019 4059 0
-4020 -4021 -4061 0
4020 4021 -4061 0
-4020 4021 4061 0
4020 -4021 4061 0
-4023 -4025 -4062 0
4023 4025 -4062 0
-4023 4025 4062 0
4023 -4025 4062 0
-4026 -4027 -4064 0
4026 4027 -4064 0
-4026 4027 4064 0
4026 -4027 4064 0
-4028 -4029 -4066 0
4028 4029 -4066 0
-4028 4029 4066 0
4028 -4029 4066 0
-4031 -4033 -4068 0
4031 4033 -4068 0
-4031 4033 4068 0
4031 -4033 4068 0
-4035 -4037 -4070 0
4035 4037 -4070 0
-4035 4037 4070 0
4035 -4037 4070 0
-4038 -4039 -4072 0
4038 4039 -4072 0
-4038 4039 4072 0
4038 -4039 4072 0
-4041 -4043 -4074 0
4041 4043 -4074 0
-4041 4043 4074 0
4041 -4043 4074 0
-4045 -4047 -4076 0
4045 4047 -4076 0
-4045 4047 4076 0
4045 -4047 4076 0
-4049 -4051 -4078 0
4049 4051 -4078 0
-4049 4051 4078 0
4049 -4051 4078 0
-4053 -4055 -4080 0
4053 4055 -4080 0
-4053 4055 4080 0
4053 -4055 4080 0
-4057 -4059 -4082 0
4057 4059 -4082 0
-4057 4059 4082 0
4057 -4059 4082 0
-4017 -4060 -4084 0
4017 4060 -4084 0
-4017 4060 4084 0
4017 -4060 4084 0
-4061 -4062 -4086 0
4061 4062 -4086 0
-4061 4062 4086 0
4061 -4062 4086 0
-4064 -4066 -4088 0
4064 4066 -4088 0
-4064 4066 4088 0
4064 -4066 4088 0
-4068 -4070 -4090 0
4068 4070 -4090 0
-4068 4070 4090 0
4068 -4070 4090 0
-4071 -4072 -4092 0
4071 4072 -4092 0
-4071 4072 4092 0
4071 -4072 4092 0
-4074 -4076 -4094 0
4074 4076 -4094 0
-4074 4076 4094 0
4074 -4076 4094 0
-4078 -4080 -4096 0
4078 4080 -4096 0
-4078 4080 4096 0
4078 -4080 4096 0
-4082 -4084 -4098 0
4082 4084 -4098 0
-4082 4084 4098 0
4082 -4084 4098 0
-4086 -4088 -4100 0
4086 4088 -4100 0
-4086 4088 4100 0
4086 -4088 4100 0
-4090 -4092 -4102 0
4090 4092 -4102 0
-4090 4092 4102 0
4090 -4092 4102 0
-4094 -4096 -4104 0
4094 4096 -4104 0
-4094 4096 4104 0
4094 -4096 4104 0
-4098 -4100 -4106 0
4098 4100 -4106 0
-4098 4100 4106 0
4098 -4100 4106 0
-4102 -4104 -4106 0
4102 4104 -4106 0
-4102 4104 4106 0
4102 -4104 4106 0
-4022 -4024 -4109 0
4022 4024 -4109 0
-4022 4024 4109 0
4022 -4024 4109 0
-4030 -4032 -4112 0
4030 4032 -4112 0
-4030 4032 4112 0
4030 -4032 4112 0
-4034 -4036 -4113 0
4034 4036 -4113 0
-4034 4036 4113 0
4034 -4036 4113 0
-4040 -4042 -4116 0
4040 4042 -4116 0
-4040 4042 4116 0
4040 -4042 4116 0
-4044 -4046 -4117 0
4044 4046 -4117 0
-4044 4046 4117 0
4044 -4046 4117 0
-4048 -4050 -4119 0
4048 4050 -4119 0
-4048 4050 4119 0
4048 -4050 4119 0
-4052 -4054 -4121 0
4052 4054 -4121 0
-4052 4054 4121 0
4052 -4054 4121 0
-4056 -4058 -4123 0
4056 4058 -4123 0
-4056 4058 4123 0
4056 -4058 4123 0
-4063 -4065 -4127 0
4063 4065 -4127 0
-4063 4065 4127 0
4063 -4065 4127 0
-4067 -4069 -4129 0
4067 4069 -4129 0
-4067 4069 4129 0
4067 -4069 4129 0
-4073 -4075 -4132 0
4073 4075 -4132 0
-4073 4075 4132 0
4073 -4075 4132 0
-4077 -4079 -4133 0
4077 4079 -4133 0
-4077 4079 4133 0
4077 -4079 4133 0
-4081 -4083 -4135 0
4081 4083 -4135 0
-4081 4083 4135 0
4081 -4083 4135 0
-4085 -4087 -4137 0
4085 4087 -4137 0
-4085 4087 4137 0
4085 -4087 4137 0
-4089 -4091 -4139 0
4089 4091 -4139 0
-4089 4091 4139 0
4089 -4091 4139 0
-4093 -4095 -4141 0
4093 4095 -4141 0
-4093 4095 4141 0
4093 -4095 4141 0
-4097 -4099 -4143 0
4097 4099 -4143 0
-4097 4099 4143 0
4097 -4099 4143 0
-4101 -4103 -4145 0
4101 4103 -4145 0
-4101 4103 4145 0
4101 -4103 4145 0
-4105 -4107 -4147 0
4105 4107 -4147 0
-4105 4107 4147 0
4105 -4107 4147 0
-4106 -4108 -4174 0
4106 4108 -4174 0
4106 -4108 4174 0
-4106 4108 4174 0
-4109 -4110 -4149 0
4109 4110 -4149 0
-4109 4110 4149 0
4109 -4110 4149 0
-4111 -4112 -4151 0
4111 4112 -4151 0
-4111 4112 4151 0
4111 -4112 4151 0
-4113 -4114 -4153 0
4113 4114 -4153 0
-4113 4114 4153 0
4113 -4114 4153 0
-4115 -4116 -4155 0
4115 4116 -4155 0
-4115 4116 4155 0
4115 -4116 4155 0
-4117 -4119 -4157 0
4117 4119 -4157 0
-4117 4119 4157 0
4117 -4119 4157 0
-4121 -4123 -4159 0
4121 4123 -4159 0
-4121 4123 4159 0
4121 -4123 4159 0
-4125 -4126 -4161 0
4125 4126 -4161 0
-4125 4126 4161 0
4125 -4126 4161 0
-4127 -4129 -4163 0
4127 4129 -4163 0
-4127 4129 4163 0
4127 -4129 4163 0
-4131 -4132 -4165 0
4131 4132 -4165 0
-4131 4132 4165 0
4131 -4132 4165 0
-4133 -4135 -4167 0
4133 4135 -4167 0
-4133 4135 4167 0
4133 -4135 4167 0
-4137 -4139 -4169 0
4137 4139 -4169 0
-4137 4139 4169 0
4137 -4139 4169 0
-4141 -4143 -4171 0
4141 4143 -4171 0
-4141 4143 4171 0
4141 -4143 4171 0
-4145 -4147 -4173 0
4145 4147 -4173 0
-4145 4147 4173 0
4145 -4147 4173 0
-4149 -4151 -4175 0
4149 4151 -4175 0
-4149 4151 4175 0
4149 -4151 4175 0
-4153 -4155 -4177 0
4153 4155 -4177 0
-4153 4155 4177 0
4153 -4155 4177 0
-4157 -4159 -4179 0
4157 4159 -4179 0
-4157 4159 4179 0
4157 -4159 4179 0
-4161 -4163 -4181 0
4161 4163 -4181 0
-4161 4163 4181 0
4161 -4163 4181 0
-4165 -4167 -4183 0
4165 4167 -4183 0
-4165 4167 4183 0
4165 -4167 4183 0
-4169 -4171 -4185 0
4169 4171 -4185 0
-4169 4171 4185 0
4169 -4171 4185 0
-4173 -4174 -4187 0
4173 4174 -4187 0
-4173 4174 4187 0
4173 -4174 4187 0
-4175 -4177 -4189 0
4175 4177 -4189 0
-4175 4177 4189 0
4175 -4177 4189 0
-4179 -4181 -4191 0
4179 4181 -4191 0
-4179 4181 4191 0
4179 -4181 4191 0
-4183 -4185 -4193 0
4183 4185 -4193 0
-4183 4185 4193 0
4183 -4185 4193 0
-4187 -4189 -4195 0
4187 4189 -4195 0
-4187 4189 4195 0
4187 -4189 4195 0
-4191 -4193 -4195 0
4191 4193 -4195 0
-4191 4193 4195 0
4191 -4193 4195 0
-4118 -4120 -4202 0
4118 4120 -4202 0
-4118 4120 4202 0
4118 -4120 4202 0
-4122 -4124 -4203 0
4122 4124 -4203 0
-4122 4124 4203 0
4122 -4124 4203 0
-4128 -4130 -4242 0
4128 4130 -4242 0
-4128 4130 4242 0
4128 -4130 4242 0
-4134 -4136 -4205 0
4134 4136 -4205 0
-4134 4136 4205 0
4134 -4136 4205 0
-4138 -4140 -4207 0
4138 4140 -4207 0
-4138 4140 4207 0
4138 -4140 4207 0
-4142 -4144 -4209 0
4142 4144 -4209 0
-4142 4144 4209 0
4142 -4144 4209 0
-4146 -4148 -4211 0
4146 4148 -4211 0
-4146 4148 4211 0
4146 -4148 4211 0
-4150 -4152 -4214 0
4150 4152 -4214 0
-4150 4152 4214 0
4150 -4152 4214 0
-4154 -4156 -4215 0
4154 4156 -4215 0
-4154 4156 4215 0
4154 -4156 4215 0
-4158 -4160 -4217 0
4158 4160 -4217 0
-4158 4160 4217 0
4158 -4160 4217 0
-4162 -4164 -4219 0
4162 4164 -4219 0
-4162 4164 4219 0
4162 -4164 4219 0
-4166 -4168 -4221 0
4166 4168 -4221 0
-4166 4168 4221 0
4166 -4168 4221 0
-4170 -4172 -4223 0
4170 4172 -4223 0
-4170 4172 4223 0
4170 -4172 4223 0
-4176 -4178 -4225 0
4176 4178 -4225 0
-4176 4178 4225 0
4176 -4178 4225 0
-4180 -4182 -4227 0
4180 4182 -4227 0
-4180 4182 4227 0
4180 -4182 4227 0
-4184 -4186 -4229 0
4184 4186 -4229 0
-4184 4186 4229 0
4184 -4186 4229 0
-4188 -4190 -4231 0
4188 4190 -4231 0
-4188 4190 4231 0
4188 -4190 4231 0
-4192 -4194 -4233 0
4192 4194 -4233 0
-4192 4194 4233 0
4192 -4194 4233 0
-4196 -4197 -4235 0
4196 4197 -4235 0
-4196 4197 4235 0
4196 -4197 4235 0
-4198 -4199 -4237 0
4198 4199 -4237 0
-4198 4199 4237 0
4198 -4199 4237 0
-4200 -4201 -4238 0
4200 4201 -4238 0
-4200 4201 4238 0
4200 -4201 4238 0
-4202 -4203 -4240 0
4202 4203 -4240 0
-4202 4203 4240 0
4202 -4203 4240 0
-4204 -4205 -4243 0
4204 4205 -4243 0
-4204 4205 4243 0
4204 -4205 4243 0
-4207 -4209 -4244 0
4207 4209 -4244 0
-4207 4209 4244 0
4207 -4209 4244 0
-4211 -4213 -4246 0
4211 4213 -4246 0
-4211 4213 4246 0
4211 -4213 4246 0
-4214 -4215 -4248 0
4214 4215 -4248 0
-4214 4215 4248 0
4214 -4215 4248 0
-4217 -4219 -4250 0
4217 4219 -4250 0
-4217 4219 4250 0
4217 -4219 4250 0
-4221 -4223 -4252 0
4221 4223 -4252 0
-4221 4223 4252 0
4221 -4223 4252 0
-4224 -4225 -4254 0
4224 4225 -4254 0
-4224 4225 4254 0
4224 -4225 4254 0
-4227 -4229 -4256 0
4227 4229 -4256 0
-4227 4229 4256 0
4227 -4229 4256 0
-4231 -4233 -4258 0
4231 4233 -4258 0
-4231 4233 4258 0
4231 -4233 4258 0
-4195 -4235 -4260 0
4195 4235 -4260 0
4195 -4235 4260 0
-4195 4235 4260 0
-4237 -4238 -4262 0
4237 4238 -4262 0
-4237 4238 4262 0
4237 -4238 4262 0
-4240 -4242 -4264 0
4240 4242 -4264 0
-4240 4242 4264 0
4240 -4242 4264 0
-4243 -4244 -4266 0
4243 4244 -4266 0
-4243 4244 4266 0
4243 -4244 4266 0
-4246 -4248 -4268 0
4246 4248 -4268 0
-4246 4248 4268 0
4246 -4248 4268 0
-4250 -4252 -4270 0
4250 4252 -4270 0
-4250 4252 4270 0
4250 -4252 4270 0
-4254 -4256 -4272 0
4254 4256 -4272 0
-4254 4256 4272 0
4254 -4256 4272 0
-4258 -4260 -4274 0
4258 4260 -4274 0
-4258 4260 4274 0
4258 -4260 4274 0
-4262 -4264 -4276 0
4262 4264 -4276 0
-4262 4264 4276 0
4262 -4264 4276 0
-4266 -4268 -4278 0
4266 4268 -4278 0
-4266 4268 4278 0
4266 -4268 4278 0
-4270 -4272 -4280 0
4270 4272 -4280 0
-4270 4272 4280 0
4270 -4272 4280 0
-4274 -4276 -4282 0
4274 4276 -4282 0
-4274 4276 4282 0
4274 -4276 4282 0
-4278 -4280 -4282 0
4278 4280 -4282 0
-4278 4280 4282 0
4278 -4280 4282 0
-4206 -4208 -4288 0
4206 4208 -4288 0
-4206 4208 4288 0
4206 -4208 4288 0
-4210 -4212 -4289 0
4210 4212 -4289 0
-4210 4212 4289 0
4210 -4212 4289 0
-4216 -4218 -4291 0
4216 4218 -4291 0
-4216 4218 4291 0
4216 -4218 4291 0
-4220 -4222 -4293 0
4220 4222 -4293 0
-4220 4222 4293 0
4220 -4222 4293 0
-4226 -4228 -4296 0
4226 4228 -4296 0
-4226 4228 4296 0
4226 -4228 4296 0
-4230 -4232 -4297 0
4230 4232 -4297 0
-4230 4232 4297 0
4230 -4232 4297 0
-4234 -4236 -4299 0
4234 4236 -4299 0
-4234 4236 4299 0
4234 -4236 4299 0
-4239 -4241 -4302 0
4239 4241 -4302 0
-4239 4241 4302 0
4239 -4241 4302 0
-4245 -4247 -4304 0
4245 4247 -4304 0
-4245 4247 4304 0
4245 -4247 4304 0
-4249 -4251 -4305 0
4249 4251 -4305 0
-4249 4251 4305 0
4249 -4251 4305 0
-4253 -4255 -4307 0
4253 4255 -4307 0
-4253 4255 4307 0
4253 -4255 4307 0
-4257 -4259 -4309 0
4257 4259 -4309 0
-4257 4259 4309 0
4257 -4259 4309 0
-4261 -4263 -4311 0
4261 4263 -4311 0
-4261 4263 4311 0
4261 -4263 4311 0
-4265 -4267 -4313 0
4265 4267 -4313 0
-4265 4267 4313 0
4265 -4267 4313 0
-4269 -4271 -4315 0
4269 4271 -4315 0
-4269 4271 4315 0
4269 -4271 4315 0
-4273 -4275 -4317 0
4273 4275 -4317 0
-4273 4275 4317 0
4273 -4275 4317 0
-4277 -4279 -4319 0
4277 4279 -4319 0
-4277 4279 4319 0
4277 -4279 4319 0
-4281 -4283 -4321 0
4281 4283 -4321 0
-4281 4283 4321 0
4281 -4283 4321 0
-4282 -4284 -4323 0
4282 4284 -4323 0
4282 -4284 4323 0
-4282 4284 4323 0
-4285 -4286 -4349 0
4285 4286 -4349 0
-4285 4286 4349 0
4285 -4286 4349 0
-4287 -4288 -4325 0
4287 4288 -4325 0
-4287 4288 4325 0
4287 -4288 4325 0
-4289 -4290 -4327 0
4289 4290 -4327 0
-4289 4290 4327 0
4289 -4290 4327 0
-4291 -4293 -4329 0
4291 4293 -4329 0
-4291 4293 4329 0
4291 -4293 4329 0
-4295 -4296 -4331 0
4295 4296 -4331 0
-4295 4296 4331 0
4295 -4296 4331 0
-4297 -4299 -4333 0
4297 4299 -4333 0
-4297 4299 4333 0
4297 -4299 4333 0
-4301 -4302 -4335 0
4301 4302 -4335 0
-4301 4302 4335 0
4301 -4302 4335 0
-4303 -4304 -4337 0
4303 4304 -4337 0
-4303 4304 4337 0
4303 -4304 4337 0
-4305 -4307 -4339 0
4305 4307 -4339 0
-4305 4307 4339 0
4305 -4307 4339 0
-4309 -4311 -4341 0
4309 4311 -4341 0
-4309 4311 4341 0
4309 -4311 4341 0
-4313 -4315 -4343 0
4313 4315 -4343 0
-4313 4315 4343 0
4313 -4315 4343 0
-4317 -4319 -4345 0
4317 4319 -4345 0
-4317 4319 4345 0
4317 -4319 4345 0
-4321 -4323 -4347 0
4321 4323 -4347 0
-4321 4323 4347 0
4321 -4323 4347 0
-4325 -4327 -4350 0
4325 4327 -4350 0
-4325 4327 4350 0
4325 -4327 4350 0
-4329 -4331 -4351 0
4329 4331 -4351 0
-4329 4331 4351 0
4329 -4331 4351 0
-4333 -4335 -4353 0
4333 4335 -4353 0
-4333 4335 4353 0
4333 -4335 4353 0
-4337 -4339 -4355 0
4337 4339 -4355 0
-4337 4339 4355 0
4337 -4339 4355 0
-4341 -4343 -4357 0
4341 4343 -4357 0
-4341 4343 4357 0
4341 -4343 4357 0
-4345 -4347 -4359 0
4345 4347 -4359 0
-4345 4347 4359 0
4345 -4347 4359 0
-4349 -4350 -4361 0
4349 4350 -4361 0
-4349 4350 4361 0
4349 -4350 4361 0
-4351 -4353 -4363 0
4351 4353 -4363 0
-4351 4353 4363 0
4351 -4353 4363 0
-4355 -4357 -4365 0
4355 4357 -4365 0
-4355 4357 4365 0
4355 -4357 4365 0
-4359 -4361 -4367 0
4359 4361 -4367 0
-4359 4361 4367 0
4359 -4361 4367 0
-4363 -4365 -4367 0
4363 4365 -4367 0
-4363 4365 4367 0
4363 -4365 4367 0
-4292 -4294 -4372 0
4292 4294 -4372 0
-4292 4294 4372 0
4292 -4294 4372 0
-4298 -4300 -4374 0
4298 4300 -4374 0
-4298 4300 4374 0
4298 -4300 4374 0
-4306 -4308 -4377 0
4306 4308 -4377 0
-4306 4308 4377 0
4306 -4308 4377 0
-4310 -4312 -4378 0
4310 4312 -4378 0
-4310 4312 4378 0
4310 -4312 4378 0
-4314 -4316 -4380 0
4314 4316 -4380 0
-4314 4316 4380 0
4314 -4316 4380 0
-4318 -4320 -4382 0
4318 4320 -4382 0
-4318 4320 4382 0
4318 -4320 4382 0
-4322 -4324 -4384 0
4322 4324 -4384 0
-4322 4324 4384 0
4322 -4324 4384 0
-4326 -4328 -4387 0
4326 4328 -4387 0
-4326 4328 4387 0
4326 -4328 4387 0
-4330 -4332 -4388 0
4330 4332 -4388 0
-4330 4332 4388 0
4330 -4332 4388 0
-4334 -4336 -4390 0
4334 4336 -4390 0
-4334 4336 4390 0
4334 -4336 4390 0
-4338 -4340 -4392 0
4338 4340 -4392 0
-4338 4340 4392 0
4338 -4340 4392 0
-4342 -4344 -4394 0
4342 4344 -4394 0
-4342 4344 4394 0
4342 -4344 4394 0
-4346 -4348 -4396 0
4346 4348 -4396 0
-4346 4348 4396 0
4346 -4348 4396 0
-4352 -4354 -4398 0
4352 4354 -4398 0
-4352 4354 4398 0
4352 -4354 4398 0
-4356 -4358 -4400 0
4356 4358 -4400 0
-4356 4358 4400 0
4356 -4358 4400 0
-4360 -4362 -4402 0
4360 4362 -4402 0
-4360 4362 4402 0
4360 -4362 4402 0
-4364 -4366 -4404 0
4364 4366 -4404 0
-4364 4366 4404 0
4364 -4366 4404 0
-4368 -4369 -4406 0
4368 4369 -4406 0
-4368 4369 4406 0
4368 -4369 4406 0
-4371 -4372 -4407 0
4371 4372 -4407 0
-4371 4372 4407 0
4371 -4372 4407 0
-4373 -4374 -4408 0
4373 4374 -4408 0
-4373 4374 4408 0
4373 -4374 4408 0
-4375 -4376 -4410 0
4375 4376 -4410 0
-4375 4376 4410 0
4375 -4376 4410 0
-4377 -4378 -4412 0
4377 4378 -4412 0
-4377 4378 4412 0
4377 -4378 4412 0
-4380 -4382 -4414 0
4380 4382 -4414 0
-4380 4382 4414 0
4380 -4382 4414 0
-4384 -4386 -4416 0
4384 4386 -4416 0
-4384 4386 4416 0
4384 -4386 4416 0
-4387 -4388 -4418 0
4387 4388 -4418 0
-4387 4388 4418 0
4387 -4388 4418 0
-4390 -4392 -4420 0
4390 4392 -4420 0
-4390 4392 4420 0
4390 -4392 4420 0
-4394 -4396 -4422 0
4394 4396 -4422 0
-4394 4396 4422 0
4394 -4396 4422 0
-4397 -4398 -4424 0
4397 4398 -4424 0
-4397 4398 4424 0
4397 -4398 4424 0
-4400 -4402 -4426 0
4400 4402 -4426 0
-4400 4402 4426 0
4400 -4402 4426 0
-4404 -4406 -4428 0
4404 4406 -4428 0
-4404 4406 4428 0
4404 -4406 4428 0
-4367 -4370 -4430 0
4367 4370 -4430 0
-4367 4370 4430 0
4367 -4370 4430 0
-4407 -4408 -4432 0
4407 4408 -4432 0
-4407 4408 4432 0
4407 -4408 4432 0
-4410 -4412 -4434 0
4410 4412 -4434 0
-4410 4412 4434 0
4410 -4412 4434 0
-4414 -4416 -4436 0
4414 4416 -4436 0
-4414 4416 4436 0
4414 -4416 4436 0
-4418 -4420 -4438 0
4418 4420 -4438 0
-4418 4420 4438 0
4418 -4420 4438 0
-4422 -4424 -4440 0
4422 4424 -4440 0
-4422 4424 4440 0
4422 -4424 4440 0
-4426 -4428 -4442 0
4426 4428 -4442 0
-4426 4428 4442 0
4426 -4428 4442 0
-4430 -4432 -4444 0
4430 4432 -4444 0
-4430 4432 4444 0
4430 -4432 4444 0
-4434 -4436 -4446 0
4434 4436 -4446 0
-4434 4436 4446 0
4434 -4436 4446 0
-4438 -4440 -4448 0
4438 4440 -4448 0
-4438 4440 4448 0
4438 -4440 4448 0
-4442 -4444 -4450 0
4442 4444 -4450 0
-4442 4444 4450 0
4442 -4444 4450 0
-4446 -4448 -4450 0
4446 4448 -4450 0
-4446 4448 4450 0
4446 -4448 4450 0
-4379 -4381 -4456 0
4379 4381 -4456 0
-4379 4381 4456 0
4379 -4381 4456 0
-4383 -4385 -4457 0
4383 4385 -4457 0
-4383 4385 4457 0
4383 -4385 4457 0
-4389 -4391 -4459 0
4389 4391 -4459 0
-4389 4391 4459 0
4389 -4391 4459 0
-4393 -4395 -4461 0
4393 4395 -4461 0
-4393 4395 4461 0
4393 -4395 4461 0
-4399 -4401 -4464 0
4399 4401 -4464 0
-4399 4401 4464 0
4399 -4401 4464 0
-4403 -4405 -4465 0
4403 4405 -4465 0
-4403 4405 4465 0
4403 -4405 4465 0
-4409 -4411 -4468 0
4409 4411 -4468 0
-4409 4411 4468 0
4409 -4411 4468 0
-4413 -4415 -4469 0
4413 4415 -4469 0
-4413 4415 4469 0
4413 -4415 4469 0
-4417 -4419 -4471 0
4417 4419 -4471 0
-4417 4419 4471 0
4417 -4419 4471 0
-4421 -4423 -4473 0
4421 4423 -4473 0
-4421 4423 4473 0
4421 -4423 4473 0
-4425 -4427 -4475 0
4425 4427 -4475 0
-4425 4427 4475 0
4425 -4427 4475 0
-4429 -4431 -4477 0
4429 4431 -4477 0
-4429 4431 4477 0
4429 -4431 4477 0
-4433 -4435 -4479 0
4433 4435 -4479 0
-4433 4435 4479 0
4433 -4435 4479 0
-4437 -4439 -4481 0
4437 4439 -4481 0
-4437 4439 4481 0
4437 -4439 4481 0
-4441 -4443 -4483 0
4441 4443 -4483 0
-4441 4443 4483 0
4441 -4443 4483 0
-4445 -4447 -4485 0
4445 4447 -4485 0
-4445 4447 4485 0
4445 -4447 4485 0
-4449 -4451 -4487 0
4449 4451 -4487 0
-4449 4451 4487 0
4449 -4451 4487 0
-4450 -4452 -4513 0
4450 4452 -4513 0
4450 -4452 4513 0
-4450 4452 4513 0
-4453 -4454 -4489 0
4453 4454 -4489 0
-4453 4454 4489 0
4453 -4454 4489 0
-4455 -4456 -4491 0
4455 4456 -4491 0
-4455 4456 4491 0
4455 -4456 4491 0
-4457 -4458 -4493 0
4457 4458 -4493 0
-4457 4458 4493 0
4457 -4458 4493 0
-4459 -4461 -4495 0
4459 4461 -4495 0
-4459 4461 4495 0
4459 -4461 4495 0
-4463 -4464 -4497 0
4463 4464 -4497 0
-4463 4464 4497 0
4463 -4464 4497 0
-4465 -4466 -4499 0
4465 4466 -4499 0
-4465 4466 4499 0
4465 -4466 4499 0
-4467 -4468 -4501 0
4467 4468 -4501 0
-4467 4468 4501 0
4467 -4468 4501 0
-4469 -4471 -4503 0
4469 4471 -4503 0
-4469 4471 4503 0
4469 -4471 4503 0
-4473 -4475 -4505 0
4473 4475 -4505 0
-4473 4475 4505 0
4473 -4475 4505 0
-4477 -4479 -4507 0
4477 4479 -4507 0
-4477 4479 4507 0
4477 -4479 4507 0
-4481 -4483 -4509 0
4481 4483 -4509 0
-4481 4483 4509 0
4481 -4483 4509 0
-4485 -4487 -4511 0
4485 4487 -4511 0
-4485 4487 4511 0
4485 -4487 4511 0
-4489 -4491 -4514 0
4489 4491 -4514 0
-4489 4491 4514 0
4489 -4491 4514 0
-4493 -4495 -4515 0
4493 4495 -4515 0
-4493 4495 4515 0
4493 -4495 4515 0
-4497 -4499 -4517 0
4497 4499 -4517 0
-4497 4499 4517 0
4497 -4499 4517 0
-4501 -4503 -4519 0
4501 4503 -4519 0
-4501 4503 4519 0
4501 -4503 4519 0
-4505 -4507 -4521 0
4505 4507 -4521 0
-4505 4507 4521 0
4505 -4507 4521 0
-4509 -4511 -4523 0
4509 4511 -4523 0
-4509 4511 4523 0
4509 -4511 4523 0
-4513 -4514 -4525 0
4513 4514 -4525 0
-4513 4514 4525 0
4513 -4514 4525 0
-4515 -4517 -4527 0
4515 4517 -4527 0
-4515 4517 4527 0
4515 -4517 4527 0
-4519 -4521 -4529 0
4519 4521 -4529 0
-4519 4521 4529 0
4519 -4521 4529 0
-4523 -4525 -4531 0
4523 4525 -4531 0
-4523 4525 4531 0
4523 -4525 4531 0
-4527 -4529 -4531 0
4527 4529 -4531 0
-4527 4529 4531 0
4527 -4529 4531 0
-4460 -4462 -4536 0
4460 4462 -4536 0
-4460 4462 4536 0
4460 -4462 4536 0
-4470 -4472 -4540 0
4470 4472 -4540 0
-4470 4472 4540 0
4470 -4472 4540 0
-4474 -4476 -4542 0
4474 4476 -4542 0
-4474 4476 4542 0
4474 -4476 4542 0
-4478 -4480 -4544 0
4478 4480 -4544 0
-4478 4480 4544 0
4478 -4480 4544 0
-4482 -4484 -4546 0
4482 4484 -4546 0
-4482 4484 4546 0
4482 -4484 4546 0
-4486 -4488 -4548 0
4486 4488 -4548 0
-4486 4488 4548 0
4486 -4488 4548 0
-4490 -4492 -4550 0
4490 4492 -4550 0
-4490 4492 4550 0
4490 -4492 4550 0
-4494 -4496 -4552 0
4494 4496 -4552 0
-4494 4496 4552 0
4494 -4496 4552 0
-4498 -4500 -4554 0
4498 4500 -4554 0
-4498 4500 4554 0
4498 -4500 4554 0
-4502 -4504 -4556 0
4502 4504 -4556 0
-4502 4504 4556 0
4502 -4504 4556 0
-4506 -4508 -4558 0
4506 4508 -4558 0
-4506 4508 4558 0
4506 -4508 4558 0
-4510 -4512 -4560 0
4510 4512 -4560 0
-4510 4512 4560 0
4510 -4512 4560 0
-4516 -4518 -4563 0
4516 4518 -4563 0
-4516 4518 4563 0
4516 -4518 4563 0
-4520 -4522 -4564 0
4520 4522 -4564 0
-4520 4522 4564 0
4520 -4522 4564 0
-4524 -4526 -4566 0
4524 4526 -4566 0
-4524 4526 4566 0
4524 -4526 4566 0
-4528 -4530 -4568 0
4528 4530 -4568 0
-4528 4530 4568 0
4528 -4530 4568 0
-4532 -4533 -4570 0
4532 4533 -4570 0
-4532 4533 4570 0
4532 -4533 4570 0
-4535 -4536 -4572 0
4535 4536 -4572 0
-4535 4536 4572 0
4535 -4536 4572 0
-4537 -4538 -4574 0
4537 4538 -4574 0
-4537 4538 4574 0
4537 -4538 4574 0
-4539 -4540 -4576 0
4539 4540 -4576 0
-4539 4540 4576 0
4539 -4540 4576 0
-4542 -4544 -4578 0
4542 4544 -4578 0
-4542 4544 4578 0
4542 -4544 4578 0
-4546 -4548 -4580 0
4546 4548 -4580 0
-4546 4548 4580 0
4546 -4548 4580 0
-4549 -4550 -4582 0
4549 4550 -4582 0
-4549 4550 4582 0
4549 -4550 4582 0
-4552 -4554 -4584 0
4552 4554 -4584 0
-4552 4554 4584 0
4552 -4554 4584 0
-4556 -4558 -4586 0
4556 4558 -4586 0
-4556 4558 4586 0
4556 -4558 4586 0
-4560 -4562 -4588 0
4560 4562 -4588 0
-4560 4562 4588 0
4560 -4562 4588 0
-4563 -4564 -4590 0
4563 4564 -4590 0
-4563 4564 4590 0
4563 -4564 4590 0
-4566 -4568 -4592 0
4566 4568 -4592 0
-4566 4568 4592 0
4566 -4568 4592 0
-4531 -4570 -4594 0
4531 4570 -4594 0
4531 -4570 4594 0
-4531 4570 4594 0
-4534 -4572 -4596 0
4534 4572 -4596 0
-4534 4572 4596 0
4534 -4572 4596 0
-4574 -4576 -4598 0
4574 4576 -4598 0
-4574 4576 4598 0
4574 -4576 4598 0
-4578 -4580 -4600 0
4578 4580 -4600 0
-4578 4580 4600 0
4578 -4580 4600 0
-4582 -4584 -4602 0
4582 4584 -4602 0
-4582 4584 4602 0
4582 -4584 4602 0
-4586 -4588 -4604 0
4586 4588 -4604 0
-4586 4588 4604 0
4586 -4588 4604 0
-4590 -4592 -4606 0
4590 4592 -4606 0
-4590 4592 4606 0
4590 -4592 4606 0
-4594 -4596 -4608 0
4594 4596 -4608 0
-4594 4596 4608 0
4594 -4596 4608 0
-4598 -4600 -4610 0
4598 4600 -4610 0
-4598 4600 4610 0
4598 -4600 4610 0
-4602 -4604 -4612 0
4602 4604 -4612 0
-4602 4604 4612 0
4602 -4604 4612 0
-4606 -4608 -4614 0
4606 4608 -4614 0
-4606 4608 4614 0
4606 -4608 4614 0
-4610 -4612 -4614 0
4610 4612 -4614 0
-4610 4612 4614 0
4610 -4612 4614 0
-4541 -4543 -4617 0
4541 4543 -4617 0
-4541 4543 4617 0
4541 -4543 4617 0
-4545 -4547 -4619 0
4545 4547 -4619 0
-4545 4547 4619 0
4545 -4547 4619 0
-4551 -4553 -4622 0
4551 4553 -4622 0
-4551 4553 4622 0
4551 -4553 4622 0
-4555 -4557 -4623 0
4555 4557 -4623 0
-4555 4557 4623 0
4555 -4557 4623 0
-4559 -4561 -4625 0
4559 4561 -4625 0
-4559 4561 4625 0
4559 -4561 4625 0
-4565 -4567 -4628 0
4565 4567 -4628 0
-4565 4567 4628 0
4565 -4567 4628 0
-4569 -4571 -4661 0
4569 4571 -4661 0
-4569 4571 4661 0
4569 -4571 4661 0
-4573 -4575 -4629 0
4573 4575 -4629 0
-4573 4575 4629 0
4573 -4575 4629 0
-4577 -4579 -4631 0
4577 4579 -4631 0
-4577 4579 4631 0
4577 -4579 4631 0
-4581 -4583 -4633 0
4581 4583 -4633 0
-4581 4583 4633 0
4581 -4583 4633 0
-4585 -4587 -4635 0
4585 4587 -4635 0
-4585 4587 4635 0
4585 -4587 4635 0
-4589 -4591 -4637 0
4589 4591 -4637 0
-4589 4591 4637 0
4589 -4591 4637 0
-4593 -4595 -4639 0
4593 4595 -4639 0
-4593 4595 4639 0
4593 -4595 4639 0
-4597 -4599 -4641 0
4597 4599 -4641 0
-4597 4599 4641 0
4597 -4599 4641 0
-4601 -4603 -4643 0
4601 4603 -4643 0
-4601 4603 4643 0
4601 -4603 4643 0
-4605 -4607 -4645 0
4605 4607 -4645 0
-4605 4607 4645 0
4605 -4607 4645 0
-4609 -4611 -4647 0
4609 4611 -4647 0
-4609 4611 4647 0
4609 -4611 4647 0
-4613 -4615 -4649 0
4613 4615 -4649 0
-4613 4615 4649 0
4613 -4615 4649 0
-4614 -4616 -4651 0
4614 4616 -4651 0
4614 -4616 4651 0
-4614 4616 4651 0
-4617 -4619 -4653 0
4617 4619 -4653 0
-4617 4619 4653 0
4617 -4619 4653 0
-4621 -4622 -4655 0
4621 4622 -4655 0
-4621 4622 4655 0
4621 -4622 4655 0
-4623 -4625 -4657 0
4623 4625 -4657 0
-4623 4625 4657 0
4623 -4625 4657 0
-4627 -4628 -4659 0
4627 4628 -4659 0
-4627 4628 4659 0
4627 -4628 4659 0
-4629 -4631 -4662 0
4629 4631 -4662 0
-4629 4631 4662 0
4629 -4631 4662 0
-4633 -4635 -4663 0
4633 4635 -4663 0
-4633 4635 4663 0
4633 -4635 4663 0
-4637 -4639 -4665 0
4637 4639 -4665 0
-4637 4639 4665 0
4637 -4639 4665 0
-4641 -4643 -4667 0
4641 4643 -4667 0
-4641 4643 4667 0
4641 -4643 4667 0
-4645 -4647 -4669 0
4645 4647 -4669 0
-4645 4647 4669 0
4645 -4647 4669 0
-4649 -4651 -4671 0
4649 4651 -4671 0
-4649 4651 4671 0
4649 -4651 4671 0
-4653 -4655 -4673 0
4653 4655 -4673 0
-4653 4655 4673 0
4653 -4655 4673 0
-4657 -4659 -4675 0
4657 4659 -4675 0
-4657 4659 4675 0
4657 -4659 4675 0
-4661 -4662 -4677 0
4661 4662 -4677 0
-4661 4662 4677 0
4661 -4662 4677 0
-4663 -4665 -4679 0
4663 4665 -4679 0
-4663 4665 4679 0
4663 -4665 4679 0
-4667 -4669 -4681 0
4667 4669 -4681 0
-4667 4669 4681 0
4667 -4669 4681 0
-4671 -4672 -4683 0
4671 4672 -4683 0
-4671 4672 4683 0
4671 -4672 4683 0
-4673 -4675 -4685 0
4673 4675 -4685 0
-4673 4675 4685 0
4673 -4675 4685 0
-4677 -4679 -4687 0
4677 4679 -4687 0
-4677 4679 4687 0
4677 -4679 4687 0
-4681 -4683 -4689 0
4681 4683 -4689 0
-4681 4683 4689 0
4681 -4683 4689 0
-4685 -4687 -4689 0
4685 4687 -4689 0
-4685 4687 4689 0
4685 -4687 4689 0
-4618 -4620 -4722 0
4618 4620 -4722 0
-4618 4620 4722 0
4618 -4620 4722 0
-4624 -4626 -4693 0
4624 4626 -4693 0
-4624 4626 4693 0
4624 -4626 4693 0
-4630 -4632 -4696 0
4630 4632 -4696 0
-4630 4632 4696 0
4630 -4632 4696 0
-4634 -4636 -4697 0
4634 4636 -4697 0
-4634 4636 4697 0
4634 -4636 4697 0
-4638 -4640 -4699 0
4638 4640 -4699 0
-4638 4640 4699 0
4638 -4640 4699 0
-4642 -4644 -4701 0
4642 4644 -4701 0
-4642 4644 4701 0
4642 -4644 4701 0
-4646 -4648 -4703 0
4646 4648 -4703 0
-4646 4648 4703 0
4646 -4648 4703 0
-4650 -4652 -4705 0
4650 4652 -4705 0
-4650 4652 4705 0
4650 -4652 4705 0
-4654 -4656 -4732 0
4654 4656 -4732 0
-4654 4656 4732 0
4654 -4656 4732 0
-4658 -4660 -4707 0
4658 4660 -4707 0
-4658 4660 4707 0
4658 -4660 4707 0
-4664 -4666 -4710 0
4664 4666 -4710 0
-4664 4666 4710 0
4664 -4666 4710 0
-4668 -4670 -4711 0
4668 4670 -4711 0
-4668 4670 4711 0
4668 -4670 4711 0
-4674 -4676 -4713 0
4674 4676 -4713 0
-4674 4676 4713 0
4674 -4676 4713 0
-4678 -4680 -4715 0
4678 4680 -4715 0
-4678 4680 4715 0
4678 -4680 4715 0
-4682 -4684 -4717 0
4682 4684 -4717 0
-4682 4684 4717 0
4682 -4684 4717 0
-4686 -4688 -4719 0
4686 4688 -4719 0
-4686 4688 4719 0
4686 -4688 4719 0
-4690 -4691 -4721 0
4690 4691 -4721 0
-4690 4691 4721 0
4690 -4691 4721 0
-4692 -4693 -4723 0
4692 4693 -4723 0
-4692 4693 4723 0
4692 -4693 4723 0
-4694 -4695 -4724 0
4694 4695 -4724 0
-4694 4695 4724 0
4694 -4695 4724 0
-4696 -4697 -4726 0
4696 4697 -4726 0
-4696 4697 4726 0
4696 -4697 4726 0
-4699 -4701 -4728 0
4699 4701 -4728 0
-4699 4701 4728 0
4699 -4701 4728 0
-4703 -4705 -4730 0
4703 4705 -4730 0
-4703 4705 4730 0
4703 -4705 4730 0
-4707 -4709 -4733 0
4707 4709 -4733 0
-4707 4709 4733 0
4707 -4709 4733 0
-4710 -4711 -4734 0
4710 4711 -4734 0
-4710 4711 4734 0
4710 -4711 4734 0
-4712 -4713 -4736 0
4712 4713 -4736 0
-4712 4713 4736 0
4712 -4713 4736 0
-4715 -4717 -4738 0
4715 4717 -4738 0
-4715 4717 4738 0
4715 -4717 4738 0
-4719 -4721 -4740 0
4719 4721 -4740 0
-4719 4721 4740 0
4719 -4721 4740 0
-4689 -4722 -4742 0
4689 4722 -4742 0
-4689 4722 4742 0
4689 -4722 4742 0
-4723 -4724 -4744 0
4723 4724 -4744 0
-4723 4724 4744 0
4723 -4724 4744 0
-4726 -4728 -4746 0
4726 4728 -4746 0
-4726 4728 4746 0
4726 -4728 4746 0
-4730 -4732 -4748 0
4730 4732 -4748 0
-4730 4732 4748 0
4730 -4732 4748 0
-4733 -4734 -4750 0
4733 4734 -4750 0
-4733 4734 4750 0
4733 -4734 4750 0
-4736 -4738 -4752 0
4736 4738 -4752 0
-4736 4738 4752 0
4736 -4738 4752 0
-4740 -4742 -4754 0
4740 4742 -4754 0
-4740 4742 4754 0
4740 -4742 4754 0
-4744 -4746 -4756 0
4744 4746 -4756 0
-4744 4746 4756 0
4744 -4746 4756 0
-4748 -4750 -4758 0
4748 4750 -4758 0
-4748 4750 4758 0
4748 -4750 4758 0
-4752 -4754 -4760 0
4752 4754 -4760 0
-4752 4754 4760 0
4752 -4754 4760 0
-4756 -4758 -4760 0
4756 4758 -4760 0
-4756 4758 4760 0
4756 -4758 4760 0
-4698 -4700 -4766 0
4698 4700 -4766 0
-4698 4700 4766 0
4698 -4700 4766 0
-4702 -4704 -4768 0
4702 4704 -4768 0
-4702 4704 4768 0
4702 -4704 4768 0
-4706 -4708 -4771 0
4706 4708 -4771 0
-4706 4708 4771 0
4706 -4708 4771 0
-4714 -4716 -4774 0
4714 4716 -4774 0
-4714 4716 4774 0
4714 -4716 4774 0
-4718 -4720 -4776 0
4718 4720 -4776 0
-4718 4720 4776 0
4718 -4720 4776 0
-4725 -4727 -4780 0
4725 4727 -4780 0
-4725 4727 4780 0
4725 -4727 4780 0
-4729 -4731 -4782 0
4729 4731 -4782 0
-4729 4731 4782 0
4729 -4731 4782 0
-4735 -4737 -4785 0
4735 4737 -4785 0
-4735 4737 4785 0
4735 -4737 4785 0
-4739 -4741 -4786 0
4739 4741 -4786 0
-4739 4741 4786 0
4739 -4741 4786 0
-4743 -4745 -4788 0
4743 4745 -4788 0
-4743 4745 4788 0
4743 -4745 4788 0
-4747 -4749 -4790 0
4747 4749 -4790 0
-4747 4749 4790 0
4747 -4749 4790 0
-4751 -4753 -4792 0
4751 4753 -4792 0
-4751 4753 4792 0
4751 -4753 4792 0
-4755 -4757 -4794 0
4755 4757 -4794 0
-4755 4757 4794 0
4755 -4757 4794 0
-4759 -4761 -4796 0
4759 4761 -4796 0
-4759 4761 4796 0
4759 -4761 4796 0
-4760 -4762 -4798 0
4760 4762 -4798 0
4760 -4762 4798 0
-4760 4762 4798 0
-4764 -4765 -4799 0
4764 4765 -4799 0
-4764 4765 4799 0
4764 -4765 4799 0
-4766 -4768 -4801 0
4766 4768 -4801 0
-4766 4768 4801 0
4766 -4768 4801 0
-4770 -4771 -4803 0
4770 4771 -4803 0
-4770 4771 4803 0
4770 -4771 4803 0
-4772 -4773 -4805 0
4772 4773 -4805 0
-4772 4773 4805 0
4772 -4773 4805 0
-4774 -4776 -4807 0
4774 4776 -4807 0
-4774 4776 4807 0
4774 -4776 4807 0
-4778 -4779 -4809 0
4778 4779 -4809 0
-4778 4779 4809 0
4778 -4779 4809 0
-4780 -4782 -4811 0
4780 4782 -4811 0
-4780 4782 4811 0
4780 -4782 4811 0
-4784 -4785 -4813 0
4784 4785 -4813 0
-4784 4785 4813 0
4784 -4785 4813 0
-4786 -4788 -4815 0
4786 4788 -4815 0
-4786 4788 4815 0
4786 -4788 4815 0
-4790 -4792 -4817 0
4790 4792 -4817 0
-4790 4792 4817 0
4790 -4792 4817 0
-4794 -4796 -4819 0
4794 4796 -4819 0
-4794 4796 4819 0
4794 -4796 4819 0
-4763 -4798 -4821 0
4763 4798 -4821 0
4763 -4798 4821 0
-4763 4798 4821 0
-4799 -4801 -4823 0
4799 4801 -4823 0
-4799 4801 4823 0
4799 -4801 4823 0
-4803 -4805 -4825 0
4803 4805 -4825 0
-4803 4805 4825 0
4803 -4805 4825 0
-4807 -4809 -4827 0
4807 4809 -4827 0
-4807 4809 4827 0
4807 -4809 4827 0
-4811 -4813 -4829 0
4811 4813 -4829 0
-4811 4813 4829 0
4811 -4813 4829 0
-4815 -4817 -4831 0
4815 4817 -4831 0
-4815 4817 4831 0
4815 -4817 4831 0
-4819 -4821 -4833 0
4819 4821 -4833 0
-4819 4821 4833 0
4819 -4821 4833 0
-4823 -4825 -4835 0
4823 4825 -4835 0
-4823 4825 4835 0
4823 -4825 4835 0
-4827 -4829 -4837 0
4827 4829 -4837 0
-4827 4829 4837 0
4827 -4829 4837 0
-4831 -4833 -4839 0
4831 4833 -4839 0
-4831 4833 4839 0
4831 -4833 4839 0
-4835 -4837 -4839 0
4835 4837 -4839 0
-4835 4837 4839 0
4835 -4837 4839 0
-4767 -4769 -4872 0
4767 4769 -4872 0
-4767 4769 4872 0
4767 -4769 4872 0
-4775 -4777 -4873 0
4775 4777 -4873 0
-4775 4777 4873 0
4775 -4777 4873 0
-4781 -4783 -4843 0
4781 4783 -4843 0
-4781 4783 4843 0
4781 -4783 4843 0
-4787 -4789 -4845 0
4787 4789 -4845 0
-4787 4789 4845 0
4787 -4789 4845 0
-4791 -4793 -4846 0
4791 4793 -4846 0
-4791 4793 4846 0
4791 -4793 4846 0
-4795 -4797 -4848 0
4795 4797 -4848 0
-4795 4797 4848 0
4795 -4797 4848 0
-4800 -4802 -4851 0
4800 4802 -4851 0
-4800 4802 4851 0
4800 -4802 4851 0
-4804 -4806 -4852 0
4804 4806 -4852 0
-4804 4806 4852 0
4804 -4806 4852 0
-4808 -4810 -4854 0
4808 4810 -4854 0
-4808 4810 4854 0
4808 -4810 4854 0
-4812 -4814 -4856 0
4812 4814 -4856 0
-4812 4814 4856 0
4812 -4814 4856 0
-4816 -4818 -4858 0
4816 4818 -4858 0
-4816 4818 4858 0
4816 -4818 4858 0
-4820 -4822 -4860 0
4820 4822 -4860 0
-4820 4822 4860 0
4820 -4822 4860 0
-4824 -4826 -4862 0
4824 4826 -4862 0
-4824 4826 4862 0
4824 -4826 4862 0
-4828 -4830 -4864 0
4828 4830 -4864 0
-4828 4830 4864 0
4828 -4830 4864 0
-4832 -4834 -4866 0
4832 4834 -4866 0
-4832 4834 4866 0
4832 -4834 4866 0
-4836 -4838 -4868 0
4836 4838 -4868 0
-4836 4838 4868 0
4836 -4838 4868 0
-4840 -4841 -4870 0
4840 4841 -4870 0
-4840 4841 4870 0
4840 -4841 4870 0
-4843 -4844 -4874 0
4843 4844 -4874 0
-4843 4844 4874 0
4843 -4844 4874 0
-4845 -4846 -4876 0
4845 4846 -4876 0
-4845 4846 4876 0
4845 -4846 4876 0
-4848 -4850 -4878 0
4848 4850 -4878 0
-4848 4850 4878 0
4848 -4850 4878 0
-4851 -4852 -4880 0
4851 4852 -4880 0
-4851 4852 4880 0
4851 -4852 4880 0
-4854 -4856 -4882 0
4854 4856 -4882 0
-4854 4856 4882 0
4854 -4856 4882 0
-4858 -4860 -4884 0
4858 4860 -4884 0
-4858 4860 4884 0
4858 -4860 4884 0
-4862 -4864 -4886 0
4862 4864 -4886 0
-4862 4864 4886 0
4862 -4864 4886 0
-4866 -4868 -4888 0
4866 4868 -4888 0
-4866 4868 4888 0
4866 -4868 4888 0
-4839 -4870 -4890 0
4839 4870 -4890 0
4839 -4870 4890 0
-4839 4870 4890 0
-4842 -4872 -4892 0
4842 4872 -4892 0
4842 -4872 4892 0
-4842 4872 4892 0
-4873 -4874 -4894 0
4873 4874 -4894 0
-4873 4874 4894 0
4873 -4874 4894 0
-4876 -4878 -4896 0
4876 4878 -4896 0
-4876 4878 4896 0
4876 -4878 4896 0
-4880 -4882 -4898 0
4880 4882 -4898 0
-4880 4882 4898 0
4880 -4882 4898 0
-4884 -4886 -4900 0
4884 4886 -4900 0
-4884 4886 4900 0
4884 -4886 4900 0
-4888 -4890 -4902 0
4888 4890 -4902 0
-4888 4890 4902 0
4888 -4890 4902 0
-4892 -4894 -4904 0
4892 4894 -4904 0
-4892 4894 4904 0
4892 -4894 4904 0
-4896 -4898 -4906 0
4896 4898 -4906 0
-4896 4898 4906 0
4896 -4898 4906 0
-4900 -4902 -4908 0
4900 4902 -4908 0
-4900 4902 4908 0
4900 -4902 4908 0
-4904 -4906 -4908 0
4904 4906 -4908 0
-4904 4906 4908 0
4904 -4906 4908 0
-4847 -4849 -4915 0
4847 4849 -4915 0
-4847 4849 4915 0
4847 -4849 4915 0
-4853 -4855 -4917 0
4853 4855 -4917 0
-4853 4855 4917 0
4853 -4855 4917 0
-4857 -4859 -4918 0
4857 4859 -4918 0
-4857 4859 4918 0
4857 -4859 4918 0
-4861 -4863 -4920 0
4861 4863 -4920 0
-4861 4863 4920 0
4861 -4863 4920 0
-4865 -4867 -4922 0
4865 4867 -4922 0
-4865 4867 4922 0
4865 -4867 4922 0
-4869 -4871 -4924 0
4869 4871 -4924 0
-4869 4871 4924 0
4869 -4871 4924 0
-4875 -4877 -4926 0
4875 4877 -4926 0
-4875 4877 4926 0
4875 -4877 4926 0
-4879 -4881 -4928 0
4879 4881 -4928 0
-4879 4881 4928 0
4879 -4881 4928 0
-4883 -4885 -4930 0
4883 4885 -4930 0
-4883 4885 4930 0
4883 -4885 4930 0
-4887 -4889 -4932 0
4887 4889 -4932 0
-4887 4889 4932 0
4887 -4889 4932 0
-4891 -4893 -4934 0
4891 4893 -4934 0
-4891 4893 4934 0
4891 -4893 4934 0
-4895 -4897 -4936 0
4895 4897 -4936 0
-4895 4897 4936 0
4895 -4897 4936 0
-4899 -4901 -4938 0
4899 4901 -4938 0
-4899 4901 4938 0
4899 -4901 4938 0
-4903 -4905 -4940 0
4903 4905 -4940 0
-4903 4905 4940 0
4903 -4905 4940 0
-4907 -4909 -4942 0
4907 4909 -4942 0
-4907 4909 4942 0
4907 -4909 4942 0
-4908 -4910 -4944 0
4908 4910 -4944 0
4908 -4910 4944 0
-4908 4910 4944 0
-4912 -4913 -4946 0
4912 4913 -4946 0
-4912 4913 4946 0
4912 -4913 4946 0
-4914 -4915 -4947 0
4914 4915 -4947 0
-4914 4915 4947 0
4914 -4915 4947 0
-4916 -4917 -4949 0
4916 4917 -4949 0
-4916 4917 4949 0
4916 -4917 4949 0
-4918 -4920 -4951 0
4918 4920 -4951 0
-4918 4920 4951 0
4918 -4920 4951 0
-4922 -4924 -4953 0
4922 4924 -4953 0
-4922 4924 4953 0
4922 -4924 4953 0
-4926 -4928 -4968 0
4926 4928 -4968 0
-4926 4928 4968 0
4926 -4928 4968 0
-4930 -4932 -4955 0
4930 4932 -4955 0
-4930 4932 4955 0
4930 -4932 4955 0
-4934 -4936 -4957 0
4934 4936 -4957 0
-4934 4936 4957 0
4934 -4936 4957 0
-4938 -4940 -4959 0
4938 4940 -4959 0
-4938 4940 4959 0
4938 -4940 4959 0
-4942 -4944 -4961 0
4942 4944 -4961 0
-4942 4944 4961 0
4942 -4944 4961 0
-4911 -4946 -4963 0
4911 4946 -4963 0
-4911 4946 4963 0
4911 -4946 4963 0
-4947 -4949 -4965 0
4947 4949 -4965 0
-4947 4949 4965 0
4947 -4949 4965 0
-4951 -4953 -4967 0
4951 4953 -4967 0
-4951 4953 4967 0
4951 -4953 4967 0
-4955 -4957 -4969 0
4955 4957 -4969 0
-4955 4957 4969 0
4955 -4957 4969 0
-4959 -4961 -4971 0
4959 4961 -4971 0
-4959 4961 4971 0
4959 -4961 4971 0
-4963 -4965 -4973 0
4963 4965 -4973 0
-4963 4965 4973 0
4963 -4965 4973 0
-4967 -4968 -4975 0
4967 4968 -4975 0
-4967 4968 4975 0
4967 -4968 4975 0
-4969 -4971 -4977 0
4969 4971 -4977 0
-4969 4971 4977 0
4969 -4971 4977 0
-4973 -4975 -4977 0
4973 4975 -4977 0
-4973 4975 4977 0
4973 -4975 4977 0
-4919 -4921 -4981 0
4919 4921 -4981 0
-4919 4921 4981 0
4919 -4921 4981 0
-4923 -4925 -5010 0
4923 4925 -5010 0
-4923 4925 5010 0
4923 -4925 5010 0
-4927 -4929 -4984 0
4927 4929 -4984 0
-4927 4929 4984 0
4927 -4929 4984 0
-4931 -4933 -4985 0
4931 4933 -4985 0
-4931 4933 4985 0
4931 -4933 4985 0
-4935 -4937 -4987 0
4935 4937 -4987 0
-4935 4937 4987 0
4935 -4937 4987 0
-4939 -4941 -4989 0
4939 4941 -4989 0
-4939 4941 4989 0
4939 -4941 4989 0
-4943 -4945 -4991 0
4943 4945 -4991 0
-4943 4945 4991 0
4943 -4945 4991 0
-4948 -4950 -4994 0
4948 4950 -4994 0
-4948 4950 4994 0
4948 -4950 4994 0
-4952 -4954 -4995 0
4952 4954 -4995 0
-4952 4954 4995 0
4952 -4954 4995 0
-4956 -4958 -4997 0
4956 4958 -4997 0
-4956 4958 4997 0
4956 -4958 4997 0
-4960 -4962 -4999 0
4960 4962 -4999 0
-4960 4962 4999 0
4960 -4962 4999 0
-4964 -4966 -5001 0
4964 4966 -5001 0
-4964 4966 5001 0
4964 -4966 5001 0
-4970 -4972 -5003 0
4970 4972 -5003 0
-4970 4972 5003 0
4970 -4972 5003 0
-4974 -4976 -5005 0
4974 4976 -5005 0
-4974 4976 5005 0
4974 -4976 5005 0
-4978 -4979 -5007 0
4978 4979 -5007 0
-4978 4979 5007 0
4978 -4979 5007 0
-4980 -4981 -5009 0
4980 4981 -5009 0
-4980 4981 5009 0
4980 -4981 5009 0
-4984 -4985 -5011 0
4984 4985 -5011 0
-4984 4985 5011 0
4984 -4985 5011 0
-4987 -4989 -5012 0
4987 4989 -5012 0
-4987 4989 5012 0
4987 -4989 5012 0
-4991 -4993 -5014 0
4991 4993 -5014 0
-4991 4993 5014 0
4991 -4993 5014 0
-4994 -4995 -5016 0
4994 4995 -5016 0
-4994 4995 5016 0
4994 -4995 5016 0
-4996 -4997 -5018 0
4996 4997 -5018 0
-4996 4997 5018 0
4996 -4997 5018 0
-4999 -5001 -5020 0
4999 5001 -5020 0
-4999 5001 5020 0
4999 -5001 5020 0
-5002 -5003 -5022 0
5002 5003 -5022 0
-5002 5003 5022 0
5002 -5003 5022 0
-5005 -5007 -5024 0
5005 5007 -5024 0
-5005 5007 5024 0
5005 -5007 5024 0
-4977 -5008 -5026 0
4977 5008 -5026 0
-4977 5008 5026 0
4977 -5008 5026 0
-5009 -5010 -5028 0
5009 5010 -5028 0
-5009 5010 5028 0
5009 -5010 5028 0
-5011 -5012 -5030 0
5011 5012 -5030 0
-5011 5012 5030 0
5011 -5012 5030 0
-5014 -5016 -5032 0
5014 5016 -5032 0
-5014 5016 5032 0
5014 -5016 5032 0
-5018 -5020 -5034 0
5018 5020 -5034 0
-5018 5020 5034 0
5018 -5020 5034 0
-5022 -5024 -5036 0
5022 5024 -5036 0
-5022 5024 5036 0
5022 -5024 5036 0
-5026 -5028 -5038 0
5026 5028 -5038 0
-5026 5028 5038 0
5026 -5028 5038 0
-5030 -5032 -5040 0
5030 5032 -5040 0
-5030 5032 5040 0
5030 -5032 5040 0
-5034 -5036 -5042 0
5034 5036 -5042 0
-5034 5036 5042 0
5034 -5036 5042 0
-5038 -5040 -5042 0
5038 5040 -5042 0
-5038 5040 5042 0
5038 -5040 5042 0
-4982 -4983 -5045 0
4982 4983 -5045 0
-4982 4983 5045 0
4982 -4983 5045 0
-4986 -4988 -5047 0
4986 4988 -5047 0
-4986 4988 5047 0
4986 -4988 5047 0
-4990 -4992 -5049 0
4990 4992 -5049 0
-4990 4992 5049 0
4990 -4992 5049 0
-4998 -5000 -5053 0
4998 5000 -5053 0
-4998 5000 5053 0
4998 -5000 5053 0
-5004 -5006 -5055 0
5004 5006 -5055 0
-5004 5006 5055 0
5004 -5006 5055 0
-5013 -5015 -5059 0
5013 5015 -5059 0
-5013 5015 5059 0
5013 -5015 5059 0
-5017 -5019 -5061 0
5017 5019 -5061 0
-5017 5019 5061 0
5017 -5019 5061 0
-5021 -5023 -5063 0
5021 5023 -5063 0
-5021 5023 5063 0
5021 -5023 5063 0
-5025 -5027 -5065 0
5025 5027 -5065 0
-5025 5027 5065 0
5025 -5027 5065 0
-5029 -5031 -5067 0
5029 5031 -5067 0
-5029 5031 5067 0
5029 -5031 5067 0
-5033 -5035 -5069 0
5033 5035 -5069 0
-5033 5035 5069 0
5033 -5035 5069 0
-5037 -5039 -5071 0
5037 5039 -5071 0
-5037 5039 5071 0
5037 -5039 5071 0
-5041 -5043 -5073 0
5041 5043 -5073 0
-5041 5043 5073 0
5041 -5043 5073 0
-5042 -5044 -5095 0
5042 5044 -5095 0
5042 -5044 5095 0
-5042 5044 5095 0
-5045 -5046 -5075 0
5045 5046 -5075 0
-5045 5046 5075 0
5045 -5046 5075 0
-5047 -5049 -5077 0
5047 5049 -5077 0
-5047 5049 5077 0
5047 -5049 5077 0
-5051 -5052 -5079 0
5051 5052 -5079 0
-5051 5052 5079 0
5051 -5052 5079 0
-5053 -5054 -5081 0
5053 5054 -5081 0
-5053 5054 5081 0
5053 -5054 5081 0
-5055 -5056 -5083 0
5055 5056 -5083 0
-5055 5056 5083 0
5055 -5056 5083 0
-5057 -5058 -5085 0
5057 5058 -5085 0
-5057 5058 5085 0
5057 -5058 5085 0
-5059 -5061 -5087 0
5059 5061 -5087 0
-5059 5061 5087 0
5059 -5061 5087 0
-5063 -5065 -5089 0
5063 5065 -5089 0
-5063 5065 5089 0
5063 -5065 5089 0
-5067 -5069 -5091 0
5067 5069 -5091 0
-5067 5069 5091 0
5067 -5069 5091 0
-5071 -5073 -5093 0
5071 5073 -5093 0
-5071 5073 5093 0
5071 -5073 5093 0
-5075 -5077 -5096 0
5075 5077 -5096 0
-5075 5077 5096 0
5075 -5077 5096 0
-5079 -5081 -5097 0
5079 5081 -5097 0
-5079 5081 5097 0
5079 -5081 5097 0
-5083 -5085 -5099 0
5083 5085 -5099 0
-5083 5085 5099 0
5083 -5085 5099 0
-5087 -5089 -5101 0
5087 5089 -5101 0
-5087 5089 5101 0
5087 -5089 5101 0
-5091 -5093 -5103 0
5091 5093 -5103 0
-5091 5093 5103 0
5091 -5093 5103 0
-5095 -5096 -5105 0
5095 5096 -5105 0
-5095 5096 5105 0
5095 -5096 5105 0
-5097 -5099 -5107 0
5097 5099 -5107 0
-5097 5099 5107 0
5097 -5099 5107 0
-5101 -5103 -5109 0
5101 5103 -5109 0
-5101 5103 5109 0
5101 -5103 5109 0
-5105 -5107 -5109 0
5105 5107 -5109 0
-5105 5107 5109 0
5105 -5107 5109 0
-5048 -5050 -5113 0
5048 5050 -5113 0
-5048 5050 5113 0
5048 -5050 5113 0
-5060 -5062 -5115 0
5060 5062 -5115 0
-5060 5062 5115 0
5060 -5062 5115 0
-5064 -5066 -5116 0
5064 5066 -5116 0
-5064 5066 5116 0
5064 -5066 5116 0
-5068 -5070 -5118 0
5068 5070 -5118 0
-5068 5070 5118 0
5068 -5070 5118 0
-5072 -5074 -5120 0
5072 5074 -5120 0
-5072 5074 5120 0
5072 -5074 5120 0
-5076 -5078 -5122 0
5076 5078 -5122 0
-5076 5078 5122 0
5076 -5078 5122 0
-5080 -5082 -5124 0
5080 5082 -5124 0
-5080 5082 5124 0
5080 -5082 5124 0
-5084 -5086 -5126 0
5084 5086 -5126 0
-5084 5086 5126 0
5084 -5086 5126 0
-5088 -5090 -5128 0
5088 5090 -5128 0
-5088 5090 5128 0
5088 -5090 5128 0
-5092 -5094 -5130 0
5092 5094 -5130 0
-5092 5094 5130 0
5092 -5094 5130 0
-5098 -5100 -5132 0
5098 5100 -5132 0
-5098 5100 5132 0
5098 -5100 5132 0
-5102 -5104 -5134 0
5102 5104 -5134 0
-5102 5104 5134 0
5102 -5104 5134 0
-5106 -5108 -5136 0
5106 5108 -5136 0
-5106 5108 5136 0
5106 -5108 5136 0
-5110 -5111 -5138 0
5110 5111 -5138 0
-5110 5111 5138 0
5110 -5111 5138 0
-5112 -5113 -5140 0
5112 5113 -5140 0
-5112 5113 5140 0
5112 -5113 5140 0
-5115 -5116 -5142 0
5115 5116 -5142 0
-5115 5116 5142 0
5115 -5116 5142 0
-5118 -5120 -5144 0
5118 5120 -5144 0
-5118 5120 5144 0
5118 -5120 5144 0
-5121 -5122 -5146 0
5121 5122 -5146 0
-5121 5122 5146 0
5121 -5122 5146 0
-5124 -5126 -5148 0
5124 5126 -5148 0
-5124 5126 5148 0
5124 -5126 5148 0
-5128 -5130 -5150 0
5128 5130 -5150 0
-5128 5130 5150 0
5128 -5130 5150 0
-5131 -5132 -5152 0
5131 5132 -5152 0
-5131 5132 5152 0
5131 -5132 5152 0
-5134 -5136 -5154 0
5134 5136 -5154 0
-5134 5136 5154 0
5134 -5136 5154 0
-5109 -5138 -5156 0
5109 5138 -5156 0
5109 -5138 5156 0
-5109 5138 5156 0
-5140 -5141 -5158 0
5140 5141 -5158 0
-5140 5141 5158 0
5140 -5141 5158 0
-5114 -5142 -5160 0
5114 5142 -5160 0
-5114 5142 5160 0
5114 -5142 5160 0
-5144 -5146 -5162 0
5144 5146 -5162 0
-5144 5146 5162 0
5144 -5146 5162 0
-5148 -5150 -5164 0
5148 5150 -5164 0
-5148 5150 5164 0
5148 -5150 5164 0
-5152 -5154 -5166 0
5152 5154 -5166 0
-5152 5154 5166 0
5152 -5154 5166 0
-5156 -5158 -5168 0
5156 5158 -5168 0
-5156 5158 5168 0
5156 -5158 5168 0
-5160 -5162 -5170 0
5160 5162 -5170 0
-5160 5162 5170 0
5160 -5162 5170 0
-5164 -5166 -5172 0
5164 5166 -5172 0
-5164 5166 5172 0
5164 -5166 5172 0
-5168 -5170 -5172 0
5168 5170 -5172 0
-5168 5170 5172 0
5168 -5170 5172 0
-5117 -5119 -5177 0
5117 5119 -5177 0
-5117 5119 5177 0
5117 -5119 5177 0
-5123 -5125 -5179 0
5123 5125 -5179 0
-5123 5125 5179 0
5123 -5125 5179 0
-5127 -5129 -5181 0
5127 5129 -5181 0
-5127 5129 5181 0
5127 -5129 5181 0
-5133 -5135 -5184 0
5133 5135 -5184 0
-5133 5135 5184 0
5133 -5135 5184 0
-5137 -5139 -5185 0
5137 5139 -5185 0
-5137 5139 5185 0
5137 -5139 5185 0
-5143 -5145 -5211 0
5143 5145 -5211 0
-5143 5145 5211 0
5143 -5145 5211 0
-5147 -5149 -5187 0
5147 5149 -5187 0
-5147 5149 5187 0
5147 -5149 5187 0
-5151 -5153 -5189 0
5151 5153 -5189 0
-5151 5153 5189 0
5151 -5153 5189 0
-5155 -5157 -5191 0
5155 5157 -5191 0
-5155 5157 5191 0
5155 -5157 5191 0
-5159 -5161 -5193 0
5159 5161 -5193 0
-5159 5161 5193 0
5159 -5161 5193 0
-5163 -5165 -5195 0
5163 5165 -5195 0
-5163 5165 5195 0
5163 -5165 5195 0
-5167 -5169 -5197 0
5167 5169 -5197 0
-5167 5169 5197 0
5167 -5169 5197 0
-5171 -5173 -5199 0
5171 5173 -5199 0
-5171 5173 5199 0
5171 -5173 5199 0
-5172 -5174 -5201 0
5172 5174 -5201 0
5172 -5174 5201 0
-5172 5174 5201 0
-5177 -5178 -5203 0
5177 5178 -5203 0
-5177 5178 5203 0
5177 -5178 5203 0
-5179 -5181 -5205 0
5179 5181 -5205 0
-5179 5181 5205 0
5179 -5181 5205 0
-5183 -5184 -5207 0
5183 5184 -5207 0
-5183 5184 5207 0
5183 -5184 5207 0
-5185 -5186 -5209 0
5185 5186 -5209 0
-5185 5186 5209 0
5185 -5186 5209 0
-5187 -5189 -5212 0
5187 5189 -5212 0
-5187 5189 5212 0
5187 -5189 5212 0
-5191 -5193 -5213 0
5191 5193 -5213 0
-5191 5193 5213 0
5191 -5193 5213 0
-5195 -5197 -5215 0
5195 5197 -5215 0
-5195 5197 5215 0
5195 -5197 5215 0
-5199 -5201 -5217 0
5199 5201 -5217 0
-5199 5201 5217 0
5199 -5201 5217 0
-5175 -5176 -5219 0
5175 5176 -5219 0
-5175 5176 5219 0
5175 -5176 5219 0
-5203 -5205 -5221 0
5203 5205 -5221 0
-5203 5205 5221 0
5203 -5205 5221 0
-5207 -5209 -5223 0
5207 5209 -5223 0
-5207 5209 5223 0
5207 -5209 5223 0
-5211 -5212 -5225 0
5211 5212 -5225 0
-5211 5212 5225 0
5211 -5212 5225 0
-5213 -5215 -5227 0
5213 5215 -5227 0
-5213 5215 5227 0
5213 -5215 5227 0
-5217 -5219 -5229 0
5217 5219 -5229 0
-5217 5219 5229 0
5217 -5219 5229 0
-5221 -5223 -5231 0
5221 5223 -5231 0
-5221 5223 5231 0
5221 -5223 5231 0
-5225 -5227 -5233 0
5225 5227 -5233 0
-5225 5227 5233 0
5225 -5227 5233 0
-5229 -5231 -5233 0
5229 5231 -5233 0
-5229 5231 5233 0
5229 -5231 5233 0
-5180 -5182 -5237 0
5180 5182 -5237 0
-5180 5182 5237 0
5180 -5182 5237 0
-5188 -5190 -5241 0
5188 5190 -5241 0
-5188 5190 5241 0
5188 -5190 5241 0
-5192 -5194 -5242 0
5192 5194 -5242 0
-5192 5194 5242 0
5192 -5194 5242 0
-5196 -5198 -5244 0
5196 5198 -5244 0
-5196 5198 5244 0
5196 -5198 5244 0
-5200 -5202 -5246 0
5200 5202 -5246 0
-5200 5202 5246 0
5200 -5202 5246 0
-5204 -5206 -5267 0
5204 5206 -5267 0
-5204 5206 5267 0
5204 -5206 5267 0
-5208 -5210 -5248 0
5208 5210 -5248 0
-5208 5210 5248 0
5208 -5210 5248 0
-5214 -5216 -5251 0
5214 5216 -5251 0
-5214 5216 5251 0
5214 -5216 5251 0
-5218 -5220 -5252 0
5218 5220 -5252 0
-5218 5220 5252 0
5218 -5220 5252 0
-5222 -5224 -5254 0
5222 5224 -5254 0
-5222 5224 5254 0
5222 -5224 5254 0
-5226 -5228 -5256 0
5226 5228 -5256 0
-5226 5228 5256 0
5226 -5228 5256 0
-5230 -5232 -5258 0
5230 5232 -5258 0
-5230 5232 5258 0
5230 -5232 5258 0
-5234 -5235 -5260 0
5234 5235 -5260 0
-5234 5235 5260 0
5234 -5235 5260 0
-5237 -5238 -5261 0
5237 5238 -5261 0
-5237 5238 5261 0
5237 -5238 5261 0
-5239 -5240 -5262 0
5239 5240 -5262 0
-5239 5240 5262 0
5239 -5240 5262 0
-5241 -5242 -5264 0
5241 5242 -5264 0
-5241 5242 5264 0
5241 -5242 5264 0
-5244 -5246 -5266 0
5244 5246 -5266 0
-5244 5246 5266 0
5244 -5246 5266 0
-5248 -5250 -5268 0
5248 5250 -5268 0
-5248 5250 5268 0
5248 -5250 5268 0
-5251 -5252 -5270 0
5251 5252 -5270 0
-5251 5252 5270 0
5251 -5252 5270 0
-5254 -5256 -5272 0
5254 5256 -5272 0
-5254 5256 5272 0
5254 -5256 5272 0
-5258 -5260 -5274 0
5258 5260 -5274 0
-5258 5260 5274 0
5258 -5260 5274 0
-5233 -5236 -5276 0
5233 5236 -5276 0
-5233 5236 5276 0
5233 -5236 5276 0
-5261 -5262 -5278 0
5261 5262 -5278 0
-5261 5262 5278 0
5261 -5262 5278 0
-5264 -5266 -5280 0
5264 5266 -5280 0
-5264 5266 5280 0
5264 -5266 5280 0
-5267 -5268 -5282 0
5267 5268 -5282 0
-5267 5268 5282 0
5267 -5268 5282 0
-5270 -5272 -5284 0
5270 5272 -5284 0
-5270 5272 5284 0
5270 -5272 5284 0
-5274 -5276 -5286 0
5274 5276 -5286 0
-5274 5276 5286 0
5274 -5276 5286 0
-5278 -5280 -5288 0
5278 5280 -5288 0
-5278 5280 5288 0
5278 -5280 5288 0
-5282 -5284 -5290 0
5282 5284 -5290 0
-5282 5284 5290 0
5282 -5284 5290 0
-5286 -5288 -5290 0
5286 5288 -5290 0
-5286 5288 5290 0
5286 -5288 5290 0
-5243 -5245 -5295 0
5243 5245 -5295 0
-5243 5245 5295 0
5243 -5245 5295 0
-5247 -5249 -5297 0
5247 5249 -5297 0
-5247 5249 5297 0
5247 -5249 5297 0
-5253 -5255 -5299 0
5253 5255 -5299 0
-5253 5255 5299 0
5253 -5255 5299 0
-5257 -5259 -5301 0
5257 5259 -5301 0
-5257 5259 5301 0
5257 -5259 5301 0
-5263 -5265 -5305 0
5263 5265 -5305 0
-5263 5265 5305 0
5263 -5265 5305 0
-5269 -5271 -5307 0
5269 5271 -5307 0
-5269 5271 5307 0
5269 -5271 5307 0
-5273 -5275 -5309 0
5273 5275 -5309 0
-5273 5275 5309 0
5273 -5275 5309 0
-5277 -5279 -5311 0
5277 5279 -5311 0
-5277 5279 5311 0
5277 -5279 5311 0
-5281 -5283 -5313 0
5281 5283 -5313 0
-5281 5283 5313 0
5281 -5283 5313 0
-5285 -5287 -5315 0
5285 5287 -5315 0
-5285 5287 5315 0
5285 -5287 5315 0
-5289 -5291 -5317 0
5289 5291 -5317 0
-5289 5291 5317 0
5289 -5291 5317 0
-5290 -5292 -5319 0
5290 5292 -5319 0
5290 -5292 5319 0
-5290 5292 5319 0
-5295 -5296 -5320 0
5295 5296 -5320 0
-5295 5296 5320 0
5295 -5296 5320 0
-5297 -5298 -5321 0
5297 5298 -5321 0
-5297 5298 5321 0
5297 -5298 5321 0
-5299 -5301 -5323 0
5299 5301 -5323 0
-5299 5301 5323 0
5299 -5301 5323 0
-5303 -5304 -5325 0
5303 5304 -5325 0
-5303 5304 5325 0
5303 -5304 5325 0
-5305 -5306 -5327 0
5305 5306 -5327 0
-5305 5306 5327 0
5305 -5306 5327 0
-5307 -5309 -5329 0
5307 5309 -5329 0
-5307 5309 5329 0
5307 -5309 5329 0
-5311 -5313 -5331 0
5311 5313 -5331 0
-5311 5313 5331 0
5311 -5313 5331 0
-5315 -5317 -5333 0
5315 5317 -5333 0
-5315 5317 5333 0
5315 -5317 5333 0
-5293 -5319 -5335 0
5293 5319 -5335 0
5293 -5319 5335 0
-5293 5319 5335 0
-5294 -5320 -5337 0
5294 5320 -5337 0
-5294 5320 5337 0
5294 -5320 5337 0
-5321 -5323 -5339 0
5321 5323 -5339 0
-5321 5323 5339 0
5321 -5323 5339 0
-5325 -5327 -5341 0
5325 5327 -5341 0
-5325 5327 5341 0
5325 -5327 5341 0
-5329 -5331 -5343 0
5329 5331 -5343 0
-5329 5331 5343 0
5329 -5331 5343 0
-5333 -5335 -5345 0
5333 5335 -5345 0
-5333 5335 5345 0
5333 -5335 5345 0
-5337 -5339 -5347 0
5337 5339 -5347 0
-5337 5339 5347 0
5337 -5339 5347 0
-5341 -5343 -5349 0
5341 5343 -5349 0
-5341 5343 5349 0
5341 -5343 5349 0
-5345 -5347 -5349 0
5345 5347 -5349 0
-5345 5347 5349 0
5345 -5347 5349 0
-5300 -5302 -5354 0
5300 5302 -5354 0
-5300 5302 5354 0
5300 -5302 5354 0
-5308 -5310 -5355 0
5308 5310 -5355 0
-5308 5310 5355 0
5308 -5310 5355 0
-5312 -5314 -5356 0
5312 5314 -5356 0
-5312 5314 5356 0
5312 -5314 5356 0
-5316 -5318 -5358 0
5316 5318 -5358 0
-5316 5318 5358 0
5316 -5318 5358 0
-5322 -5324 -5362 0
5322 5324 -5362 0
-5322 5324 5362 0
5322 -5324 5362 0
-5326 -5328 -5364 0
5326 5328 -5364 0
-5326 5328 5364 0
5326 -5328 5364 0
-5330 -5332 -5366 0
5330 5332 -5366 0
-5330 5332 5366 0
5330 -5332 5366 0
-5334 -5336 -5368 0
5334 5336 -5368 0
-5334 5336 5368 0
5334 -5336 5368 0
-5338 -5340 -5370 0
5338 5340 -5370 0
-5338 5340 5370 0
5338 -5340 5370 0
-5342 -5344 -5372 0
5342 5344 -5372 0
-5342 5344 5372 0
5342 -5344 5372 0
-5346 -5348 -5374 0
5346 5348 -5374 0
-5346 5348 5374 0
5346 -5348 5374 0
-5350 -5351 -5376 0
5350 5351 -5376 0
-5350 5351 5376 0
5350 -5351 5376 0
-5353 -5354 -5378 0
5353 5354 -5378 0
-5353 5354 5378 0
5353 -5354 5378 0
-5355 -5356 -5380 0
5355 5356 -5380 0
-5355 5356 5380 0
5355 -5356 5380 0
-5358 -5360 -5382 0
5358 5360 -5382 0
-5358 5360 5382 0
5358 -5360 5382 0
-5361 -5362 -5384 0
5361 5362 -5384 0
-5361 5362 5384 0
5361 -5362 5384 0
-5364 -5366 -5386 0
5364 5366 -5386 0
-5364 5366 5386 0
5364 -5366 5386 0
-5368 -5370 -5388 0
5368 5370 -5388 0
-5368 5370 5388 0
5368 -5370 5388 0
-5372 -5374 -5390 0
5372 5374 -5390 0
-5372 5374 5390 0
5372 -5374 5390 0
-5349 -5376 -5392 0
5349 5376 -5392 0
5349 -5376 5392 0
-5349 5376 5392 0
-5352 -5378 -5394 0
5352 5378 -5394 0
-5352 5378 5394 0
5352 -5378 5394 0
-5379 -5380 -5396 0
5379 5380 -5396 0
-5379 5380 5396 0
5379 -5380 5396 0
-5382 -5384 -5398 0
5382 5384 -5398 0
-5382 5384 5398 0
5382 -5384 5398 0
-5386 -5388 -5400 0
5386 5388 -5400 0
-5386 5388 5400 0
5386 -5388 5400 0
-5390 -5392 -5402 0
5390 5392 -5402 0
-5390 5392 5402 0
5390 -5392 5402 0
-5394 -5396 -5404 0
5394 5396 -5404 0
-5394 5396 5404 0
5394 -5396 5404 0
-5398 -5400 -5406 0
5398 5400 -5406 0
-5398 5400 5406 0
5398 -5400 5406 0
-5402 -5404 -5406 0
5402 5404 -5406 0
-5402 5404 5406 0
5402 -5404 5406 0
-5357 -5359 -5436 0
5357 5359 -5436 0
-5357 5359 5436 0
5357 -5359 5436 0
-5363 -5365 -5411 0
5363 5365 -5411 0
-5363 5365 5411 0
5363 -5365 5411 0
-5367 -5369 -5413 0
5367 5369 -5413 0
-5367 5369 5413 0
5367 -5369 5413 0
-5371 -5373 -5415 0
5371 5373 -5415 0
-5371 5373 5415 0
5371 -5373 5415 0
-5375 -5377 -5417 0
5375 5377 -5417 0
-5375 5377 5417 0
5375 -5377 5417 0
-5381 -5383 -5420 0
5381 5383 -5420 0
-5381 5383 5420 0
5381 -5383 5420 0
-5385 -5387 -5422 0
5385 5387 -5422 0
-5385 5387 5422 0
5385 -5387 5422 0
-5389 -5391 -5424 0
5389 5391 -5424 0
-5389 5391 5424 0
5389 -5391 5424 0
-5393 -5395 -5426 0
5393 5395 -5426 0
-5393 5395 5426 0
5393 -5395 5426 0
-5397 -5399 -5428 0
5397 5399 -5428 0
-5397 5399 5428 0
5397 -5399 5428 0
-5401 -5403 -5430 0
5401 5403 -5430 0
-5401 5403 5430 0
5401 -5403 5430 0
-5405 -5407 -5432 0
5405 5407 -5432 0
-5405 5407 5432 0
5405 -5407 5432 0
-5406 -5408 -5434 0
5406 5408 -5434 0
5406 -5408 5434 0
-5406 5408 5434 0
-5409 -5410 -5447 0
5409 5410 -5447 0
-5409 5410 5447 0
5409 -5410 5447 0
-5411 -5413 -5437 0
5411 5413 -5437 0
-5411 5413 5437 0
5411 -5413 5437 0
-5415 -5417 -5438 0
5415 5417 -5438 0
-5415 5417 5438 0
5415 -5417 5438 0
-5420 -5422 -5439 0
5420 5422 -5439 0
-5420 5422 5439 0
5420 -5422 5439 0
-5424 -5426 -5441 0
5424 5426 -5441 0
-5424 5426 5441 0
5424 -5426 5441 0
-5428 -5430 -5443 0
5428 5430 -5443 0
-5428 5430 5443 0
5428 -5430 5443 0
-5432 -5434 -5445 0
5432 5434 -5445 0
-5432 5434 5445 0
5432 -5434 5445 0
-5436 -5437 -5448 0
5436 5437 -5448 0
-5436 5437 5448 0
5436 -5437 5448 0
-5419 -5438 -5449 0
5419 5438 -5449 0
5419 -5438 5449 0
-5419 5438 5449 0
-5439 -5441 -5451 0
5439 5441 -5451 0
-5439 5441 5451 0
5439 -5441 5451 0
-5443 -5445 -5453 0
5443 5445 -5453 0
-5443 5445 5453 0
5443 -5445 5453 0
-5447 -5448 -5455 0
5447 5448 -5455 0
-5447 5448 5455 0
5447 -5448 5455 0
-5449 -5451 -5457 0
5449 5451 -5457 0
-5449 5451 5457 0
5449 -5451 5457 0
-5453 -5455 -5457 0
5453 5455 -5457 0
-5453 5455 5457 0
5453 -5455 5457 0
-5412 -5414 -5461 0
5412 5414 -5461 0
-5412 5414 5461 0
5412 -5414 5461 0
-5416 -5418 -5462 0
5416 5418 -5462 0
-5416 5418 5462 0
5416 -5418 5462 0
-5421 -5423 -5482 0
5421 5423 -5482 0
-5421 5423 5482 0
5421 -5423 5482 0
-5425 -5427 -5464 0
5425 5427 -5464 0
-5425 5427 5464 0
5425 -5427 5464 0
-5429 -5431 -5466 0
5429 5431 -5466 0
-5429 5431 5466 0
5429 -5431 5466 0
-5433 -5435 -5468 0
5433 5435 -5468 0
-5433 5435 5468 0
5433 -5435 5468 0
-5440 -5442 -5473 0
5440 5442 -5473 0
-5440 5442 5473 0
5440 -5442 5473 0
-5444 -5446 -5474 0
5444 5446 -5474 0
-5444 5446 5474 0
5444 -5446 5474 0
-5450 -5452 -5476 0
5450 5452 -5476 0
-5450 5452 5476 0
5450 -5452 5476 0
-5454 -5456 -5478 0
5454 5456 -5478 0
-5454 5456 5478 0
5454 -5456 5478 0
-5458 -5459 -5480 0
5458 5459 -5480 0
-5458 5459 5480 0
5458 -5459 5480 0
-5461 -5462 -5481 0
5461 5462 -5481 0
-5461 5462 5481 0
5461 -5462 5481 0
-5464 -5466 -5483 0
5464 5466 -5483 0
-5464 5466 5483 0
5464 -5466 5483 0
-5468 -5470 -5484 0
5468 5470 -5484 0
-5468 5470 5484 0
5468 -5470 5484 0
-5471 -5472 -5486 0
5471 5472 -5486 0
-5471 5472 5486 0
5471 -5472 5486 0
-5473 -5474 -5488 0
5473 5474 -5488 0
-5473 5474 5488 0
5473 -5474 5488 0
-5475 -5476 -5490 0
5475 5476 -5490 0
-5475 5476 5490 0
5475 -5476 5490 0
-5478 -5480 -5492 0
5478 5480 -5492 0
-5478 5480 5492 0
5478 -5480 5492 0
-5457 -5460 -5494 0
5457 5460 -5494 0
-5457 5460 5494 0
5457 -5460 5494 0
-5481 -5482 -5496 0
5481 5482 -5496 0
-5481 5482 5496 0
5481 -5482 5496 0
-5483 -5484 -5498 0
5483 5484 -5498 0
-5483 5484 5498 0
5483 -5484 5498 0
-5486 -5488 -5500 0
5486 5488 -5500 0
-5486 5488 5500 0
5486 -5488 5500 0
-5490 -5492 -5502 0
5490 5492 -5502 0
-5490 5492 5502 0
5490 -5492 5502 0
-5494 -5496 -5504 0
5494 5496 -5504 0
-5494 5496 5504 0
5494 -5496 5504 0
-5498 -5500 -5506 0
5498 5500 -5506 0
-5498 5500 5506 0
5498 -5500 5506 0
-5502 -5504 -5506 0
5502 5504 -5506 0
-5502 5504 5506 0
5502 -5504 5506 0
-5463 -5465 -5511 0
5463 5465 -5511 0
-5463 5465 5511 0
5463 -5465 5511 0
-5467 -5469 -5532 0
5467 5469 -5532 0
-5467 5469 5532 0
5467 -5469 5532 0
-5477 -5479 -5514 0
5477 5479 -5514 0
-5477 5479 5514 0
5477 -5479 5514 0
-5485 -5487 -5518 0
5485 5487 -5518 0
-5485 5487 5518 0
5485 -5487 5518 0
-5489 -5491 -5520 0
5489 5491 -5520 0
-5489 5491 5520 0
5489 -5491 5520 0
-5493 -5495 -5522 0
5493 5495 -5522 0
-5493 5495 5522 0
5493 -5495 5522 0
-5497 -5499 -5524 0
5497 5499 -5524 0
-5497 5499 5524 0
5497 -5499 5524 0
-5501 -5503 -5526 0
5501 5503 -5526 0
-5501 5503 5526 0
5501 -5503 5526 0
-5505 -5507 -5528 0
5505 5507 -5528 0
-5505 5507 5528 0
5505 -5507 5528 0
-5506 -5508 -5530 0
5506 5508 -5530 0
5506 -5508 5530 0
-5506 5508 5530 0
-5510 -5511 -5531 0
5510 5511 -5531 0
-5510 5511 5531 0
5510 -5511 5531 0
-5512 -5513 -5533 0
5512 5513 -5533 0
-5512 5513 5533 0
5512 -5513 5533 0
-5514 -5515 -5535 0
5514 5515 -5535 0
-5514 5515 5535 0
5514 -5515 5535 0
-5516 -5517 -5537 0
5516 5517 -5537 0
-5516 5517 5537 0
5516 -5517 5537 0
-5518 -5520 -5539 0
5518 5520 -5539 0
-5518 5520 5539 0
5518 -5520 5539 0
-5522 -5524 -5541 0
5522 5524 -5541 0
-5522 5524 5541 0
5522 -5524 5541 0
-5526 -5528 -5543 0
5526 5528 -5543 0
-5526 5528 5543 0
5526 -5528 5543 0
-5509 -5530 -5545 0
5509 5530 -5545 0
5509 -5530 5545 0
-5509 5530 5545 0
-5531 -5532 -5547 0
5531 5532 -5547 0
-5531 5532 5547 0
5531 -5532 5547 0
-5533 -5535 -5549 0
5533 5535 -5549 0
-5533 5535 5549 0
5533 -5535 5549 0
-5537 -5539 -5551 0
5537 5539 -5551 0
-5537 5539 5551 0
5537 -5539 5551 0
-5541 -5543 -5553 0
5541 5543 -5553 0
-5541 5543 5553 0
5541 -5543 5553 0
-5545 -5547 -5555 0
5545 5547 -5555 0
-5545 5547 5555 0
5545 -5547 5555 0
-5549 -5551 -5557 0
5549 5551 -5557 0
-5549 5551 5557 0
5549 -5551 5557 0
-5553 -5555 -5557 0
5553 5555 -5557 0
-5553 5555 5557 0
5553 -5555 5557 0
-5519 -5521 -5583 0
5519 5521 -5583 0
-5519 5521 5583 0
5519 -5521 5583 0
-5523 -5525 -5564 0
5523 5525 -5564 0
-5523 5525 5564 0
5523 -5525 5564 0
-5527 -5529 -5566 0
5527 5529 -5566 0
-5527 5529 5566 0
5527 -5529 5566 0
-5534 -5536 -5569 0
5534 5536 -5569 0
-5534 5536 5569 0
5534 -5536 5569 0
-5538 -5540 -5570 0
5538 5540 -5570 0
-5538 5540 5570 0
5538 -5540 5570 0
-5542 -5544 -5572 0
5542 5544 -5572 0
-5542 5544 5572 0
5542 -5544 5572 0
-5546 -5548 -5574 0
5546 5548 -5574 0
-5546 5548 5574 0
5546 -5548 5574 0
-5550 -5552 -5576 0
5550 5552 -5576 0
-5550 5552 5576 0
5550 -5552 5576 0
-5554 -5556 -5578 0
5554 5556 -5578 0
-5554 5556 5578 0
5554 -5556 5578 0
-5558 -5559 -5580 0
5558 5559 -5580 0
-5558 5559 5580 0
5558 -5559 5580 0
-5560 -5561 -5582 0
5560 5561 -5582 0
-5560 5561 5582 0
5560 -5561 5582 0
-5564 -5566 -5584 0
5564 5566 -5584 0
-5564 5566 5584 0
5564 -5566 5584 0
-5567 -5568 -5586 0
5567 5568 -5586 0
-5567 5568 5586 0
5567 -5568 5586 0
-5569 -5570 -5588 0
5569 5570 -5588 0
-5569 5570 5588 0
5569 -5570 5588 0
-5572 -5574 -5590 0
5572 5574 -5590 0
-5572 5574 5590 0
5572 -5574 5590 0
-5576 -5578 -5592 0
5576 5578 -5592 0
-5576 5578 5592 0
5576 -5578 5592 0
-5557 -5580 -5594 0
5557 5580 -5594 0
5557 -5580 5594 0
-5557 5580 5594 0
-5562 -5582 -5596 0
5562 5582 -5596 0
5562 -5582 5596 0
-5562 5582 5596 0
-5583 -5584 -5598 0
5583 5584 -5598 0
-5583 5584 5598 0
5583 -5584 5598 0
-5586 -5588 -5600 0
5586 5588 -5600 0
-5586 5588 5600 0
5586 -5588 5600 0
-5590 -5592 -5602 0
5590 5592 -5602 0
-5590 5592 5602 0
5590 -5592 5602 0
-5594 -5596 -5604 0
5594 5596 -5604 0
-5594 5596 5604 0
5594 -5596 5604 0
-5598 -5600 -5606 0
5598 5600 -5606 0
-5598 5600 5606 0
5598 -5600 5606 0
-5602 -5604 -5606 0
5602 5604 -5606 0
-5602 5604 5606 0
5602 -5604 5606 0
-5563 -5565 -5629 0
5563 5565 -5629 0
-5563 5565 5629 0
5563 -5565 5629 0
-5571 -5573 -5611 0
5571 5573 -5611 0
-5571 5573 5611 0
5571 -5573 5611 0
-5575 -5577 -5613 0
5575 5577 -5613 0
-5575 5577 5613 0
5575 -5577 5613 0
-5579 -5581 -5615 0
5579 5581 -5615 0
-5579 5581 5615 0
5579 -5581 5615 0
-5585 -5587 -5635 0
5585 5587 -5635 0
-5585 5587 5635 0
5585 -5587 5635 0
-5589 -5591 -5617 0
5589 5591 -5617 0
-5589 5591 5617 0
5589 -5591 5617 0
-5593 -5595 -5619 0
5593 5595 -5619 0
-5593 5595 5619 0
5593 -5595 5619 0
-5597 -5599 -5621 0
5597 5599 -5621 0
-5597 5599 5621 0
5597 -5599 5621 0
-5601 -5603 -5623 0
5601 5603 -5623 0
-5601 5603 5623 0
5601 -5603 5623 0
-5605 -5607 -5625 0
5605 5607 -5625 0
-5605 5607 5625 0
5605 -5607 5625 0
-5606 -5608 -5627 0
5606 5608 -5627 0
5606 -5608 5627 0
-5606 5608 5627 0
-5609 -5610 -5630 0
5609 5610 -5630 0
-5609 5610 5630 0
5609 -5610 5630 0
-5611 -5613 -5632 0
5611 5613 -5632 0
-5611 5613 5632 0
5611 -5613 5632 0
-5615 -5616 -5634 0
5615 5616 -5634 0
-5615 5616 5634 0
5615 -5616 5634 0
-5617 -5619 -5636 0
5617 5619 -5636 0
-5617 5619 5636 0
5617 -5619 5636 0
-5621 -5623 -5638 0
5621 5623 -5638 0
-5621 5623 5638 0
5621 -5623 5638 0
-5625 -5627 -5640 0
5625 5627 -5640 0
-5625 5627 5640 0
5625 -5627 5640 0
-5630 -5632 -5641 0
5630 5632 -5641 0
-5630 5632 5641 0
5630 -5632 5641 0
-5634 -5635 -5643 0
5634 5635 -5643 0
-5634 5635 5643 0
5634 -5635 5643 0
-5636 -5638 -5645 0
5636 5638 -5645 0
-5636 5638 5645 0
5636 -5638 5645 0
-5629 -5640 -5647 0
5629 5640 -5647 0
5629 -5640 5647 0
-5629 5640 5647 0
-5641 -5643 -5649 0
5641 5643 -5649 0
-5641 5643 5649 0
5641 -5643 5649 0
-5645 -5647 -5649 0
5645 5647 -5649 0
-5645 5647 5649 0
5645 -5647 5649 0
-5612 -5614 -5653 0
5612 5614 -5653 0
-5612 5614 5653 0
5612 -5614 5653 0
-5618 -5620 -5656 0
5618 5620 -5656 0
-5618 5620 5656 0
5618 -5620 5656 0
-5622 -5624 -5658 0
5622 5624 -5658 0
-5622 5624 5658 0
5622 -5624 5658 0
-5626 -5628 -5660 0
5626 5628 -5660 0
-5626 5628 5660 0
5626 -5628 5660 0
-5631 -5633 -5674 0
5631 5633 -5674 0
-5631 5633 5674 0
5631 -5633 5674 0
-5637 -5639 -5662 0
5637 5639 -5662 0
-5637 5639 5662 0
5637 -5639 5662 0
-5642 -5644 -5664 0
5642 5644 -5664 0
-5642 5644 5664 0
5642 -5644 5664 0
-5646 -5648 -5666 0
5646 5648 -5666 0
-5646 5648 5666 0
5646 -5648 5666 0
-5650 -5651 -5668 0
5650 5651 -5668 0
-5650 5651 5668 0
5650 -5651 5668 0
-5653 -5654 -5669 0
5653 5654 -5669 0
-5653 5654 5669 0
5653 -5654 5669 0
-5655 -5656 -5670 0
5655 5656 -5670 0
-5655 5656 5670 0
5655 -5656 5670 0
-5658 -5660 -5672 0
5658 5660 -5672 0
-5658 5660 5672 0
5658 -5660 5672 0
-5661 -5662 -5675 0
5661 5662 -5675 0
-5661 5662 5675 0
5661 -5662 5675 0
-5663 -5664 -5676 0
5663 5664 -5676 0
-5663 5664 5676 0
5663 -5664 5676 0
-5666 -5668 -5678 0
5666 5668 -5678 0
-5666 5668 5678 0
5666 -5668 5678 0
-5649 -5652 -5680 0
5649 5652 -5680 0
-5649 5652 5680 0
5649 -5652 5680 0
-5669 -5670 -5682 0
5669 5670 -5682 0
-5669 5670 5682 0
5669 -5670 5682 0
-5672 -5674 -5684 0
5672 5674 -5684 0
-5672 5674 5684 0
5672 -5674 5684 0
-5675 -5676 -5686 0
5675 5676 -5686 0
-5675 5676 5686 0
5675 -5676 5686 0
-5678 -5680 -5688 0
5678 5680 -5688 0
-5678 5680 5688 0
5678 -5680 5688 0
-5682 -5684 -5690 0
5682 5684 -5690 0
-5682 5684 5690 0
5682 -5684 5690 0
-5686 -5688 -5690 0
5686 5688 -5690 0
-5686 5688 5690 0
5686 -5688 5690 0
-5657 -5659 -5711 0
5657 5659 -5711 0
-5657 5659 5711 0
5657 -5659 5711 0
-5665 -5667 -5697 0
5665 5667 -5697 0
-5665 5667 5697 0
5665 -5667 5697 0
-5671 -5673 -5700 0
5671 5673 -5700 0
-5671 5673 5700 0
5671 -5673 5700 0
-5677 -5679 -5702 0
5677 5679 -5702 0
-5677 5679 5702 0
5677 -5679 5702 0
-5681 -5683 -5704 0
5681 5683 -5704 0
-5681 5683 5704 0
5681 -5683 5704 0
-5685 -5687 -5706 0
5685 5687 -5706 0
-5685 5687 5706 0
5685 -5687 5706 0
-5689 -5691 -5708 0
5689 5691 -5708 0
-5689 5691 5708 0
5689 -5691 5708 0
-5690 -5692 -5710 0
5690 5692 -5710 0
5690 -5692 5710 0
-5690 5692 5710 0
-5694 -5695 -5712 0
5694 5695 -5712 0
-5694 5695 5712 0
5694 -5695 5712 0
-5696 -5697 -5713 0
5696 5697 -5713 0
-5696 5697 5713 0
5696 -5697 5713 0
-5698 -5699 -5715 0
5698 5699 -5715 0
-5698 5699 5715 0
5698 -5699 5715 0
-5700 -5701 -5717 0
5700 5701 -5717 0
-5700 5701 5717 0
5700 -5701 5717 0
-5702 -5704 -5719 0
5702 5704 -5719 0
-5702 5704 5719 0
5702 -5704 5719 0
-5706 -5708 -5721 0
5706 5708 -5721 0
-5706 5708 5721 0
5706 -5708 5721 0
-5693 -5710 -5723 0
5693 5710 -5723 0
5693 -5710 5723 0
-5693 5710 5723 0
-5711 -5712 -5725 0
5711 5712 -5725 0
-5711 5712 5725 0
5711 -5712 5725 0
-5713 -5715 -5727 0
5713 5715 -5727 0
-5713 5715 5727 0
5713 -5715 5727 0
-5717 -5719 -5729 0
5717 5719 -5729 0
-5717 5719 5729 0
5717 -5719 5729 0
-5721 -5723 -5731 0
5721 5723 -5731 0
-5721 5723 5731 0
5721 -5723 5731 0
-5725 -5727 -5733 0
5725 5727 -5733 0
-5725 5727 5733 0
5725 -5727 5733 0
-5729 -5731 -5733 0
5729 5731 -5733 0
-5729 5731 5733 0
5729 -5731 5733 0
-5703 -5705 -5739 0
5703 5705 -5739 0
-5703 5705 5739 0
5703 -5705 5739 0
-5707 -5709 -5741 0
5707 5709 -5741 0
-5707 5709 5741 0
5707 -5709 5741 0
-5714 -5716 -5745 0
5714 5716 -5745 0
-5714 5716 5745 0
5714 -5716 5745 0
-5718 -5720 -5747 0
5718 5720 -5747 0
-5718 5720 5747 0
5718 -5720 5747 0
-5722 -5724 -5749 0
5722 5724 -5749 0
-5722 5724 5749 0
5722 -5724 5749 0
-5726 -5728 -5751 0
5726 5728 -5751 0
-5726 5728 5751 0
5726 -5728 5751 0
-5730 -5732 -5753 0
5730 5732 -5753 0
-5730 5732 5753 0
5730 -5732 5753 0
-5734 -5735 -5755 0
5734 5735 -5755 0
-5734 5735 5755 0
5734 -5735 5755 0
-5738 -5739 -5757 0
5738 5739 -5757 0
-5738 5739 5757 0
5738 -5739 5757 0
-5741 -5743 -5758 0
5741 5743 -5758 0
-5741 5743 5758 0
5741 -5743 5758 0
-5744 -5745 -5760 0
5744 5745 -5760 0
-5744 5745 5760 0
5744 -5745 5760 0
-5747 -5749 -5762 0
5747 5749 -5762 0
-5747 5749 5762 0
5747 -5749 5762 0
-5751 -5753 -5764 0
5751 5753 -5764 0
-5751 5753 5764 0
5751 -5753 5764 0
-5733 -5755 -5766 0
5733 5755 -5766 0
5733 -5755 5766 0
-5733 5755 5766 0
-5736 -5737 -5768 0
5736 5737 -5768 0
-5736 5737 5768 0
5736 -5737 5768 0
-5757 -5758 -5770 0
5757 5758 -5770 0
-5757 5758 5770 0
5757 -5758 5770 0
-5760 -5762 -5772 0
5760 5762 -5772 0
-5760 5762 5772 0
5760 -5762 5772 0
-5764 -5766 -5774 0
5764 5766 -5774 0
-5764 5766 5774 0
5764 -5766 5774 0
-5768 -5770 -5776 0
5768 5770 -5776 0
-5768 5770 5776 0
5768 -5770 5776 0
-5772 -5774 -5776 0
5772 5774 -5776 0
-5772 5774 5776 0
5772 -5774 5776 0
-5740 -5742 -5796 0
5740 5742 -5796 0
-5740 5742 5796 0
5740 -5742 5796 0
-5746 -5748 -5797 0
5746 5748 -5797 0
-5746 5748 5797 0
5746 -5748 5797 0
-5750 -5752 -5779 0
5750 5752 -5779 0
-5750 5752 5779 0
5750 -5752 5779 0
-5754 -5756 -5781 0
5754 5756 -5781 0
-5754 5756 5781 0
5754 -5756 5781 0
-5759 -5761 -5784 0
5759 5761 -5784 0
-5759 5761 5784 0
5759 -5761 5784 0
-5763 -5765 -5786 0
5763 5765 -5786 0
-5763 5765 5786 0
5763 -5765 5786 0
-5767 -5769 -5788 0
5767 5769 -5788 0
-5767 5769 5788 0
5767 -5769 5788 0
-5771 -5773 -5790 0
5771 5773 -5790 0
-5771 5773 5790 0
5771 -5773 5790 0
-5775 -5777 -5792 0
5775 5777 -5792 0
-5775 5777 5792 0
5775 -5777 5792 0
-5776 -5778 -5794 0
5776 5778 -5794 0
5776 -5778 5794 0
-5776 5778 5794 0
-5779 -5781 -5798 0
5779 5781 -5798 0
-5779 5781 5798 0
5779 -5781 5798 0
-5784 -5786 -5799 0
5784 5786 -5799 0
-5784 5786 5799 0
5784 -5786 5799 0
-5788 -5790 -5800 0
5788 5790 -5800 0
-5788 5790 5800 0
5788 -5790 5800 0
-5792 -5794 -5802 0
5792 5794 -5802 0
-5792 5794 5802 0
5792 -5794 5802 0
-5797 -5798 -5804 0
5797 5798 -5804 0
-5797 5798 5804 0
5797 -5798 5804 0
-5783 -5799 -5805 0
5783 5799 -5805 0
-5783 5799 5805 0
5783 -5799 5805 0
-5800 -5802 -5807 0
5800 5802 -5807 0
-5800 5802 5807 0
5800 -5802 5807 0
-5796 -5804 -5809 0
5796 5804 -5809 0
-5796 5804 5809 0
5796 -5804 5809 0
-5805 -5807 -5809 0
5805 5807 -5809 0
-5805 5807 5809 0
5805 -5807 5809 0
-5780 -5782 -5825 0
5780 5782 -5825 0
-5780 5782 5825 0
5780 -5782 5825 0
-5785 -5787 -5814 0
5785 5787 -5814 0
-5785 5787 5814 0
5785 -5787 5814 0
-5789 -5791 -5815 0
5789 5791 -5815 0
-5789 5791 5815 0
5789 -5791 5815 0
-5793 -5795 -5827 0
5793 5795 -5827 0
-5793 5795 5827 0
5793 -5795 5827 0
-5801 -5803 -5820 0
5801 5803 -5820 0
-5801 5803 5820 0
5801 -5803 5820 0
-5806 -5808 -5822 0
5806 5808 -5822 0
-5806 5808 5822 0
5806 -5808 5822 0
-5810 -5811 -5823 0
5810 5811 -5823 0
-5810 5811 5823 0
5810 -5811 5823 0
-5812 -5813 -5824 0
5812 5813 -5824 0
-5812 5813 5824 0
5812 -5813 5824 0
-5814 -5815 -5826 0
5814 5815 -5826 0
-5814 5815 5826 0
5814 -5815 5826 0
-5818 -5819 -5828 0
5818 5819 -5828 0
-5818 5819 5828 0
5818 -5819 5828 0
-5820 -5821 -5830 0
5820 5821 -5830 0
-5820 5821 5830 0
5820 -5821 5830 0
-5822 -5823 -5832 0
5822 5823 -5832 0
-5822 5823 5832 0
5822 -5823 5832 0
-5809 -5824 -5834 0
5809 5824 -5834 0
-5809 5824 5834 0
5809 -5824 5834 0
-5825 -5826 -5836 0
5825 5826 -5836 0
-5825 5826 5836 0
5825 -5826 5836 0
-5827 -5828 -5838 0
5827 5828 -5838 0
-5827 5828 5838 0
5827 -5828 5838 0
-5830 -5832 -5840 0
5830 5832 -5840 0
-5830 5832 5840 0
5830 -5832 5840 0
-5834 -5836 -5842 0
5834 5836 -5842 0
-5834 5836 5842 0
5834 -5836 5842 0
-5838 -5840 -5842 0
5838 5840 -5842 0
-5838 5840 5842 0
5838 -5840 5842 0
-5816 -5817 -5847 0
5816 5817 -5847 0
-5816 5817 5847 0
5816 -5817 5847 0
-5829 -5831 -5852 0
5829 5831 -5852 0
-5829 5831 5852 0
5829 -5831 5852 0
-5833 -5835 -5854 0
5833 5835 -5854 0
-5833 5835 5854 0
5833 -5835 5854 0
-5837 -5839 -5856 0
5837 5839 -5856 0
-5837 5839 5856 0
5837 -5839 5856 0
-5841 -5843 -5858 0
5841 5843 -5858 0
-5841 5843 5858 0
5841 -5843 5858 0
-5842 -5844 -5860 0
5842 5844 -5860 0
5842 -5844 5860 0
-5842 5844 5860 0
-5846 -5847 -5861 0
5846 5847 -5861 0
-5846 5847 5861 0
5846 -5847 5861 0
-5848 -5849 -5863 0
5848 5849 -5863 0
-5848 5849 5863 0
5848 -5849 5863 0
-5850 -5851 -5865 0
5850 5851 -5865 0
-5850 5851 5865 0
5850 -5851 5865 0
-5852 -5854 -5867 0
5852 5854 -5867 0
-5852 5854 5867 0
5852 -5854 5867 0
-5856 -5858 -5869 0
5856 5858 -5869 0
-5856 5858 5869 0
5856 -5858 5869 0
-5845 -5860 -5871 0
5845 5860 -5871 0
5845 -5860 5871 0
-5845 5860 5871 0
-5861 -5862 -5873 0
5861 5862 -5873 0
-5861 5862 5873 0
5861 -5862 5873 0
-5863 -5865 -5875 0
5863 5865 -5875 0
-5863 5865 5875 0
5863 -5865 5875 0
-5867 -5869 -5877 0
5867 5869 -5877 0
-5867 5869 5877 0
5867 -5869 5877 0
-5871 -5873 -5879 0
5871 5873 -5879 0
-5871 5873 5879 0
5871 -5873 5879 0
-5875 -5877 -5879 0
5875 5877 -5879 0
-5875 5877 5879 0
5875 -5877 5879 0
-5853 -5855 -5882 0
5853 5855 -5882 0
-5853 5855 5882 0
5853 -5855 5882 0
-5857 -5859 -5883 0
5857 5859 -5883 0
-5857 5859 5883 0
5857 -5859 5883 0
-5864 -5866 -5886 0
5864 5866 -5886 0
-5864 5866 5886 0
5864 -5866 5886 0
-5868 -5870 -5887 0
5868 5870 -5887 0
-5868 5870 5887 0
5868 -5870 5887 0
-5872 -5874 -5889 0
5872 5874 -5889 0
-5872 5874 5889 0
5872 -5874 5889 0
-5876 -5878 -5891 0
5876 5878 -5891 0
-5876 5878 5891 0
5876 -5878 5891 0
-5880 -5881 -5893 0
5880 5881 -5893 0
-5880 5881 5893 0
5880 -5881 5893 0
-5882 -5883 -5895 0
5882 5883 -5895 0
-5882 5883 5895 0
5882 -5883 5895 0
-5884 -5885 -5896 0
5884 5885 -5896 0
-5884 5885 5896 0
5884 -5885 5896 0
-5886 -5887 -5898 0
5886 5887 -5898 0
-5886 5887 5898 0
5886 -5887 5898 0
-5889 -5891 -5900 0
5889 5891 -5900 0
-5889 5891 5900 0
5889 -5891 5900 0
-5879 -5893 -5902 0
5879 5893 -5902 0
5879 -5893 5902 0
-5879 5893 5902 0
-5895 -5896 -5905 0
5895 5896 -5905 0
-5895 5896 5905 0
5895 -5896 5905 0
-5898 -5900 -5906 0
5898 5900 -5906 0
-5898 5900 5906 0
5898 -5900 5906 0
-5902 -5904 -5908 0
5902 5904 -5908 0
-5902 5904 5908 0
5902 -5904 5908 0
-5905 -5906 -5908 0
5905 5906 -5908 0
-5905 5906 5908 0
5905 -5906 5908 0
-5888 -5890 -5914 0
5888 5890 -5914 0
-5888 5890 5914 0
5888 -5890 5914 0
-5892 -5894 -5924 0
5892 5894 -5924 0
-5892 5894 5924 0
5892 -5894 5924 0
-5897 -5899 -5916 0
5897 5899 -5916 0
-5897 5899 5916 0
5897 -5899 5916 0
-5901 -5903 -5917 0
5901 5903 -5917 0
-5901 5903 5917 0
5901 -5903 5917 0
-5907 -5909 -5919 0
5907 5909 -5919 0
-5907 5909 5919 0
5907 -5909 5919 0
-5908 -5910 -5921 0
5908 5910 -5921 0
5908 -5910 5921 0
-5908 5910 5921 0
-5911 -5912 -5930 0
5911 5912 -5930 0
-5911 5912 5930 0
5911 -5912 5930 0
-5913 -5914 -5923 0
5913 5914 -5923 0
-5913 5914 5923 0
5913 -5914 5923 0
-5915 -5916 -5925 0
5915 5916 -5925 0
-5915 5916 5925 0
5915 -5916 5925 0
-5917 -5918 -5927 0
5917 5918 -5927 0
-5917 5918 5927 0
5917 -5918 5927 0
-5919 -5921 -5929 0
5919 5921 -5929 0
-5919 5921 5929 0
5919 -5921 5929 0
-5923 -5924 -5931 0
5923 5924 -5931 0
-5923 5924 5931 0
5923 -5924 5931 0
-5925 -5927 -5933 0
5925 5927 -5933 0
-5925 5927 5933 0
5925 -5927 5933 0
-5929 -5930 -5935 0
5929 5930 -5935 0
-5929 5930 5935 0
5929 -5930 5935 0
-5931 -5933 -5935 0
5931 5933 -5935 0
-5931 5933 5935 0
5931 -5933 5935 0
-5920 -5922 -5941 0
5920 5922 -5941 0
-5920 5922 5941 0
5920 -5922 5941 0
-5926 -5928 -5944 0
5926 5928 -5944 0
-5926 5928 5944 0
5926 -5928 5944 0
-5932 -5934 -5946 0
5932 5934 -5946 0
-5932 5934 5946 0
5932 -5934 5946 0
-5936 -5937 -5947 0
5936 5937 -5947 0
-5936 5937 5947 0
5936 -5937 5947 0
-5938 -5939 -5949 0
5938 5939 -5949 0
-5938 5939 5949 0
5938 -5939 5949 0
-5940 -5941 -5950 0
5940 5941 -5950 0
-5940 5941 5950 0
5940 -5941 5950 0
-5942 -5943 -5952 0
5942 5943 -5952 0
-5942 5943 5952 0
5942 -5943 5952 0
-5944 -5945 -5954 0
5944 5945 -5954 0
-5944 5945 5954 0
5944 -5945 5954 0
-5946 -5947 -5956 0
5946 5947 -5956 0
-5946 5947 5956 0
5946 -5947 5956 0
-5935 -5948 -5958 0
5935 5948 -5958 0
-5935 5948 5958 0
5935 -5948 5958 0
-5949 -5950 -5960 0
5949 5950 -5960 0
-5949 5950 5960 0
5949 -5950 5960 0
-5952 -5954 -5962 0
5952 5954 -5962 0
-5952 5954 5962 0
5952 -5954 5962 0
-5956 -5958 -5964 0
5956 5958 -5964 0
-5956 5958 5964 0
5956 -5958 5964 0
-5960 -5962 -5964 0
5960 5962 -5964 0
-5960 5962 5964 0
5960 -5962 5964 0
-5951 -5953 -5972 0
5951 5953 -5972 0
-5951 5953 5972 0
5951 -5953 5972 0
-5955 -5957 -5974 0
5955 5957 -5974 0
-5955 5957 5974 0
5955 -5957 5974 0
-5959 -5961 -5976 0
5959 5961 -5976 0
-5959 5961 5976 0
5959 -5961 5976 0
-5963 -5965 -5978 0
5963 5965 -5978 0
-5963 5965 5978 0
5963 -5965 5978 0
-5964 -5966 -5986 0
5964 5966 -5986 0
5964 -5966 5986 0
-5964 5966 5986 0
-5968 -5969 -5980 0
5968 5969 -5980 0
-5968 5969 5980 0
5968 -5969 5980 0
-5970 -5971 -5981 0
5970 5971 -5981 0
-5970 5971 5981 0
5970 -5971 5981 0
-5972 -5974 -5983 0
5972 5974 -5983 0
-5972 5974 5983 0
5972 -5974 5983 0
-5976 -5978 -5985 0
5976 5978 -5985 0
-5976 5978 5985 0
5976 -5978 5985 0
-5967 -5980 -5987 0
5967 5980 -5987 0
-5967 5980 5987 0
5967 -5980 5987 0
-5981 -5983 -5989 0
5981 5983 -5989 0
-5981 5983 5989 0
5981 -5983 5989 0
-5985 -5986 -5991 0
5985 5986 -5991 0
-5985 5986 5991 0
5985 -5986 5991 0
-5987 -5989 -5991 0
5987 5989 -5991 0
-5987 5989 5991 0
5987 -5989 5991 0
-5973 -5975 -6005 0
5973 5975 -6005 0
-5973 5975 6005 0
5973 -5975 6005 0
-5977 -5979 -5995 0
5977 5979 -5995 0
-5977 5979 5995 0
5977 -5979 5995 0
-5982 -5984 -5999 0
5982 5984 -5999 0
-5982 5984 5999 0
5982 -5984 5999 0
-5988 -5990 -6001 0
5988 5990 -6001 0
-5988 5990 6001 0
5988 -5990 6001 0
-5992 -5993 -6003 0
5992 5993 -6003 0
-5992 5993 6003 0
5992 -5993 6003 0
-5995 -5997 -6006 0
5995 5997 -6006 0
-5995 5997 6006 0
5995 -5997 6006 0
-5998 -5999 -6007 0
5998 5999 -6007 0
-5998 5999 6007 0
5998 -5999 6007 0
-6000 -6001 -6009 0
6000 6001 -6009 0
-6000 6001 6009 0
6000 -6001 6009 0
-5991 -6003 -6011 0
5991 6003 -6011 0
5991 -6003 6011 0
-5991 6003 6011 0
-6006 -6007 -6012 0
6006 6007 -6012 0
-6006 6007 6012 0
6006 -6007 6012 0
-6009 -6011 -6014 0
6009 6011 -6014 0
-6009 6011 6014 0
6009 -6011 6014 0
-6005 -6012 -6014 0
6005 6012 -6014 0
-6005 6012 6014 0
6005 -6012 6014 0
-5994 -5996 -6031 0
5994 5996 -6031 0
-5994 5996 6031 0
5994 -5996 6031 0
-6002 -6004 -6018 0
6002 6004 -6018 0
-6002 6004 6018 0
6002 -6004 6018 0
-6008 -6010 -6020 0
6008 6010 -6020 0
-6008 6010 6020 0
6008 -6010 6020 0
-6013 -6015 -6022 0
6013 6015 -6022 0
-6013 6015 6022 0
6013 -6015 6022 0
-6014 -6016 -6024 0
6014 6016 -6024 0
6014 -6016 6024 0
-6014 6016 6024 0
-6017 -6018 -6026 0
6017 6018 -6026 0
-6017 6018 6026 0
6017 -6018 6026 0
-6020 -6021 -6027 0
6020 6021 -6027 0
-6020 6021 6027 0
6020 -6021 6027 0
-6022 -6024 -6029 0
6022 6024 -6029 0
-6022 6024 6029 0
6022 -6024 6029 0
-6019 -6026 -6032 0
6019 6026 -6032 0
6019 -6026 6032 0
-6019 6026 6032 0
-6027 -6029 -6033 0
6027 6029 -6033 0
-6027 6029 6033 0
6027 -6029 6033 0
-6031 -6032 -6033 0
6031 6032 -6033 0
-6031 6032 6033 0
6031 -6032 6033 0
-6023 -6025 -6044 0
6023 6025 -6044 0
-6023 6025 6044 0
6023 -6025 6044 0
-6028 -6030 -6039 0
6028 6030 -6039 0
-6028 6030 6039 0
6028 -6030 6039 0
-6034 -6035 -6041 0
6034 6035 -6041 0
-6034 6035 6041 0
6034 -6035 6041 0
-6036 -6037 -6042 0
6036 6037 -6042 0
-6036 6037 6042 0
6036 -6037 6042 0
-6038 -6039 -6045 0
6038 6039 -6045 0
-6038 6039 6045 0
6038 -6039 6045 0
-6040 -6041 -6046 0
6040 6041 -6046 0
-6040 6041 6046 0
6040 -6041 6046 0
-6033 -6042 -6048 0
6033 6042 -6048 0
-6033 6042 6048 0
6033 -6042 6048 0
-6043 -6044 -6050 0
6043 6044 -6050 0
-6043 6044 6050 0
6043 -6044 6050 0
-6045 -6046 -6052 0
6045 6046 -6052 0
-6045 6046 6052 0
6045 -6046 6052 0
-6048 -6050 -6052 0
6048 6050 -6052 0
-6048 6050 6052 0
6048 -6050 6052 0
-6047 -6049 -6059 0
6047 6049 -6059 0
-6047 6049 6059 0
6047 -6049 6059 0
-6051 -6053 -6061 0
6051 6053 -6061 0
-6051 6053 6061 0
6051 -6053 6061 0
-6052 -6054 -6069 0
6052 6054 -6069 0
6052 -6054 6069 0
-6052 6054 6069 0
-6055 -6056 -6064 0
6055 6056 -6064 0
-6055 6056 6064 0
6055 -6056 6064 0
-6057 -6058 -6065 0
6057 6058 -6065 0
-6057 6058 6065 0
6057 -6058 6065 0
-6059 -6061 -6067 0
6059 6061 -6067 0
-6059 6061 6067 0
6059 -6061 6067 0
-6063 -6064 -6070 0
6063 6064 -6070 0
-6063 6064 6070 0
6063 -6064 6070 0
-6065 -6067 -6071 0
6065 6067 -6071 0
-6065 6067 6071 0
6065 -6067 6071 0
-6069 -6070 -6071 0
6069 6070 -6071 0
-6069 6070 6071 0
6069 -6070 6071 0
-6060 -6062 -6079 0
6060 6062 -6079 0
-6060 6062 6079 0
6060 -6062 6079 0
-6066 -6068 -6076 0
6066 6068 -6076 0
-6066 6068 6076 0
6066 -6068 6076 0
-6072 -6073 -6078 0
6072 6073 -6078 0
-6072 6073 6078 0
6072 -6073 6078 0
-6074 -6075 -6080 0
6074 6075 -6080 0
-6074 6075 6080 0
6074 -6075 6080 0
-6076 -6077 -6081 0
6076 6077 -6081 0
-6076 6077 6081 0
6076 -6077 6081 0
-6071 -6078 -6083 0
6071 6078 -6083 0
6071 -6078 6083 0
-6071 6078 6083 0
-6080 -6081 -6085 0
6080 6081 -6085 0
-6080 6081 6085 0
6080 -6081 6085 0
-6079 -6083 -6085 0
6079 6083 -6085 0
6079 -6083 6085 0
-6079 6083 6085 0
-6082 -6084 -6090 0
6082 6084 -6090 0
-6082 6084 6090 0
6082 -6084 6090 0
-6085 -6086 -6092 0
6085 6086 -6092 0
6085 -6086 6092 0
-6085 6086 6092 0
-6087 -6088 -6096 0
6087 6088 -6096 0
-6087 6088 6096 0
6087 -6088 6096 0
-6089 -6090 -6094 0
6089 6090 -6094 0
-6089 6090 6094 0
6089 -6090 6094 0
-6091 -6092 -6095 0
6091 6092 -6095 0
-6091 6092 6095 0
6091 -6092 6095 0
-6093 -6094 -6097 0
6093 6094 -6097 0
-6093 6094 6097 0
6093 -6094 6097 0
-6095 -6096 -6097 0
6095 6096 -6097 0
-6095 6096 6097 0
6095 -6096 6097 0
-6098 -6099 -6105 0
6098 6099 -6105 0
-6098 6099 6105 0
6098 -6099 6105 0
-6100 -6101 -6106 0
6100 6101 -6106 0
-6100 6101 6106 0
6100 -6101 6106 0
-6102 -6103 -6107 0
6102 6103 -6107 0
-6102 6103 6107 0
6102 -6103 6107 0
-6104 -6105 -6109 0
6104 6105 -6109 0
-6104 6105 6109 0
6104 -6105 6109 0
-6106 -6107 -6111 0
6106 6107 -6111 0
-6106 6107 6111 0
6106 -6107 6111 0
-6097 -6109 -6111 0
6097 6109 -6111 0
6097 -6109 6111 0
-6097 6109 6111 0
-6108 -6110 -6115 0
6108 6110 -6115 0
-6108 6110 6115 0
6108 -6110 6115 0
-6111 -6112 -6118 0
6111 6112 -6118 0
6111 -6112 6118 0
-6111 6112 6118 0
-6113 -6114 -6119 0
6113 6114 -6119 0
-6113 6114 6119 0
6113 -6114 6119 0
-6115 -6116 -6117 0
6115 6116 -6117 0
-6115 6116 6117 0
6115 -6116 6117 0
-6117 -6118 -6119 0
6117 6118 -6119 0
-6117 6118 6119 0
6117 -6118 6119 0
-6120 -6121 -6129 0
6120 6121 -6129 0
-6120 6121 6129 0
6120 -6121 6129 0
-6122 -6123 -6126 0
6122 6123 -6126 0
-6122 6123 6126 0
6122 -6123 6126 0
-6119 -6124 -6128 0
6119 6124 -6128 0
6119 -6124 6128 0
-6119 6124 6128 0
-6126 -6128 -6129 0
6126 6128 -6129 0
-6126 6128 6129 0
6126 -6128 6129 0
-6125 -6127 -6135 0
6125 6127 -6135 0
-6125 6127 6135 0
6125 -6127 6135 0
-6129 -6130 -6132 0
6129 6130 -6132 0
6129 -6130 6132 0
-6129 6130 6132 0
-6131 -6132 -6135 0
6131 6132 -6135 0
-6131 6132 6135 0
6131 -6132 6135 0
6134 6135 -6136 0
-6134 6135 6136 0
6134 -6135 6136 0
-6133 6136 6137 0
6133 -6136 6137 0
