c Factorization SAT instance #41: N = 64643 = 127 x 509
c p = 127 (7 bits), q = 509 (9 bits)
c N = 64643 (16 bits)
c Generator: generate_instances.py  d=3, k=50, seed=None
p cnf 2070 7350
1 8 -58 0
-1 -8 0
-8 58 0
1 -2 9 0
-1 -9 0
2 -9 0
1 -3 10 0
-1 -10 0
3 -10 0
1 -4 11 0
-1 -11 0
4 -11 0
1 -5 12 0
-1 -12 0
5 -12 0
1 -6 13 0
-1 -13 0
6 -13 0
1 -7 14 0
-1 -14 0
7 -14 0
-1 15 -58 0
-15 58 0
1 -15 0
-2 16 -58 0
-16 58 0
2 -16 0
-3 17 -58 0
-17 58 0
3 -17 0
-4 18 -58 0
-18 58 0
4 -18 0
-5 19 -58 0
-19 58 0
5 -19 0
-6 20 -58 0
-20 58 0
6 -20 0
-7 21 -58 0
-21 58 0
7 -21 0
-1 -22 23 0
22 -23 0
1 -23 0
-22 24 -58 0
22 -24 0
-24 58 0
-2 -22 25 0
22 -25 0
2 -25 0
-3 -22 26 0
22 -26 0
3 -26 0
-4 -22 27 0
22 -27 0
4 -27 0
-5 -22 28 0
22 -28 0
5 -28 0
-6 -22 29 0
22 -29 0
6 -29 0
-7 -22 30 0
22 -30 0
7 -30 0
-1 -31 32 0
31 -32 0
1 -32 0
-31 33 -58 0
31 -33 0
-33 58 0
-2 -31 34 0
31 -34 0
2 -34 0
-3 -31 35 0
31 -35 0
3 -35 0
-4 -31 36 0
31 -36 0
4 -36 0
-5 -31 37 0
31 -37 0
5 -37 0
-6 -31 38 0
31 -38 0
6 -38 0
-7 -31 39 0
31 -39 0
7 -39 0
-1 -40 41 0
40 -41 0
1 -41 0
-40 42 -58 0
40 -42 0
-42 58 0
-2 -40 43 0
40 -43 0
2 -43 0
-3 -40 44 0
40 -44 0
3 -44 0
-4 -40 45 0
40 -45 0
4 -45 0
-5 -40 46 0
40 -46 0
5 -46 0
-6 -40 47 0
40 -47 0
6 -47 0
-7 -40 48 0
40 -48 0
7 -48 0
-1 -49 50 0
49 -50 0
1 -50 0
-49 51 -58 0
49 -51 0
-51 58 0
-2 -49 52 0
49 -52 0
2 -52 0
-3 -49 53 0
49 -53 0
3 -53 0
-4 -49 54 0
49 -54 0
4 -54 0
-5 -49 55 0
49 -55 0
5 -55 0
-6 -49 56 0
49 -56 0
6 -56 0
-7 -49 57 0
49 -57 0
7 -57 0
-2 -8 60 0
2 -60 0
8 -60 0
-15 -22 67 0
15 -67 0
22 -67 0
-58 -59 68 0
58 -68 0
59 -68 0
-3 -9 63 0
3 -63 0
9 -63 0
-23 -58 65 0
58 -65 0
23 -65 0
-31 -60 82 0
31 -82 0
60 -82 0
-61 -62 83 0
61 -83 0
62 -83 0
-64 -66 71 0
64 -71 0
66 -71 0
-67 -68 73 0
67 -73 0
68 -73 0
-69 -70 74 0
69 -74 0
70 -74 0
-4 -10 76 0
4 -76 0
10 -76 0
-16 -24 78 0
16 -78 0
24 -78 0
-32 -40 80 0
32 -80 0
40 -80 0
-63 -65 108 0
63 -108 0
65 -108 0
-71 -73 109 0
71 -109 0
73 -109 0
-72 -74 86 0
74 -86 0
72 -86 0
-75 -77 88 0
75 -88 0
77 -88 0
-79 -81 90 0
79 -90 0
81 -90 0
-82 -83 92 0
82 -92 0
83 -92 0
-84 -85 94 0
84 -94 0
85 -94 0
-87 -89 96 0
87 -96 0
89 -96 0
-91 -93 97 0
91 -97 0
93 -97 0
-5 -11 99 0
5 -99 0
11 -99 0
-17 -25 101 0
17 -101 0
25 -101 0
-33 -41 103 0
33 -103 0
41 -103 0
-49 -76 105 0
49 -105 0
76 -105 0
-78 -80 107 0
78 -107 0
80 -107 0
-86 -88 111 0
86 -111 0
88 -111 0
-90 -92 113 0
90 -113 0
92 -113 0
-94 -96 115 0
94 -115 0
96 -115 0
-95 -97 117 0
97 -117 0
95 -117 0
-98 -100 119 0
98 -119 0
100 -119 0
-102 -104 121 0
102 -121 0
104 -121 0
-106 -108 123 0
106 -123 0
108 -123 0
-109 -110 125 0
109 -125 0
110 -125 0
-112 -114 127 0
112 -127 0
114 -127 0
-116 -118 129 0
116 -129 0
118 -129 0
-120 -122 131 0
120 -131 0
122 -131 0
-124 -126 133 0
124 -133 0
126 -133 0
-128 -130 134 0
128 -134 0
130 -134 0
-6 -12 136 0
6 -136 0
12 -136 0
-18 -26 138 0
18 -138 0
26 -138 0
-34 -42 140 0
34 -140 0
42 -140 0
-50 -99 142 0
50 -142 0
99 -142 0
-101 -103 144 0
101 -144 0
103 -144 0
-105 -107 191 0
105 -191 0
107 -191 0
-111 -113 146 0
111 -146 0
113 -146 0
-115 -117 148 0
115 -148 0
117 -148 0
-119 -121 150 0
119 -150 0
121 -150 0
-123 -125 152 0
123 -152 0
125 -152 0
-127 -129 154 0
127 -154 0
129 -154 0
-131 -133 156 0
131 -156 0
133 -156 0
-132 -134 158 0
134 -158 0
132 -158 0
-135 -137 160 0
135 -160 0
137 -160 0
-139 -141 162 0
139 -162 0
141 -162 0
-143 -145 164 0
143 -164 0
145 -164 0
-147 -149 201 0
147 -201 0
149 -201 0
-151 -153 168 0
151 -168 0
153 -168 0
-155 -157 170 0
155 -170 0
157 -170 0
-159 -161 172 0
159 -172 0
161 -172 0
-163 -165 174 0
163 -174 0
165 -174 0
-166 -167 176 0
166 -176 0
167 -176 0
-169 -171 178 0
169 -178 0
171 -178 0
-173 -175 207 0
173 -207 0
175 -207 0
-7 -13 180 0
7 -180 0
13 -180 0
-19 -27 182 0
19 -182 0
27 -182 0
-35 -43 184 0
35 -184 0
43 -184 0
-51 -136 186 0
51 -186 0
136 -186 0
-138 -140 188 0
138 -188 0
140 -188 0
-142 -144 190 0
142 -190 0
144 -190 0
-146 -148 247 0
146 -247 0
148 -247 0
-150 -152 194 0
150 -194 0
152 -194 0
-154 -156 196 0
154 -196 0
156 -196 0
-158 -160 198 0
158 -198 0
160 -198 0
-162 -164 200 0
162 -200 0
164 -200 0
-168 -170 252 0
168 -252 0
170 -252 0
-172 -174 204 0
172 -204 0
174 -204 0
-176 -178 206 0
176 -206 0
178 -206 0
-179 -181 254 0
179 -254 0
181 -254 0
-183 -185 210 0
183 -210 0
185 -210 0
-187 -189 212 0
187 -212 0
189 -212 0
-191 -192 214 0
191 -214 0
192 -214 0
-193 -195 216 0
193 -216 0
195 -216 0
-197 -199 218 0
197 -218 0
199 -218 0
-201 -202 220 0
201 -220 0
202 -220 0
-203 -205 222 0
203 -222 0
205 -222 0
-207 -208 224 0
207 -224 0
208 -224 0
-209 -211 226 0
209 -226 0
211 -226 0
-213 -215 228 0
213 -228 0
215 -228 0
-217 -219 230 0
217 -230 0
219 -230 0
-221 -223 232 0
221 -232 0
223 -232 0
-225 -227 234 0
225 -234 0
227 -234 0
-229 -231 235 0
229 -235 0
231 -235 0
-14 -20 237 0
14 -237 0
20 -237 0
-28 -36 239 0
28 -239 0
36 -239 0
-44 -52 241 0
44 -241 0
52 -241 0
-180 -182 243 0
180 -243 0
182 -243 0
-184 -186 245 0
184 -245 0
186 -245 0
-188 -190 312 0
188 -312 0
190 -312 0
-194 -196 249 0
194 -249 0
196 -249 0
-198 -200 251 0
198 -251 0
200 -251 0
-204 -206 314 0
204 -314 0
206 -314 0
-210 -212 315 0
210 -315 0
212 -315 0
-214 -216 257 0
214 -257 0
216 -257 0
-218 -220 259 0
218 -259 0
220 -259 0
-222 -224 261 0
222 -261 0
224 -261 0
-226 -228 263 0
226 -263 0
228 -263 0
-230 -232 265 0
230 -265 0
232 -265 0
-234 -235 267 0
234 -267 0
235 -267 0
-233 -236 269 0
233 -269 0
236 -269 0
-238 -240 271 0
238 -271 0
240 -271 0
-242 -244 273 0
242 -273 0
244 -273 0
-246 -247 275 0
246 -275 0
247 -275 0
-248 -250 277 0
248 -277 0
250 -277 0
-252 -253 279 0
252 -279 0
253 -279 0
-254 -255 281 0
254 -281 0
255 -281 0
-256 -258 283 0
256 -283 0
258 -283 0
-260 -262 285 0
260 -285 0
262 -285 0
-264 -266 287 0
264 -287 0
266 -287 0
-268 -270 289 0
268 -289 0
270 -289 0
-272 -274 291 0
272 -291 0
274 -291 0
-276 -278 293 0
276 -293 0
278 -293 0
-280 -282 295 0
280 -295 0
282 -295 0
-284 -286 297 0
284 -297 0
286 -297 0
-288 -290 299 0
288 -299 0
290 -299 0
-292 -294 301 0
292 -301 0
294 -301 0
-296 -298 302 0
296 -302 0
298 -302 0
-21 -29 304 0
21 -304 0
29 -304 0
-37 -45 306 0
37 -306 0
45 -306 0
-53 -237 308 0
53 -308 0
237 -308 0
-239 -241 310 0
239 -310 0
241 -310 0
-243 -245 384 0
243 -384 0
245 -384 0
-249 -251 385 0
249 -385 0
251 -385 0
-257 -259 386 0
257 -386 0
259 -386 0
-261 -263 318 0
261 -318 0
263 -318 0
-265 -267 320 0
265 -320 0
267 -320 0
-269 -271 322 0
269 -322 0
271 -322 0
-273 -275 324 0
273 -324 0
275 -324 0
-277 -279 326 0
277 -326 0
279 -326 0
-281 -283 328 0
281 -328 0
283 -328 0
-285 -287 330 0
285 -330 0
287 -330 0
-289 -291 332 0
289 -332 0
291 -332 0
-293 -295 334 0
293 -334 0
295 -334 0
-297 -299 336 0
297 -336 0
299 -336 0
-301 -302 338 0
301 -338 0
302 -338 0
-300 -303 340 0
300 -340 0
303 -340 0
-305 -307 342 0
305 -342 0
307 -342 0
-309 -311 344 0
309 -344 0
311 -344 0
-312 -313 346 0
312 -346 0
313 -346 0
-314 -315 348 0
314 -348 0
315 -348 0
-316 -317 350 0
316 -350 0
317 -350 0
-319 -321 352 0
319 -352 0
321 -352 0
-323 -325 354 0
323 -354 0
325 -354 0
-327 -329 356 0
327 -356 0
329 -356 0
-331 -333 358 0
331 -358 0
333 -358 0
-335 -337 360 0
335 -360 0
337 -360 0
-339 -341 362 0
339 -362 0
341 -362 0
-343 -345 364 0
343 -364 0
345 -364 0
-347 -349 366 0
347 -366 0
349 -366 0
-351 -353 368 0
351 -368 0
353 -368 0
-355 -357 370 0
355 -370 0
357 -370 0
-359 -361 372 0
359 -372 0
361 -372 0
-363 -365 374 0
363 -374 0
365 -374 0
-367 -369 376 0
367 -376 0
369 -376 0
-371 -373 416 0
371 -416 0
373 -416 0
-30 -38 378 0
30 -378 0
38 -378 0
-46 -54 380 0
46 -380 0
54 -380 0
-304 -306 382 0
304 -382 0
306 -382 0
-308 -310 462 0
308 -462 0
310 -462 0
-318 -320 388 0
318 -388 0
320 -388 0
-322 -324 390 0
322 -390 0
324 -390 0
-326 -328 392 0
326 -392 0
328 -392 0
-330 -332 394 0
330 -394 0
332 -394 0
-334 -336 396 0
334 -396 0
336 -396 0
-338 -340 398 0
338 -398 0
340 -398 0
-342 -344 400 0
342 -400 0
344 -400 0
-346 -348 402 0
346 -402 0
348 -402 0
-350 -352 404 0
350 -404 0
352 -404 0
-354 -356 406 0
354 -406 0
356 -406 0
-358 -360 408 0
358 -408 0
360 -408 0
-362 -364 410 0
362 -410 0
364 -410 0
-366 -368 412 0
366 -412 0
368 -412 0
-370 -372 414 0
370 -414 0
372 -414 0
-374 -376 475 0
374 -475 0
376 -475 0
-377 -379 418 0
377 -418 0
379 -418 0
-381 -383 420 0
381 -420 0
383 -420 0
-384 -385 422 0
384 -422 0
385 -422 0
-386 -387 424 0
386 -424 0
387 -424 0
-389 -391 426 0
389 -426 0
391 -426 0
-393 -395 428 0
393 -428 0
395 -428 0
-397 -399 430 0
397 -430 0
399 -430 0
-401 -403 432 0
401 -432 0
403 -432 0
-405 -407 434 0
405 -434 0
407 -434 0
-409 -411 436 0
409 -436 0
411 -436 0
-413 -415 438 0
413 -438 0
415 -438 0
-416 -417 440 0
416 -440 0
417 -440 0
-419 -421 442 0
419 -442 0
421 -442 0
-423 -425 444 0
423 -444 0
425 -444 0
-427 -429 446 0
427 -446 0
429 -446 0
-431 -433 448 0
431 -448 0
433 -448 0
-435 -437 450 0
435 -450 0
437 -450 0
-439 -441 452 0
439 -452 0
441 -452 0
-443 -445 454 0
443 -454 0
445 -454 0
-447 -449 456 0
447 -456 0
449 -456 0
-451 -453 494 0
451 -494 0
453 -494 0
-39 -47 458 0
39 -458 0
47 -458 0
-55 -378 460 0
55 -460 0
378 -460 0
-380 -382 538 0
380 -538 0
382 -538 0
-388 -390 539 0
388 -539 0
390 -539 0
-392 -394 464 0
392 -464 0
394 -464 0
-396 -398 466 0
396 -466 0
398 -466 0
-400 -402 468 0
400 -468 0
402 -468 0
-404 -406 470 0
404 -470 0
406 -470 0
-408 -410 472 0
408 -472 0
410 -472 0
-412 -414 474 0
412 -474 0
414 -474 0
-418 -420 545 0
418 -545 0
420 -545 0
-422 -424 478 0
422 -478 0
424 -478 0
-426 -428 480 0
426 -480 0
428 -480 0
-430 -432 482 0
430 -482 0
432 -482 0
-434 -436 484 0
434 -484 0
436 -484 0
-438 -440 486 0
438 -486 0
440 -486 0
-442 -444 488 0
442 -488 0
444 -488 0
-446 -448 490 0
446 -490 0
448 -490 0
-450 -452 492 0
450 -492 0
452 -492 0
-454 -456 552 0
454 -552 0
456 -552 0
-457 -459 496 0
457 -496 0
459 -496 0
-461 -462 498 0
461 -498 0
462 -498 0
-463 -465 554 0
463 -554 0
465 -554 0
-467 -469 502 0
467 -502 0
469 -502 0
-471 -473 504 0
471 -504 0
473 -504 0
-475 -476 506 0
475 -506 0
476 -506 0
-477 -479 508 0
477 -508 0
479 -508 0
-481 -483 510 0
481 -510 0
483 -510 0
-485 -487 512 0
485 -512 0
487 -512 0
-489 -491 514 0
489 -514 0
491 -514 0
-493 -494 516 0
493 -516 0
494 -516 0
-495 -497 518 0
495 -518 0
497 -518 0
-499 -500 520 0
499 -520 0
500 -520 0
-501 -503 522 0
501 -522 0
503 -522 0
-505 -507 524 0
505 -524 0
507 -524 0
-509 -511 526 0
509 -526 0
511 -526 0
-513 -515 528 0
513 -528 0
515 -528 0
-517 -519 530 0
517 -530 0
519 -530 0
-521 -523 532 0
521 -532 0
523 -532 0
-525 -527 534 0
525 -534 0
527 -534 0
-529 -531 535 0
529 -535 0
531 -535 0
-48 -56 536 0
48 -536 0
56 -536 0
-458 -460 616 0
458 -616 0
460 -616 0
-464 -466 617 0
464 -617 0
466 -617 0
-468 -470 542 0
468 -542 0
470 -542 0
-472 -474 544 0
472 -544 0
474 -544 0
-478 -480 619 0
478 -619 0
480 -619 0
-482 -484 548 0
482 -548 0
484 -548 0
-486 -488 550 0
486 -550 0
488 -550 0
-490 -492 621 0
490 -621 0
492 -621 0
-496 -498 622 0
496 -622 0
498 -622 0
-502 -504 556 0
502 -556 0
504 -556 0
-506 -508 558 0
506 -558 0
508 -558 0
-510 -512 560 0
510 -560 0
512 -560 0
-514 -516 562 0
514 -562 0
516 -562 0
-518 -520 564 0
518 -564 0
520 -564 0
-522 -524 566 0
522 -566 0
524 -566 0
-526 -528 568 0
526 -568 0
528 -568 0
-530 -532 570 0
530 -570 0
532 -570 0
-534 -535 631 0
534 -631 0
535 -631 0
-537 -538 574 0
537 -574 0
538 -574 0
-539 -540 576 0
539 -576 0
540 -576 0
-541 -543 578 0
541 -578 0
543 -578 0
-545 -546 580 0
545 -580 0
546 -580 0
-547 -549 582 0
547 -582 0
549 -582 0
-551 -552 584 0
551 -584 0
552 -584 0
-553 -554 586 0
553 -586 0
554 -586 0
-555 -557 588 0
555 -588 0
557 -588 0
-559 -561 590 0
559 -590 0
561 -590 0
-563 -565 592 0
563 -592 0
565 -592 0
-567 -569 594 0
567 -594 0
569 -594 0
-571 -572 596 0
571 -596 0
572 -596 0
-573 -575 598 0
573 -598 0
575 -598 0
-577 -579 600 0
577 -600 0
579 -600 0
-581 -583 602 0
581 -602 0
583 -602 0
-585 -587 604 0
585 -604 0
587 -604 0
-589 -591 606 0
589 -606 0
591 -606 0
-593 -595 608 0
593 -608 0
595 -608 0
-597 -599 610 0
597 -610 0
599 -610 0
-601 -603 612 0
601 -612 0
603 -612 0
-605 -607 614 0
605 -614 0
607 -614 0
-609 -611 615 0
609 -615 0
611 -615 0
-57 -536 695 0
57 -695 0
536 -695 0
-542 -544 696 0
542 -696 0
544 -696 0
-548 -550 697 0
548 -697 0
550 -697 0
-556 -558 624 0
556 -624 0
558 -624 0
-560 -562 626 0
560 -626 0
562 -626 0
-564 -566 628 0
564 -628 0
566 -628 0
-568 -570 630 0
568 -630 0
570 -630 0
-574 -576 702 0
574 -702 0
576 -702 0
-578 -580 634 0
578 -634 0
580 -634 0
-582 -584 636 0
582 -636 0
584 -636 0
-586 -588 638 0
586 -638 0
588 -638 0
-590 -592 640 0
590 -640 0
592 -640 0
-594 -596 642 0
594 -642 0
596 -642 0
-598 -600 644 0
598 -644 0
600 -644 0
-602 -604 646 0
602 -646 0
604 -646 0
-606 -608 648 0
606 -648 0
608 -648 0
-610 -612 650 0
610 -650 0
612 -650 0
-614 -615 652 0
614 -652 0
615 -652 0
-616 -617 712 0
616 -712 0
617 -712 0
-618 -619 656 0
618 -656 0
619 -656 0
-620 -621 658 0
620 -658 0
621 -658 0
-622 -623 660 0
622 -660 0
623 -660 0
-625 -627 662 0
625 -662 0
627 -662 0
-629 -631 664 0
629 -664 0
631 -664 0
-632 -633 666 0
632 -666 0
633 -666 0
-635 -637 668 0
635 -668 0
637 -668 0
-639 -641 670 0
639 -670 0
641 -670 0
-643 -645 672 0
643 -672 0
645 -672 0
-647 -649 674 0
647 -674 0
649 -674 0
-651 -653 676 0
651 -676 0
653 -676 0
-654 -655 678 0
654 -678 0
655 -678 0
-657 -659 680 0
657 -680 0
659 -680 0
-661 -663 682 0
661 -682 0
663 -682 0
-665 -667 684 0
665 -684 0
667 -684 0
-669 -671 686 0
669 -686 0
671 -686 0
-673 -675 688 0
673 -688 0
675 -688 0
-677 -679 690 0
677 -690 0
679 -690 0
-681 -683 692 0
681 -692 0
683 -692 0
-685 -687 694 0
685 -694 0
687 -694 0
-689 -691 731 0
689 -731 0
691 -731 0
-624 -626 699 0
624 -699 0
626 -699 0
-628 -630 701 0
628 -701 0
630 -701 0
-634 -636 772 0
634 -772 0
636 -772 0
-638 -640 705 0
638 -705 0
640 -705 0
-642 -644 707 0
642 -707 0
644 -707 0
-646 -648 709 0
646 -709 0
648 -709 0
-650 -652 711 0
650 -711 0
652 -711 0
-656 -658 777 0
656 -777 0
658 -777 0
-660 -662 715 0
660 -715 0
662 -715 0
-664 -666 717 0
664 -717 0
666 -717 0
-668 -670 719 0
668 -719 0
670 -719 0
-672 -674 721 0
672 -721 0
674 -721 0
-676 -678 723 0
676 -723 0
678 -723 0
-680 -682 725 0
680 -725 0
682 -725 0
-684 -686 727 0
684 -727 0
686 -727 0
-688 -690 729 0
688 -729 0
690 -729 0
-692 -694 784 0
692 -784 0
694 -784 0
-695 -696 785 0
695 -785 0
696 -785 0
-698 -700 734 0
698 -734 0
700 -734 0
-702 -703 736 0
702 -736 0
703 -736 0
-704 -706 738 0
704 -738 0
706 -738 0
-708 -710 740 0
708 -740 0
710 -740 0
-712 -713 742 0
712 -742 0
713 -742 0
-714 -716 744 0
714 -744 0
716 -744 0
-718 -720 746 0
718 -746 0
720 -746 0
-722 -724 748 0
722 -748 0
724 -748 0
-726 -728 750 0
726 -750 0
728 -750 0
-730 -731 752 0
730 -752 0
731 -752 0
-697 -732 754 0
732 -754 0
697 -754 0
-733 -735 756 0
733 -756 0
735 -756 0
-737 -739 758 0
737 -758 0
739 -758 0
-741 -743 760 0
741 -760 0
743 -760 0
-745 -747 762 0
745 -762 0
747 -762 0
-749 -751 764 0
749 -764 0
751 -764 0
-753 -755 766 0
753 -766 0
755 -766 0
-757 -759 768 0
757 -768 0
759 -768 0
-761 -763 770 0
761 -770 0
763 -770 0
-765 -767 771 0
765 -771 0
767 -771 0
-699 -701 840 0
699 -840 0
701 -840 0
-705 -707 774 0
705 -774 0
707 -774 0
-709 -711 776 0
709 -776 0
711 -776 0
-715 -717 842 0
715 -842 0
717 -842 0
-719 -721 780 0
719 -780 0
721 -780 0
-723 -725 782 0
723 -782 0
725 -782 0
-727 -729 844 0
727 -844 0
729 -844 0
-734 -736 845 0
734 -845 0
736 -845 0
-738 -740 788 0
738 -788 0
740 -788 0
-742 -744 790 0
742 -790 0
744 -790 0
-746 -748 792 0
746 -792 0
748 -792 0
-750 -752 794 0
750 -794 0
752 -794 0
-754 -756 796 0
754 -796 0
756 -796 0
-758 -760 798 0
758 -798 0
760 -798 0
-762 -764 800 0
762 -800 0
764 -800 0
-766 -768 802 0
766 -802 0
768 -802 0
-770 -771 852 0
770 -852 0
771 -852 0
-772 -773 853 0
772 -853 0
773 -853 0
-775 -777 807 0
775 -807 0
777 -807 0
-778 -779 809 0
778 -809 0
779 -809 0
-781 -783 811 0
781 -811 0
783 -811 0
-784 -785 813 0
784 -813 0
785 -813 0
-786 -787 815 0
786 -815 0
787 -815 0
-789 -791 817 0
789 -817 0
791 -817 0
-793 -795 819 0
793 -819 0
795 -819 0
-797 -799 821 0
797 -821 0
799 -821 0
-801 -803 860 0
801 -860 0
803 -860 0
-805 -806 824 0
805 -824 0
806 -824 0
-808 -810 826 0
808 -826 0
810 -826 0
-812 -814 828 0
812 -828 0
814 -828 0
-816 -818 830 0
816 -830 0
818 -830 0
-820 -822 832 0
820 -832 0
822 -832 0
-804 -823 834 0
804 -834 0
823 -834 0
-825 -827 836 0
825 -836 0
827 -836 0
-829 -831 838 0
829 -838 0
831 -838 0
-833 -835 839 0
833 -839 0
835 -839 0
-774 -776 909 0
774 -909 0
776 -909 0
-780 -782 910 0
780 -910 0
782 -910 0
-788 -790 911 0
788 -911 0
790 -911 0
-792 -794 848 0
792 -848 0
794 -848 0
-796 -798 850 0
796 -850 0
798 -850 0
-800 -802 913 0
800 -913 0
802 -913 0
-807 -809 914 0
807 -914 0
809 -914 0
-811 -813 856 0
811 -856 0
813 -856 0
-815 -817 858 0
815 -858 0
817 -858 0
-819 -821 916 0
819 -916 0
821 -916 0
-824 -826 862 0
824 -862 0
826 -862 0
-828 -830 864 0
828 -864 0
830 -864 0
-832 -834 866 0
832 -866 0
834 -866 0
-836 -838 868 0
836 -868 0
838 -868 0
-837 -839 919 0
839 -919 0
837 -919 0
-841 -842 871 0
841 -871 0
842 -871 0
-843 -844 873 0
843 -873 0
844 -873 0
-845 -846 875 0
845 -875 0
846 -875 0
-847 -849 877 0
847 -877 0
849 -877 0
-851 -852 879 0
851 -879 0
852 -879 0
-853 -854 881 0
853 -881 0
854 -881 0
-855 -857 883 0
855 -883 0
857 -883 0
-859 -860 885 0
859 -885 0
860 -885 0
-861 -863 887 0
861 -887 0
863 -887 0
-865 -867 889 0
865 -889 0
867 -889 0
-840 -869 891 0
869 -891 0
840 -891 0
-870 -872 893 0
870 -893 0
872 -893 0
-874 -876 895 0
874 -895 0
876 -895 0
-878 -880 897 0
878 -897 0
880 -897 0
-882 -884 899 0
882 -899 0
884 -899 0
-886 -888 901 0
886 -901 0
888 -901 0
-890 -892 903 0
890 -903 0
892 -903 0
-894 -896 905 0
894 -905 0
896 -905 0
-898 -900 907 0
898 -907 0
900 -907 0
-902 -904 908 0
902 -908 0
904 -908 0
-848 -850 978 0
848 -978 0
850 -978 0
-856 -858 979 0
856 -979 0
858 -979 0
-862 -864 980 0
862 -980 0
864 -980 0
-866 -868 981 0
866 -981 0
868 -981 0
-871 -873 921 0
871 -921 0
873 -921 0
-875 -877 923 0
875 -923 0
877 -923 0
-879 -881 925 0
879 -925 0
881 -925 0
-883 -885 927 0
883 -927 0
885 -927 0
-887 -889 929 0
887 -929 0
889 -929 0
-891 -893 931 0
891 -931 0
893 -931 0
-895 -897 933 0
895 -933 0
897 -933 0
-899 -901 935 0
899 -935 0
901 -935 0
-903 -905 937 0
903 -937 0
905 -937 0
-907 -908 939 0
907 -939 0
908 -939 0
-909 -910 991 0
909 -991 0
910 -991 0
-911 -912 942 0
911 -942 0
912 -942 0
-913 -914 944 0
913 -944 0
914 -944 0
-915 -916 946 0
915 -946 0
916 -946 0
-917 -918 948 0
917 -948 0
918 -948 0
-919 -920 950 0
919 -950 0
920 -950 0
-922 -924 952 0
922 -952 0
924 -952 0
-926 -928 954 0
926 -954 0
928 -954 0
-930 -932 956 0
930 -956 0
932 -956 0
-934 -936 958 0
934 -958 0
936 -958 0
-906 -938 960 0
938 -960 0
906 -960 0
-940 -941 962 0
940 -962 0
941 -962 0
-943 -945 964 0
943 -964 0
945 -964 0
-947 -949 966 0
947 -966 0
949 -966 0
-951 -953 968 0
951 -968 0
953 -968 0
-955 -957 970 0
955 -970 0
957 -970 0
-959 -961 972 0
959 -972 0
961 -972 0
-963 -965 974 0
963 -974 0
965 -974 0
-967 -969 976 0
967 -976 0
969 -976 0
-971 -973 977 0
971 -977 0
973 -977 0
-921 -923 983 0
921 -983 0
923 -983 0
-925 -927 985 0
925 -985 0
927 -985 0
-929 -931 987 0
929 -987 0
931 -987 0
-933 -935 989 0
933 -989 0
935 -989 0
-937 -939 1047 0
937 -1047 0
939 -1047 0
-942 -944 993 0
942 -993 0
944 -993 0
-946 -948 995 0
946 -995 0
948 -995 0
-950 -952 997 0
950 -997 0
952 -997 0
-954 -956 999 0
954 -999 0
956 -999 0
-958 -960 1001 0
958 -1001 0
960 -1001 0
-962 -964 1003 0
962 -1003 0
964 -1003 0
-966 -968 1005 0
966 -1005 0
968 -1005 0
-970 -972 1007 0
970 -1007 0
972 -1007 0
-974 -976 1009 0
974 -1009 0
976 -1009 0
-975 -977 1011 0
977 -1011 0
975 -1011 0
-978 -979 1057 0
978 -1057 0
979 -1057 0
-980 -981 1013 0
980 -1013 0
981 -1013 0
-982 -984 1015 0
982 -1015 0
984 -1015 0
-986 -988 1017 0
986 -1017 0
988 -1017 0
-990 -991 1019 0
990 -1019 0
991 -1019 0
-992 -994 1021 0
992 -1021 0
994 -1021 0
-996 -998 1023 0
996 -1023 0
998 -1023 0
-1000 -1002 1025 0
1000 -1025 0
1002 -1025 0
-1004 -1006 1027 0
1004 -1027 0
1006 -1027 0
-1008 -1010 1066 0
1008 -1066 0
1010 -1066 0
-1012 -1014 1031 0
1012 -1031 0
1014 -1031 0
-1016 -1018 1033 0
1016 -1033 0
1018 -1033 0
-1020 -1022 1035 0
1020 -1035 0
1022 -1035 0
-1024 -1026 1037 0
1024 -1037 0
1026 -1037 0
-1028 -1029 1039 0
1028 -1039 0
1029 -1039 0
-1030 -1032 1041 0
1030 -1041 0
1032 -1041 0
-1034 -1036 1043 0
1034 -1043 0
1036 -1043 0
-1038 -1040 1044 0
1038 -1044 0
1040 -1044 0
-983 -985 1131 0
983 -1131 0
985 -1131 0
-987 -989 1104 0
987 -1104 0
989 -1104 0
-993 -995 1049 0
993 -1049 0
995 -1049 0
-997 -999 1051 0
997 -1051 0
999 -1051 0
-1001 -1003 1053 0
1001 -1053 0
1003 -1053 0
-1005 -1007 1055 0
1005 -1055 0
1007 -1055 0
-1009 -1011 1107 0
1009 -1107 0
1011 -1107 0
-1013 -1015 1059 0
1013 -1059 0
1015 -1059 0
-1017 -1019 1061 0
1017 -1061 0
1019 -1061 0
-1021 -1023 1063 0
1021 -1063 0
1023 -1063 0
-1025 -1027 1065 0
1025 -1065 0
1027 -1065 0
-1031 -1033 1112 0
1031 -1112 0
1033 -1112 0
-1035 -1037 1069 0
1035 -1069 0
1037 -1069 0
-1039 -1041 1071 0
1039 -1071 0
1041 -1071 0
-1043 -1044 1114 0
1043 -1114 0
1044 -1114 0
-1045 -1046 1115 0
1045 -1115 0
1046 -1115 0
-1047 -1048 1075 0
1047 -1075 0
1048 -1075 0
-1050 -1052 1077 0
1050 -1077 0
1052 -1077 0
-1054 -1056 1079 0
1054 -1079 0
1056 -1079 0
-1057 -1058 1081 0
1057 -1081 0
1058 -1081 0
-1060 -1062 1083 0
1060 -1083 0
1062 -1083 0
-1064 -1066 1085 0
1064 -1085 0
1066 -1085 0
-1067 -1068 1087 0
1067 -1087 0
1068 -1087 0
-1070 -1072 1089 0
1070 -1089 0
1072 -1089 0
-1073 -1074 1124 0
1073 -1124 0
1074 -1124 0
-1076 -1078 1092 0
1076 -1092 0
1078 -1092 0
-1080 -1082 1094 0
1080 -1094 0
1082 -1094 0
-1084 -1086 1096 0
1084 -1096 0
1086 -1096 0
-1042 -1088 1098 0
1088 -1098 0
1042 -1098 0
-1090 -1091 1100 0
1090 -1100 0
1091 -1100 0
-1093 -1095 1102 0
1093 -1102 0
1095 -1102 0
-1097 -1099 1103 0
1097 -1103 0
1099 -1103 0
-1049 -1051 1167 0
1049 -1167 0
1051 -1167 0
-1053 -1055 1168 0
1053 -1168 0
1055 -1168 0
-1059 -1061 1109 0
1059 -1109 0
1061 -1109 0
-1063 -1065 1111 0
1063 -1111 0
1065 -1111 0
-1069 -1071 1170 0
1069 -1170 0
1071 -1170 0
-1075 -1077 1117 0
1075 -1117 0
1077 -1117 0
-1079 -1081 1119 0
1079 -1119 0
1081 -1119 0
-1083 -1085 1121 0
1083 -1121 0
1085 -1121 0
-1087 -1089 1123 0
1087 -1123 0
1089 -1123 0
-1092 -1094 1174 0
1092 -1174 0
1094 -1174 0
-1096 -1098 1127 0
1096 -1127 0
1098 -1127 0
-1100 -1102 1129 0
1100 -1129 0
1102 -1129 0
-1101 -1103 1176 0
1103 -1176 0
1101 -1176 0
-1104 -1105 1133 0
1104 -1133 0
1105 -1133 0
-1106 -1107 1135 0
1106 -1135 0
1107 -1135 0
-1108 -1110 1137 0
1108 -1137 0
1110 -1137 0
-1112 -1113 1139 0
1112 -1139 0
1113 -1139 0
-1114 -1115 1141 0
1114 -1141 0
1115 -1141 0
-1116 -1118 1143 0
1116 -1143 0
1118 -1143 0
-1120 -1122 1145 0
1120 -1145 0
1122 -1145 0
-1124 -1125 1147 0
1124 -1147 0
1125 -1147 0
-1126 -1128 1149 0
1126 -1149 0
1128 -1149 0
-1130 -1131 1151 0
1130 -1151 0
1131 -1151 0
-1132 -1134 1153 0
1132 -1153 0
1134 -1153 0
-1136 -1138 1155 0
1136 -1155 0
1138 -1155 0
-1140 -1142 1157 0
1140 -1157 0
1142 -1157 0
-1144 -1146 1159 0
1144 -1159 0
1146 -1159 0
-1148 -1150 1161 0
1148 -1161 0
1150 -1161 0
-1152 -1154 1163 0
1152 -1163 0
1154 -1163 0
-1156 -1158 1165 0
1156 -1165 0
1158 -1165 0
-1160 -1162 1166 0
1160 -1166 0
1162 -1166 0
-1109 -1111 1226 0
1109 -1226 0
1111 -1226 0
-1117 -1119 1171 0
1117 -1171 0
1119 -1171 0
-1121 -1123 1173 0
1121 -1173 0
1123 -1173 0
-1127 -1129 1227 0
1127 -1227 0
1129 -1227 0
-1133 -1135 1228 0
1133 -1228 0
1135 -1228 0
-1137 -1139 1179 0
1137 -1179 0
1139 -1179 0
-1141 -1143 1181 0
1141 -1181 0
1143 -1181 0
-1145 -1147 1183 0
1145 -1183 0
1147 -1183 0
-1149 -1151 1185 0
1149 -1185 0
1151 -1185 0
-1153 -1155 1187 0
1153 -1187 0
1155 -1187 0
-1157 -1159 1189 0
1157 -1189 0
1159 -1189 0
-1161 -1163 1191 0
1161 -1191 0
1163 -1191 0
-1165 -1166 1193 0
1165 -1193 0
1166 -1193 0
-1167 -1168 1237 0
1167 -1237 0
1168 -1237 0
-1169 -1170 1238 0
1169 -1238 0
1170 -1238 0
-1172 -1174 1198 0
1172 -1198 0
1174 -1198 0
-1175 -1176 1200 0
1175 -1200 0
1176 -1200 0
-1177 -1178 1202 0
1177 -1202 0
1178 -1202 0
-1180 -1182 1204 0
1180 -1204 0
1182 -1204 0
-1184 -1186 1206 0
1184 -1206 0
1186 -1206 0
-1188 -1190 1208 0
1188 -1208 0
1190 -1208 0
-1164 -1192 1210 0
1192 -1210 0
1164 -1210 0
-1194 -1195 1212 0
1194 -1212 0
1195 -1212 0
-1196 -1197 1214 0
1196 -1214 0
1197 -1214 0
-1199 -1201 1216 0
1199 -1216 0
1201 -1216 0
-1203 -1205 1218 0
1203 -1218 0
1205 -1218 0
-1207 -1209 1220 0
1207 -1220 0
1209 -1220 0
-1211 -1213 1222 0
1211 -1222 0
1213 -1222 0
-1215 -1217 1224 0
1215 -1224 0
1217 -1224 0
-1219 -1221 1225 0
1219 -1225 0
1221 -1225 0
-1171 -1173 1287 0
1171 -1287 0
1173 -1287 0
-1179 -1181 1230 0
1179 -1230 0
1181 -1230 0
-1183 -1185 1232 0
1183 -1232 0
1185 -1232 0
-1187 -1189 1234 0
1187 -1234 0
1189 -1234 0
-1191 -1193 1236 0
1191 -1236 0
1193 -1236 0
-1198 -1200 1240 0
1198 -1240 0
1200 -1240 0
-1202 -1204 1242 0
1202 -1242 0
1204 -1242 0
-1206 -1208 1244 0
1206 -1244 0
1208 -1244 0
-1210 -1212 1246 0
1210 -1246 0
1212 -1246 0
-1214 -1216 1248 0
1214 -1248 0
1216 -1248 0
-1218 -1220 1250 0
1218 -1250 0
1220 -1250 0
-1222 -1224 1252 0
1222 -1252 0
1224 -1252 0
-1223 -1225 1254 0
1225 -1254 0
1223 -1254 0
-1227 -1228 1257 0
1227 -1257 0
1228 -1257 0
-1229 -1231 1259 0
1229 -1259 0
1231 -1259 0
-1233 -1235 1261 0
1233 -1261 0
1235 -1261 0
-1237 -1238 1263 0
1237 -1263 0
1238 -1263 0
-1239 -1241 1265 0
1239 -1265 0
1241 -1265 0
-1243 -1245 1267 0
1243 -1267 0
1245 -1267 0
-1247 -1249 1269 0
1247 -1269 0
1249 -1269 0
-1251 -1253 1271 0
1251 -1271 0
1253 -1271 0
-1226 -1255 1273 0
1226 -1273 0
1255 -1273 0
-1256 -1258 1275 0
1256 -1275 0
1258 -1275 0
-1260 -1262 1277 0
1260 -1277 0
1262 -1277 0
-1264 -1266 1279 0
1264 -1279 0
1266 -1279 0
-1268 -1270 1281 0
1268 -1281 0
1270 -1281 0
-1272 -1274 1283 0
1272 -1283 0
1274 -1283 0
-1276 -1278 1285 0
1276 -1285 0
1278 -1285 0
-1280 -1282 1286 0
1280 -1286 0
1282 -1286 0
-1230 -1232 1336 0
1230 -1336 0
1232 -1336 0
-1234 -1236 1337 0
1234 -1337 0
1236 -1337 0
-1240 -1242 1290 0
1240 -1290 0
1242 -1290 0
-1244 -1246 1292 0
1244 -1292 0
1246 -1292 0
-1248 -1250 1294 0
1248 -1294 0
1250 -1294 0
-1252 -1254 1295 0
1252 -1295 0
1254 -1295 0
-1257 -1259 1340 0
1257 -1340 0
1259 -1340 0
-1261 -1263 1298 0
1261 -1298 0
1263 -1298 0
-1265 -1267 1300 0
1265 -1300 0
1267 -1300 0
-1269 -1271 1302 0
1269 -1302 0
1271 -1302 0
-1273 -1275 1304 0
1273 -1304 0
1275 -1304 0
-1277 -1279 1306 0
1277 -1306 0
1279 -1306 0
-1281 -1283 1308 0
1281 -1308 0
1283 -1308 0
-1285 -1286 1346 0
1285 -1346 0
1286 -1346 0
-1288 -1289 1347 0
1288 -1347 0
1289 -1347 0
-1291 -1293 1348 0
1291 -1348 0
1293 -1348 0
-1296 -1297 1349 0
1296 -1349 0
1297 -1349 0
-1299 -1301 1316 0
1299 -1316 0
1301 -1316 0
-1303 -1305 1318 0
1303 -1318 0
1305 -1318 0
-1307 -1309 1320 0
1307 -1320 0
1309 -1320 0
-1284 -1287 1322 0
1284 -1322 0
1287 -1322 0
-1310 -1311 1324 0
1310 -1324 0
1311 -1324 0
-1312 -1313 1326 0
1312 -1326 0
1313 -1326 0
-1314 -1315 1328 0
1314 -1328 0
1315 -1328 0
-1317 -1319 1330 0
1317 -1330 0
1319 -1330 0
-1321 -1323 1332 0
1321 -1332 0
1323 -1332 0
-1325 -1327 1334 0
1325 -1334 0
1327 -1334 0
-1329 -1331 1335 0
1329 -1335 0
1331 -1335 0
-1290 -1292 1391 0
1290 -1391 0
1292 -1391 0
-1294 -1295 1392 0
1294 -1392 0
1295 -1392 0
-1298 -1300 1342 0
1298 -1342 0
1300 -1342 0
-1302 -1304 1344 0
1302 -1344 0
1304 -1344 0
-1306 -1308 1394 0
1306 -1394 0
1308 -1394 0
-1316 -1318 1395 0
1316 -1395 0
1318 -1395 0
-1320 -1322 1352 0
1320 -1352 0
1322 -1352 0
-1324 -1326 1354 0
1324 -1354 0
1326 -1354 0
-1328 -1330 1356 0
1328 -1356 0
1330 -1356 0
-1332 -1334 1358 0
1332 -1358 0
1334 -1358 0
-1333 -1335 1398 0
1335 -1398 0
1333 -1398 0
-1337 -1338 1361 0
1337 -1361 0
1338 -1361 0
-1339 -1340 1363 0
1339 -1363 0
1340 -1363 0
-1341 -1343 1365 0
1341 -1365 0
1343 -1365 0
-1345 -1346 1367 0
1345 -1367 0
1346 -1367 0
-1347 -1348 1369 0
1347 -1369 0
1348 -1369 0
-1349 -1350 1371 0
1349 -1371 0
1350 -1371 0
-1351 -1353 1373 0
1351 -1373 0
1353 -1373 0
-1355 -1357 1375 0
1355 -1375 0
1357 -1375 0
-1336 -1359 1377 0
1359 -1377 0
1336 -1377 0
-1360 -1362 1379 0
1360 -1379 0
1362 -1379 0
-1364 -1366 1381 0
1364 -1381 0
1366 -1381 0
-1368 -1370 1383 0
1368 -1383 0
1370 -1383 0
-1372 -1374 1385 0
1372 -1385 0
1374 -1385 0
-1376 -1378 1387 0
1376 -1387 0
1378 -1387 0
-1380 -1382 1389 0
1380 -1389 0
1382 -1389 0
-1384 -1386 1390 0
1384 -1390 0
1386 -1390 0
-1342 -1344 1442 0
1342 -1442 0
1344 -1442 0
-1352 -1354 1443 0
1352 -1443 0
1354 -1443 0
-1356 -1358 1444 0
1356 -1444 0
1358 -1444 0
-1361 -1363 1400 0
1361 -1400 0
1363 -1400 0
-1365 -1367 1402 0
1365 -1402 0
1367 -1402 0
-1369 -1371 1404 0
1369 -1404 0
1371 -1404 0
-1373 -1375 1406 0
1373 -1406 0
1375 -1406 0
-1377 -1379 1408 0
1377 -1408 0
1379 -1408 0
-1381 -1383 1410 0
1381 -1410 0
1383 -1410 0
-1385 -1387 1412 0
1385 -1412 0
1387 -1412 0
-1389 -1390 1414 0
1389 -1414 0
1390 -1414 0
-1391 -1392 1451 0
1391 -1451 0
1392 -1451 0
-1393 -1394 1452 0
1393 -1452 0
1394 -1452 0
-1396 -1397 1418 0
1396 -1418 0
1397 -1418 0
-1398 -1399 1420 0
1398 -1420 0
1399 -1420 0
-1401 -1403 1422 0
1401 -1422 0
1403 -1422 0
-1405 -1407 1424 0
1405 -1424 0
1407 -1424 0
-1409 -1411 1426 0
1409 -1426 0
1411 -1426 0
-1388 -1413 1428 0
1413 -1428 0
1388 -1428 0
-1415 -1416 1430 0
1415 -1430 0
1416 -1430 0
-1395 -1417 1432 0
1395 -1432 0
1417 -1432 0
-1419 -1421 1434 0
1419 -1434 0
1421 -1434 0
-1423 -1425 1436 0
1423 -1436 0
1425 -1436 0
-1427 -1429 1438 0
1427 -1438 0
1429 -1438 0
-1431 -1433 1440 0
1431 -1440 0
1433 -1440 0
-1435 -1437 1441 0
1435 -1441 0
1437 -1441 0
-1400 -1402 1493 0
1400 -1493 0
1402 -1493 0
-1404 -1406 1447 0
1404 -1447 0
1406 -1447 0
-1408 -1410 1449 0
1408 -1449 0
1410 -1449 0
-1412 -1414 1495 0
1412 -1495 0
1414 -1495 0
-1418 -1420 1496 0
1418 -1496 0
1420 -1496 0
-1422 -1424 1455 0
1422 -1455 0
1424 -1455 0
-1426 -1428 1457 0
1426 -1457 0
1428 -1457 0
-1430 -1432 1459 0
1430 -1459 0
1432 -1459 0
-1434 -1436 1461 0
1434 -1461 0
1436 -1461 0
-1438 -1440 1463 0
1438 -1463 0
1440 -1463 0
-1439 -1441 1465 0
1441 -1465 0
1439 -1465 0
-1444 -1445 1467 0
1444 -1467 0
1445 -1467 0
-1446 -1448 1469 0
1446 -1469 0
1448 -1469 0
-1450 -1451 1471 0
1450 -1471 0
1451 -1471 0
-1452 -1453 1473 0
1452 -1473 0
1453 -1473 0
-1454 -1456 1475 0
1454 -1475 0
1456 -1475 0
-1458 -1460 1477 0
1458 -1477 0
1460 -1477 0
-1462 -1464 1479 0
1462 -1479 0
1464 -1479 0
-1442 -1443 1481 0
1442 -1481 0
1443 -1481 0
-1466 -1468 1483 0
1466 -1483 0
1468 -1483 0
-1470 -1472 1485 0
1470 -1485 0
1472 -1485 0
-1474 -1476 1487 0
1474 -1487 0
1476 -1487 0
-1478 -1480 1489 0
1478 -1489 0
1480 -1489 0
-1482 -1484 1491 0
1482 -1491 0
1484 -1491 0
-1486 -1488 1492 0
1486 -1492 0
1488 -1492 0
-1447 -1449 1538 0
1447 -1538 0
1449 -1538 0
-1455 -1457 1498 0
1455 -1498 0
1457 -1498 0
-1459 -1461 1500 0
1459 -1500 0
1461 -1500 0
-1463 -1465 1539 0
1463 -1539 0
1465 -1539 0
-1467 -1469 1502 0
1467 -1502 0
1469 -1502 0
-1471 -1473 1504 0
1471 -1504 0
1473 -1504 0
-1475 -1477 1506 0
1475 -1506 0
1477 -1506 0
-1479 -1481 1508 0
1479 -1508 0
1481 -1508 0
-1483 -1485 1510 0
1483 -1510 0
1485 -1510 0
-1487 -1489 1512 0
1487 -1512 0
1489 -1512 0
-1491 -1492 1545 0
1491 -1545 0
1492 -1545 0
-1494 -1495 1546 0
1494 -1546 0
1495 -1546 0
-1496 -1497 1516 0
1496 -1516 0
1497 -1516 0
-1499 -1501 1518 0
1499 -1518 0
1501 -1518 0
-1503 -1505 1548 0
1503 -1548 0
1505 -1548 0
-1507 -1509 1522 0
1507 -1522 0
1509 -1522 0
-1511 -1513 1524 0
1511 -1524 0
1513 -1524 0
-1490 -1493 1526 0
1490 -1526 0
1493 -1526 0
-1514 -1515 1528 0
1514 -1528 0
1515 -1528 0
-1517 -1519 1530 0
1517 -1530 0
1519 -1530 0
-1520 -1521 1532 0
1520 -1532 0
1521 -1532 0
-1523 -1525 1534 0
1523 -1534 0
1525 -1534 0
-1527 -1529 1536 0
1527 -1536 0
1529 -1536 0
-1531 -1533 1537 0
1531 -1537 0
1533 -1537 0
-1498 -1500 1583 0
1498 -1583 0
1500 -1583 0
-1502 -1504 1584 0
1502 -1584 0
1504 -1584 0
-1506 -1508 1542 0
1506 -1542 0
1508 -1542 0
-1510 -1512 1544 0
1510 -1544 0
1512 -1544 0
-1516 -1518 1585 0
1516 -1585 0
1518 -1585 0
-1522 -1524 1550 0
1522 -1550 0
1524 -1550 0
-1526 -1528 1552 0
1526 -1552 0
1528 -1552 0
-1530 -1532 1554 0
1530 -1554 0
1532 -1554 0
-1534 -1536 1556 0
1534 -1556 0
1536 -1556 0
-1535 -1537 1590 0
1537 -1590 0
1535 -1590 0
-1539 -1540 1591 0
1539 -1591 0
1540 -1591 0
-1541 -1543 1561 0
1541 -1561 0
1543 -1561 0
-1545 -1546 1563 0
1545 -1563 0
1546 -1563 0
-1547 -1548 1565 0
1547 -1565 0
1548 -1565 0
-1549 -1551 1567 0
1549 -1567 0
1551 -1567 0
-1553 -1555 1569 0
1553 -1569 0
1555 -1569 0
-1538 -1557 1571 0
1557 -1571 0
1538 -1571 0
-1558 -1559 1573 0
1558 -1573 0
1559 -1573 0
-1560 -1562 1575 0
1560 -1575 0
1562 -1575 0
-1564 -1566 1577 0
1564 -1577 0
1566 -1577 0
-1568 -1570 1579 0
1568 -1579 0
1570 -1579 0
-1572 -1574 1581 0
1572 -1581 0
1574 -1581 0
-1576 -1578 1582 0
1576 -1582 0
1578 -1582 0
-1542 -1544 1628 0
1542 -1628 0
1544 -1628 0
-1550 -1552 1587 0
1550 -1587 0
1552 -1587 0
-1554 -1556 1589 0
1554 -1589 0
1556 -1589 0
-1561 -1563 1593 0
1561 -1593 0
1563 -1593 0
-1565 -1567 1595 0
1565 -1595 0
1567 -1595 0
-1569 -1571 1597 0
1569 -1597 0
1571 -1597 0
-1573 -1575 1599 0
1573 -1599 0
1575 -1599 0
-1577 -1579 1601 0
1577 -1601 0
1579 -1601 0
-1581 -1582 1603 0
1581 -1603 0
1582 -1603 0
-1583 -1584 1633 0
1583 -1633 0
1584 -1633 0
-1585 -1586 1634 0
1585 -1634 0
1586 -1634 0
-1588 -1590 1608 0
1588 -1608 0
1590 -1608 0
-1591 -1592 1610 0
1591 -1610 0
1592 -1610 0
-1594 -1596 1612 0
1594 -1612 0
1596 -1612 0
-1598 -1600 1614 0
1598 -1614 0
1600 -1614 0
-1580 -1602 1616 0
1602 -1616 0
1580 -1616 0
-1604 -1605 1618 0
1604 -1618 0
1605 -1618 0
-1606 -1607 1620 0
1606 -1620 0
1607 -1620 0
-1609 -1611 1622 0
1609 -1622 0
1611 -1622 0
-1613 -1615 1624 0
1613 -1624 0
1615 -1624 0
-1617 -1619 1626 0
1617 -1626 0
1619 -1626 0
-1621 -1623 1627 0
1621 -1627 0
1623 -1627 0
-1587 -1589 1669 0
1587 -1669 0
1589 -1669 0
-1593 -1595 1670 0
1593 -1670 0
1595 -1670 0
-1597 -1599 1630 0
1597 -1630 0
1599 -1630 0
-1601 -1603 1632 0
1601 -1632 0
1603 -1632 0
-1608 -1610 1636 0
1608 -1636 0
1610 -1636 0
-1612 -1614 1638 0
1612 -1638 0
1614 -1638 0
-1616 -1618 1640 0
1616 -1640 0
1618 -1640 0
-1620 -1622 1642 0
1620 -1642 0
1622 -1642 0
-1624 -1626 1644 0
1624 -1644 0
1626 -1644 0
-1625 -1627 1646 0
1627 -1646 0
1625 -1646 0
-1629 -1631 1675 0
1629 -1675 0
1631 -1675 0
-1633 -1634 1651 0
1633 -1651 0
1634 -1651 0
-1635 -1637 1653 0
1635 -1653 0
1637 -1653 0
-1639 -1641 1655 0
1639 -1655 0
1641 -1655 0
-1643 -1645 1657 0
1643 -1657 0
1645 -1657 0
-1628 -1647 1659 0
1628 -1659 0
1647 -1659 0
-1648 -1649 1661 0
1648 -1661 0
1649 -1661 0
-1650 -1652 1663 0
1650 -1663 0
1652 -1663 0
-1654 -1656 1665 0
1654 -1665 0
1656 -1665 0
-1658 -1660 1667 0
1658 -1667 0
1660 -1667 0
-1662 -1664 1668 0
1662 -1668 0
1664 -1668 0
-1630 -1632 1706 0
1630 -1706 0
1632 -1706 0
-1636 -1638 1707 0
1636 -1707 0
1638 -1707 0
-1640 -1642 1673 0
1640 -1673 0
1642 -1673 0
-1644 -1646 1674 0
1644 -1674 0
1646 -1674 0
-1651 -1653 1677 0
1651 -1677 0
1653 -1677 0
-1655 -1657 1679 0
1655 -1679 0
1657 -1679 0
-1659 -1661 1681 0
1659 -1681 0
1661 -1681 0
-1663 -1665 1683 0
1663 -1683 0
1665 -1683 0
-1667 -1668 1710 0
1667 -1710 0
1668 -1710 0
-1669 -1670 1711 0
1669 -1711 0
1670 -1711 0
-1671 -1672 1712 0
1671 -1712 0
1672 -1712 0
-1675 -1676 1690 0
1675 -1690 0
1676 -1690 0
-1678 -1680 1692 0
1678 -1692 0
1680 -1692 0
-1682 -1684 1694 0
1682 -1694 0
1684 -1694 0
-1666 -1685 1696 0
1666 -1696 0
1685 -1696 0
-1686 -1687 1698 0
1686 -1698 0
1687 -1698 0
-1688 -1689 1700 0
1688 -1700 0
1689 -1700 0
-1691 -1693 1702 0
1691 -1702 0
1693 -1702 0
-1695 -1697 1704 0
1695 -1704 0
1697 -1704 0
-1699 -1701 1705 0
1699 -1705 0
1701 -1705 0
-1673 -1674 1743 0
1673 -1743 0
1674 -1743 0
-1677 -1679 1744 0
1677 -1744 0
1679 -1744 0
-1681 -1683 1745 0
1681 -1745 0
1683 -1745 0
-1690 -1692 1714 0
1690 -1714 0
1692 -1714 0
-1694 -1696 1716 0
1694 -1716 0
1696 -1716 0
-1698 -1700 1718 0
1698 -1718 0
1700 -1718 0
-1702 -1704 1720 0
1702 -1720 0
1704 -1720 0
-1703 -1705 1748 0
1705 -1748 0
1703 -1748 0
-1707 -1708 1749 0
1707 -1749 0
1708 -1749 0
-1709 -1710 1725 0
1709 -1725 0
1710 -1725 0
-1711 -1712 1727 0
1711 -1727 0
1712 -1727 0
-1713 -1715 1729 0
1713 -1729 0
1715 -1729 0
-1717 -1719 1731 0
1717 -1731 0
1719 -1731 0
-1706 -1721 1733 0
1721 -1733 0
1706 -1733 0
-1722 -1723 1735 0
1722 -1735 0
1723 -1735 0
-1724 -1726 1737 0
1724 -1737 0
1726 -1737 0
-1728 -1730 1739 0
1728 -1739 0
1730 -1739 0
-1732 -1734 1741 0
1732 -1741 0
1734 -1741 0
-1736 -1738 1742 0
1736 -1742 0
1738 -1742 0
-1714 -1716 1778 0
1714 -1778 0
1716 -1778 0
-1718 -1720 1779 0
1718 -1779 0
1720 -1779 0
-1725 -1727 1780 0
1725 -1780 0
1727 -1780 0
-1729 -1731 1752 0
1729 -1752 0
1731 -1752 0
-1733 -1735 1754 0
1733 -1754 0
1735 -1754 0
-1737 -1739 1756 0
1737 -1756 0
1739 -1756 0
-1741 -1742 1758 0
1741 -1758 0
1742 -1758 0
-1743 -1744 1783 0
1743 -1783 0
1744 -1783 0
-1746 -1747 1784 0
1746 -1784 0
1747 -1784 0
-1748 -1749 1762 0
1748 -1762 0
1749 -1762 0
-1750 -1751 1764 0
1750 -1764 0
1751 -1764 0
-1753 -1755 1766 0
1753 -1766 0
1755 -1766 0
-1740 -1757 1768 0
1757 -1768 0
1740 -1768 0
-1745 -1759 1770 0
1759 -1770 0
1745 -1770 0
-1760 -1761 1772 0
1760 -1772 0
1761 -1772 0
-1763 -1765 1774 0
1763 -1774 0
1765 -1774 0
-1767 -1769 1776 0
1767 -1776 0
1769 -1776 0
-1771 -1773 1777 0
1771 -1777 0
1773 -1777 0
-1752 -1754 1823 0
1752 -1823 0
1754 -1823 0
-1756 -1758 1811 0
1756 -1811 0
1758 -1811 0
-1762 -1764 1812 0
1762 -1812 0
1764 -1812 0
-1766 -1768 1787 0
1766 -1787 0
1768 -1787 0
-1770 -1772 1789 0
1770 -1789 0
1772 -1789 0
-1774 -1776 1791 0
1774 -1791 0
1776 -1791 0
-1775 -1777 1793 0
1777 -1793 0
1775 -1793 0
-1778 -1779 1815 0
1778 -1815 0
1779 -1815 0
-1780 -1781 1795 0
1780 -1795 0
1781 -1795 0
-1782 -1783 1797 0
1782 -1797 0
1783 -1797 0
-1784 -1785 1799 0
1784 -1799 0
1785 -1799 0
-1786 -1788 1801 0
1786 -1801 0
1788 -1801 0
-1790 -1792 1820 0
1790 -1820 0
1792 -1820 0
-1794 -1796 1805 0
1794 -1805 0
1796 -1805 0
-1798 -1800 1807 0
1798 -1807 0
1800 -1807 0
-1802 -1803 1809 0
1802 -1809 0
1803 -1809 0
-1804 -1806 1810 0
1804 -1810 0
1806 -1810 0
-1787 -1789 1842 0
1787 -1842 0
1789 -1842 0
-1791 -1793 1843 0
1791 -1843 0
1793 -1843 0
-1795 -1797 1817 0
1795 -1817 0
1797 -1817 0
-1799 -1801 1819 0
1799 -1819 0
1801 -1819 0
-1805 -1807 1845 0
1805 -1845 0
1807 -1845 0
-1809 -1810 1846 0
1809 -1846 0
1810 -1846 0
-1811 -1812 1847 0
1811 -1847 0
1812 -1847 0
-1813 -1814 1826 0
1813 -1826 0
1814 -1826 0
-1815 -1816 1828 0
1815 -1828 0
1816 -1828 0
-1818 -1820 1830 0
1818 -1830 0
1820 -1830 0
-1821 -1822 1832 0
1821 -1832 0
1822 -1832 0
-1808 -1823 1834 0
1808 -1834 0
1823 -1834 0
-1824 -1825 1836 0
1824 -1836 0
1825 -1836 0
-1827 -1829 1838 0
1827 -1838 0
1829 -1838 0
-1831 -1833 1840 0
1831 -1840 0
1833 -1840 0
-1835 -1837 1841 0
1835 -1841 0
1837 -1841 0
-1817 -1819 1873 0
1817 -1873 0
1819 -1873 0
-1826 -1828 1849 0
1826 -1849 0
1828 -1849 0
-1830 -1832 1851 0
1830 -1851 0
1832 -1851 0
-1834 -1836 1853 0
1834 -1853 0
1836 -1853 0
-1838 -1840 1855 0
1838 -1855 0
1840 -1855 0
-1839 -1841 1877 0
1841 -1877 0
1839 -1877 0
-1842 -1843 1857 0
1842 -1857 0
1843 -1857 0
-1844 -1845 1859 0
1844 -1859 0
1845 -1859 0
-1846 -1847 1861 0
1846 -1861 0
1847 -1861 0
-1848 -1850 1863 0
1848 -1863 0
1850 -1863 0
-1852 -1854 1880 0
1852 -1880 0
1854 -1880 0
-1856 -1858 1867 0
1856 -1867 0
1858 -1867 0
-1860 -1862 1869 0
1860 -1869 0
1862 -1869 0
-1864 -1865 1871 0
1864 -1871 0
1865 -1871 0
-1866 -1868 1872 0
1866 -1872 0
1868 -1872 0
-1849 -1851 1874 0
1849 -1874 0
1851 -1874 0
-1853 -1855 1876 0
1853 -1876 0
1855 -1876 0
-1857 -1859 1901 0
1857 -1901 0
1859 -1901 0
-1861 -1863 1902 0
1861 -1902 0
1863 -1902 0
-1867 -1869 1882 0
1867 -1882 0
1869 -1882 0
-1871 -1872 1884 0
1871 -1884 0
1872 -1884 0
-1875 -1877 1904 0
1875 -1904 0
1877 -1904 0
-1878 -1879 1888 0
1878 -1888 0
1879 -1888 0
-1880 -1881 1890 0
1880 -1890 0
1881 -1890 0
-1870 -1883 1892 0
1883 -1892 0
1870 -1892 0
-1873 -1885 1894 0
1873 -1894 0
1885 -1894 0
-1886 -1887 1896 0
1886 -1896 0
1887 -1896 0
-1889 -1891 1898 0
1889 -1898 0
1891 -1898 0
-1893 -1895 1899 0
1893 -1899 0
1895 -1899 0
-1874 -1876 1923 0
1874 -1923 0
1876 -1923 0
-1882 -1884 1924 0
1882 -1924 0
1884 -1924 0
-1888 -1890 1906 0
1888 -1906 0
1890 -1906 0
-1892 -1894 1908 0
1892 -1908 0
1894 -1908 0
-1896 -1898 1910 0
1896 -1910 0
1898 -1910 0
-1897 -1899 1912 0
1899 -1912 0
1897 -1912 0
-1900 -1901 1928 0
1900 -1928 0
1901 -1928 0
-1902 -1903 1929 0
1902 -1929 0
1903 -1929 0
-1905 -1907 1915 0
1905 -1915 0
1907 -1915 0
-1909 -1911 1917 0
1909 -1917 0
1911 -1917 0
-1904 -1913 1931 0
1913 -1931 0
1904 -1931 0
-1914 -1916 1921 0
1914 -1921 0
1916 -1921 0
-1918 -1919 1922 0
1918 -1922 0
1919 -1922 0
-1906 -1908 1925 0
1906 -1925 0
1908 -1925 0
-1910 -1912 1927 0
1910 -1927 0
1912 -1927 0
-1915 -1917 1948 0
1915 -1948 0
1917 -1948 0
-1921 -1922 1949 0
1921 -1949 0
1922 -1949 0
-1923 -1924 1950 0
1923 -1950 0
1924 -1950 0
-1926 -1928 1936 0
1926 -1936 0
1928 -1936 0
-1929 -1930 1938 0
1929 -1938 0
1930 -1938 0
-1931 -1932 1940 0
1931 -1940 0
1932 -1940 0
-1920 -1933 1942 0
1920 -1942 0
1933 -1942 0
-1934 -1935 1944 0
1934 -1944 0
1935 -1944 0
-1937 -1939 1946 0
1937 -1946 0
1939 -1946 0
-1941 -1943 1947 0
1941 -1947 0
1943 -1947 0
-1925 -1927 1967 0
1925 -1967 0
1927 -1967 0
-1936 -1938 1968 0
1936 -1968 0
1938 -1968 0
-1940 -1942 1953 0
1940 -1953 0
1942 -1953 0
-1944 -1946 1955 0
1944 -1955 0
1946 -1955 0
-1945 -1947 1970 0
1947 -1970 0
1945 -1970 0
-1948 -1949 1971 0
1948 -1971 0
1949 -1971 0
-1950 -1951 1959 0
1950 -1959 0
1951 -1959 0
-1952 -1954 1961 0
1952 -1961 0
1954 -1961 0
-1956 -1957 1973 0
1956 -1973 0
1957 -1973 0
-1958 -1960 1965 0
1958 -1965 0
1960 -1965 0
-1962 -1963 1966 0
1962 -1966 0
1963 -1966 0
-1953 -1955 1988 0
1953 -1988 0
1955 -1988 0
-1959 -1961 1989 0
1959 -1989 0
1961 -1989 0
-1965 -1966 1998 0
1965 -1998 0
1966 -1998 0
-1968 -1969 1976 0
1968 -1976 0
1969 -1976 0
-1970 -1971 1978 0
1970 -1978 0
1971 -1978 0
-1972 -1973 1980 0
1972 -1980 0
1973 -1980 0
-1964 -1974 1982 0
1974 -1982 0
1964 -1982 0
-1967 -1975 1984 0
1967 -1984 0
1975 -1984 0
-1977 -1979 1986 0
1977 -1986 0
1979 -1986 0
-1981 -1983 1987 0
1981 -1987 0
1983 -1987 0
-1976 -1978 1991 0
1976 -1991 0
1978 -1991 0
-1980 -1982 1993 0
1980 -1993 0
1982 -1993 0
-1984 -1986 1995 0
1984 -1995 0
1986 -1995 0
-1985 -1987 1997 0
1987 -1997 0
1985 -1997 0
-1988 -1989 2007 0
1988 -2007 0
1989 -2007 0
-1990 -1992 2008 0
1990 -2008 0
1992 -2008 0
-1994 -1996 2009 0
1994 -2009 0
1996 -2009 0
-1998 -1999 2003 0
1998 -2003 0
1999 -2003 0
-2000 -2001 2004 0
2000 -2004 0
2001 -2004 0
-1991 -1993 2018 0
1991 -2018 0
1993 -2018 0
-1995 -1997 2019 0
1995 -2019 0
1997 -2019 0
-2003 -2004 2020 0
2003 -2020 0
2004 -2020 0
-2005 -2006 2021 0
2005 -2021 0
2006 -2021 0
-2007 -2008 2013 0
2007 -2013 0
2008 -2013 0
-2009 -2010 2015 0
2009 -2015 0
2010 -2015 0
-2011 -2012 2023 0
2011 -2023 0
2012 -2023 0
-2002 -2014 2017 0
2014 -2017 0
2002 -2017 0
-2013 -2015 2033 0
2013 -2033 0
2015 -2033 0
-2016 -2017 2034 0
2017 -2034 0
2016 -2034 0
-2020 -2021 2035 0
2020 -2035 0
2021 -2035 0
-2022 -2023 2027 0
2022 -2027 0
2023 -2027 0
-2018 -2024 2029 0
2024 -2029 0
2018 -2029 0
-2019 -2025 2031 0
2019 -2031 0
2025 -2031 0
-2026 -2028 2032 0
2026 -2032 0
2028 -2032 0
-2027 -2029 2037 0
2027 -2037 0
2029 -2037 0
-2031 -2032 2039 0
2031 -2039 0
2032 -2039 0
-2033 -2034 2040 0
2033 -2040 0
2034 -2040 0
-2035 -2036 2042 0
2035 -2042 0
2036 -2042 0
-2030 -2038 2046 0
2038 -2046 0
2030 -2046 0
-2041 -2043 2045 0
2041 -2045 0
2043 -2045 0
-2037 -2039 2051 0
2037 -2051 0
2039 -2051 0
-2040 -2042 2052 0
2040 -2052 0
2042 -2052 0
-2044 -2045 2053 0
2045 -2053 0
2044 -2053 0
-2046 -2047 2054 0
2046 -2054 0
2047 -2054 0
-2048 -2049 2055 0
2048 -2055 0
2049 -2055 0
-2051 -2052 2062 0
2051 -2062 0
2052 -2062 0
-2054 -2055 2058 0
2054 -2058 0
2055 -2058 0
-2050 -2056 2060 0
2050 -2060 0
2056 -2060 0
-2053 -2057 2061 0
2053 -2061 0
2057 -2061 0
-2058 -2060 2066 0
2058 -2066 0
2060 -2066 0
-2059 -2061 2064 0
2061 -2064 0
2059 -2064 0
-2062 -2063 2065 0
2062 -2065 0
2063 -2065 0
-2064 -2065 2070 0
-2066 -2067 2069 0
2066 -2069 0
2067 -2069 0
-2068 -2069 0
-2070 0
-2 -8 -59 0
2 8 -59 0
-2 8 59 0
2 -8 59 0
-15 -22 -61 0
15 22 -61 0
-15 22 61 0
15 -22 61 0
-58 -59 -61 0
58 59 -61 0
-58 59 61 0
58 -59 61 0
-3 -9 -62 0
3 9 -62 0
-3 9 62 0
3 -9 62 0
-23 -58 -64 0
23 58 -64 0
23 -58 64 0
-23 58 64 0
-31 -60 -66 0
31 60 -66 0
-31 60 66 0
31 -60 66 0
-61 -62 -69 0
61 62 -69 0
-61 62 69 0
61 -62 69 0
-64 -66 -70 0
64 66 -70 0
-64 66 70 0
64 -66 70 0
-67 -68 -72 0
67 68 -72 0
-67 68 72 0
67 -68 72 0
-69 -70 -72 0
69 70 -72 0
-69 70 72 0
69 -70 72 0
-4 -10 -75 0
4 10 -75 0
-4 10 75 0
4 -10 75 0
-16 -24 -77 0
16 24 -77 0
-16 24 77 0
16 -24 77 0
-32 -40 -79 0
32 40 -79 0
-32 40 79 0
32 -40 79 0
-63 -65 -81 0
63 65 -81 0
-63 65 81 0
63 -65 81 0
-71 -73 -84 0
71 73 -84 0
-71 73 84 0
71 -73 84 0
-72 -74 -85 0
72 74 -85 0
72 -74 85 0
-72 74 85 0
-75 -77 -87 0
75 77 -87 0
-75 77 87 0
75 -77 87 0
-79 -81 -89 0
79 81 -89 0
-79 81 89 0
79 -81 89 0
-82 -83 -91 0
82 83 -91 0
-82 83 91 0
82 -83 91 0
-84 -85 -93 0
84 85 -93 0
-84 85 93 0
84 -85 93 0
-87 -89 -95 0
87 89 -95 0
-87 89 95 0
87 -89 95 0
-91 -93 -95 0
91 93 -95 0
-91 93 95 0
91 -93 95 0
-5 -11 -98 0
5 11 -98 0
-5 11 98 0
5 -11 98 0
-17 -25 -100 0
17 25 -100 0
-17 25 100 0
17 -25 100 0
-33 -41 -102 0
33 41 -102 0
-33 41 102 0
33 -41 102 0
-49 -76 -104 0
49 76 -104 0
-49 76 104 0
49 -76 104 0
-78 -80 -106 0
78 80 -106 0
-78 80 106 0
78 -80 106 0
-86 -88 -110 0
86 88 -110 0
-86 88 110 0
86 -88 110 0
-90 -92 -112 0
90 92 -112 0
-90 92 112 0
90 -92 112 0
-94 -96 -114 0
94 96 -114 0
-94 96 114 0
94 -96 114 0
-95 -97 -116 0
95 97 -116 0
95 -97 116 0
-95 97 116 0
-98 -100 -118 0
98 100 -118 0
-98 100 118 0
98 -100 118 0
-102 -104 -120 0
102 104 -120 0
-102 104 120 0
102 -104 120 0
-106 -108 -122 0
106 108 -122 0
-106 108 122 0
106 -108 122 0
-109 -110 -124 0
109 110 -124 0
-109 110 124 0
109 -110 124 0
-112 -114 -126 0
112 114 -126 0
-112 114 126 0
112 -114 126 0
-116 -118 -128 0
116 118 -128 0
-116 118 128 0
116 -118 128 0
-120 -122 -130 0
120 122 -130 0
-120 122 130 0
120 -122 130 0
-124 -126 -132 0
124 126 -132 0
-124 126 132 0
124 -126 132 0
-128 -130 -132 0
128 130 -132 0
-128 130 132 0
128 -130 132 0
-6 -12 -135 0
6 12 -135 0
-6 12 135 0
6 -12 135 0
-18 -26 -137 0
18 26 -137 0
-18 26 137 0
18 -26 137 0
-34 -42 -139 0
34 42 -139 0
-34 42 139 0
34 -42 139 0
-50 -99 -141 0
50 99 -141 0
-50 99 141 0
50 -99 141 0
-101 -103 -143 0
101 103 -143 0
-101 103 143 0
101 -103 143 0
-105 -107 -145 0
105 107 -145 0
-105 107 145 0
105 -107 145 0
-111 -113 -165 0
111 113 -165 0
-111 113 165 0
111 -113 165 0
-115 -117 -147 0
115 117 -147 0
-115 117 147 0
115 -117 147 0
-119 -121 -149 0
119 121 -149 0
-119 121 149 0
119 -121 149 0
-123 -125 -151 0
123 125 -151 0
-123 125 151 0
123 -125 151 0
-127 -129 -153 0
127 129 -153 0
-127 129 153 0
127 -129 153 0
-131 -133 -155 0
131 133 -155 0
-131 133 155 0
131 -133 155 0
-132 -134 -157 0
132 134 -157 0
132 -134 157 0
-132 134 157 0
-135 -137 -159 0
135 137 -159 0
-135 137 159 0
135 -137 159 0
-139 -141 -161 0
139 141 -161 0
-139 141 161 0
139 -141 161 0
-143 -145 -163 0
143 145 -163 0
-143 145 163 0
143 -145 163 0
-147 -149 -166 0
147 149 -166 0
-147 149 166 0
147 -149 166 0
-151 -153 -167 0
151 153 -167 0
-151 153 167 0
151 -153 167 0
-155 -157 -169 0
155 157 -169 0
-155 157 169 0
155 -157 169 0
-159 -161 -171 0
159 161 -171 0
-159 161 171 0
159 -161 171 0
-163 -165 -173 0
163 165 -173 0
-163 165 173 0
163 -165 173 0
-166 -167 -175 0
166 167 -175 0
-166 167 175 0
166 -167 175 0
-169 -171 -177 0
169 171 -177 0
-169 171 177 0
169 -171 177 0
-173 -175 177 0
173 175 177 0
-173 175 -177 0
173 -175 -177 0
-7 -13 -179 0
7 13 -179 0
-7 13 179 0
7 -13 179 0
-19 -27 -181 0
19 27 -181 0
-19 27 181 0
19 -27 181 0
-35 -43 -183 0
35 43 -183 0
-35 43 183 0
35 -43 183 0
-51 -136 -185 0
51 136 -185 0
-51 136 185 0
51 -136 185 0
-138 -140 -187 0
138 140 -187 0
-138 140 187 0
138 -140 187 0
-142 -144 -189 0
142 144 -189 0
-142 144 189 0
142 -144 189 0
-146 -148 -192 0
146 148 -192 0
-146 148 192 0
146 -148 192 0
-150 -152 -193 0
150 152 -193 0
-150 152 193 0
150 -152 193 0
-154 -156 -195 0
154 156 -195 0
-154 156 195 0
154 -156 195 0
-158 -160 -197 0
158 160 -197 0
-158 160 197 0
158 -160 197 0
-162 -164 -199 0
162 164 -199 0
-162 164 199 0
162 -164 199 0
-168 -170 -202 0
168 170 -202 0
-168 170 202 0
168 -170 202 0
-172 -174 -203 0
172 174 -203 0
-172 174 203 0
172 -174 203 0
-176 -178 -205 0
176 178 -205 0
-176 178 205 0
176 -178 205 0
-179 -181 -208 0
179 181 -208 0
-179 181 208 0
179 -181 208 0
-183 -185 -209 0
183 185 -209 0
-183 185 209 0
183 -185 209 0
-187 -189 -211 0
187 189 -211 0
-187 189 211 0
187 -189 211 0
-191 -192 -213 0
191 192 -213 0
-191 192 213 0
191 -192 213 0
-193 -195 -215 0
193 195 -215 0
-193 195 215 0
193 -195 215 0
-197 -199 -217 0
197 199 -217 0
-197 199 217 0
197 -199 217 0
-201 -202 -219 0
201 202 -219 0
-201 202 219 0
201 -202 219 0
-203 -205 -221 0
203 205 -221 0
-203 205 221 0
203 -205 221 0
-207 -208 -223 0
207 208 -223 0
-207 208 223 0
207 -208 223 0
-209 -211 -225 0
209 211 -225 0
-209 211 225 0
209 -211 225 0
-213 -215 -227 0
213 215 -227 0
-213 215 227 0
213 -215 227 0
-217 -219 -229 0
217 219 -229 0
-217 219 229 0
217 -219 229 0
-221 -223 -231 0
221 223 -231 0
-221 223 231 0
221 -223 231 0
-225 -227 -233 0
225 227 -233 0
-225 227 233 0
225 -227 233 0
-229 -231 -233 0
229 231 -233 0
-229 231 233 0
229 -231 233 0
-14 -20 -236 0
14 20 -236 0
-14 20 236 0
14 -20 236 0
-28 -36 -238 0
28 36 -238 0
-28 36 238 0
28 -36 238 0
-44 -52 -240 0
44 52 -240 0
-44 52 240 0
44 -52 240 0
-180 -182 -242 0
180 182 -242 0
-180 182 242 0
180 -182 242 0
-184 -186 -244 0
184 186 -244 0
-184 186 244 0
184 -186 244 0
-188 -190 -246 0
188 190 -246 0
-188 190 246 0
188 -190 246 0
-194 -196 -248 0
194 196 -248 0
-194 196 248 0
194 -196 248 0
-198 -200 -250 0
198 200 -250 0
-198 200 250 0
198 -200 250 0
-204 -206 -253 0
204 206 -253 0
-204 206 253 0
204 -206 253 0
-210 -212 -255 0
210 212 -255 0
-210 212 255 0
210 -212 255 0
-214 -216 -256 0
214 216 -256 0
-214 216 256 0
214 -216 256 0
-218 -220 -258 0
218 220 -258 0
-218 220 258 0
218 -220 258 0
-222 -224 -260 0
222 224 -260 0
-222 224 260 0
222 -224 260 0
-226 -228 -262 0
226 228 -262 0
-226 228 262 0
226 -228 262 0
-230 -232 -264 0
230 232 -264 0
-230 232 264 0
230 -232 264 0
-234 -235 -266 0
234 235 -266 0
-234 235 266 0
234 -235 266 0
-233 -236 -268 0
233 236 -268 0
-233 236 268 0
233 -236 268 0
-238 -240 -270 0
238 240 -270 0
-238 240 270 0
238 -240 270 0
-242 -244 -272 0
242 244 -272 0
-242 244 272 0
242 -244 272 0
-246 -247 -274 0
246 247 -274 0
-246 247 274 0
246 -247 274 0
-248 -250 -276 0
248 250 -276 0
-248 250 276 0
248 -250 276 0
-252 -253 -278 0
252 253 -278 0
-252 253 278 0
252 -253 278 0
-254 -255 -280 0
254 255 -280 0
-254 255 280 0
254 -255 280 0
-256 -258 -282 0
256 258 -282 0
-256 258 282 0
256 -258 282 0
-260 -262 -284 0
260 262 -284 0
-260 262 284 0
260 -262 284 0
-264 -266 -286 0
264 266 -286 0
-264 266 286 0
264 -266 286 0
-268 -270 -288 0
268 270 -288 0
-268 270 288 0
268 -270 288 0
-272 -274 -290 0
272 274 -290 0
-272 274 290 0
272 -274 290 0
-276 -278 -292 0
276 278 -292 0
-276 278 292 0
276 -278 292 0
-280 -282 -294 0
280 282 -294 0
-280 282 294 0
280 -282 294 0
-284 -286 -296 0
284 286 -296 0
-284 286 296 0
284 -286 296 0
-288 -290 -298 0
288 290 -298 0
-288 290 298 0
288 -290 298 0
-292 -294 -300 0
292 294 -300 0
-292 294 300 0
292 -294 300 0
-296 -298 -300 0
296 298 -300 0
-296 298 300 0
296 -298 300 0
-21 -29 -303 0
21 29 -303 0
-21 29 303 0
21 -29 303 0
-37 -45 -305 0
37 45 -305 0
-37 45 305 0
37 -45 305 0
-53 -237 -307 0
53 237 -307 0
-53 237 307 0
53 -237 307 0
-239 -241 -309 0
239 241 -309 0
-239 241 309 0
239 -241 309 0
-243 -245 -311 0
243 245 -311 0
-243 245 311 0
243 -245 311 0
-249 -251 -313 0
249 251 -313 0
-249 251 313 0
249 -251 313 0
-257 -259 -316 0
257 259 -316 0
-257 259 316 0
257 -259 316 0
-261 -263 -317 0
261 263 -317 0
-261 263 317 0
261 -263 317 0
-265 -267 -319 0
265 267 -319 0
-265 267 319 0
265 -267 319 0
-269 -271 -321 0
269 271 -321 0
-269 271 321 0
269 -271 321 0
-273 -275 -323 0
273 275 -323 0
-273 275 323 0
273 -275 323 0
-277 -279 -325 0
277 279 -325 0
-277 279 325 0
277 -279 325 0
-281 -283 -327 0
281 283 -327 0
-281 283 327 0
281 -283 327 0
-285 -287 -329 0
285 287 -329 0
-285 287 329 0
285 -287 329 0
-289 -291 -331 0
289 291 -331 0
-289 291 331 0
289 -291 331 0
-293 -295 -333 0
293 295 -333 0
-293 295 333 0
293 -295 333 0
-297 -299 -335 0
297 299 -335 0
-297 299 335 0
297 -299 335 0
-301 -302 -337 0
301 302 -337 0
-301 302 337 0
301 -302 337 0
-300 -303 -339 0
300 303 -339 0
-300 303 339 0
300 -303 339 0
-305 -307 -341 0
305 307 -341 0
-305 307 341 0
305 -307 341 0
-309 -311 -343 0
309 311 -343 0
-309 311 343 0
309 -311 343 0
-312 -313 -345 0
312 313 -345 0
-312 313 345 0
312 -313 345 0
-314 -315 -347 0
314 315 -347 0
-314 315 347 0
314 -315 347 0
-316 -317 -349 0
316 317 -349 0
-316 317 349 0
316 -317 349 0
-319 -321 -351 0
319 321 -351 0
-319 321 351 0
319 -321 351 0
-323 -325 -353 0
323 325 -353 0
-323 325 353 0
323 -325 353 0
-327 -329 -355 0
327 329 -355 0
-327 329 355 0
327 -329 355 0
-331 -333 -357 0
331 333 -357 0
-331 333 357 0
331 -333 357 0
-335 -337 -359 0
335 337 -359 0
-335 337 359 0
335 -337 359 0
-339 -341 -361 0
339 341 -361 0
-339 341 361 0
339 -341 361 0
-343 -345 -363 0
343 345 -363 0
-343 345 363 0
343 -345 363 0
-347 -349 -365 0
347 349 -365 0
-347 349 365 0
347 -349 365 0
-351 -353 -367 0
351 353 -367 0
-351 353 367 0
351 -353 367 0
-355 -357 -369 0
355 357 -369 0
-355 357 369 0
355 -357 369 0
-359 -361 -371 0
359 361 -371 0
-359 361 371 0
359 -361 371 0
-363 -365 -373 0
363 365 -373 0
-363 365 373 0
363 -365 373 0
-367 -369 -375 0
367 369 -375 0
-367 369 375 0
367 -369 375 0
-371 -373 375 0
371 373 375 0
-371 373 -375 0
371 -373 -375 0
-30 -38 -377 0
30 38 -377 0
-30 38 377 0
30 -38 377 0
-46 -54 -379 0
46 54 -379 0
-46 54 379 0
46 -54 379 0
-304 -306 -381 0
304 306 -381 0
-304 306 381 0
304 -306 381 0
-308 -310 -383 0
308 310 -383 0
-308 310 383 0
308 -310 383 0
-318 -320 -387 0
318 320 -387 0
-318 320 387 0
318 -320 387 0
-322 -324 -389 0
322 324 -389 0
-322 324 389 0
322 -324 389 0
-326 -328 -391 0
326 328 -391 0
-326 328 391 0
326 -328 391 0
-330 -332 -393 0
330 332 -393 0
-330 332 393 0
330 -332 393 0
-334 -336 -395 0
334 336 -395 0
-334 336 395 0
334 -336 395 0
-338 -340 -397 0
338 340 -397 0
-338 340 397 0
338 -340 397 0
-342 -344 -399 0
342 344 -399 0
-342 344 399 0
342 -344 399 0
-346 -348 -401 0
346 348 -401 0
-346 348 401 0
346 -348 401 0
-350 -352 -403 0
350 352 -403 0
-350 352 403 0
350 -352 403 0
-354 -356 -405 0
354 356 -405 0
-354 356 405 0
354 -356 405 0
-358 -360 -407 0
358 360 -407 0
-358 360 407 0
358 -360 407 0
-362 -364 -409 0
362 364 -409 0
-362 364 409 0
362 -364 409 0
-366 -368 -411 0
366 368 -411 0
-366 368 411 0
366 -368 411 0
-370 -372 -413 0
370 372 -413 0
-370 372 413 0
370 -372 413 0
-374 -376 -415 0
374 376 -415 0
-374 376 415 0
374 -376 415 0
-377 -379 -417 0
377 379 -417 0
-377 379 417 0
377 -379 417 0
-381 -383 -419 0
381 383 -419 0
-381 383 419 0
381 -383 419 0
-384 -385 -421 0
384 385 -421 0
-384 385 421 0
384 -385 421 0
-386 -387 -423 0
386 387 -423 0
-386 387 423 0
386 -387 423 0
-389 -391 -425 0
389 391 -425 0
-389 391 425 0
389 -391 425 0
-393 -395 -427 0
393 395 -427 0
-393 395 427 0
393 -395 427 0
-397 -399 -429 0
397 399 -429 0
-397 399 429 0
397 -399 429 0
-401 -403 -431 0
401 403 -431 0
-401 403 431 0
401 -403 431 0
-405 -407 -433 0
405 407 -433 0
-405 407 433 0
405 -407 433 0
-409 -411 -435 0
409 411 -435 0
-409 411 435 0
409 -411 435 0
-413 -415 -437 0
413 415 -437 0
-413 415 437 0
413 -415 437 0
-416 -417 -439 0
416 417 -439 0
-416 417 439 0
416 -417 439 0
-419 -421 -441 0
419 421 -441 0
-419 421 441 0
419 -421 441 0
-423 -425 -443 0
423 425 -443 0
-423 425 443 0
423 -425 443 0
-427 -429 -445 0
427 429 -445 0
-427 429 445 0
427 -429 445 0
-431 -433 -447 0
431 433 -447 0
-431 433 447 0
431 -433 447 0
-435 -437 -449 0
435 437 -449 0
-435 437 449 0
435 -437 449 0
-439 -441 -451 0
439 441 -451 0
-439 441 451 0
439 -441 451 0
-443 -445 -453 0
443 445 -453 0
-443 445 453 0
443 -445 453 0
-447 -449 -455 0
447 449 -455 0
-447 449 455 0
447 -449 455 0
-451 -453 455 0
451 453 455 0
-451 453 -455 0
451 -453 -455 0
-39 -47 -457 0
39 47 -457 0
-39 47 457 0
39 -47 457 0
-55 -378 -459 0
55 378 -459 0
-55 378 459 0
55 -378 459 0
-380 -382 -461 0
380 382 -461 0
-380 382 461 0
380 -382 461 0
-388 -390 -499 0
388 390 -499 0
-388 390 499 0
388 -390 499 0
-392 -394 -463 0
392 394 -463 0
-392 394 463 0
392 -394 463 0
-396 -398 -465 0
396 398 -465 0
-396 398 465 0
396 -398 465 0
-400 -402 -467 0
400 402 -467 0
-400 402 467 0
400 -402 467 0
-404 -406 -469 0
404 406 -469 0
-404 406 469 0
404 -406 469 0
-408 -410 -471 0
408 410 -471 0
-408 410 471 0
408 -410 471 0
-412 -414 -473 0
412 414 -473 0
-412 414 473 0
412 -414 473 0
-418 -420 -476 0
418 420 -476 0
-418 420 476 0
418 -420 476 0
-422 -424 -477 0
422 424 -477 0
-422 424 477 0
422 -424 477 0
-426 -428 -479 0
426 428 -479 0
-426 428 479 0
426 -428 479 0
-430 -432 -481 0
430 432 -481 0
-430 432 481 0
430 -432 481 0
-434 -436 -483 0
434 436 -483 0
-434 436 483 0
434 -436 483 0
-438 -440 -485 0
438 440 -485 0
-438 440 485 0
438 -440 485 0
-442 -444 -487 0
442 444 -487 0
-442 444 487 0
442 -444 487 0
-446 -448 -489 0
446 448 -489 0
-446 448 489 0
446 -448 489 0
-450 -452 -491 0
450 452 -491 0
-450 452 491 0
450 -452 491 0
-454 -456 -493 0
454 456 -493 0
-454 456 493 0
454 -456 493 0
-457 -459 -495 0
457 459 -495 0
-457 459 495 0
457 -459 495 0
-461 -462 -497 0
461 462 -497 0
-461 462 497 0
461 -462 497 0
-463 -465 -500 0
463 465 -500 0
-463 465 500 0
463 -465 500 0
-467 -469 -501 0
467 469 -501 0
-467 469 501 0
467 -469 501 0
-471 -473 -503 0
471 473 -503 0
-471 473 503 0
471 -473 503 0
-475 -476 -505 0
475 476 -505 0
-475 476 505 0
475 -476 505 0
-477 -479 -507 0
477 479 -507 0
-477 479 507 0
477 -479 507 0
-481 -483 -509 0
481 483 -509 0
-481 483 509 0
481 -483 509 0
-485 -487 -511 0
485 487 -511 0
-485 487 511 0
485 -487 511 0
-489 -491 -513 0
489 491 -513 0
-489 491 513 0
489 -491 513 0
-493 -494 -515 0
493 494 -515 0
-493 494 515 0
493 -494 515 0
-495 -497 -517 0
495 497 -517 0
-495 497 517 0
495 -497 517 0
-499 -500 -519 0
499 500 -519 0
-499 500 519 0
499 -500 519 0
-501 -503 -521 0
501 503 -521 0
-501 503 521 0
501 -503 521 0
-505 -507 -523 0
505 507 -523 0
-505 507 523 0
505 -507 523 0
-509 -511 -525 0
509 511 -525 0
-509 511 525 0
509 -511 525 0
-513 -515 -527 0
513 515 -527 0
-513 515 527 0
513 -515 527 0
-517 -519 -529 0
517 519 -529 0
-517 519 529 0
517 -519 529 0
-521 -523 -531 0
521 523 -531 0
-521 523 531 0
521 -523 531 0
-525 -527 -533 0
525 527 -533 0
-525 527 533 0
525 -527 533 0
-529 -531 533 0
529 531 533 0
-529 531 -533 0
529 -531 -533 0
-48 -56 -572 0
48 56 -572 0
-48 56 572 0
48 -56 572 0
-458 -460 -537 0
458 460 -537 0
-458 460 537 0
458 -460 537 0
-464 -466 -540 0
464 466 -540 0
-464 466 540 0
464 -466 540 0
-468 -470 -541 0
468 470 -541 0
-468 470 541 0
468 -470 541 0
-472 -474 -543 0
472 474 -543 0
-472 474 543 0
472 -474 543 0
-478 -480 -546 0
478 480 -546 0
-478 480 546 0
478 -480 546 0
-482 -484 -547 0
482 484 -547 0
-482 484 547 0
482 -484 547 0
-486 -488 -549 0
486 488 -549 0
-486 488 549 0
486 -488 549 0
-490 -492 -551 0
490 492 -551 0
-490 492 551 0
490 -492 551 0
-496 -498 -553 0
496 498 -553 0
-496 498 553 0
496 -498 553 0
-502 -504 -555 0
502 504 -555 0
-502 504 555 0
502 -504 555 0
-506 -508 -557 0
506 508 -557 0
-506 508 557 0
506 -508 557 0
-510 -512 -559 0
510 512 -559 0
-510 512 559 0
510 -512 559 0
-514 -516 -561 0
514 516 -561 0
-514 516 561 0
514 -516 561 0
-518 -520 -563 0
518 520 -563 0
-518 520 563 0
518 -520 563 0
-522 -524 -565 0
522 524 -565 0
-522 524 565 0
522 -524 565 0
-526 -528 -567 0
526 528 -567 0
-526 528 567 0
526 -528 567 0
-530 -532 -569 0
530 532 -569 0
-530 532 569 0
530 -532 569 0
-534 -535 -571 0
534 535 -571 0
-534 535 571 0
534 -535 571 0
-537 -538 -573 0
537 538 -573 0
-537 538 573 0
537 -538 573 0
-539 -540 -575 0
539 540 -575 0
-539 540 575 0
539 -540 575 0
-541 -543 -577 0
541 543 -577 0
-541 543 577 0
541 -543 577 0
-545 -546 -579 0
545 546 -579 0
-545 546 579 0
545 -546 579 0
-547 -549 -581 0
547 549 -581 0
-547 549 581 0
547 -549 581 0
-551 -552 -583 0
551 552 -583 0
-551 552 583 0
551 -552 583 0
-553 -554 -585 0
553 554 -585 0
-553 554 585 0
553 -554 585 0
-555 -557 -587 0
555 557 -587 0
-555 557 587 0
555 -557 587 0
-559 -561 -589 0
559 561 -589 0
-559 561 589 0
559 -561 589 0
-563 -565 -591 0
563 565 -591 0
-563 565 591 0
563 -565 591 0
-567 -569 -593 0
567 569 -593 0
-567 569 593 0
567 -569 593 0
-571 -572 -595 0
571 572 -595 0
-571 572 595 0
571 -572 595 0
-573 -575 -597 0
573 575 -597 0
-573 575 597 0
573 -575 597 0
-577 -579 -599 0
577 579 -599 0
-577 579 599 0
577 -579 599 0
-581 -583 -601 0
581 583 -601 0
-581 583 601 0
581 -583 601 0
-585 -587 -603 0
585 587 -603 0
-585 587 603 0
585 -587 603 0
-589 -591 -605 0
589 591 -605 0
-589 591 605 0
589 -591 605 0
-593 -595 -607 0
593 595 -607 0
-593 595 607 0
593 -595 607 0
-597 -599 -609 0
597 599 -609 0
-597 599 609 0
597 -599 609 0
-601 -603 -611 0
601 603 -611 0
-601 603 611 0
601 -603 611 0
-605 -607 -613 0
605 607 -613 0
-605 607 613 0
605 -607 613 0
-609 -611 613 0
609 611 613 0
-609 611 -613 0
609 -611 -613 0
-57 -536 -653 0
57 536 -653 0
-57 536 653 0
57 -536 653 0
-542 -544 -618 0
542 544 -618 0
-542 544 618 0
542 -544 618 0
-548 -550 -620 0
548 550 -620 0
-548 550 620 0
548 -550 620 0
-556 -558 -623 0
556 558 -623 0
-556 558 623 0
556 -558 623 0
-560 -562 -625 0
560 562 -625 0
-560 562 625 0
560 -562 625 0
-564 -566 -627 0
564 566 -627 0
-564 566 627 0
564 -566 627 0
-568 -570 -629 0
568 570 -629 0
-568 570 629 0
568 -570 629 0
-574 -576 -632 0
574 576 -632 0
-574 576 632 0
574 -576 632 0
-578 -580 -633 0
578 580 -633 0
-578 580 633 0
578 -580 633 0
-582 -584 -635 0
582 584 -635 0
-582 584 635 0
582 -584 635 0
-586 -588 -637 0
586 588 -637 0
-586 588 637 0
586 -588 637 0
-590 -592 -639 0
590 592 -639 0
-590 592 639 0
590 -592 639 0
-594 -596 -641 0
594 596 -641 0
-594 596 641 0
594 -596 641 0
-598 -600 -643 0
598 600 -643 0
-598 600 643 0
598 -600 643 0
-602 -604 -645 0
602 604 -645 0
-602 604 645 0
602 -604 645 0
-606 -608 -647 0
606 608 -647 0
-606 608 647 0
606 -608 647 0
-610 -612 -649 0
610 612 -649 0
-610 612 649 0
610 -612 649 0
-614 -615 -651 0
614 615 -651 0
-614 615 651 0
614 -615 651 0
-616 -617 -654 0
616 617 -654 0
-616 617 654 0
616 -617 654 0
-618 -619 -655 0
618 619 -655 0
-618 619 655 0
618 -619 655 0
-620 -621 -657 0
620 621 -657 0
-620 621 657 0
620 -621 657 0
-622 -623 -659 0
622 623 -659 0
-622 623 659 0
622 -623 659 0
-625 -627 -661 0
625 627 -661 0
-625 627 661 0
625 -627 661 0
-629 -631 -663 0
629 631 -663 0
-629 631 663 0
629 -631 663 0
-632 -633 -665 0
632 633 -665 0
-632 633 665 0
632 -633 665 0
-635 -637 -667 0
635 637 -667 0
-635 637 667 0
635 -637 667 0
-639 -641 -669 0
639 641 -669 0
-639 641 669 0
639 -641 669 0
-643 -645 -671 0
643 645 -671 0
-643 645 671 0
643 -645 671 0
-647 -649 -673 0
647 649 -673 0
-647 649 673 0
647 -649 673 0
-651 -653 -675 0
651 653 -675 0
-651 653 675 0
651 -653 675 0
-654 -655 -677 0
654 655 -677 0
-654 655 677 0
654 -655 677 0
-657 -659 -679 0
657 659 -679 0
-657 659 679 0
657 -659 679 0
-661 -663 -681 0
661 663 -681 0
-661 663 681 0
661 -663 681 0
-665 -667 -683 0
665 667 -683 0
-665 667 683 0
665 -667 683 0
-669 -671 -685 0
669 671 -685 0
-669 671 685 0
669 -671 685 0
-673 -675 -687 0
673 675 -687 0
-673 675 687 0
673 -675 687 0
-677 -679 -689 0
677 679 -689 0
-677 679 689 0
677 -679 689 0
-681 -683 -691 0
681 683 -691 0
-681 683 691 0
681 -683 691 0
-685 -687 -693 0
685 687 -693 0
-685 687 693 0
685 -687 693 0
-689 -691 693 0
689 691 693 0
-689 691 -693 0
689 -691 -693 0
-624 -626 -698 0
624 626 -698 0
-624 626 698 0
624 -626 698 0
-628 -630 -700 0
628 630 -700 0
-628 630 700 0
628 -630 700 0
-634 -636 -703 0
634 636 -703 0
-634 636 703 0
634 -636 703 0
-638 -640 -704 0
638 640 -704 0
-638 640 704 0
638 -640 704 0
-642 -644 -706 0
642 644 -706 0
-642 644 706 0
642 -644 706 0
-646 -648 -708 0
646 648 -708 0
-646 648 708 0
646 -648 708 0
-650 -652 -710 0
650 652 -710 0
-650 652 710 0
650 -652 710 0
-656 -658 -713 0
656 658 -713 0
-656 658 713 0
656 -658 713 0
-660 -662 -714 0
660 662 -714 0
-660 662 714 0
660 -662 714 0
-664 -666 -716 0
664 666 -716 0
-664 666 716 0
664 -666 716 0
-668 -670 -718 0
668 670 -718 0
-668 670 718 0
668 -670 718 0
-672 -674 -720 0
672 674 -720 0
-672 674 720 0
672 -674 720 0
-676 -678 -722 0
676 678 -722 0
-676 678 722 0
676 -678 722 0
-680 -682 -724 0
680 682 -724 0
-680 682 724 0
680 -682 724 0
-684 -686 -726 0
684 686 -726 0
-684 686 726 0
684 -686 726 0
-688 -690 -728 0
688 690 -728 0
-688 690 728 0
688 -690 728 0
-692 -694 -730 0
692 694 -730 0
-692 694 730 0
692 -694 730 0
-695 -696 -732 0
695 696 -732 0
-695 696 732 0
695 -696 732 0
-698 -700 -733 0
698 700 -733 0
-698 700 733 0
698 -700 733 0
-702 -703 -735 0
702 703 -735 0
-702 703 735 0
702 -703 735 0
-704 -706 -737 0
704 706 -737 0
-704 706 737 0
704 -706 737 0
-708 -710 -739 0
708 710 -739 0
-708 710 739 0
708 -710 739 0
-712 -713 -741 0
712 713 -741 0
-712 713 741 0
712 -713 741 0
-714 -716 -743 0
714 716 -743 0
-714 716 743 0
714 -716 743 0
-718 -720 -745 0
718 720 -745 0
-718 720 745 0
718 -720 745 0
-722 -724 -747 0
722 724 -747 0
-722 724 747 0
722 -724 747 0
-726 -728 -749 0
726 728 -749 0
-726 728 749 0
726 -728 749 0
-730 -731 -751 0
730 731 -751 0
-730 731 751 0
730 -731 751 0
-697 -732 -753 0
697 732 -753 0
697 -732 753 0
-697 732 753 0
-733 -735 -755 0
733 735 -755 0
-733 735 755 0
733 -735 755 0
-737 -739 -757 0
737 739 -757 0
-737 739 757 0
737 -739 757 0
-741 -743 -759 0
741 743 -759 0
-741 743 759 0
741 -743 759 0
-745 -747 -761 0
745 747 -761 0
-745 747 761 0
745 -747 761 0
-749 -751 -763 0
749 751 -763 0
-749 751 763 0
749 -751 763 0
-753 -755 -765 0
753 755 -765 0
-753 755 765 0
753 -755 765 0
-757 -759 -767 0
757 759 -767 0
-757 759 767 0
757 -759 767 0
-761 -763 -769 0
761 763 -769 0
-761 763 769 0
761 -763 769 0
-765 -767 769 0
765 767 769 0
-765 767 -769 0
765 -767 -769 0
-699 -701 -804 0
699 701 -804 0
-699 701 804 0
699 -701 804 0
-705 -707 -773 0
705 707 -773 0
-705 707 773 0
705 -707 773 0
-709 -711 -775 0
709 711 -775 0
-709 711 775 0
709 -711 775 0
-715 -717 -778 0
715 717 -778 0
-715 717 778 0
715 -717 778 0
-719 -721 -779 0
719 721 -779 0
-719 721 779 0
719 -721 779 0
-723 -725 -781 0
723 725 -781 0
-723 725 781 0
723 -725 781 0
-727 -729 -783 0
727 729 -783 0
-727 729 783 0
727 -729 783 0
-734 -736 -786 0
734 736 -786 0
-734 736 786 0
734 -736 786 0
-738 -740 -787 0
738 740 -787 0
-738 740 787 0
738 -740 787 0
-742 -744 -789 0
742 744 -789 0
-742 744 789 0
742 -744 789 0
-746 -748 -791 0
746 748 -791 0
-746 748 791 0
746 -748 791 0
-750 -752 -793 0
750 752 -793 0
-750 752 793 0
750 -752 793 0
-754 -756 -795 0
754 756 -795 0
-754 756 795 0
754 -756 795 0
-758 -760 -797 0
758 760 -797 0
-758 760 797 0
758 -760 797 0
-762 -764 -799 0
762 764 -799 0
-762 764 799 0
762 -764 799 0
-766 -768 -801 0
766 768 -801 0
-766 768 801 0
766 -768 801 0
-770 -771 -803 0
770 771 -803 0
-770 771 803 0
770 -771 803 0
-772 -773 -805 0
772 773 -805 0
-772 773 805 0
772 -773 805 0
-775 -777 -806 0
775 777 -806 0
-775 777 806 0
775 -777 806 0
-778 -779 -808 0
778 779 -808 0
-778 779 808 0
778 -779 808 0
-781 -783 -810 0
781 783 -810 0
-781 783 810 0
781 -783 810 0
-784 -785 -812 0
784 785 -812 0
-784 785 812 0
784 -785 812 0
-786 -787 -814 0
786 787 -814 0
-786 787 814 0
786 -787 814 0
-789 -791 -816 0
789 791 -816 0
-789 791 816 0
789 -791 816 0
-793 -795 -818 0
793 795 -818 0
-793 795 818 0
793 -795 818 0
-797 -799 -820 0
797 799 -820 0
-797 799 820 0
797 -799 820 0
-801 -803 -822 0
801 803 -822 0
-801 803 822 0
801 -803 822 0
-805 -806 -823 0
805 806 -823 0
-805 806 823 0
805 -806 823 0
-808 -810 -825 0
808 810 -825 0
-808 810 825 0
808 -810 825 0
-812 -814 -827 0
812 814 -827 0
-812 814 827 0
812 -814 827 0
-816 -818 -829 0
816 818 -829 0
-816 818 829 0
816 -818 829 0
-820 -822 -831 0
820 822 -831 0
-820 822 831 0
820 -822 831 0
-804 -823 -833 0
804 823 -833 0
-804 823 833 0
804 -823 833 0
-825 -827 -835 0
825 827 -835 0
-825 827 835 0
825 -827 835 0
-829 -831 -837 0
829 831 -837 0
-829 831 837 0
829 -831 837 0
-833 -835 -837 0
833 835 -837 0
-833 835 837 0
833 -835 837 0
-774 -776 -841 0
774 776 -841 0
-774 776 841 0
774 -776 841 0
-780 -782 -843 0
780 782 -843 0
-780 782 843 0
780 -782 843 0
-788 -790 -846 0
788 790 -846 0
-788 790 846 0
788 -790 846 0
-792 -794 -847 0
792 794 -847 0
-792 794 847 0
792 -794 847 0
-796 -798 -849 0
796 798 -849 0
-796 798 849 0
796 -798 849 0
-800 -802 -851 0
800 802 -851 0
-800 802 851 0
800 -802 851 0
-807 -809 -854 0
807 809 -854 0
-807 809 854 0
807 -809 854 0
-811 -813 -855 0
811 813 -855 0
-811 813 855 0
811 -813 855 0
-815 -817 -857 0
815 817 -857 0
-815 817 857 0
815 -817 857 0
-819 -821 -859 0
819 821 -859 0
-819 821 859 0
819 -821 859 0
-824 -826 -861 0
824 826 -861 0
-824 826 861 0
824 -826 861 0
-828 -830 -863 0
828 830 -863 0
-828 830 863 0
828 -830 863 0
-832 -834 -865 0
832 834 -865 0
-832 834 865 0
832 -834 865 0
-836 -838 -867 0
836 838 -867 0
-836 838 867 0
836 -838 867 0
-837 -839 -869 0
837 839 -869 0
837 -839 869 0
-837 839 869 0
-841 -842 -870 0
841 842 -870 0
-841 842 870 0
841 -842 870 0
-843 -844 -872 0
843 844 -872 0
-843 844 872 0
843 -844 872 0
-845 -846 -874 0
845 846 -874 0
-845 846 874 0
845 -846 874 0
-847 -849 -876 0
847 849 -876 0
-847 849 876 0
847 -849 876 0
-851 -852 -878 0
851 852 -878 0
-851 852 878 0
851 -852 878 0
-853 -854 -880 0
853 854 -880 0
-853 854 880 0
853 -854 880 0
-855 -857 -882 0
855 857 -882 0
-855 857 882 0
855 -857 882 0
-859 -860 -884 0
859 860 -884 0
-859 860 884 0
859 -860 884 0
-861 -863 -886 0
861 863 -886 0
-861 863 886 0
861 -863 886 0
-865 -867 -888 0
865 867 -888 0
-865 867 888 0
865 -867 888 0
-840 -869 -890 0
840 869 -890 0
840 -869 890 0
-840 869 890 0
-870 -872 -892 0
870 872 -892 0
-870 872 892 0
870 -872 892 0
-874 -876 -894 0
874 876 -894 0
-874 876 894 0
874 -876 894 0
-878 -880 -896 0
878 880 -896 0
-878 880 896 0
878 -880 896 0
-882 -884 -898 0
882 884 -898 0
-882 884 898 0
882 -884 898 0
-886 -888 -900 0
886 888 -900 0
-886 888 900 0
886 -888 900 0
-890 -892 -902 0
890 892 -902 0
-890 892 902 0
890 -892 902 0
-894 -896 -904 0
894 896 -904 0
-894 896 904 0
894 -896 904 0
-898 -900 -906 0
898 900 -906 0
-898 900 906 0
898 -900 906 0
-902 -904 -906 0
902 904 -906 0
-902 904 906 0
902 -904 906 0
-848 -850 -912 0
848 850 -912 0
-848 850 912 0
848 -850 912 0
-856 -858 -915 0
856 858 -915 0
-856 858 915 0
856 -858 915 0
-862 -864 -917 0
862 864 -917 0
-862 864 917 0
862 -864 917 0
-866 -868 -918 0
866 868 -918 0
-866 868 918 0
866 -868 918 0
-871 -873 -920 0
871 873 -920 0
-871 873 920 0
871 -873 920 0
-875 -877 -922 0
875 877 -922 0
-875 877 922 0
875 -877 922 0
-879 -881 -924 0
879 881 -924 0
-879 881 924 0
879 -881 924 0
-883 -885 -926 0
883 885 -926 0
-883 885 926 0
883 -885 926 0
-887 -889 -928 0
887 889 -928 0
-887 889 928 0
887 -889 928 0
-891 -893 -930 0
891 893 -930 0
-891 893 930 0
891 -893 930 0
-895 -897 -932 0
895 897 -932 0
-895 897 932 0
895 -897 932 0
-899 -901 -934 0
899 901 -934 0
-899 901 934 0
899 -901 934 0
-903 -905 -936 0
903 905 -936 0
-903 905 936 0
903 -905 936 0
-907 -908 -938 0
907 908 -938 0
-907 908 938 0
907 -908 938 0
-909 -910 -940 0
909 910 -940 0
-909 910 940 0
909 -910 940 0
-911 -912 -941 0
911 912 -941 0
-911 912 941 0
911 -912 941 0
-913 -914 -943 0
913 914 -943 0
-913 914 943 0
913 -914 943 0
-915 -916 -945 0
915 916 -945 0
-915 916 945 0
915 -916 945 0
-917 -918 -947 0
917 918 -947 0
-917 918 947 0
917 -918 947 0
-919 -920 -949 0
919 920 -949 0
-919 920 949 0
919 -920 949 0
-922 -924 -951 0
922 924 -951 0
-922 924 951 0
922 -924 951 0
-926 -928 -953 0
926 928 -953 0
-926 928 953 0
926 -928 953 0
-930 -932 -955 0
930 932 -955 0
-930 932 955 0
930 -932 955 0
-934 -936 -957 0
934 936 -957 0
-934 936 957 0
934 -936 957 0
-906 -938 -959 0
906 938 -959 0
906 -938 959 0
-906 938 959 0
-940 -941 -961 0
940 941 -961 0
-940 941 961 0
940 -941 961 0
-943 -945 -963 0
943 945 -963 0
-943 945 963 0
943 -945 963 0
-947 -949 -965 0
947 949 -965 0
-947 949 965 0
947 -949 965 0
-951 -953 -967 0
951 953 -967 0
-951 953 967 0
951 -953 967 0
-955 -957 -969 0
955 957 -969 0
-955 957 969 0
955 -957 969 0
-959 -961 -971 0
959 961 -971 0
-959 961 971 0
959 -961 971 0
-963 -965 -973 0
963 965 -973 0
-963 965 973 0
963 -965 973 0
-967 -969 -975 0
967 969 -975 0
-967 969 975 0
967 -969 975 0
-971 -973 -975 0
971 973 -975 0
-971 973 975 0
971 -973 975 0
-921 -923 -982 0
921 923 -982 0
-921 923 982 0
921 -923 982 0
-925 -927 -984 0
925 927 -984 0
-925 927 984 0
925 -927 984 0
-929 -931 -986 0
929 931 -986 0
-929 931 986 0
929 -931 986 0
-933 -935 -988 0
933 935 -988 0
-933 935 988 0
933 -935 988 0
-937 -939 -990 0
937 939 -990 0
-937 939 990 0
937 -939 990 0
-942 -944 -992 0
942 944 -992 0
-942 944 992 0
942 -944 992 0
-946 -948 -994 0
946 948 -994 0
-946 948 994 0
946 -948 994 0
-950 -952 -996 0
950 952 -996 0
-950 952 996 0
950 -952 996 0
-954 -956 -998 0
954 956 -998 0
-954 956 998 0
954 -956 998 0
-958 -960 -1000 0
958 960 -1000 0
-958 960 1000 0
958 -960 1000 0
-962 -964 -1002 0
962 964 -1002 0
-962 964 1002 0
962 -964 1002 0
-966 -968 -1004 0
966 968 -1004 0
-966 968 1004 0
966 -968 1004 0
-970 -972 -1006 0
970 972 -1006 0
-970 972 1006 0
970 -972 1006 0
-974 -976 -1008 0
974 976 -1008 0
-974 976 1008 0
974 -976 1008 0
-975 -977 -1010 0
975 977 -1010 0
975 -977 1010 0
-975 977 1010 0
-978 -979 -1029 0
978 979 -1029 0
-978 979 1029 0
978 -979 1029 0
-980 -981 -1012 0
980 981 -1012 0
-980 981 1012 0
980 -981 1012 0
-982 -984 -1014 0
982 984 -1014 0
-982 984 1014 0
982 -984 1014 0
-986 -988 -1016 0
986 988 -1016 0
-986 988 1016 0
986 -988 1016 0
-990 -991 -1018 0
990 991 -1018 0
-990 991 1018 0
990 -991 1018 0
-992 -994 -1020 0
992 994 -1020 0
-992 994 1020 0
992 -994 1020 0
-996 -998 -1022 0
996 998 -1022 0
-996 998 1022 0
996 -998 1022 0
-1000 -1002 -1024 0
1000 1002 -1024 0
-1000 1002 1024 0
1000 -1002 1024 0
-1004 -1006 -1026 0
1004 1006 -1026 0
-1004 1006 1026 0
1004 -1006 1026 0
-1008 -1010 -1028 0
1008 1010 -1028 0
-1008 1010 1028 0
1008 -1010 1028 0
-1012 -1014 -1030 0
1012 1014 -1030 0
-1012 1014 1030 0
1012 -1014 1030 0
-1016 -1018 -1032 0
1016 1018 -1032 0
-1016 1018 1032 0
1016 -1018 1032 0
-1020 -1022 -1034 0
1020 1022 -1034 0
-1020 1022 1034 0
1020 -1022 1034 0
-1024 -1026 -1036 0
1024 1026 -1036 0
-1024 1026 1036 0
1024 -1026 1036 0
-1028 -1029 -1038 0
1028 1029 -1038 0
-1028 1029 1038 0
1028 -1029 1038 0
-1030 -1032 -1040 0
1030 1032 -1040 0
-1030 1032 1040 0
1030 -1032 1040 0
-1034 -1036 -1042 0
1034 1036 -1042 0
-1034 1036 1042 0
1034 -1036 1042 0
-1038 -1040 -1042 0
1038 1040 -1042 0
-1038 1040 1042 0
1038 -1040 1042 0
-983 -985 -1045 0
983 985 -1045 0
-983 985 1045 0
983 -985 1045 0
-987 -989 -1046 0
987 989 -1046 0
-987 989 1046 0
987 -989 1046 0
-993 -995 -1048 0
993 995 -1048 0
-993 995 1048 0
993 -995 1048 0
-997 -999 -1050 0
997 999 -1050 0
-997 999 1050 0
997 -999 1050 0
-1001 -1003 -1052 0
1001 1003 -1052 0
-1001 1003 1052 0
1001 -1003 1052 0
-1005 -1007 -1054 0
1005 1007 -1054 0
-1005 1007 1054 0
1005 -1007 1054 0
-1009 -1011 -1056 0
1009 1011 -1056 0
-1009 1011 1056 0
1009 -1011 1056 0
-1013 -1015 -1058 0
1013 1015 -1058 0
-1013 1015 1058 0
1013 -1015 1058 0
-1017 -1019 -1060 0
1017 1019 -1060 0
-1017 1019 1060 0
1017 -1019 1060 0
-1021 -1023 -1062 0
1021 1023 -1062 0
-1021 1023 1062 0
1021 -1023 1062 0
-1025 -1027 -1064 0
1025 1027 -1064 0
-1025 1027 1064 0
1025 -1027 1064 0
-1031 -1033 -1067 0
1031 1033 -1067 0
-1031 1033 1067 0
1031 -1033 1067 0
-1035 -1037 -1068 0
1035 1037 -1068 0
-1035 1037 1068 0
1035 -1037 1068 0
-1039 -1041 -1070 0
1039 1041 -1070 0
-1039 1041 1070 0
1039 -1041 1070 0
-1043 -1044 -1072 0
1043 1044 -1072 0
-1043 1044 1072 0
1043 -1044 1072 0
-1045 -1046 -1073 0
1045 1046 -1073 0
-1045 1046 1073 0
1045 -1046 1073 0
-1047 -1048 -1074 0
1047 1048 -1074 0
-1047 1048 1074 0
1047 -1048 1074 0
-1050 -1052 -1076 0
1050 1052 -1076 0
-1050 1052 1076 0
1050 -1052 1076 0
-1054 -1056 -1078 0
1054 1056 -1078 0
-1054 1056 1078 0
1054 -1056 1078 0
-1057 -1058 -1080 0
1057 1058 -1080 0
-1057 1058 1080 0
1057 -1058 1080 0
-1060 -1062 -1082 0
1060 1062 -1082 0
-1060 1062 1082 0
1060 -1062 1082 0
-1064 -1066 -1084 0
1064 1066 -1084 0
-1064 1066 1084 0
1064 -1066 1084 0
-1067 -1068 -1086 0
1067 1068 -1086 0
-1067 1068 1086 0
1067 -1068 1086 0
-1070 -1072 -1088 0
1070 1072 -1088 0
-1070 1072 1088 0
1070 -1072 1088 0
-1073 -1074 -1090 0
1073 1074 -1090 0
-1073 1074 1090 0
1073 -1074 1090 0
-1076 -1078 -1091 0
1076 1078 -1091 0
-1076 1078 1091 0
1076 -1078 1091 0
-1080 -1082 -1093 0
1080 1082 -1093 0
-1080 1082 1093 0
1080 -1082 1093 0
-1084 -1086 -1095 0
1084 1086 -1095 0
-1084 1086 1095 0
1084 -1086 1095 0
-1042 -1088 -1097 0
1042 1088 -1097 0
1042 -1088 1097 0
-1042 1088 1097 0
-1090 -1091 -1099 0
1090 1091 -1099 0
-1090 1091 1099 0
1090 -1091 1099 0
-1093 -1095 -1101 0
1093 1095 -1101 0
-1093 1095 1101 0
1093 -1095 1101 0
-1097 -1099 -1101 0
1097 1099 -1101 0
-1097 1099 1101 0
1097 -1099 1101 0
-1049 -1051 -1105 0
1049 1051 -1105 0
-1049 1051 1105 0
1049 -1051 1105 0
-1053 -1055 -1106 0
1053 1055 -1106 0
-1053 1055 1106 0
1053 -1055 1106 0
-1059 -1061 -1108 0
1059 1061 -1108 0
-1059 1061 1108 0
1059 -1061 1108 0
-1063 -1065 -1110 0
1063 1065 -1110 0
-1063 1065 1110 0
1063 -1065 1110 0
-1069 -1071 -1113 0
1069 1071 -1113 0
-1069 1071 1113 0
1069 -1071 1113 0
-1075 -1077 -1116 0
1075 1077 -1116 0
-1075 1077 1116 0
1075 -1077 1116 0
-1079 -1081 -1118 0
1079 1081 -1118 0
-1079 1081 1118 0
1079 -1081 1118 0
-1083 -1085 -1120 0
1083 1085 -1120 0
-1083 1085 1120 0
1083 -1085 1120 0
-1087 -1089 -1122 0
1087 1089 -1122 0
-1087 1089 1122 0
1087 -1089 1122 0
-1092 -1094 -1125 0
1092 1094 -1125 0
-1092 1094 1125 0
1092 -1094 1125 0
-1096 -1098 -1126 0
1096 1098 -1126 0
-1096 1098 1126 0
1096 -1098 1126 0
-1100 -1102 -1128 0
1100 1102 -1128 0
-1100 1102 1128 0
1100 -1102 1128 0
-1101 -1103 -1130 0
1101 1103 -1130 0
1101 -1103 1130 0
-1101 1103 1130 0
-1104 -1105 -1132 0
1104 1105 -1132 0
-1104 1105 1132 0
1104 -1105 1132 0
-1106 -1107 -1134 0
1106 1107 -1134 0
-1106 1107 1134 0
1106 -1107 1134 0
-1108 -1110 -1136 0
1108 1110 -1136 0
-1108 1110 1136 0
1108 -1110 1136 0
-1112 -1113 -1138 0
1112 1113 -1138 0
-1112 1113 1138 0
1112 -1113 1138 0
-1114 -1115 -1140 0
1114 1115 -1140 0
-1114 1115 1140 0
1114 -1115 1140 0
-1116 -1118 -1142 0
1116 1118 -1142 0
-1116 1118 1142 0
1116 -1118 1142 0
-1120 -1122 -1144 0
1120 1122 -1144 0
-1120 1122 1144 0
1120 -1122 1144 0
-1124 -1125 -1146 0
1124 1125 -1146 0
-1124 1125 1146 0
1124 -1125 1146 0
-1126 -1128 -1148 0
1126 1128 -1148 0
-1126 1128 1148 0
1126 -1128 1148 0
-1130 -1131 -1150 0
1130 1131 -1150 0
-1130 1131 1150 0
1130 -1131 1150 0
-1132 -1134 -1152 0
1132 1134 -1152 0
-1132 1134 1152 0
1132 -1134 1152 0
-1136 -1138 -1154 0
1136 1138 -1154 0
-1136 1138 1154 0
1136 -1138 1154 0
-1140 -1142 -1156 0
1140 1142 -1156 0
-1140 1142 1156 0
1140 -1142 1156 0
-1144 -1146 -1158 0
1144 1146 -1158 0
-1144 1146 1158 0
1144 -1146 1158 0
-1148 -1150 -1160 0
1148 1150 -1160 0
-1148 1150 1160 0
1148 -1150 1160 0
-1152 -1154 -1162 0
1152 1154 -1162 0
-1152 1154 1162 0
1152 -1154 1162 0
-1156 -1158 -1164 0
1156 1158 -1164 0
-1156 1158 1164 0
1156 -1158 1164 0
-1160 -1162 -1164 0
1160 1162 -1164 0
-1160 1162 1164 0
1160 -1162 1164 0
-1109 -1111 -1169 0
1109 1111 -1169 0
-1109 1111 1169 0
1109 -1111 1169 0
-1117 -1119 -1196 0
1117 1119 -1196 0
-1117 1119 1196 0
1117 -1119 1196 0
-1121 -1123 -1172 0
1121 1123 -1172 0
-1121 1123 1172 0
1121 -1123 1172 0
-1127 -1129 -1175 0
1127 1129 -1175 0
-1127 1129 1175 0
1127 -1129 1175 0
-1133 -1135 -1177 0
1133 1135 -1177 0
-1133 1135 1177 0
1133 -1135 1177 0
-1137 -1139 -1178 0
1137 1139 -1178 0
-1137 1139 1178 0
1137 -1139 1178 0
-1141 -1143 -1180 0
1141 1143 -1180 0
-1141 1143 1180 0
1141 -1143 1180 0
-1145 -1147 -1182 0
1145 1147 -1182 0
-1145 1147 1182 0
1145 -1147 1182 0
-1149 -1151 -1184 0
1149 1151 -1184 0
-1149 1151 1184 0
1149 -1151 1184 0
-1153 -1155 -1186 0
1153 1155 -1186 0
-1153 1155 1186 0
1153 -1155 1186 0
-1157 -1159 -1188 0
1157 1159 -1188 0
-1157 1159 1188 0
1157 -1159 1188 0
-1161 -1163 -1190 0
1161 1163 -1190 0
-1161 1163 1190 0
1161 -1163 1190 0
-1165 -1166 -1192 0
1165 1166 -1192 0
-1165 1166 1192 0
1165 -1166 1192 0
-1167 -1168 -1194 0
1167 1168 -1194 0
-1167 1168 1194 0
1167 -1168 1194 0
-1169 -1170 -1195 0
1169 1170 -1195 0
-1169 1170 1195 0
1169 -1170 1195 0
-1172 -1174 -1197 0
1172 1174 -1197 0
-1172 1174 1197 0
1172 -1174 1197 0
-1175 -1176 -1199 0
1175 1176 -1199 0
-1175 1176 1199 0
1175 -1176 1199 0
-1177 -1178 -1201 0
1177 1178 -1201 0
-1177 1178 1201 0
1177 -1178 1201 0
-1180 -1182 -1203 0
1180 1182 -1203 0
-1180 1182 1203 0
1180 -1182 1203 0
-1184 -1186 -1205 0
1184 1186 -1205 0
-1184 1186 1205 0
1184 -1186 1205 0
-1188 -1190 -1207 0
1188 1190 -1207 0
-1188 1190 1207 0
1188 -1190 1207 0
-1164 -1192 -1209 0
1164 1192 -1209 0
1164 -1192 1209 0
-1164 1192 1209 0
-1194 -1195 -1211 0
1194 1195 -1211 0
-1194 1195 1211 0
1194 -1195 1211 0
-1196 -1197 -1213 0
1196 1197 -1213 0
-1196 1197 1213 0
1196 -1197 1213 0
-1199 -1201 -1215 0
1199 1201 -1215 0
-1199 1201 1215 0
1199 -1201 1215 0
-1203 -1205 -1217 0
1203 1205 -1217 0
-1203 1205 1217 0
1203 -1205 1217 0
-1207 -1209 -1219 0
1207 1209 -1219 0
-1207 1209 1219 0
1207 -1209 1219 0
-1211 -1213 -1221 0
1211 1213 -1221 0
-1211 1213 1221 0
1211 -1213 1221 0
-1215 -1217 -1223 0
1215 1217 -1223 0
-1215 1217 1223 0
1215 -1217 1223 0
-1219 -1221 -1223 0
1219 1221 -1223 0
-1219 1221 1223 0
1219 -1221 1223 0
-1171 -1173 -1255 0
1171 1173 -1255 0
-1171 1173 1255 0
1171 -1173 1255 0
-1179 -1181 -1229 0
1179 1181 -1229 0
-1179 1181 1229 0
1179 -1181 1229 0
-1183 -1185 -1231 0
1183 1185 -1231 0
-1183 1185 1231 0
1183 -1185 1231 0
-1187 -1189 -1233 0
1187 1189 -1233 0
-1187 1189 1233 0
1187 -1189 1233 0
-1191 -1193 -1235 0
1191 1193 -1235 0
-1191 1193 1235 0
1191 -1193 1235 0
-1198 -1200 -1239 0
1198 1200 -1239 0
-1198 1200 1239 0
1198 -1200 1239 0
-1202 -1204 -1241 0
1202 1204 -1241 0
-1202 1204 1241 0
1202 -1204 1241 0
-1206 -1208 -1243 0
1206 1208 -1243 0
-1206 1208 1243 0
1206 -1208 1243 0
-1210 -1212 -1245 0
1210 1212 -1245 0
-1210 1212 1245 0
1210 -1212 1245 0
-1214 -1216 -1247 0
1214 1216 -1247 0
-1214 1216 1247 0
1214 -1216 1247 0
-1218 -1220 -1249 0
1218 1220 -1249 0
-1218 1220 1249 0
1218 -1220 1249 0
-1222 -1224 -1251 0
1222 1224 -1251 0
-1222 1224 1251 0
1222 -1224 1251 0
-1223 -1225 -1253 0
1223 1225 -1253 0
1223 -1225 1253 0
-1223 1225 1253 0
-1227 -1228 -1256 0
1227 1228 -1256 0
-1227 1228 1256 0
1227 -1228 1256 0
-1229 -1231 -1258 0
1229 1231 -1258 0
-1229 1231 1258 0
1229 -1231 1258 0
-1233 -1235 -1260 0
1233 1235 -1260 0
-1233 1235 1260 0
1233 -1235 1260 0
-1237 -1238 -1262 0
1237 1238 -1262 0
-1237 1238 1262 0
1237 -1238 1262 0
-1239 -1241 -1264 0
1239 1241 -1264 0
-1239 1241 1264 0
1239 -1241 1264 0
-1243 -1245 -1266 0
1243 1245 -1266 0
-1243 1245 1266 0
1243 -1245 1266 0
-1247 -1249 -1268 0
1247 1249 -1268 0
-1247 1249 1268 0
1247 -1249 1268 0
-1251 -1253 -1270 0
1251 1253 -1270 0
-1251 1253 1270 0
1251 -1253 1270 0
-1226 -1255 -1272 0
1226 1255 -1272 0
-1226 1255 1272 0
1226 -1255 1272 0
-1256 -1258 -1274 0
1256 1258 -1274 0
-1256 1258 1274 0
1256 -1258 1274 0
-1260 -1262 -1276 0
1260 1262 -1276 0
-1260 1262 1276 0
1260 -1262 1276 0
-1264 -1266 -1278 0
1264 1266 -1278 0
-1264 1266 1278 0
1264 -1266 1278 0
-1268 -1270 -1280 0
1268 1270 -1280 0
-1268 1270 1280 0
1268 -1270 1280 0
-1272 -1274 -1282 0
1272 1274 -1282 0
-1272 1274 1282 0
1272 -1274 1282 0
-1276 -1278 -1284 0
1276 1278 -1284 0
-1276 1278 1284 0
1276 -1278 1284 0
-1280 -1282 -1284 0
1280 1282 -1284 0
-1280 1282 1284 0
1280 -1282 1284 0
-1230 -1232 -1288 0
1230 1232 -1288 0
-1230 1232 1288 0
1230 -1232 1288 0
-1234 -1236 -1289 0
1234 1236 -1289 0
-1234 1236 1289 0
1234 -1236 1289 0
-1240 -1242 -1311 0
1240 1242 -1311 0
-1240 1242 1311 0
1240 -1242 1311 0
-1244 -1246 -1291 0
1244 1246 -1291 0
-1244 1246 1291 0
1244 -1246 1291 0
-1248 -1250 -1293 0
1248 1250 -1293 0
-1248 1250 1293 0
1248 -1250 1293 0
-1252 -1254 -1313 0
1252 1254 -1313 0
-1252 1254 1313 0
1252 -1254 1313 0
-1257 -1259 -1296 0
1257 1259 -1296 0
-1257 1259 1296 0
1257 -1259 1296 0
-1261 -1263 -1297 0
1261 1263 -1297 0
-1261 1263 1297 0
1261 -1263 1297 0
-1265 -1267 -1299 0
1265 1267 -1299 0
-1265 1267 1299 0
1265 -1267 1299 0
-1269 -1271 -1301 0
1269 1271 -1301 0
-1269 1271 1301 0
1269 -1271 1301 0
-1273 -1275 -1303 0
1273 1275 -1303 0
-1273 1275 1303 0
1273 -1275 1303 0
-1277 -1279 -1305 0
1277 1279 -1305 0
-1277 1279 1305 0
1277 -1279 1305 0
-1281 -1283 -1307 0
1281 1283 -1307 0
-1281 1283 1307 0
1281 -1283 1307 0
-1285 -1286 -1309 0
1285 1286 -1309 0
-1285 1286 1309 0
1285 -1286 1309 0
-1288 -1289 -1310 0
1288 1289 -1310 0
-1288 1289 1310 0
1288 -1289 1310 0
-1291 -1293 -1312 0
1291 1293 -1312 0
-1291 1293 1312 0
1291 -1293 1312 0
-1296 -1297 -1314 0
1296 1297 -1314 0
-1296 1297 1314 0
1296 -1297 1314 0
-1299 -1301 -1315 0
1299 1301 -1315 0
-1299 1301 1315 0
1299 -1301 1315 0
-1303 -1305 -1317 0
1303 1305 -1317 0
-1303 1305 1317 0
1303 -1305 1317 0
-1307 -1309 -1319 0
1307 1309 -1319 0
-1307 1309 1319 0
1307 -1309 1319 0
-1284 -1287 -1321 0
1284 1287 -1321 0
-1284 1287 1321 0
1284 -1287 1321 0
-1310 -1311 -1323 0
1310 1311 -1323 0
-1310 1311 1323 0
1310 -1311 1323 0
-1312 -1313 -1325 0
1312 1313 -1325 0
-1312 1313 1325 0
1312 -1313 1325 0
-1314 -1315 -1327 0
1314 1315 -1327 0
-1314 1315 1327 0
1314 -1315 1327 0
-1317 -1319 -1329 0
1317 1319 -1329 0
-1317 1319 1329 0
1317 -1319 1329 0
-1321 -1323 -1331 0
1321 1323 -1331 0
-1321 1323 1331 0
1321 -1323 1331 0
-1325 -1327 -1333 0
1325 1327 -1333 0
-1325 1327 1333 0
1325 -1327 1333 0
-1329 -1331 -1333 0
1329 1331 -1333 0
-1329 1331 1333 0
1329 -1331 1333 0
-1290 -1292 -1338 0
1290 1292 -1338 0
-1290 1292 1338 0
1290 -1292 1338 0
-1294 -1295 -1339 0
1294 1295 -1339 0
-1294 1295 1339 0
1294 -1295 1339 0
-1298 -1300 -1341 0
1298 1300 -1341 0
-1298 1300 1341 0
1298 -1300 1341 0
-1302 -1304 -1343 0
1302 1304 -1343 0
-1302 1304 1343 0
1302 -1304 1343 0
-1306 -1308 -1345 0
1306 1308 -1345 0
-1306 1308 1345 0
1306 -1308 1345 0
-1316 -1318 -1350 0
1316 1318 -1350 0
-1316 1318 1350 0
1316 -1318 1350 0
-1320 -1322 -1351 0
1320 1322 -1351 0
-1320 1322 1351 0
1320 -1322 1351 0
-1324 -1326 -1353 0
1324 1326 -1353 0
-1324 1326 1353 0
1324 -1326 1353 0
-1328 -1330 -1355 0
1328 1330 -1355 0
-1328 1330 1355 0
1328 -1330 1355 0
-1332 -1334 -1357 0
1332 1334 -1357 0
-1332 1334 1357 0
1332 -1334 1357 0
-1333 -1335 -1359 0
1333 1335 -1359 0
1333 -1335 1359 0
-1333 1335 1359 0
-1337 -1338 -1360 0
1337 1338 -1360 0
-1337 1338 1360 0
1337 -1338 1360 0
-1339 -1340 -1362 0
1339 1340 -1362 0
-1339 1340 1362 0
1339 -1340 1362 0
-1341 -1343 -1364 0
1341 1343 -1364 0
-1341 1343 1364 0
1341 -1343 1364 0
-1345 -1346 -1366 0
1345 1346 -1366 0
-1345 1346 1366 0
1345 -1346 1366 0
-1347 -1348 -1368 0
1347 1348 -1368 0
-1347 1348 1368 0
1347 -1348 1368 0
-1349 -1350 -1370 0
1349 1350 -1370 0
-1349 1350 1370 0
1349 -1350 1370 0
-1351 -1353 -1372 0
1351 1353 -1372 0
-1351 1353 1372 0
1351 -1353 1372 0
-1355 -1357 -1374 0
1355 1357 -1374 0
-1355 1357 1374 0
1355 -1357 1374 0
-1336 -1359 -1376 0
1336 1359 -1376 0
1336 -1359 1376 0
-1336 1359 1376 0
-1360 -1362 -1378 0
1360 1362 -1378 0
-1360 1362 1378 0
1360 -1362 1378 0
-1364 -1366 -1380 0
1364 1366 -1380 0
-1364 1366 1380 0
1364 -1366 1380 0
-1368 -1370 -1382 0
1368 1370 -1382 0
-1368 1370 1382 0
1368 -1370 1382 0
-1372 -1374 -1384 0
1372 1374 -1384 0
-1372 1374 1384 0
1372 -1374 1384 0
-1376 -1378 -1386 0
1376 1378 -1386 0
-1376 1378 1386 0
1376 -1378 1386 0
-1380 -1382 -1388 0
1380 1382 -1388 0
-1380 1382 1388 0
1380 -1382 1388 0
-1384 -1386 -1388 0
1384 1386 -1388 0
-1384 1386 1388 0
1384 -1386 1388 0
-1342 -1344 -1393 0
1342 1344 -1393 0
-1342 1344 1393 0
1342 -1344 1393 0
-1352 -1354 -1396 0
1352 1354 -1396 0
-1352 1354 1396 0
1352 -1354 1396 0
-1356 -1358 -1397 0
1356 1358 -1397 0
-1356 1358 1397 0
1356 -1358 1397 0
-1361 -1363 -1399 0
1361 1363 -1399 0
-1361 1363 1399 0
1361 -1363 1399 0
-1365 -1367 -1401 0
1365 1367 -1401 0
-1365 1367 1401 0
1365 -1367 1401 0
-1369 -1371 -1403 0
1369 1371 -1403 0
-1369 1371 1403 0
1369 -1371 1403 0
-1373 -1375 -1405 0
1373 1375 -1405 0
-1373 1375 1405 0
1373 -1375 1405 0
-1377 -1379 -1407 0
1377 1379 -1407 0
-1377 1379 1407 0
1377 -1379 1407 0
-1381 -1383 -1409 0
1381 1383 -1409 0
-1381 1383 1409 0
1381 -1383 1409 0
-1385 -1387 -1411 0
1385 1387 -1411 0
-1385 1387 1411 0
1385 -1387 1411 0
-1389 -1390 -1413 0
1389 1390 -1413 0
-1389 1390 1413 0
1389 -1390 1413 0
-1391 -1392 -1415 0
1391 1392 -1415 0
-1391 1392 1415 0
1391 -1392 1415 0
-1393 -1394 -1416 0
1393 1394 -1416 0
-1393 1394 1416 0
1393 -1394 1416 0
-1396 -1397 -1417 0
1396 1397 -1417 0
-1396 1397 1417 0
1396 -1397 1417 0
-1398 -1399 -1419 0
1398 1399 -1419 0
-1398 1399 1419 0
1398 -1399 1419 0
-1401 -1403 -1421 0
1401 1403 -1421 0
-1401 1403 1421 0
1401 -1403 1421 0
-1405 -1407 -1423 0
1405 1407 -1423 0
-1405 1407 1423 0
1405 -1407 1423 0
-1409 -1411 -1425 0
1409 1411 -1425 0
-1409 1411 1425 0
1409 -1411 1425 0
-1388 -1413 -1427 0
1388 1413 -1427 0
1388 -1413 1427 0
-1388 1413 1427 0
-1415 -1416 -1429 0
1415 1416 -1429 0
-1415 1416 1429 0
1415 -1416 1429 0
-1395 -1417 -1431 0
1395 1417 -1431 0
-1395 1417 1431 0
1395 -1417 1431 0
-1419 -1421 -1433 0
1419 1421 -1433 0
-1419 1421 1433 0
1419 -1421 1433 0
-1423 -1425 -1435 0
1423 1425 -1435 0
-1423 1425 1435 0
1423 -1425 1435 0
-1427 -1429 -1437 0
1427 1429 -1437 0
-1427 1429 1437 0
1427 -1429 1437 0
-1431 -1433 -1439 0
1431 1433 -1439 0
-1431 1433 1439 0
1431 -1433 1439 0
-1435 -1437 -1439 0
1435 1437 -1439 0
-1435 1437 1439 0
1435 -1437 1439 0
-1400 -1402 -1445 0
1400 1402 -1445 0
-1400 1402 1445 0
1400 -1402 1445 0
-1404 -1406 -1446 0
1404 1406 -1446 0
-1404 1406 1446 0
1404 -1406 1446 0
-1408 -1410 -1448 0
1408 1410 -1448 0
-1408 1410 1448 0
1408 -1410 1448 0
-1412 -1414 -1450 0
1412 1414 -1450 0
-1412 1414 1450 0
1412 -1414 1450 0
-1418 -1420 -1453 0
1418 1420 -1453 0
-1418 1420 1453 0
1418 -1420 1453 0
-1422 -1424 -1454 0
1422 1424 -1454 0
-1422 1424 1454 0
1422 -1424 1454 0
-1426 -1428 -1456 0
1426 1428 -1456 0
-1426 1428 1456 0
1426 -1428 1456 0
-1430 -1432 -1458 0
1430 1432 -1458 0
-1430 1432 1458 0
1430 -1432 1458 0
-1434 -1436 -1460 0
1434 1436 -1460 0
-1434 1436 1460 0
1434 -1436 1460 0
-1438 -1440 -1462 0
1438 1440 -1462 0
-1438 1440 1462 0
1438 -1440 1462 0
-1439 -1441 -1464 0
1439 1441 -1464 0
1439 -1441 1464 0
-1439 1441 1464 0
-1444 -1445 -1466 0
1444 1445 -1466 0
-1444 1445 1466 0
1444 -1445 1466 0
-1446 -1448 -1468 0
1446 1448 -1468 0
-1446 1448 1468 0
1446 -1448 1468 0
-1450 -1451 -1470 0
1450 1451 -1470 0
-1450 1451 1470 0
1450 -1451 1470 0
-1452 -1453 -1472 0
1452 1453 -1472 0
-1452 1453 1472 0
1452 -1453 1472 0
-1454 -1456 -1474 0
1454 1456 -1474 0
-1454 1456 1474 0
1454 -1456 1474 0
-1458 -1460 -1476 0
1458 1460 -1476 0
-1458 1460 1476 0
1458 -1460 1476 0
-1462 -1464 -1478 0
1462 1464 -1478 0
-1462 1464 1478 0
1462 -1464 1478 0
-1442 -1443 -1480 0
1442 1443 -1480 0
-1442 1443 1480 0
1442 -1443 1480 0
-1466 -1468 -1482 0
1466 1468 -1482 0
-1466 1468 1482 0
1466 -1468 1482 0
-1470 -1472 -1484 0
1470 1472 -1484 0
-1470 1472 1484 0
1470 -1472 1484 0
-1474 -1476 -1486 0
1474 1476 -1486 0
-1474 1476 1486 0
1474 -1476 1486 0
-1478 -1480 -1488 0
1478 1480 -1488 0
-1478 1480 1488 0
1478 -1480 1488 0
-1482 -1484 -1490 0
1482 1484 -1490 0
-1482 1484 1490 0
1482 -1484 1490 0
-1486 -1488 -1490 0
1486 1488 -1490 0
-1486 1488 1490 0
1486 -1488 1490 0
-1447 -1449 -1494 0
1447 1449 -1494 0
-1447 1449 1494 0
1447 -1449 1494 0
-1455 -1457 -1497 0
1455 1457 -1497 0
-1455 1457 1497 0
1455 -1457 1497 0
-1459 -1461 -1499 0
1459 1461 -1499 0
-1459 1461 1499 0
1459 -1461 1499 0
-1463 -1465 -1501 0
1463 1465 -1501 0
-1463 1465 1501 0
1463 -1465 1501 0
-1467 -1469 -1519 0
1467 1469 -1519 0
-1467 1469 1519 0
1467 -1469 1519 0
-1471 -1473 -1503 0
1471 1473 -1503 0
-1471 1473 1503 0
1471 -1473 1503 0
-1475 -1477 -1505 0
1475 1477 -1505 0
-1475 1477 1505 0
1475 -1477 1505 0
-1479 -1481 -1507 0
1479 1481 -1507 0
-1479 1481 1507 0
1479 -1481 1507 0
-1483 -1485 -1509 0
1483 1485 -1509 0
-1483 1485 1509 0
1483 -1485 1509 0
-1487 -1489 -1511 0
1487 1489 -1511 0
-1487 1489 1511 0
1487 -1489 1511 0
-1491 -1492 -1513 0
1491 1492 -1513 0
-1491 1492 1513 0
1491 -1492 1513 0
-1494 -1495 -1514 0
1494 1495 -1514 0
-1494 1495 1514 0
1494 -1495 1514 0
-1496 -1497 -1515 0
1496 1497 -1515 0
-1496 1497 1515 0
1496 -1497 1515 0
-1499 -1501 -1517 0
1499 1501 -1517 0
-1499 1501 1517 0
1499 -1501 1517 0
-1503 -1505 -1520 0
1503 1505 -1520 0
-1503 1505 1520 0
1503 -1505 1520 0
-1507 -1509 -1521 0
1507 1509 -1521 0
-1507 1509 1521 0
1507 -1509 1521 0
-1511 -1513 -1523 0
1511 1513 -1523 0
-1511 1513 1523 0
1511 -1513 1523 0
-1490 -1493 -1525 0
1490 1493 -1525 0
-1490 1493 1525 0
1490 -1493 1525 0
-1514 -1515 -1527 0
1514 1515 -1527 0
-1514 1515 1527 0
1514 -1515 1527 0
-1517 -1519 -1529 0
1517 1519 -1529 0
-1517 1519 1529 0
1517 -1519 1529 0
-1520 -1521 -1531 0
1520 1521 -1531 0
-1520 1521 1531 0
1520 -1521 1531 0
-1523 -1525 -1533 0
1523 1525 -1533 0
-1523 1525 1533 0
1523 -1525 1533 0
-1527 -1529 -1535 0
1527 1529 -1535 0
-1527 1529 1535 0
1527 -1529 1535 0
-1531 -1533 -1535 0
1531 1533 -1535 0
-1531 1533 1535 0
1531 -1533 1535 0
-1498 -1500 -1558 0
1498 1500 -1558 0
-1498 1500 1558 0
1498 -1500 1558 0
-1502 -1504 -1540 0
1502 1504 -1540 0
-1502 1504 1540 0
1502 -1504 1540 0
-1506 -1508 -1541 0
1506 1508 -1541 0
-1506 1508 1541 0
1506 -1508 1541 0
-1510 -1512 -1543 0
1510 1512 -1543 0
-1510 1512 1543 0
1510 -1512 1543 0
-1516 -1518 -1547 0
1516 1518 -1547 0
-1516 1518 1547 0
1516 -1518 1547 0
-1522 -1524 -1549 0
1522 1524 -1549 0
-1522 1524 1549 0
1522 -1524 1549 0
-1526 -1528 -1551 0
1526 1528 -1551 0
-1526 1528 1551 0
1526 -1528 1551 0
-1530 -1532 -1553 0
1530 1532 -1553 0
-1530 1532 1553 0
1530 -1532 1553 0
-1534 -1536 -1555 0
1534 1536 -1555 0
-1534 1536 1555 0
1534 -1536 1555 0
-1535 -1537 -1557 0
1535 1537 -1557 0
1535 -1537 1557 0
-1535 1537 1557 0
-1539 -1540 -1559 0
1539 1540 -1559 0
-1539 1540 1559 0
1539 -1540 1559 0
-1541 -1543 -1560 0
1541 1543 -1560 0
-1541 1543 1560 0
1541 -1543 1560 0
-1545 -1546 -1562 0
1545 1546 -1562 0
-1545 1546 1562 0
1545 -1546 1562 0
-1547 -1548 -1564 0
1547 1548 -1564 0
-1547 1548 1564 0
1547 -1548 1564 0
-1549 -1551 -1566 0
1549 1551 -1566 0
-1549 1551 1566 0
1549 -1551 1566 0
-1553 -1555 -1568 0
1553 1555 -1568 0
-1553 1555 1568 0
1553 -1555 1568 0
-1538 -1557 -1570 0
1538 1557 -1570 0
1538 -1557 1570 0
-1538 1557 1570 0
-1558 -1559 -1572 0
1558 1559 -1572 0
-1558 1559 1572 0
1558 -1559 1572 0
-1560 -1562 -1574 0
1560 1562 -1574 0
-1560 1562 1574 0
1560 -1562 1574 0
-1564 -1566 -1576 0
1564 1566 -1576 0
-1564 1566 1576 0
1564 -1566 1576 0
-1568 -1570 -1578 0
1568 1570 -1578 0
-1568 1570 1578 0
1568 -1570 1578 0
-1572 -1574 -1580 0
1572 1574 -1580 0
-1572 1574 1580 0
1572 -1574 1580 0
-1576 -1578 -1580 0
1576 1578 -1580 0
-1576 1578 1580 0
1576 -1578 1580 0
-1542 -1544 -1605 0
1542 1544 -1605 0
-1542 1544 1605 0
1542 -1544 1605 0
-1550 -1552 -1586 0
1550 1552 -1586 0
-1550 1552 1586 0
1550 -1552 1586 0
-1554 -1556 -1588 0
1554 1556 -1588 0
-1554 1556 1588 0
1554 -1556 1588 0
-1561 -1563 -1592 0
1561 1563 -1592 0
-1561 1563 1592 0
1561 -1563 1592 0
-1565 -1567 -1594 0
1565 1567 -1594 0
-1565 1567 1594 0
1565 -1567 1594 0
-1569 -1571 -1596 0
1569 1571 -1596 0
-1569 1571 1596 0
1569 -1571 1596 0
-1573 -1575 -1598 0
1573 1575 -1598 0
-1573 1575 1598 0
1573 -1575 1598 0
-1577 -1579 -1600 0
1577 1579 -1600 0
-1577 1579 1600 0
1577 -1579 1600 0
-1581 -1582 -1602 0
1581 1582 -1602 0
-1581 1582 1602 0
1581 -1582 1602 0
-1583 -1584 -1604 0
1583 1584 -1604 0
-1583 1584 1604 0
1583 -1584 1604 0
-1585 -1586 -1606 0
1585 1586 -1606 0
-1585 1586 1606 0
1585 -1586 1606 0
-1588 -1590 -1607 0
1588 1590 -1607 0
-1588 1590 1607 0
1588 -1590 1607 0
-1591 -1592 -1609 0
1591 1592 -1609 0
-1591 1592 1609 0
1591 -1592 1609 0
-1594 -1596 -1611 0
1594 1596 -1611 0
-1594 1596 1611 0
1594 -1596 1611 0
-1598 -1600 -1613 0
1598 1600 -1613 0
-1598 1600 1613 0
1598 -1600 1613 0
-1580 -1602 -1615 0
1580 1602 -1615 0
1580 -1602 1615 0
-1580 1602 1615 0
-1604 -1605 -1617 0
1604 1605 -1617 0
-1604 1605 1617 0
1604 -1605 1617 0
-1606 -1607 -1619 0
1606 1607 -1619 0
-1606 1607 1619 0
1606 -1607 1619 0
-1609 -1611 -1621 0
1609 1611 -1621 0
-1609 1611 1621 0
1609 -1611 1621 0
-1613 -1615 -1623 0
1613 1615 -1623 0
-1613 1615 1623 0
1613 -1615 1623 0
-1617 -1619 -1625 0
1617 1619 -1625 0
-1617 1619 1625 0
1617 -1619 1625 0
-1621 -1623 -1625 0
1621 1623 -1625 0
-1621 1623 1625 0
1621 -1623 1625 0
-1587 -1589 -1647 0
1587 1589 -1647 0
-1587 1589 1647 0
1587 -1589 1647 0
-1593 -1595 -1648 0
1593 1595 -1648 0
-1593 1595 1648 0
1593 -1595 1648 0
-1597 -1599 -1629 0
1597 1599 -1629 0
-1597 1599 1629 0
1597 -1599 1629 0
-1601 -1603 -1631 0
1601 1603 -1631 0
-1601 1603 1631 0
1601 -1603 1631 0
-1608 -1610 -1635 0
1608 1610 -1635 0
-1608 1610 1635 0
1608 -1610 1635 0
-1612 -1614 -1637 0
1612 1614 -1637 0
-1612 1614 1637 0
1612 -1614 1637 0
-1616 -1618 -1639 0
1616 1618 -1639 0
-1616 1618 1639 0
1616 -1618 1639 0
-1620 -1622 -1641 0
1620 1622 -1641 0
-1620 1622 1641 0
1620 -1622 1641 0
-1624 -1626 -1643 0
1624 1626 -1643 0
-1624 1626 1643 0
1624 -1626 1643 0
-1625 -1627 -1645 0
1625 1627 -1645 0
1625 -1627 1645 0
-1625 1627 1645 0
-1629 -1631 -1649 0
1629 1631 -1649 0
-1629 1631 1649 0
1629 -1631 1649 0
-1633 -1634 -1650 0
1633 1634 -1650 0
-1633 1634 1650 0
1633 -1634 1650 0
-1635 -1637 -1652 0
1635 1637 -1652 0
-1635 1637 1652 0
1635 -1637 1652 0
-1639 -1641 -1654 0
1639 1641 -1654 0
-1639 1641 1654 0
1639 -1641 1654 0
-1643 -1645 -1656 0
1643 1645 -1656 0
-1643 1645 1656 0
1643 -1645 1656 0
-1628 -1647 -1658 0
1628 1647 -1658 0
-1628 1647 1658 0
1628 -1647 1658 0
-1648 -1649 -1660 0
1648 1649 -1660 0
-1648 1649 1660 0
1648 -1649 1660 0
-1650 -1652 -1662 0
1650 1652 -1662 0
-1650 1652 1662 0
1650 -1652 1662 0
-1654 -1656 -1664 0
1654 1656 -1664 0
-1654 1656 1664 0
1654 -1656 1664 0
-1658 -1660 -1666 0
1658 1660 -1666 0
-1658 1660 1666 0
1658 -1660 1666 0
-1662 -1664 -1666 0
1662 1664 -1666 0
-1662 1664 1666 0
1662 -1664 1666 0
-1630 -1632 -1686 0
1630 1632 -1686 0
-1630 1632 1686 0
1630 -1632 1686 0
-1636 -1638 -1671 0
1636 1638 -1671 0
-1636 1638 1671 0
1636 -1638 1671 0
-1640 -1642 -1672 0
1640 1642 -1672 0
-1640 1642 1672 0
1640 -1642 1672 0
-1644 -1646 -1688 0
1644 1646 -1688 0
-1644 1646 1688 0
1644 -1646 1688 0
-1651 -1653 -1676 0
1651 1653 -1676 0
-1651 1653 1676 0
1651 -1653 1676 0
-1655 -1657 -1678 0
1655 1657 -1678 0
-1655 1657 1678 0
1655 -1657 1678 0
-1659 -1661 -1680 0
1659 1661 -1680 0
-1659 1661 1680 0
1659 -1661 1680 0
-1663 -1665 -1682 0
1663 1665 -1682 0
-1663 1665 1682 0
1663 -1665 1682 0
-1667 -1668 -1684 0
1667 1668 -1684 0
-1667 1668 1684 0
1667 -1668 1684 0
-1669 -1670 -1685 0
1669 1670 -1685 0
-1669 1670 1685 0
1669 -1670 1685 0
-1671 -1672 -1687 0
1671 1672 -1687 0
-1671 1672 1687 0
1671 -1672 1687 0
-1675 -1676 -1689 0
1675 1676 -1689 0
-1675 1676 1689 0
1675 -1676 1689 0
-1678 -1680 -1691 0
1678 1680 -1691 0
-1678 1680 1691 0
1678 -1680 1691 0
-1682 -1684 -1693 0
1682 1684 -1693 0
-1682 1684 1693 0
1682 -1684 1693 0
-1666 -1685 -1695 0
1666 1685 -1695 0
-1666 1685 1695 0
1666 -1685 1695 0
-1686 -1687 -1697 0
1686 1687 -1697 0
-1686 1687 1697 0
1686 -1687 1697 0
-1688 -1689 -1699 0
1688 1689 -1699 0
-1688 1689 1699 0
1688 -1689 1699 0
-1691 -1693 -1701 0
1691 1693 -1701 0
-1691 1693 1701 0
1691 -1693 1701 0
-1695 -1697 -1703 0
1695 1697 -1703 0
-1695 1697 1703 0
1695 -1697 1703 0
-1699 -1701 -1703 0
1699 1701 -1703 0
-1699 1701 1703 0
1699 -1701 1703 0
-1673 -1674 -1708 0
1673 1674 -1708 0
-1673 1674 1708 0
1673 -1674 1708 0
-1677 -1679 -1723 0
1677 1679 -1723 0
-1677 1679 1723 0
1677 -1679 1723 0
-1681 -1683 -1709 0
1681 1683 -1709 0
-1681 1683 1709 0
1681 -1683 1709 0
-1690 -1692 -1713 0
1690 1692 -1713 0
-1690 1692 1713 0
1690 -1692 1713 0
-1694 -1696 -1715 0
1694 1696 -1715 0
-1694 1696 1715 0
1694 -1696 1715 0
-1698 -1700 -1717 0
1698 1700 -1717 0
-1698 1700 1717 0
1698 -1700 1717 0
-1702 -1704 -1719 0
1702 1704 -1719 0
-1702 1704 1719 0
1702 -1704 1719 0
-1703 -1705 -1721 0
1703 1705 -1721 0
1703 -1705 1721 0
-1703 1705 1721 0
-1707 -1708 -1722 0
1707 1708 -1722 0
-1707 1708 1722 0
1707 -1708 1722 0
-1709 -1710 -1724 0
1709 1710 -1724 0
-1709 1710 1724 0
1709 -1710 1724 0
-1711 -1712 -1726 0
1711 1712 -1726 0
-1711 1712 1726 0
1711 -1712 1726 0
-1713 -1715 -1728 0
1713 1715 -1728 0
-1713 1715 1728 0
1713 -1715 1728 0
-1717 -1719 -1730 0
1717 1719 -1730 0
-1717 1719 1730 0
1717 -1719 1730 0
-1706 -1721 -1732 0
1706 1721 -1732 0
1706 -1721 1732 0
-1706 1721 1732 0
-1722 -1723 -1734 0
1722 1723 -1734 0
-1722 1723 1734 0
1722 -1723 1734 0
-1724 -1726 -1736 0
1724 1726 -1736 0
-1724 1726 1736 0
1724 -1726 1736 0
-1728 -1730 -1738 0
1728 1730 -1738 0
-1728 1730 1738 0
1728 -1730 1738 0
-1732 -1734 -1740 0
1732 1734 -1740 0
-1732 1734 1740 0
1732 -1734 1740 0
-1736 -1738 -1740 0
1736 1738 -1740 0
-1736 1738 1740 0
1736 -1738 1740 0
-1714 -1716 -1746 0
1714 1716 -1746 0
-1714 1716 1746 0
1714 -1716 1746 0
-1718 -1720 -1747 0
1718 1720 -1747 0
-1718 1720 1747 0
1718 -1720 1747 0
-1725 -1727 -1750 0
1725 1727 -1750 0
-1725 1727 1750 0
1725 -1727 1750 0
-1729 -1731 -1751 0
1729 1731 -1751 0
-1729 1731 1751 0
1729 -1731 1751 0
-1733 -1735 -1753 0
1733 1735 -1753 0
-1733 1735 1753 0
1733 -1735 1753 0
-1737 -1739 -1755 0
1737 1739 -1755 0
-1737 1739 1755 0
1737 -1739 1755 0
-1741 -1742 -1757 0
1741 1742 -1757 0
-1741 1742 1757 0
1741 -1742 1757 0
-1743 -1744 -1759 0
1743 1744 -1759 0
-1743 1744 1759 0
1743 -1744 1759 0
-1746 -1747 -1760 0
1746 1747 -1760 0
-1746 1747 1760 0
1746 -1747 1760 0
-1748 -1749 -1761 0
1748 1749 -1761 0
-1748 1749 1761 0
1748 -1749 1761 0
-1750 -1751 -1763 0
1750 1751 -1763 0
-1750 1751 1763 0
1750 -1751 1763 0
-1753 -1755 -1765 0
1753 1755 -1765 0
-1753 1755 1765 0
1753 -1755 1765 0
-1740 -1757 -1767 0
1740 1757 -1767 0
1740 -1757 1767 0
-1740 1757 1767 0
-1745 -1759 -1769 0
1745 1759 -1769 0
1745 -1759 1769 0
-1745 1759 1769 0
-1760 -1761 -1771 0
1760 1761 -1771 0
-1760 1761 1771 0
1760 -1761 1771 0
-1763 -1765 -1773 0
1763 1765 -1773 0
-1763 1765 1773 0
1763 -1765 1773 0
-1767 -1769 -1775 0
1767 1769 -1775 0
-1767 1769 1775 0
1767 -1769 1775 0
-1771 -1773 -1775 0
1771 1773 -1775 0
-1771 1773 1775 0
1771 -1773 1775 0
-1752 -1754 -1781 0
1752 1754 -1781 0
-1752 1754 1781 0
1752 -1754 1781 0
-1756 -1758 -1782 0
1756 1758 -1782 0
-1756 1758 1782 0
1756 -1758 1782 0
-1762 -1764 -1785 0
1762 1764 -1785 0
-1762 1764 1785 0
1762 -1764 1785 0
-1766 -1768 -1786 0
1766 1768 -1786 0
-1766 1768 1786 0
1766 -1768 1786 0
-1770 -1772 -1788 0
1770 1772 -1788 0
-1770 1772 1788 0
1770 -1772 1788 0
-1774 -1776 -1790 0
1774 1776 -1790 0
-1774 1776 1790 0
1774 -1776 1790 0
-1775 -1777 -1792 0
1775 1777 -1792 0
1775 -1777 1792 0
-1775 1777 1792 0
-1778 -1779 -1803 0
1778 1779 -1803 0
-1778 1779 1803 0
1778 -1779 1803 0
-1780 -1781 -1794 0
1780 1781 -1794 0
-1780 1781 1794 0
1780 -1781 1794 0
-1782 -1783 -1796 0
1782 1783 -1796 0
-1782 1783 1796 0
1782 -1783 1796 0
-1784 -1785 -1798 0
1784 1785 -1798 0
-1784 1785 1798 0
1784 -1785 1798 0
-1786 -1788 -1800 0
1786 1788 -1800 0
-1786 1788 1800 0
1786 -1788 1800 0
-1790 -1792 -1802 0
1790 1792 -1802 0
-1790 1792 1802 0
1790 -1792 1802 0
-1794 -1796 -1804 0
1794 1796 -1804 0
-1794 1796 1804 0
1794 -1796 1804 0
-1798 -1800 -1806 0
1798 1800 -1806 0
-1798 1800 1806 0
1798 -1800 1806 0
-1802 -1803 -1808 0
1802 1803 -1808 0
-1802 1803 1808 0
1802 -1803 1808 0
-1804 -1806 -1808 0
1804 1806 -1808 0
-1804 1806 1808 0
1804 -1806 1808 0
-1787 -1789 -1813 0
1787 1789 -1813 0
-1787 1789 1813 0
1787 -1789 1813 0
-1791 -1793 -1814 0
1791 1793 -1814 0
-1791 1793 1814 0
1791 -1793 1814 0
-1795 -1797 -1816 0
1795 1797 -1816 0
-1795 1797 1816 0
1795 -1797 1816 0
-1799 -1801 -1818 0
1799 1801 -1818 0
-1799 1801 1818 0
1799 -1801 1818 0
-1805 -1807 -1821 0
1805 1807 -1821 0
-1805 1807 1821 0
1805 -1807 1821 0
-1809 -1810 -1822 0
1809 1810 -1822 0
-1809 1810 1822 0
1809 -1810 1822 0
-1811 -1812 -1824 0
1811 1812 -1824 0
-1811 1812 1824 0
1811 -1812 1824 0
-1813 -1814 -1825 0
1813 1814 -1825 0
-1813 1814 1825 0
1813 -1814 1825 0
-1815 -1816 -1827 0
1815 1816 -1827 0
-1815 1816 1827 0
1815 -1816 1827 0
-1818 -1820 -1829 0
1818 1820 -1829 0
-1818 1820 1829 0
1818 -1820 1829 0
-1821 -1822 -1831 0
1821 1822 -1831 0
-1821 1822 1831 0
1821 -1822 1831 0
-1808 -1823 -1833 0
1808 1823 -1833 0
-1808 1823 1833 0
1808 -1823 1833 0
-1824 -1825 -1835 0
1824 1825 -1835 0
-1824 1825 1835 0
1824 -1825 1835 0
-1827 -1829 -1837 0
1827 1829 -1837 0
-1827 1829 1837 0
1827 -1829 1837 0
-1831 -1833 -1839 0
1831 1833 -1839 0
-1831 1833 1839 0
1831 -1833 1839 0
-1835 -1837 -1839 0
1835 1837 -1839 0
-1835 1837 1839 0
1835 -1837 1839 0
-1817 -1819 -1844 0
1817 1819 -1844 0
-1817 1819 1844 0
1817 -1819 1844 0
-1826 -1828 -1848 0
1826 1828 -1848 0
-1826 1828 1848 0
1826 -1828 1848 0
-1830 -1832 -1850 0
1830 1832 -1850 0
-1830 1832 1850 0
1830 -1832 1850 0
-1834 -1836 -1852 0
1834 1836 -1852 0
-1834 1836 1852 0
1834 -1836 1852 0
-1838 -1840 -1854 0
1838 1840 -1854 0
-1838 1840 1854 0
1838 -1840 1854 0
-1839 -1841 -1865 0
1839 1841 -1865 0
1839 -1841 1865 0
-1839 1841 1865 0
-1842 -1843 -1856 0
1842 1843 -1856 0
-1842 1843 1856 0
1842 -1843 1856 0
-1844 -1845 -1858 0
1844 1845 -1858 0
-1844 1845 1858 0
1844 -1845 1858 0
-1846 -1847 -1860 0
1846 1847 -1860 0
-1846 1847 1860 0
1846 -1847 1860 0
-1848 -1850 -1862 0
1848 1850 -1862 0
-1848 1850 1862 0
1848 -1850 1862 0
-1852 -1854 -1864 0
1852 1854 -1864 0
-1852 1854 1864 0
1852 -1854 1864 0
-1856 -1858 -1866 0
1856 1858 -1866 0
-1856 1858 1866 0
1856 -1858 1866 0
-1860 -1862 -1868 0
1860 1862 -1868 0
-1860 1862 1868 0
1860 -1862 1868 0
-1864 -1865 -1870 0
1864 1865 -1870 0
-1864 1865 1870 0
1864 -1865 1870 0
-1866 -1868 -1870 0
1866 1868 -1870 0
-1866 1868 1870 0
1866 -1868 1870 0
-1849 -1851 -1885 0
1849 1851 -1885 0
-1849 1851 1885 0
1849 -1851 1885 0
-1853 -1855 -1875 0
1853 1855 -1875 0
-1853 1855 1875 0
1853 -1855 1875 0
-1857 -1859 -1878 0
1857 1859 -1878 0
-1857 1859 1878 0
1857 -1859 1878 0
-1861 -1863 -1879 0
1861 1863 -1879 0
-1861 1863 1879 0
1861 -1863 1879 0
-1867 -1869 -1881 0
1867 1869 -1881 0
-1867 1869 1881 0
1867 -1869 1881 0
-1871 -1872 -1883 0
1871 1872 -1883 0
-1871 1872 1883 0
1871 -1872 1883 0
-1875 -1877 -1886 0
1875 1877 -1886 0
-1875 1877 1886 0
1875 -1877 1886 0
-1878 -1879 -1887 0
1878 1879 -1887 0
-1878 1879 1887 0
1878 -1879 1887 0
-1880 -1881 -1889 0
1880 1881 -1889 0
-1880 1881 1889 0
1880 -1881 1889 0
-1870 -1883 -1891 0
1870 1883 -1891 0
1870 -1883 1891 0
-1870 1883 1891 0
-1873 -1885 -1893 0
1873 1885 -1893 0
-1873 1885 1893 0
1873 -1885 1893 0
-1886 -1887 -1895 0
1886 1887 -1895 0
-1886 1887 1895 0
1886 -1887 1895 0
-1889 -1891 -1897 0
1889 1891 -1897 0
-1889 1891 1897 0
1889 -1891 1897 0
-1893 -1895 -1897 0
1893 1895 -1897 0
-1893 1895 1897 0
1893 -1895 1897 0
-1874 -1876 -1900 0
1874 1876 -1900 0
-1874 1876 1900 0
1874 -1876 1900 0
-1882 -1884 -1903 0
1882 1884 -1903 0
-1882 1884 1903 0
1882 -1884 1903 0
-1888 -1890 -1905 0
1888 1890 -1905 0
-1888 1890 1905 0
1888 -1890 1905 0
-1892 -1894 -1907 0
1892 1894 -1907 0
-1892 1894 1907 0
1892 -1894 1907 0
-1896 -1898 -1909 0
1896 1898 -1909 0
-1896 1898 1909 0
1896 -1898 1909 0
-1897 -1899 -1911 0
1897 1899 -1911 0
1897 -1899 1911 0
-1897 1899 1911 0
-1900 -1901 -1918 0
1900 1901 -1918 0
-1900 1901 1918 0
1900 -1901 1918 0
-1902 -1903 -1913 0
1902 1903 -1913 0
-1902 1903 1913 0
1902 -1903 1913 0
-1905 -1907 -1914 0
1905 1907 -1914 0
-1905 1907 1914 0
1905 -1907 1914 0
-1909 -1911 -1916 0
1909 1911 -1916 0
-1909 1911 1916 0
1909 -1911 1916 0
-1904 -1913 -1919 0
1904 1913 -1919 0
1904 -1913 1919 0
-1904 1913 1919 0
-1914 -1916 -1920 0
1914 1916 -1920 0
-1914 1916 1920 0
1914 -1916 1920 0
-1918 -1919 -1920 0
1918 1919 -1920 0
-1918 1919 1920 0
1918 -1919 1920 0
-1906 -1908 -1934 0
1906 1908 -1934 0
-1906 1908 1934 0
1906 -1908 1934 0
-1910 -1912 -1926 0
1910 1912 -1926 0
-1910 1912 1926 0
1910 -1912 1926 0
-1915 -1917 -1930 0
1915 1917 -1930 0
-1915 1917 1930 0
1915 -1917 1930 0
-1921 -1922 -1932 0
1921 1922 -1932 0
-1921 1922 1932 0
1921 -1922 1932 0
-1923 -1924 -1933 0
1923 1924 -1933 0
-1923 1924 1933 0
1923 -1924 1933 0
-1926 -1928 -1935 0
1926 1928 -1935 0
-1926 1928 1935 0
1926 -1928 1935 0
-1929 -1930 -1937 0
1929 1930 -1937 0
-1929 1930 1937 0
1929 -1930 1937 0
-1931 -1932 -1939 0
1931 1932 -1939 0
-1931 1932 1939 0
1931 -1932 1939 0
-1920 -1933 -1941 0
1920 1933 -1941 0
-1920 1933 1941 0
1920 -1933 1941 0
-1934 -1935 -1943 0
1934 1935 -1943 0
-1934 1935 1943 0
1934 -1935 1943 0
-1937 -1939 -1945 0
1937 1939 -1945 0
-1937 1939 1945 0
1937 -1939 1945 0
-1941 -1943 -1945 0
1941 1943 -1945 0
-1941 1943 1945 0
1941 -1943 1945 0
-1925 -1927 -1956 0
1925 1927 -1956 0
-1925 1927 1956 0
1925 -1927 1956 0
-1936 -1938 -1951 0
1936 1938 -1951 0
-1936 1938 1951 0
1936 -1938 1951 0
-1940 -1942 -1952 0
1940 1942 -1952 0
-1940 1942 1952 0
1940 -1942 1952 0
-1944 -1946 -1954 0
1944 1946 -1954 0
-1944 1946 1954 0
1944 -1946 1954 0
-1945 -1947 -1962 0
1945 1947 -1962 0
1945 -1947 1962 0
-1945 1947 1962 0
-1948 -1949 -1957 0
1948 1949 -1957 0
-1948 1949 1957 0
1948 -1949 1957 0
-1950 -1951 -1958 0
1950 1951 -1958 0
-1950 1951 1958 0
1950 -1951 1958 0
-1952 -1954 -1960 0
1952 1954 -1960 0
-1952 1954 1960 0
1952 -1954 1960 0
-1956 -1957 -1963 0
1956 1957 -1963 0
-1956 1957 1963 0
1956 -1957 1963 0
-1958 -1960 -1964 0
1958 1960 -1964 0
-1958 1960 1964 0
1958 -1960 1964 0
-1962 -1963 -1964 0
1962 1963 -1964 0
-1962 1963 1964 0
1962 -1963 1964 0
-1953 -1955 -1969 0
1953 1955 -1969 0
-1953 1955 1969 0
1953 -1955 1969 0
-1959 -1961 -1972 0
1959 1961 -1972 0
-1959 1961 1972 0
1959 -1961 1972 0
-1965 -1966 -1974 0
1965 1966 -1974 0
-1965 1966 1974 0
1965 -1966 1974 0
-1968 -1969 -1975 0
1968 1969 -1975 0
-1968 1969 1975 0
1968 -1969 1975 0
-1970 -1971 -1977 0
1970 1971 -1977 0
-1970 1971 1977 0
1970 -1971 1977 0
-1972 -1973 -1979 0
1972 1973 -1979 0
-1972 1973 1979 0
1972 -1973 1979 0
-1964 -1974 -1981 0
1964 1974 -1981 0
1964 -1974 1981 0
-1964 1974 1981 0
-1967 -1975 -1983 0
1967 1975 -1983 0
-1967 1975 1983 0
1967 -1975 1983 0
-1977 -1979 -1985 0
1977 1979 -1985 0
-1977 1979 1985 0
1977 -1979 1985 0
-1981 -1983 -1985 0
1981 1983 -1985 0
-1981 1983 1985 0
1981 -1983 1985 0
-1976 -1978 -1990 0
1976 1978 -1990 0
-1976 1978 1990 0
1976 -1978 1990 0
-1980 -1982 -1992 0
1980 1982 -1992 0
-1980 1982 1992 0
1980 -1982 1992 0
-1984 -1986 -1994 0
1984 1986 -1994 0
-1984 1986 1994 0
1984 -1986 1994 0
-1985 -1987 -1996 0
1985 1987 -1996 0
1985 -1987 1996 0
-1985 1987 1996 0
-1988 -1989 -2001 0
1988 1989 -2001 0
-1988 1989 2001 0
1988 -1989 2001 0
-1990 -1992 -1999 0
1990 1992 -1999 0
-1990 1992 1999 0
1990 -1992 1999 0
-1994 -1996 -2000 0
1994 1996 -2000 0
-1994 1996 2000 0
1994 -1996 2000 0
-1998 -1999 -2002 0
1998 1999 -2002 0
-1998 1999 2002 0
1998 -1999 2002 0
-2000 -2001 -2002 0
2000 2001 -2002 0
-2000 2001 2002 0
2000 -2001 2002 0
-1991 -1993 -2005 0
1991 1993 -2005 0
-1991 1993 2005 0
1991 -1993 2005 0
-1995 -1997 -2006 0
1995 1997 -2006 0
-1995 1997 2006 0
1995 -1997 2006 0
-2003 -2004 -2010 0
2003 2004 -2010 0
-2003 2004 2010 0
2003 -2004 2010 0
-2005 -2006 -2011 0
2005 2006 -2011 0
-2005 2006 2011 0
2005 -2006 2011 0
-2007 -2008 -2012 0
2007 2008 -2012 0
-2007 2008 2012 0
2007 -2008 2012 0
-2009 -2010 -2014 0
2009 2010 -2014 0
-2009 2010 2014 0
2009 -2010 2014 0
-2011 -2012 -2016 0
2011 2012 -2016 0
-2011 2012 2016 0
2011 -2012 2016 0
-2002 -2014 -2016 0
2002 2014 -2016 0
2002 -2014 2016 0
-2002 2014 2016 0
-2013 -2015 -2022 0
2013 2015 -2022 0
-2013 2015 2022 0
2013 -2015 2022 0
-2016 -2017 -2024 0
2016 2017 -2024 0
2016 -2017 2024 0
-2016 2017 2024 0
-2020 -2021 -2025 0
2020 2021 -2025 0
-2020 2021 2025 0
2020 -2021 2025 0
-2022 -2023 -2026 0
2022 2023 -2026 0
-2022 2023 2026 0
2022 -2023 2026 0
-2018 -2024 -2028 0
2018 2024 -2028 0
2018 -2024 2028 0
-2018 2024 2028 0
-2019 -2025 -2030 0
2019 2025 -2030 0
-2019 2025 2030 0
2019 -2025 2030 0
-2026 -2028 -2030 0
2026 2028 -2030 0
-2026 2028 2030 0
2026 -2028 2030 0
-2027 -2029 -2036 0
2027 2029 -2036 0
-2027 2029 2036 0
2027 -2029 2036 0
-2031 -2032 -2038 0
2031 2032 -2038 0
-2031 2032 2038 0
2031 -2032 2038 0
-2033 -2034 -2044 0
2033 2034 -2044 0
-2033 2034 2044 0
2033 -2034 2044 0
-2035 -2036 -2041 0
2035 2036 -2041 0
-2035 2036 2041 0
2035 -2036 2041 0
-2030 -2038 -2043 0
2030 2038 -2043 0
2030 -2038 2043 0
-2030 2038 2043 0
-2041 -2043 -2044 0
2041 2043 -2044 0
-2041 2043 2044 0
2041 -2043 2044 0
-2037 -2039 -2050 0
2037 2039 -2050 0
-2037 2039 2050 0
2037 -2039 2050 0
-2040 -2042 -2048 0
2040 2042 -2048 0
-2040 2042 2048 0
2040 -2042 2048 0
-2044 -2045 -2047 0
2044 2045 -2047 0
2044 -2045 2047 0
-2044 2045 2047 0
-2046 -2047 -2049 0
2046 2047 -2049 0
-2046 2047 2049 0
2046 -2047 2049 0
-2048 -2049 -2050 0
2048 2049 -2050 0
-2048 2049 2050 0
2048 -2049 2050 0
-2051 -2052 -2056 0
2051 2052 -2056 0
-2051 2052 2056 0
2051 -2052 2056 0
-2054 -2055 -2057 0
2054 2055 -2057 0
-2054 2055 2057 0
2054 -2055 2057 0
-2050 -2056 -2059 0
2050 2056 -2059 0
-2050 2056 2059 0
2050 -2056 2059 0
-2053 -2057 -2059 0
2053 2057 -2059 0
-2053 2057 2059 0
2053 -2057 2059 0
-2058 -2060 -2063 0
2058 2060 -2063 0
-2058 2060 2063 0
2058 -2060 2063 0
-2059 -2061 -2068 0
2059 2061 -2068 0
2059 -2061 2068 0
-2059 2061 2068 0
-2062 -2063 -2068 0
2062 2063 -2068 0
-2062 2063 2068 0
2062 -2063 2068 0
-2064 -2065 -2067 0
2064 2065 -2067 0
-2064 2065 2067 0
2064 -2065 2067 0
-2066 -2067 -2068 0
2066 2067 -2068 0
-2066 2067 2068 0
2066 -2067 2068 0
2068 -2069 2070 0
-2068 2069 2070 0
